<?xml version="1.0"?>
<VTKFile type="UnstructuredGrid" version="0.1" byte_order="LittleEndian">
<UnstructuredGrid>
<Piece NumberOfPoints="29993" NumberOfCells="10497">
<Points>
<DataArray type="Float64" NumberOfComponents="3" format="ascii">
-0.5 -0.5 0 -0.4885654373785705 -0.48478895414309647 0 -0.50000000000000555 -0.46957790828618862 0 -0.5 -0.5 0 -0.4885654373785705 -0.48478895414309647 0 -0.47713087475713128 -0.50000000000000122 0 -0.4885654373785705 -0.48478895414309647 0 -0.50000000000000555 -0.46957790828618862 0 -0.4872637014387764 -0.46074571869931658 0 -0.4885654373785705 -0.48478895414309647 0 -0.50000000000000555 -0.46957790828618862 0 -0.4885654373785705 -0.48478895414309647 0 -0.47399982686133441 -0.4691912146487236 0 -0.4872637014387764 -0.46074571869931658 0 -0.4885654373785705 -0.48478895414309647 0 -0.47399982686133441 -0.4691912146487236 0 -0.4630026500298921 -0.48347192371181802 0 -0.4885654373785705 -0.48478895414309647 0 -0.47713087475713128 -0.50000000000000122 0 -0.4630026500298921 -0.48347192371181802 0 -0.4885654373785705 -0.48478895414309647 0 -0.47713087475713128 -0.50000000000000122 0 -0.45463482053199489 -0.5 0 -0.4630026500298921 -0.48347192371181802 0 -0.44306567011615999 -0.48960677283144349 0 -0.47713087475713128 -0.50000000000000122 0 -0.45463482053199489 -0.5 0 -0.4630026500298921 -0.48347192371181802 0 -0.4630026500298921 -0.48347192371181802 0 -0.44632893934183587 -0.47562752376868261 0 -0.45790972188533391 -0.46501012567577449 0 -0.47399982686133441 -0.4691912146487236 0 -0.4630026500298921 -0.48347192371181802 0 -0.45790972188533391 -0.46501012567577449 0 -0.44632893934183587 -0.47562752376868261 0 -0.44306567011615999 -0.48960677283144349 0 -0.42798582571177929 -0.48781376188434239 0 -0.4630026500298921 -0.48347192371181802 0 -0.44632893934183587 -0.47562752376868261 0 -0.44306567011615999 -0.48960677283144349 0 -0.45463482053199489 -0.5 0 -0.44306567011615999 -0.48960677283144349 0 -0.4321387663068586 -0.5 0 -0.44255424756708739 -0.44473766304979567 0 -0.43957543253440851 -0.45981259768199029 0 -0.45562208548867439 -0.44946630419263361 0 -0.44255424756708739 -0.44473766304979567 0 -0.45562208548867439 -0.44946630419263361 0 -0.45219192834488381 -0.43501754280427002 0 -0.43957543253440851 -0.45981259768199029 0 -0.45790972188533391 -0.46501012567577449 0 -0.45562208548867439 -0.44946630419263361 0 -0.44632893934183587 -0.47562752376868261 0 -0.43957543253440851 -0.45981259768199029 0 -0.43395751333245303 -0.46935779742432682 0 -0.44632893934183587 -0.47562752376868261 0 -0.43957543253440851 -0.45981259768199029 0 -0.45790972188533391 -0.46501012567577449 0 -0.47399982686133441 -0.4691912146487236 0 -0.45790972188533391 -0.46501012567577449 0 -0.46993589911870598 -0.45382444668916699 0 -0.45790972188533391 -0.46501012567577449 0 -0.45562208548867439 -0.44946630419263361 0 -0.46993589911870598 -0.45382444668916699 0 -0.45562208548867439 -0.44946630419263361 0 -0.46402001875246812 -0.44054207141993867 0 -0.46993589911870598 -0.45382444668916699 0 -0.45562208548867439 -0.44946630419263361 0 -0.46402001875246812 -0.44054207141993867 0 -0.45219192834488381 -0.43501754280427002 0 -0.46402001875246812 -0.44054207141993867 0 -0.48115818124890058 -0.44268647918350662 0 -0.46993589911870598 -0.45382444668916699 0 -0.48115818124890058 -0.44268647918350662 0 -0.46993589911870598 -0.45382444668916699 0 -0.4872637014387764 -0.46074571869931658 0 -0.47399982686133441 -0.4691912146487236 0 -0.46993589911870598 -0.45382444668916699 0 -0.4872637014387764 -0.46074571869931658 0 -0.50000000000000555 -0.46957790828618862 0 -0.4872637014387764 -0.46074571869931658 0 -0.5 -0.45133064312022969 0 -0.48115818124890058 -0.44268647918350662 0 -0.5 -0.45133064312022969 0 -0.500000000000001 -0.43308337795427082 0 -0.48115818124890058 -0.44268647918350662 0 -0.4872637014387764 -0.46074571869931658 0 -0.5 -0.45133064312022969 0 -0.500000000000001 -0.43308337795427082 0 -0.47875105600110518 -0.42344788087192647 0 -0.48115818124890058 -0.44268647918350662 0 -0.500000000000001 -0.43308337795427082 0 -0.47875105600110518 -0.42344788087192647 0 -0.500000000000001 -0.43308337795427082 0 -0.47875105600110518 -0.42344788087192647 0 -0.5 -0.40382674391869389 0 -0.47875105600110518 -0.42344788087192647 0 -0.5 -0.40382674391869389 0 -0.47663764439203787 -0.39986088316167812 0 -0.4702036055959371 -0.4114312644081411 0 -0.47875105600110518 -0.42344788087192647 0 -0.45750211200220919 -0.41381238378958252 0 -0.4702036055959371 -0.4114312644081411 0 -0.47875105600110518 -0.42344788087192647 0 -0.47663764439203787 -0.39986088316167812 0 -0.48115818124890058 -0.44268647918350662 0 -0.46134122496252988 -0.42367193159882099 0 -0.46402001875246812 -0.44054207141993867 0 -0.48115818124890058 -0.44268647918350662 0 -0.46134122496252988 -0.42367193159882099 0 -0.48115818124890058 -0.44268647918350662 0 -0.47875105600110518 -0.42344788087192647 0 -0.46134122496252988 -0.42367193159882099 0 -0.47663764439203787 -0.39986088316167812 0 -0.46428573772970338 -0.3796558498427855 0 -0.5 -0.37457010988311701 0 -0.5 -0.40382674391869389 0 -0.47663764439203787 -0.39986088316167812 0 -0.5 -0.37457010988311701 0 -0.46428573772970338 -0.3796558498427855 0 -0.45866059022647337 -0.39926898411589318 0 -0.44214448996605771 -0.38590067987180487 0 -0.47663764439203787 -0.39986088316167812 0 -0.46428573772970338 -0.3796558498427855 0 -0.45866059022647337 -0.39926898411589318 0 -0.4702036055959371 -0.4114312644081411 0 -0.47663764439203787 -0.39986088316167812 0 -0.45866059022647337 -0.39926898411589318 0 -0.45866059022647337 -0.39926898411589318 0 -0.44152426867615929 -0.40465738401413542 0 -0.45750211200220919 -0.41381238378958252 0 -0.45866059022647337 -0.39926898411589318 0 -0.44152426867615929 -0.40465738401413542 0 -0.44214448996605771 -0.38590067987180487 0 -0.46428573772970338 -0.3796558498427855 0 -0.44214448996605771 -0.38590067987180487 0 -0.44087329149294457 -0.36774911197406901 0 -0.46402001875246812 -0.44054207141993867 0 -0.46134122496252988 -0.42367193159882099 0 -0.45219192834488381 -0.43501754280427002 0 -0.46134122496252988 -0.42367193159882099 0 -0.44874530109274741 -0.42269180253109789 0 -0.45219192834488381 -0.43501754280427002 0 -0.47875105600110518 -0.42344788087192647 0 -0.45750211200220919 -0.41381238378958252 0 -0.47875105600110518 -0.42344788087192647 0 -0.46134122496252988 -0.42367193159882099 0 -0.45750211200220919 -0.41381238378958252 0 -0.44152426867615929 -0.40465738401413542 0 -0.46134122496252988 -0.42367193159882099 0 -0.45750211200220919 -0.41381238378958252 0 -0.4702036055959371 -0.4114312644081411 0 -0.45866059022647337 -0.39926898411589318 0 -0.45750211200220919 -0.41381238378958252 0 -0.44152426867615929 -0.40465738401413542 0 -0.46134122496252988 -0.42367193159882099 0 -0.44874530109274741 -0.42269180253109789 0 -0.44152426867615929 -0.40465738401413542 0 -0.43992378238741658 -0.42742035170716552 0 -0.44874530109274741 -0.42269180253109789 0 -0.44152426867615929 -0.40465738401413542 0 -0.46134122496252988 -0.42367193159882099 0 -0.44255424756708739 -0.44473766304979567 0 -0.43992378238741658 -0.42742035170716552 0 -0.4306209311802523 -0.43996401056784429 0 -0.44255424756708739 -0.44473766304979567 0 -0.43992378238741658 -0.42742035170716552 0 -0.45219192834488381 -0.43501754280427002 0 -0.43992378238741658 -0.42742035170716552 0 -0.44874530109274741 -0.42269180253109789 0 -0.45219192834488381 -0.43501754280427002 0 -0.43992378238741658 -0.42742035170716552 0 -0.42405097927288021 -0.42754653170584977 0 -0.42598090854913179 -0.41114895450337618 0 -0.42405097927288021 -0.42754653170584977 0 -0.4306209311802523 -0.43996401056784429 0 -0.4147970792573844 -0.43981489782294803 0 -0.43992378238741658 -0.42742035170716552 0 -0.42405097927288021 -0.42754653170584977 0 -0.4306209311802523 -0.43996401056784429 0 -0.44152426867615929 -0.40465738401413542 0 -0.43992378238741658 -0.42742035170716552 0 -0.42598090854913179 -0.41114895450337618 0 -0.42405097927288021 -0.42754653170584977 0 -0.42598090854913179 -0.41114895450337618 0 -0.41896497017151119 -0.41759769451880668 0 -0.41896497017151119 -0.41759769451880668 0 -0.40895848325622047 -0.42620465349391468 0 -0.40971413839703469 -0.40402892864484968 0 -0.42598090854913179 -0.41114895450337618 0 -0.41896497017151119 -0.41759769451880668 0 -0.40971413839703469 -0.40402892864484968 0 -0.40895848325622047 -0.42620465349391468 0 -0.39576164711706507 -0.44517487717762272 0 -0.4147970792573844 -0.43981489782294803 0 -0.42405097927288021 -0.42754653170584977 0 -0.40895848325622047 -0.42620465349391468 0 -0.4147970792573844 -0.43981489782294803 0 -0.42405097927288021 -0.42754653170584977 0 -0.41896497017151119 -0.41759769451880668 0 -0.40895848325622047 -0.42620465349391468 0 -0.44214448996605771 -0.38590067987180487 0 -0.42170731238978848 -0.38564283642944969 0 -0.44087329149294457 -0.36774911197406901 0 -0.44152426867615929 -0.40465738401413542 0 -0.42170731238978848 -0.38564283642944969 0 -0.44152426867615929 -0.40465738401413542 0 -0.44214448996605771 -0.38590067987180487 0 -0.42170731238978848 -0.38564283642944969 0 -0.44152426867615929 -0.40465738401413542 0 -0.42598090854913179 -0.41114895450337618 0 -0.42170731238978848 -0.38564283642944969 0 -0.42598090854913179 -0.41114895450337618 0 -0.40971413839703469 -0.40402892864484968 0 -0.42170731238978848 -0.38564283642944969 0 -0.40971413839703469 -0.40402892864484968 0 -0.42170731238978848 -0.38564283642944969 0 -0.40024578372452152 -0.38545626035896607 0 -0.42170731238978848 -0.38564283642944969 0 -0.40024578372452152 -0.38545626035896607 0 -0.40189035610341778 -0.36662828884476412 0 -0.42170731238978848 -0.38564283642944969 0 -0.40189035610341778 -0.36662828884476412 0 -0.40024578372452152 -0.38545626035896607 0 -0.39163796262849287 -0.40235663887082501 0 -0.38435120585081739 -0.38625447766204568 0 -0.40971413839703469 -0.40402892864484968 0 -0.40024578372452152 -0.38545626035896607 0 -0.39163796262849287 -0.40235663887082501 0 -0.39163796262849287 -0.40235663887082501 0 -0.37760474262666699 -0.41452263388052502 0 -0.37097450932769388 -0.39646289137879731 0 -0.39163796262849287 -0.40235663887082501 0 -0.38435120585081739 -0.38625447766204568 0 -0.37097450932769388 -0.39646289137879731 0 -0.40024578372452152 -0.38545626035896607 0 -0.38435120585081739 -0.38625447766204568 0 -0.38533278428714712 -0.3712144983256066 0 -0.38435120585081739 -0.38625447766204568 0 -0.37384784130039411 -0.37908610291096989 0 -0.37097450932769388 -0.39646289137879731 0 -0.38435120585081739 -0.38625447766204568 0 -0.38533278428714712 -0.3712144983256066 0 -0.37384784130039411 -0.37908610291096989 0 -0.393699804872779 -0.42376575802422389 0 -0.39576164711706507 -0.44517487717762272 0 -0.40895848325622047 -0.42620465349391468 0 -0.393699804872779 -0.42376575802422389 0 -0.39576164711706507 -0.44517487717762272 0 -0.40971413839703469 -0.40402892864484968 0 -0.39163796262849287 -0.40235663887082501 0 -0.393699804872779 -0.42376575802422389 0 -0.39163796262849287 -0.40235663887082501 0 -0.393699804872779 -0.42376575802422389 0 -0.40895848325622047 -0.42620465349391468 0 -0.40971413839703469 -0.40402892864484968 0 -0.393699804872779 -0.42376575802422389 0 -0.39163796262849287 -0.40235663887082501 0 -0.393699804872779 -0.42376575802422389 0 -0.37760474262666699 -0.41452263388052502 0 -0.393699804872779 -0.42376575802422389 0 -0.39576164711706507 -0.44517487717762272 0 -0.37275712677371792 -0.4347192382895293 0 -0.393699804872779 -0.42376575802422389 0 -0.37760474262666699 -0.41452263388052502 0 -0.37275712677371792 -0.4347192382895293 0 -0.39576164711706507 -0.44517487717762272 0 -0.37636412918400652 -0.45964011391711779 0 -0.37275712677371792 -0.4347192382895293 0 -0.39576164711706507 -0.44517487717762272 0 -0.39782348936135281 -0.46658399633102132 0 -0.39576164711706507 -0.44517487717762272 0 -0.39782348936135281 -0.46658399633102132 0 -0.41163688373730761 -0.45333006648475721 0 -0.39576164711706507 -0.44517487717762272 0 -0.39782348936135281 -0.46658399633102132 0 -0.37636412918400652 -0.45964011391711779 0 -0.39782348936135281 -0.46658399633102132 0 -0.37636412918400652 -0.45964011391711779 0 -0.39782348936135281 -0.46658399633102132 0 -0.37636412918400652 -0.45964011391711779 0 -0.38127112574101862 -0.48059009943010811 0 -0.38127112574101862 -0.48059009943010811 0 -0.3788287871791321 -0.5 0 -0.39014354266891282 -0.49097052439890482 0 -0.38127112574101862 -0.48059009943010811 0 -0.39014354266891282 -0.49097052439890482 0 -0.39943258237228391 -0.48329199816551099 0 -0.3788287871791321 -0.5 0 -0.39014354266891282 -0.49097052439890482 0 -0.40104167538321672 -0.50000000000000078 0 -0.40104167538321672 -0.50000000000000078 0 -0.39943258237228391 -0.48329199816551099 0 -0.40104167538321672 -0.50000000000000078 0 -0.39943258237228391 -0.48329199816551099 0 -0.41125221204276741 -0.48571217305757902 0 -0.39014354266891282 -0.49097052439890482 0 -0.40104167538321672 -0.50000000000000078 0 -0.39943258237228391 -0.48329199816551099 0 -0.39782348936135281 -0.46658399633102132 0 -0.38127112574101862 -0.48059009943010811 0 -0.39943258237228391 -0.48329199816551099 0 -0.39782348936135281 -0.46658399633102132 0 -0.39943258237228391 -0.48329199816551099 0 -0.41125221204276741 -0.48571217305757902 0 -0.39782348936135281 -0.46658399633102132 0 -0.39943258237228391 -0.48329199816551099 0 -0.41125221204276741 -0.48571217305757902 0 -0.42798582571177929 -0.48781376188434239 0 -0.42589574321956541 -0.47566769818763199 0 -0.39782348936135281 -0.46658399633102132 0 -0.41125221204276741 -0.48571217305757902 0 -0.42589574321956541 -0.47566769818763199 0 -0.39782348936135281 -0.46658399633102132 0 -0.42589574321956541 -0.47566769818763199 0 -0.4096427120817222 -0.50000000000000133 0 -0.42798582571177929 -0.48781376188434239 0 -0.4096427120817222 -0.50000000000000133 0 -0.41125221204276741 -0.48571217305757902 0 -0.42798582571177929 -0.48781376188434239 0 -0.40104167538321672 -0.50000000000000078 0 -0.4096427120817222 -0.50000000000000133 0 -0.41125221204276741 -0.48571217305757902 0 -0.4096427120817222 -0.50000000000000133 0 -0.42798582571177929 -0.48781376188434239 0 -0.4321387663068586 -0.5 0 -0.44306567011615999 -0.48960677283144349 0 -0.42798582571177929 -0.48781376188434239 0 -0.4321387663068586 -0.5 0 -0.44632893934183587 -0.47562752376868261 0 -0.42798582571177929 -0.48781376188434239 0 -0.44632893934183587 -0.47562752376868261 0 -0.42798582571177929 -0.48781376188434239 0 -0.43395751333245303 -0.46935779742432682 0 -0.42798582571177929 -0.48781376188434239 0 -0.42589574321956541 -0.47566769818763199 0 -0.43395751333245303 -0.46935779742432682 0 -0.42589574321956541 -0.47566769818763199 0 -0.43395751333245303 -0.46935779742432682 0 -0.42261612617105471 -0.46272565388284409 0 -0.43957543253440851 -0.45981259768199029 0 -0.43395751333245303 -0.46935779742432682 0 -0.42261612617105471 -0.46272565388284409 0 -0.43957543253440851 -0.45981259768199029 0 -0.42261612617105471 -0.46272565388284409 0 -0.4268491069004548 -0.45120151236148992 0 -0.44255424756708739 -0.44473766304979567 0 -0.43957543253440851 -0.45981259768199029 0 -0.4268491069004548 -0.45120151236148992 0 -0.44255424756708739 -0.44473766304979567 0 -0.4306209311802523 -0.43996401056784429 0 -0.4268491069004548 -0.45120151236148992 0 -0.4306209311802523 -0.43996401056784429 0 -0.4268491069004548 -0.45120151236148992 0 -0.4147970792573844 -0.43981489782294803 0 -0.4268491069004548 -0.45120151236148992 0 -0.4147970792573844 -0.43981489782294803 0 -0.41163688373730761 -0.45333006648475721 0 -0.39576164711706507 -0.44517487717762272 0 -0.4147970792573844 -0.43981489782294803 0 -0.41163688373730761 -0.45333006648475721 0 -0.39782348936135281 -0.46658399633102132 0 -0.42589574321956541 -0.47566769818763199 0 -0.42261612617105471 -0.46272565388284409 0 -0.39782348936135281 -0.46658399633102132 0 -0.42261612617105471 -0.46272565388284409 0 -0.41163688373730761 -0.45333006648475721 0 -0.42261612617105471 -0.46272565388284409 0 -0.4268491069004548 -0.45120151236148992 0 -0.41163688373730761 -0.45333006648475721 0 -0.44651540930577971 -0.26238406962453992 0 -0.43857339465678841 -0.27332169399936851 0 -0.43557554290393963 -0.25597886022036892 0 -0.44651540930577971 -0.26238406962453992 0 -0.45687032481568329 -0.25273515724672291 0 -0.4449160720575987 -0.24857784108911249 0 -0.44651540930577971 -0.26238406962453992 0 -0.43557554290393963 -0.25597886022036892 0 -0.4449160720575987 -0.24857784108911249 0 -0.43857339465678841 -0.27332169399936851 0 -0.45723524136305321 -0.27235202231194638 0 -0.44327294073756029 -0.28738822871190151 0 -0.44651540930577971 -0.26238406962453992 0 -0.43857339465678841 -0.27332169399936851 0 -0.45723524136305321 -0.27235202231194638 0 -0.45723524136305321 -0.27235202231194638 0 -0.46649439628299599 -0.2619655888601069 0 -0.47779860860284262 -0.27031352852032797 0 -0.45723524136305321 -0.27235202231194638 0 -0.46649439628299599 -0.2619655888601069 0 -0.45687032481568329 -0.25273515724672291 0 -0.46649439628299599 -0.2619655888601069 0 -0.45687032481568329 -0.25273515724672291 0 -0.47534268383335959 -0.25272024051760411 0 -0.44651540930577971 -0.26238406962453992 0 -0.45723524136305321 -0.27235202231194638 0 -0.45687032481568329 -0.25273515724672291 0 -0.46649439628299599 -0.2619655888601069 0 -0.47534268383335959 -0.25272024051760411 0 -0.47779860860284262 -0.27031352852032797 0 -0.47534268383335959 -0.25272024051760411 0 -0.5 -0.2597725717047894 0 -0.47779860860284262 -0.27031352852032797 0 -0.47534268383335959 -0.25272024051760411 0 -0.5 -0.2597725717047894 0 -0.48399465298174321 -0.2379177425729942 0 -0.5 -0.2597725717047894 0 -0.47779860860284262 -0.27031352852032797 0 -0.50000000000000056 -0.28680020777638632 0 -0.45723524136305321 -0.27235202231194638 0 -0.47779860860284262 -0.27031352852032797 0 -0.47437934679679272 -0.28793287919602362 0 -0.47779860860284262 -0.27031352852032797 0 -0.47437934679679272 -0.28793287919602362 0 -0.50000000000000056 -0.28680020777638632 0 -0.47437934679679272 -0.28793287919602362 0 -0.48001610537599082 -0.30462495445764498 0 -0.46773488827508169 -0.2975280150416923 0 -0.47437934679679272 -0.28793287919602362 0 -0.50000000000000056 -0.28680020777638632 0 -0.48001610537599082 -0.30462495445764498 0 -0.50000000000000056 -0.28680020777638632 0 -0.48001610537599082 -0.30462495445764498 0 -0.50000000000000056 -0.28680020777638632 0 -0.48001610537599082 -0.30462495445764498 0 -0.5 -0.31605684181196331 0 -0.48001610537599082 -0.30462495445764498 0 -0.46773488827508169 -0.2975280150416923 0 -0.45885877055984192 -0.30666797588400158 0 -0.46773488827508169 -0.2975280150416923 0 -0.45885877055984192 -0.30666797588400158 0 -0.45768533036770132 -0.29088625062909912 0 -0.48001610537599082 -0.30462495445764498 0 -0.45885877055984192 -0.30666797588400158 0 -0.46003221075198181 -0.32244970113890442 0 -0.45885877055984192 -0.30666797588400158 0 -0.45768533036770132 -0.29088625062909912 0 -0.44885707393280472 -0.29947715787721479 0 -0.45885877055984192 -0.30666797588400158 0 -0.45768533036770132 -0.29088625062909912 0 -0.45723524136305321 -0.27235202231194638 0 -0.47437934679679272 -0.28793287919602362 0 -0.45768533036770132 -0.29088625062909912 0 -0.47437934679679272 -0.28793287919602362 0 -0.46773488827508169 -0.2975280150416923 0 -0.45768533036770132 -0.29088625062909912 0 -0.45768533036770132 -0.29088625062909912 0 -0.44327294073756029 -0.28738822871190151 0 -0.44885707393280472 -0.29947715787721479 0 -0.45723524136305321 -0.27235202231194638 0 -0.45768533036770132 -0.29088625062909912 0 -0.44327294073756029 -0.28738822871190151 0 -0.44327294073756029 -0.28738822871190151 0 -0.44885707393280472 -0.29947715787721479 0 -0.43563873675902942 -0.29988972109091949 0 -0.44693913355797538 -0.31496500141230138 0 -0.43103166609988292 -0.311609700734922 0 -0.43563873675902942 -0.29988972109091949 0 -0.44885707393280472 -0.29947715787721479 0 -0.44693913355797538 -0.31496500141230138 0 -0.43563873675902942 -0.29988972109091949 0 -0.45885877055984192 -0.30666797588400158 0 -0.44885707393280472 -0.29947715787721479 0 -0.44693913355797538 -0.31496500141230138 0 -0.44693913355797538 -0.31496500141230138 0 -0.43651148044574373 -0.32369958717297559 0 -0.43103166609988292 -0.311609700734922 0 -0.44693913355797538 -0.31496500141230138 0 -0.44610552662251918 -0.33487168501082132 0 -0.43651148044574373 -0.32369958717297559 0 -0.44693913355797538 -0.31496500141230138 0 -0.44610552662251918 -0.33487168501082132 0 -0.46003221075198181 -0.32244970113890442 0 -0.44610552662251918 -0.33487168501082132 0 -0.44144331584618129 -0.35005509597722062 0 -0.4295196306162794 -0.33427671542437648 0 -0.44610552662251918 -0.33487168501082132 0 -0.46003221075198181 -0.32244970113890442 0 -0.44610552662251918 -0.33487168501082132 0 -0.46003221075198181 -0.32244970113890442 0 -0.46215897424084301 -0.3510527754908449 0 -0.46003221075198181 -0.32244970113890442 0 -0.47754367058433372 -0.34150610933650333 0 -0.46215897424084301 -0.3510527754908449 0 -0.46003221075198181 -0.32244970113890442 0 -0.46215897424084301 -0.3510527754908449 0 -0.45885877055984192 -0.30666797588400158 0 -0.44693913355797538 -0.31496500141230138 0 -0.46003221075198181 -0.32244970113890442 0 -0.45885877055984192 -0.30666797588400158 0 -0.46003221075198181 -0.32244970113890442 0 -0.48001610537599082 -0.30462495445764498 0 -0.46003221075198181 -0.32244970113890442 0 -0.48001610537599082 -0.30462495445764498 0 -0.46003221075198181 -0.32244970113890442 0 -0.48357141189719888 -0.32632056697796941 0 -0.48001610537599082 -0.30462495445764498 0 -0.48357141189719888 -0.32632056697796941 0 -0.5 -0.31605684181196331 0 -0.48357141189719888 -0.32632056697796941 0 -0.47754367058433372 -0.34150610933650333 0 -0.5 -0.34531347584754007 0 -0.48357141189719888 -0.32632056697796941 0 -0.5 -0.31605684181196331 0 -0.5 -0.34531347584754007 0 -0.46003221075198181 -0.32244970113890442 0 -0.48357141189719888 -0.32632056697796941 0 -0.47754367058433372 -0.34150610933650333 0 -0.46428573772970338 -0.3796558498427855 0 -0.4814256104842678 -0.35909052263267688 0 -0.5 -0.37457010988311701 0 -0.47754367058433372 -0.34150610933650333 0 -0.4814256104842678 -0.35909052263267688 0 -0.46215897424084301 -0.3510527754908449 0 -0.47754367058433372 -0.34150610933650333 0 -0.4814256104842678 -0.35909052263267688 0 -0.5 -0.34531347584754007 0 -0.4814256104842678 -0.35909052263267688 0 -0.5 -0.34531347584754007 0 -0.5 -0.37457010988311701 0 -0.46428573772970338 -0.3796558498427855 0 -0.4814256104842678 -0.35909052263267688 0 -0.46215897424084301 -0.3510527754908449 0 -0.46428573772970338 -0.3796558498427855 0 -0.46215897424084301 -0.3510527754908449 0 -0.44087329149294457 -0.36774911197406901 0 -0.46428573772970338 -0.3796558498427855 0 -0.46215897424084301 -0.3510527754908449 0 -0.44610552662251918 -0.33487168501082132 0 -0.46215897424084301 -0.3510527754908449 0 -0.44144331584618129 -0.35005509597722062 0 -0.46215897424084301 -0.3510527754908449 0 -0.44144331584618129 -0.35005509597722062 0 -0.44087329149294457 -0.36774911197406901 0 -0.42170731238978848 -0.38564283642944969 0 -0.44087329149294457 -0.36774911197406901 0 -0.42083268270252711 -0.36563537205754298 0 -0.44144331584618129 -0.35005509597722062 0 -0.44087329149294457 -0.36774911197406901 0 -0.42083268270252711 -0.36563537205754298 0 -0.44144331584618129 -0.35005509597722062 0 -0.42106648672207581 -0.34666848099933012 0 -0.42083268270252711 -0.36563537205754298 0 -0.42106648672207581 -0.34666848099933012 0 -0.42083268270252711 -0.36563537205754298 0 -0.40123940700786942 -0.34747282081378522 0 -0.42083268270252711 -0.36563537205754298 0 -0.40189035610341778 -0.36662828884476412 0 -0.40123940700786942 -0.34747282081378522 0 -0.42170731238978848 -0.38564283642944969 0 -0.42083268270252711 -0.36563537205754298 0 -0.40189035610341778 -0.36662828884476412 0 -0.40024578372452152 -0.38545626035896607 0 -0.40189035610341778 -0.36662828884476412 0 -0.38533278428714712 -0.3712144983256066 0 -0.40189035610341778 -0.36662828884476412 0 -0.38533278428714712 -0.3712144983256066 0 -0.38207339981704608 -0.34761374126007938 0 -0.38533278428714712 -0.3712144983256066 0 -0.38207339981704608 -0.34761374126007938 0 -0.37147786899998098 -0.36461615061484642 0 -0.38533278428714712 -0.3712144983256066 0 -0.37147786899998098 -0.36461615061484642 0 -0.37384784130039411 -0.37908610291096989 0 -0.38207339981704608 -0.34761374126007938 0 -0.37147786899998098 -0.36461615061484642 0 -0.40189035610341778 -0.36662828884476412 0 -0.38207339981704608 -0.34761374126007938 0 -0.40189035610341778 -0.36662828884476412 0 -0.38207339981704608 -0.34761374126007938 0 -0.40123940700786942 -0.34747282081378522 0 -0.40123940700786942 -0.34747282081378522 0 -0.39292218015463798 -0.33020494811090928 0 -0.41184975359216752 -0.33211757231855332 0 -0.38207339981704608 -0.34761374126007938 0 -0.40123940700786942 -0.34747282081378522 0 -0.39292218015463798 -0.33020494811090928 0 -0.38207339981704608 -0.34761374126007938 0 -0.39292218015463798 -0.33020494811090928 0 -0.37553858886981589 -0.32485136712176571 0 -0.38207339981704608 -0.34761374126007938 0 -0.39292218015463798 -0.33020494811090928 0 -0.39292218015463798 -0.33020494811090928 0 -0.37553858886981589 -0.32485136712176571 0 -0.37766552415179888 -0.3041023756360991 0 -0.39292218015463798 -0.33020494811090928 0 -0.40377096049223482 -0.31279615496174218 0 -0.41184975359216752 -0.33211757231855332 0 -0.39292218015463798 -0.33020494811090928 0 -0.40377096049223482 -0.31279615496174218 0 -0.37766552415179888 -0.3041023756360991 0 -0.39292218015463798 -0.33020494811090928 0 -0.40377096049223482 -0.31279615496174218 0 -0.40377096049223482 -0.31279615496174218 0 -0.42014122046898922 -0.31824787106735891 0 -0.40377096049223482 -0.31279615496174218 0 -0.42014122046898922 -0.31824787106735891 0 -0.41184975359216752 -0.33211757231855332 0 -0.42106648672207581 -0.34666848099933012 0 -0.41184975359216752 -0.33211757231855332 0 -0.4295196306162794 -0.33427671542437648 0 -0.42014122046898922 -0.31824787106735891 0 -0.41184975359216752 -0.33211757231855332 0 -0.4295196306162794 -0.33427671542437648 0 -0.42106648672207581 -0.34666848099933012 0 -0.40123940700786942 -0.34747282081378522 0 -0.41184975359216752 -0.33211757231855332 0 -0.44144331584618129 -0.35005509597722062 0 -0.42106648672207581 -0.34666848099933012 0 -0.4295196306162794 -0.33427671542437648 0 -0.44610552662251918 -0.33487168501082132 0 -0.4295196306162794 -0.33427671542437648 0 -0.43651148044574373 -0.32369958717297559 0 -0.42014122046898922 -0.31824787106735891 0 -0.43651148044574373 -0.32369958717297559 0 -0.42014122046898922 -0.31824787106735891 0 -0.43651148044574373 -0.32369958717297559 0 -0.43103166609988292 -0.311609700734922 0 -0.42014122046898922 -0.31824787106735891 0 -0.4295196306162794 -0.33427671542437648 0 -0.43651148044574373 -0.32369958717297559 0 -0.43103166609988292 -0.311609700734922 0 -0.43563873675902942 -0.29988972109091949 0 -0.41388213840401927 -0.2965709757910806 0 -0.44327294073756029 -0.28738822871190151 0 -0.43563873675902942 -0.29988972109091949 0 -0.43013615541672129 -0.28671699099716919 0 -0.43563873675902942 -0.29988972109091949 0 -0.43013615541672129 -0.28671699099716919 0 -0.41388213840401927 -0.2965709757910806 0 -0.43857339465678841 -0.27332169399936851 0 -0.44327294073756029 -0.28738822871190151 0 -0.43013615541672129 -0.28671699099716919 0 -0.43013615541672129 -0.28671699099716919 0 -0.41388213840401927 -0.2965709757910806 0 -0.41931356652620932 -0.27641433539257582 0 -0.41388213840401927 -0.2965709757910806 0 -0.40588355994651482 -0.28354364361649897 0 -0.41931356652620932 -0.27641433539257582 0 -0.40377096049223482 -0.31279615496174218 0 -0.41388213840401927 -0.2965709757910806 0 -0.40377096049223482 -0.31279615496174218 0 -0.42014122046898922 -0.31824787106735891 0 -0.41388213840401927 -0.2965709757910806 0 -0.42014122046898922 -0.31824787106735891 0 -0.43103166609988292 -0.311609700734922 0 -0.41388213840401927 -0.2965709757910806 0 -0.40377096049223482 -0.31279615496174218 0 -0.37766552415179888 -0.3041023756360991 0 -0.39487207007728492 -0.29430745710139661 0 -0.40377096049223482 -0.31279615496174218 0 -0.37766552415179888 -0.3041023756360991 0 -0.40377096049223482 -0.31279615496174218 0 -0.41388213840401927 -0.2965709757910806 0 -0.39487207007728492 -0.29430745710139661 0 -0.37766552415179888 -0.3041023756360991 0 -0.39487207007728492 -0.29430745710139661 0 -0.37490784690580198 -0.28114344614613967 0 -0.39487207007728492 -0.29430745710139661 0 -0.39280102115859061 -0.27737331813466531 0 -0.37490784690580198 -0.28114344614613967 0 -0.40588355994651482 -0.28354364361649897 0 -0.39487207007728492 -0.29430745710139661 0 -0.39280102115859061 -0.27737331813466531 0 -0.41388213840401927 -0.2965709757910806 0 -0.40588355994651482 -0.28354364361649897 0 -0.39487207007728492 -0.29430745710139661 0 -0.39280102115859061 -0.27737331813466531 0 -0.3876986319267352 -0.2635291045211211 0 -0.40373087735229352 -0.2638283587578017 0 -0.40588355994651482 -0.28354364361649897 0 -0.39280102115859061 -0.27737331813466531 0 -0.40373087735229352 -0.2638283587578017 0 -0.39280102115859061 -0.27737331813466531 0 -0.3876986319267352 -0.2635291045211211 0 -0.37490784690580198 -0.28114344614613967 0 -0.3876986319267352 -0.2635291045211211 0 -0.36989754790190182 -0.26072288859677711 0 -0.37490784690580198 -0.28114344614613967 0 -0.3876986319267352 -0.2635291045211211 0 -0.36989754790190182 -0.26072288859677711 0 -0.39148660300142762 -0.24627045357872851 0 -0.3876986319267352 -0.2635291045211211 0 -0.40373087735229352 -0.2638283587578017 0 -0.39148660300142762 -0.24627045357872851 0 -0.40373087735229352 -0.2638283587578017 0 -0.40901288029435162 -0.2476257021099563 0 -0.39148660300142762 -0.24627045357872851 0 -0.41803679728596221 -0.25744630724358653 0 -0.42565591856522328 -0.24542680169927519 0 -0.40901288029435162 -0.2476257021099563 0 -0.40373087735229352 -0.2638283587578017 0 -0.41803679728596221 -0.25744630724358653 0 -0.40901288029435162 -0.2476257021099563 0 -0.40588355994651482 -0.28354364361649897 0 -0.40373087735229352 -0.2638283587578017 0 -0.41931356652620932 -0.27641433539257582 0 -0.41803679728596221 -0.25744630724358653 0 -0.41931356652620932 -0.27641433539257582 0 -0.42787482534322491 -0.2657902992139749 0 -0.40373087735229352 -0.2638283587578017 0 -0.41803679728596221 -0.25744630724358653 0 -0.41931356652620932 -0.27641433539257582 0 -0.43857339465678841 -0.27332169399936851 0 -0.41931356652620932 -0.27641433539257582 0 -0.42787482534322491 -0.2657902992139749 0 -0.43857339465678841 -0.27332169399936851 0 -0.43013615541672129 -0.28671699099716919 0 -0.41931356652620932 -0.27641433539257582 0 -0.41803679728596221 -0.25744630724358653 0 -0.42787482534322491 -0.2657902992139749 0 -0.43557554290393963 -0.25597886022036892 0 -0.41803679728596221 -0.25744630724358653 0 -0.43557554290393963 -0.25597886022036892 0 -0.42565591856522328 -0.24542680169927519 0 -0.43857339465678841 -0.27332169399936851 0 -0.42787482534322491 -0.2657902992139749 0 -0.43557554290393963 -0.25597886022036892 0 -0.32947092292056113 -0.25832396447058581 0 -0.30889240188634842 -0.26984764720491489 0 -0.31173152530869769 -0.25247476887326409 0 -0.31789282682902459 -0.27701772607125391 0 -0.32947092292056113 -0.25832396447058581 0 -0.30889240188634842 -0.26984764720491489 0 -0.32947092292056113 -0.25832396447058581 0 -0.32472973748837808 -0.28402166501593901 0 -0.31789282682902459 -0.27701772607125391 0 -0.31317967855297052 -0.28559588096801258 0 -0.30889240188634842 -0.26984764720491489 0 -0.31789282682902459 -0.27701772607125391 0 -0.32947092292056113 -0.25832396447058581 0 -0.32472973748837808 -0.28402166501593901 0 -0.3348664028336979 -0.27834419587906167 0 -0.32947092292056113 -0.25832396447058581 0 -0.34868202938097909 -0.27331835121832421 0 -0.3348664028336979 -0.27834419587906167 0 -0.32947092292056113 -0.25832396447058581 0 -0.32472973748837808 -0.28402166501593901 0 -0.3348664028336979 -0.27834419587906167 0 -0.34868202938097909 -0.27331835121832421 0 -0.34054094480326591 -0.28760675193603957 0 -0.32947092292056113 -0.25832396447058581 0 -0.34868202938097909 -0.27331835121832421 0 -0.34678717985327412 -0.24823256579686021 0 -0.36989754790190182 -0.26072288859677711 0 -0.34868202938097909 -0.27331835121832421 0 -0.34678717985327412 -0.24823256579686021 0 -0.36989754790190182 -0.26072288859677711 0 -0.37490784690580198 -0.28114344614613967 0 -0.34868202938097909 -0.27331835121832421 0 -0.34868202938097909 -0.27331835121832421 0 -0.351560087811363 -0.29540859631045607 0 -0.34054094480326591 -0.28760675193603957 0 -0.37490784690580198 -0.28114344614613967 0 -0.34868202938097909 -0.27331835121832421 0 -0.351560087811363 -0.29540859631045607 0 -0.37766552415179888 -0.3041023756360991 0 -0.37490784690580198 -0.28114344614613967 0 -0.351560087811363 -0.29540859631045607 0 -0.37766552415179888 -0.3041023756360991 0 -0.351560087811363 -0.29540859631045607 0 -0.37766552415179888 -0.3041023756360991 0 -0.351560087811363 -0.29540859631045607 0 -0.3622276060933064 -0.31321096692295919 0 -0.351560087811363 -0.29540859631045607 0 -0.34353506844753329 -0.31063586609748428 0 -0.33860664137612362 -0.29483260624075741 0 -0.351560087811363 -0.29540859631045607 0 -0.34353506844753329 -0.31063586609748428 0 -0.3622276060933064 -0.31321096692295919 0 -0.34353506844753329 -0.31063586609748428 0 -0.32426590276277639 -0.29214692851618729 0 -0.34353506844753329 -0.31063586609748428 0 -0.33860664137612362 -0.29483260624075741 0 -0.32426590276277639 -0.29214692851618729 0 -0.34353506844753329 -0.31063586609748428 0 -0.32817211439287919 -0.30864925996544568 0 -0.32426590276277639 -0.29214692851618729 0 -0.351560087811363 -0.29540859631045607 0 -0.33860664137612362 -0.29483260624075741 0 -0.34054094480326591 -0.28760675193603957 0 -0.33860664137612362 -0.29483260624075741 0 -0.34054094480326591 -0.28760675193603957 0 -0.33313120305567923 -0.28836488834361929 0 -0.3348664028336979 -0.27834419587906167 0 -0.34054094480326591 -0.28760675193603957 0 -0.33313120305567923 -0.28836488834361929 0 -0.3348664028336979 -0.27834419587906167 0 -0.33313120305567923 -0.28836488834361929 0 -0.32472973748837808 -0.28402166501593901 0 -0.33860664137612362 -0.29483260624075741 0 -0.33313120305567923 -0.28836488834361929 0 -0.32426590276277639 -0.29214692851618729 0 -0.32472973748837808 -0.28402166501593901 0 -0.31821976473718749 -0.2961068061666246 0 -0.3199885520561952 -0.30971936556129209 0 -0.32426590276277639 -0.29214692851618729 0 -0.32472973748837808 -0.28402166501593901 0 -0.3199885520561952 -0.30971936556129209 0 -0.32472973748837808 -0.28402166501593901 0 -0.3199885520561952 -0.30971936556129209 0 -0.33313120305567923 -0.28836488834361929 0 -0.32426590276277639 -0.29214692851618729 0 -0.32472973748837808 -0.28402166501593901 0 -0.32472973748837808 -0.28402166501593901 0 -0.3185055019018902 -0.28568551955545751 0 -0.31821976473718749 -0.2961068061666246 0 -0.31789282682902459 -0.27701772607125391 0 -0.32472973748837808 -0.28402166501593901 0 -0.3185055019018902 -0.28568551955545751 0 -0.31789282682902459 -0.27701772607125391 0 -0.3185055019018902 -0.28568551955545751 0 -0.31317967855297052 -0.28559588096801258 0 -0.3185055019018902 -0.28568551955545751 0 -0.31317967855297052 -0.28559588096801258 0 -0.31821976473718749 -0.2961068061666246 0 -0.32817211439287919 -0.30864925996544568 0 -0.32426590276277639 -0.29214692851618729 0 -0.3199885520561952 -0.30971936556129209 0 -0.31821976473718749 -0.2961068061666246 0 -0.3199885520561952 -0.30971936556129209 0 -0.3101617292903267 -0.30402395844188912 0 -0.3199885520561952 -0.30971936556129209 0 -0.31114044914476419 -0.31329629505965789 0 -0.3101617292903267 -0.30402395844188912 0 -0.32817211439287919 -0.30864925996544568 0 -0.3199885520561952 -0.30971936556129209 0 -0.31844371243838587 -0.31782284128483329 0 -0.32817211439287919 -0.30864925996544568 0 -0.31844371243838587 -0.31782284128483329 0 -0.32351586797350479 -0.33513226933681051 0 -0.32817211439287919 -0.30864925996544568 0 -0.32351586797350479 -0.33513226933681051 0 -0.3199885520561952 -0.30971936556129209 0 -0.31844371243838587 -0.31782284128483329 0 -0.31114044914476419 -0.31329629505965789 0 -0.31844371243838587 -0.31782284128483329 0 -0.32351586797350479 -0.33513226933681051 0 -0.30032658754697339 -0.33778086823404191 0 -0.32351586797350479 -0.33513226933681051 0 -0.34030571157122258 -0.33954567073473518 0 -0.33125678399428649 -0.34897594266872778 0 -0.32351586797350479 -0.33513226933681051 0 -0.34030571157122258 -0.33954567073473518 0 -0.33675552840148282 -0.3242320978231763 0 -0.34030571157122258 -0.33954567073473518 0 -0.33675552840148282 -0.3242320978231763 0 -0.34743113838085649 -0.32908508840978029 0 -0.34353506844753329 -0.31063586609748428 0 -0.33675552840148282 -0.3242320978231763 0 -0.34743113838085649 -0.32908508840978029 0 -0.32817211439287919 -0.30864925996544568 0 -0.32351586797350479 -0.33513226933681051 0 -0.33675552840148282 -0.3242320978231763 0 -0.34353506844753329 -0.31063586609748428 0 -0.32817211439287919 -0.30864925996544568 0 -0.33675552840148282 -0.3242320978231763 0 -0.34353506844753329 -0.31063586609748428 0 -0.36280423413229013 -0.32912480367878139 0 -0.34743113838085649 -0.32908508840978029 0 -0.34353506844753329 -0.31063586609748428 0 -0.36280423413229013 -0.32912480367878139 0 -0.34353506844753329 -0.31063586609748428 0 -0.3622276060933064 -0.31321096692295919 0 -0.36280423413229013 -0.32912480367878139 0 -0.37553858886981589 -0.32485136712176571 0 -0.37766552415179888 -0.3041023756360991 0 -0.3622276060933064 -0.31321096692295919 0 -0.37553858886981589 -0.32485136712176571 0 -0.3622276060933064 -0.31321096692295919 0 -0.36280423413229013 -0.32912480367878139 0 -0.38207339981704608 -0.34761374126007938 0 -0.37553858886981589 -0.32485136712176571 0 -0.36280423413229013 -0.32912480367878139 0 -0.38207339981704608 -0.34761374126007938 0 -0.36280423413229013 -0.32912480367878139 0 -0.38207339981704608 -0.34761374126007938 0 -0.36280423413229013 -0.32912480367878139 0 -0.36990701268598758 -0.35122514232937152 0 -0.36280423413229013 -0.32912480367878139 0 -0.35375514935175378 -0.34188700371472441 0 -0.36990701268598758 -0.35122514232937152 0 -0.36280423413229013 -0.32912480367878139 0 -0.35375514935175378 -0.34188700371472441 0 -0.34743113838085649 -0.32908508840978029 0 -0.34030571157122258 -0.33954567073473518 0 -0.35375514935175378 -0.34188700371472441 0 -0.34743113838085649 -0.32908508840978029 0 -0.35375514935175378 -0.34188700371472441 0 -0.34438331712005932 -0.35642021051877409 0 -0.36990701268598758 -0.35122514232937152 0 -0.34438331712005932 -0.35642021051877409 0 -0.36990701268598758 -0.35122514232937152 0 -0.35925683442290213 -0.36394925996628302 0 -0.34438331712005932 -0.35642021051877409 0 -0.36990701268598758 -0.35122514232937152 0 -0.34030571157122258 -0.33954567073473518 0 -0.35375514935175378 -0.34188700371472441 0 -0.34438331712005932 -0.35642021051877409 0 -0.38207339981704608 -0.34761374126007938 0 -0.36990701268598758 -0.35122514232937152 0 -0.37147786899998098 -0.36461615061484642 0 -0.37147786899998098 -0.36461615061484642 0 -0.35925683442290213 -0.36394925996628302 0 -0.36088233818292131 -0.38161855996961669 0 -0.37147786899998098 -0.36461615061484642 0 -0.36088233818292131 -0.38161855996961669 0 -0.36990701268598758 -0.35122514232937152 0 -0.37147786899998098 -0.36461615061484642 0 -0.35925683442290213 -0.36394925996628302 0 -0.34923456207088238 -0.36631422619362791 0 -0.3438453124723363 -0.3749924932956567 0 -0.36088233818292131 -0.38161855996961669 0 -0.35925683442290213 -0.36394925996628302 0 -0.34923456207088238 -0.36631422619362791 0 -0.36088233818292131 -0.38161855996961669 0 -0.34438331712005932 -0.35642021051877409 0 -0.35925683442290213 -0.36394925996628302 0 -0.34923456207088238 -0.36631422619362791 0 -0.3438453124723363 -0.3749924932956567 0 -0.33213497819531818 -0.36095564622263582 0 -0.33233182300425917 -0.3774120161041053 0 -0.34438331712005932 -0.35642021051877409 0 -0.34923456207088238 -0.36631422619362791 0 -0.33213497819531818 -0.36095564622263582 0 -0.34923456207088238 -0.36631422619362791 0 -0.3438453124723363 -0.3749924932956567 0 -0.33213497819531818 -0.36095564622263582 0 -0.34438331712005932 -0.35642021051877409 0 -0.33213497819531818 -0.36095564622263582 0 -0.31885962155413078 -0.3616152787081755 0 -0.34438331712005932 -0.35642021051877409 0 -0.33125678399428649 -0.34897594266872778 0 -0.31885962155413078 -0.3616152787081755 0 -0.34438331712005932 -0.35642021051877409 0 -0.31885962155413078 -0.3616152787081755 0 -0.34030571157122258 -0.33954567073473518 0 -0.34438331712005932 -0.35642021051877409 0 -0.33125678399428649 -0.34897594266872778 0 -0.32351586797350479 -0.33513226933681051 0 -0.31885962155413078 -0.3616152787081755 0 -0.32351586797350479 -0.33513226933681051 0 -0.31885962155413078 -0.3616152787081755 0 -0.31199269881201053 -0.3469356394720573 0 -0.32351586797350479 -0.33513226933681051 0 -0.33125678399428649 -0.34897594266872778 0 -0.31885962155413078 -0.3616152787081755 0 -0.33213497819531818 -0.36095564622263582 0 -0.31662439459370229 -0.38476816362969279 0 -0.31885962155413078 -0.3616152787081755 0 -0.31492691851223498 -0.38398304066337391 0 -0.31885962155413078 -0.3616152787081755 0 -0.30778987349537518 -0.37298653901980933 0 -0.31492691851223498 -0.38398304066337391 0 -0.33213497819531818 -0.36095564622263582 0 -0.33233182300425917 -0.3774120161041053 0 -0.31662439459370229 -0.38476816362969279 0 -0.33213497819531818 -0.36095564622263582 0 -0.31885962155413078 -0.3616152787081755 0 -0.31662439459370229 -0.38476816362969279 0 -0.31885962155413078 -0.3616152787081755 0 -0.3038213496113723 -0.35630730646203279 0 -0.29552329085019791 -0.36636513277943478 0 -0.31885962155413078 -0.3616152787081755 0 -0.29552329085019791 -0.36636513277943478 0 -0.31885962155413078 -0.3616152787081755 0 -0.30778987349537518 -0.37298653901980933 0 -0.29552329085019791 -0.36636513277943478 0 -0.30778987349537518 -0.37298653901980933 0 -0.29552329085019791 -0.36636513277943478 0 -0.30029567898772841 -0.38257018589270553 0 -0.3038213496113723 -0.35630730646203279 0 -0.29552329085019791 -0.36636513277943478 0 -0.31199269881201053 -0.3469356394720573 0 -0.3038213496113723 -0.35630730646203279 0 -0.30032658754697339 -0.33778086823404191 0 -0.31885962155413078 -0.3616152787081755 0 -0.31199269881201053 -0.3469356394720573 0 -0.3038213496113723 -0.35630730646203279 0 -0.3038213496113723 -0.35630730646203279 0 -0.29547017266602599 -0.35454805066468992 0 -0.30032658754697339 -0.33778086823404191 0 -0.3038213496113723 -0.35630730646203279 0 -0.29547017266602599 -0.35454805066468992 0 -0.29552329085019791 -0.36636513277943478 0 -0.28220946265556079 -0.35773889518325042 0 -0.28361323431900137 -0.34015530703220959 0 -0.30032658754697339 -0.33778086823404191 0 -0.28220946265556079 -0.35773889518325042 0 -0.30032658754697339 -0.33778086823404191 0 -0.29547017266602599 -0.35454805066468992 0 -0.28220946265556079 -0.35773889518325042 0 -0.30032658754697339 -0.33778086823404191 0 -0.29552329085019791 -0.36636513277943478 0 -0.27877621244215528 -0.36977381684238059 0 -0.29552329085019791 -0.36636513277943478 0 -0.27877621244215528 -0.36977381684238059 0 -0.28396696338175431 -0.38037220815571982 0 -0.28220946265556079 -0.35773889518325042 0 -0.29552329085019791 -0.36636513277943478 0 -0.27877621244215528 -0.36977381684238059 0 -0.29547017266602599 -0.35454805066468992 0 -0.28220946265556079 -0.35773889518325042 0 -0.29552329085019791 -0.36636513277943478 0 -0.29552329085019791 -0.36636513277943478 0 -0.28396696338175431 -0.38037220815571982 0 -0.28220946265556079 -0.35773889518325042 0 -0.26409233776414781 -0.37769692213245848 0 -0.28220946265556079 -0.35773889518325042 0 -0.26821647973670282 -0.36110721839910331 0 -0.26409233776414781 -0.37769692213245848 0 -0.28220946265556079 -0.35773889518325042 0 -0.27877621244215528 -0.36977381684238059 0 -0.26409233776414781 -0.37769692213245848 0 -0.26041068399368239 -0.36588263788176117 0 -0.25332125165414882 -0.37624704646285623 0 -0.26409233776414781 -0.37769692213245848 0 -0.26821647973670282 -0.36110721839910331 0 -0.26041068399368239 -0.36588263788176117 0 -0.26409233776414781 -0.37769692213245848 0 -0.26041068399368239 -0.36588263788176117 0 -0.25194145847748572 -0.36021967413465472 0 -0.25332125165414882 -0.37624704646285623 0 -0.26041068399368239 -0.36588263788176117 0 -0.25194145847748572 -0.36021967413465472 0 -0.26227632151209029 -0.35603240135283892 0 -0.26821647973670282 -0.36110721839910331 0 -0.26041068399368239 -0.36588263788176117 0 -0.26227632151209029 -0.35603240135283892 0 -0.25194145847748572 -0.36021967413465472 0 -0.26227632151209029 -0.35603240135283892 0 -0.25880633346237852 -0.34380318730390491 0 -0.25194145847748572 -0.36021967413465472 0 -0.25880633346237852 -0.34380318730390491 0 -0.24351774139019899 -0.34721305845703598 0 -0.26227632151209029 -0.35603240135283892 0 -0.25880633346237852 -0.34380318730390491 0 -0.27209359275803258 -0.34818523544520769 0 -0.28220946265556079 -0.35773889518325042 0 -0.27209359275803258 -0.34818523544520769 0 -0.28361323431900137 -0.34015530703220959 0 -0.26821647973670282 -0.36110721839910331 0 -0.26227632151209029 -0.35603240135283892 0 -0.27209359275803258 -0.34818523544520769 0 -0.28220946265556079 -0.35773889518325042 0 -0.26821647973670282 -0.36110721839910331 0 -0.27209359275803258 -0.34818523544520769 0 -0.27209359275803258 -0.34818523544520769 0 -0.27246896385418379 -0.33295905440922258 0 -0.28361323431900137 -0.34015530703220959 0 -0.25880633346237852 -0.34380318730390491 0 -0.27209359275803258 -0.34818523544520769 0 -0.27246896385418379 -0.33295905440922258 0 -0.25880633346237852 -0.34380318730390491 0 -0.25326403807678288 -0.33062610714259633 0 -0.24351774139019899 -0.34721305845703598 0 -0.25880633346237852 -0.34380318730390491 0 -0.27246896385418379 -0.33295905440922258 0 -0.25326403807678288 -0.33062610714259633 0 -0.25326403807678288 -0.33062610714259633 0 -0.26137493412276958 -0.31935656248323308 0 -0.24498448815358889 -0.31332958945376088 0 -0.26137493412276958 -0.31935656248323308 0 -0.26158808381327969 -0.30506582341601762 0 -0.24498448815358889 -0.31332958945376088 0 -0.27246896385418379 -0.33295905440922258 0 -0.25326403807678288 -0.33062610714259633 0 -0.26137493412276958 -0.31935656248323308 0 -0.27246896385418379 -0.33295905440922258 0 -0.26137493412276958 -0.31935656248323308 0 -0.27456909671601282 -0.31480223799456808 0 -0.26137493412276958 -0.31935656248323308 0 -0.27456909671601282 -0.31480223799456808 0 -0.26158808381327969 -0.30506582341601762 0 -0.27246896385418379 -0.33295905440922258 0 -0.27456909671601282 -0.31480223799456808 0 -0.29096756478025648 -0.3241124818893259 0 -0.27456909671601282 -0.31480223799456808 0 -0.29096756478025648 -0.3241124818893259 0 -0.28745320145156511 -0.30637698858612711 0 -0.29096756478025648 -0.3241124818893259 0 -0.30165918076606241 -0.31152176636936751 0 -0.28745320145156511 -0.30637698858612711 0 -0.27246896385418379 -0.33295905440922258 0 -0.29096756478025648 -0.3241124818893259 0 -0.28361323431900137 -0.34015530703220959 0 -0.29096756478025648 -0.3241124818893259 0 -0.28361323431900137 -0.34015530703220959 0 -0.30032658754697339 -0.33778086823404191 0 -0.32351586797350479 -0.33513226933681051 0 -0.31199269881201053 -0.3469356394720573 0 -0.30032658754697339 -0.33778086823404191 0 -0.29096756478025648 -0.3241124818893259 0 -0.30032658754697339 -0.33778086823404191 0 -0.3045074989352885 -0.32090685056744528 0 -0.31844371243838587 -0.31782284128483329 0 -0.30032658754697339 -0.33778086823404191 0 -0.3045074989352885 -0.32090685056744528 0 -0.31844371243838587 -0.31782284128483329 0 -0.30032658754697339 -0.33778086823404191 0 -0.31114044914476419 -0.31329629505965789 0 -0.3045074989352885 -0.32090685056744528 0 -0.30165918076606241 -0.31152176636936751 0 -0.31844371243838587 -0.31782284128483329 0 -0.31114044914476419 -0.31329629505965789 0 -0.3045074989352885 -0.32090685056744528 0 -0.29096756478025648 -0.3241124818893259 0 -0.3045074989352885 -0.32090685056744528 0 -0.30165918076606241 -0.31152176636936751 0 -0.29888615001374208 -0.30139225292590849 0 -0.30165918076606241 -0.31152176636936751 0 -0.3101617292903267 -0.30402395844188912 0 -0.31114044914476419 -0.31329629505965789 0 -0.30165918076606241 -0.31152176636936751 0 -0.3101617292903267 -0.30402395844188912 0 -0.31821976473718749 -0.2961068061666246 0 -0.3101617292903267 -0.30402395844188912 0 -0.30567855507042502 -0.29333198711107161 0 -0.29888615001374208 -0.30139225292590849 0 -0.3101617292903267 -0.30402395844188912 0 -0.30567855507042502 -0.29333198711107161 0 -0.31317967855297052 -0.28559588096801258 0 -0.31821976473718749 -0.2961068061666246 0 -0.30567855507042502 -0.29333198711107161 0 -0.31317967855297052 -0.28559588096801258 0 -0.30567855507042502 -0.29333198711107161 0 -0.30209235802151141 -0.2823655488577404 0 -0.30567855507042502 -0.29333198711107161 0 -0.30209235802151141 -0.2823655488577404 0 -0.29369366832047922 -0.29117479325003809 0 -0.29888615001374208 -0.30139225292590849 0 -0.30567855507042502 -0.29333198711107161 0 -0.29369366832047922 -0.29117479325003809 0 -0.29369366832047922 -0.29117479325003809 0 -0.28745320145156511 -0.30637698858612711 0 -0.28010747410561931 -0.28983199044413199 0 -0.30209235802151141 -0.2823655488577404 0 -0.29369366832047922 -0.29117479325003809 0 -0.29255640110401487 -0.27505677341350843 0 -0.29369366832047922 -0.29117479325003809 0 -0.28010747410561931 -0.28983199044413199 0 -0.29255640110401487 -0.27505677341350843 0 -0.29888615001374208 -0.30139225292590849 0 -0.29369366832047922 -0.29117479325003809 0 -0.28745320145156511 -0.30637698858612711 0 -0.29888615001374208 -0.30139225292590849 0 -0.30165918076606241 -0.31152176636936751 0 -0.28745320145156511 -0.30637698858612711 0 -0.28745320145156511 -0.30637698858612711 0 -0.27318828991167449 -0.30122622144292721 0 -0.28010747410561931 -0.28983199044413199 0 -0.27456909671601282 -0.31480223799456808 0 -0.28745320145156511 -0.30637698858612711 0 -0.27318828991167449 -0.30122622144292721 0 -0.27318828991167449 -0.30122622144292721 0 -0.26158808381327969 -0.30506582341601762 0 -0.26222359347189561 -0.29005406677379098 0 -0.27456909671601282 -0.31480223799456808 0 -0.27318828991167449 -0.30122622144292721 0 -0.26158808381327969 -0.30506582341601762 0 -0.26158808381327969 -0.30506582341601762 0 -0.24498448815358889 -0.31332958945376088 0 -0.24880175103288879 -0.29859028208546617 0 -0.26158808381327969 -0.30506582341601762 0 -0.26222359347189561 -0.29005406677379098 0 -0.24880175103288879 -0.29859028208546617 0 -0.26222359347189561 -0.29005406677379098 0 -0.24376531709121729 -0.28439320758891068 0 -0.24880175103288879 -0.29859028208546617 0 -0.26222359347189561 -0.29005406677379098 0 -0.25514632749560662 -0.27384936393554832 0 -0.24376531709121729 -0.28439320758891068 0 -0.26222359347189561 -0.29005406677379098 0 -0.28010747410561931 -0.28983199044413199 0 -0.27200535761081229 -0.27570943073054149 0 -0.27318828991167449 -0.30122622144292721 0 -0.26222359347189561 -0.29005406677379098 0 -0.28010747410561931 -0.28983199044413199 0 -0.27200535761081229 -0.27570943073054149 0 -0.27809236447669949 -0.26154681573026012 0 -0.29255640110401487 -0.27505677341350843 0 -0.27200535761081229 -0.27570943073054149 0 -0.26432890215909988 -0.26441963784465788 0 -0.27809236447669949 -0.26154681573026012 0 -0.26222359347189561 -0.29005406677379098 0 -0.27200535761081229 -0.27570943073054149 0 -0.25514632749560662 -0.27384936393554832 0 -0.27200535761081229 -0.27570943073054149 0 -0.25514632749560662 -0.27384936393554832 0 -0.26432890215909988 -0.26441963784465788 0 -0.25514632749560662 -0.27384936393554832 0 -0.2528604376347906 -0.26013299407687013 0 -0.26432890215909988 -0.26441963784465788 0 -0.2528604376347906 -0.26013299407687013 0 -0.24600714451458441 -0.25444927941191592 0 -0.25430487877873142 -0.2463809903912782 0 -0.2528604376347906 -0.26013299407687013 0 -0.26354002357759088 -0.25085958475006948 0 -0.25430487877873142 -0.2463809903912782 0 -0.2528604376347906 -0.26013299407687013 0 -0.26432890215909988 -0.26441963784465788 0 -0.26354002357759088 -0.25085958475006948 0 -0.26354002357759088 -0.25085958475006948 0 -0.27809236447669949 -0.26154681573026012 0 -0.2809905480289096 -0.2461779240415149 0 -0.26432890215909988 -0.26441963784465788 0 -0.26354002357759088 -0.25085958475006948 0 -0.27809236447669949 -0.26154681573026012 0 -0.27809236447669949 -0.26154681573026012 0 -0.29549873679212108 -0.25827651837323362 0 -0.2809905480289096 -0.2461779240415149 0 -0.27809236447669949 -0.26154681573026012 0 -0.29549873679212108 -0.25827651837323362 0 -0.29255640110401487 -0.27505677341350843 0 -0.29549873679212108 -0.25827651837323362 0 -0.29255640110401487 -0.27505677341350843 0 -0.28010747410561931 -0.28983199044413199 0 -0.27200535761081229 -0.27570943073054149 0 -0.29255640110401487 -0.27505677341350843 0 -0.31317967855297052 -0.28559588096801258 0 -0.30209235802151141 -0.2823655488577404 0 -0.30889240188634842 -0.26984764720491489 0 -0.30209235802151141 -0.2823655488577404 0 -0.29255640110401487 -0.27505677341350843 0 -0.30889240188634842 -0.26984764720491489 0 -0.29549873679212108 -0.25827651837323362 0 -0.29255640110401487 -0.27505677341350843 0 -0.30889240188634842 -0.26984764720491489 0 -0.29549873679212108 -0.25827651837323362 0 -0.31173152530869769 -0.25247476887326409 0 -0.298441072480228 -0.24149626333295901 0 -0.29549873679212108 -0.25827651837323362 0 -0.30889240188634842 -0.26984764720491489 0 -0.31173152530869769 -0.25247476887326409 0 -0.33583585257273102 -0.46154451298001758 0 -0.33344540882931351 -0.44575234908931233 0 -0.31996487214014702 -0.45812503223877632 0 -0.33583585257273102 -0.46154451298001758 0 -0.33483321798940258 -0.47487751545710449 0 -0.35182778459928238 -0.46921643330432128 0 -0.33583585257273102 -0.46154451298001758 0 -0.33344540882931351 -0.44575234908931233 0 -0.35490476900666001 -0.45269623150321497 0 -0.33344540882931351 -0.44575234908931233 0 -0.31461762159727807 -0.44643431854036381 0 -0.3232077329144506 -0.43729614974457631 0 -0.33344540882931351 -0.44575234908931233 0 -0.31461762159727807 -0.44643431854036381 0 -0.31996487214014702 -0.45812503223877632 0 -0.31461762159727807 -0.44643431854036381 0 -0.31996487214014702 -0.45812503223877632 0 -0.30552100506296692 -0.46476228695319899 0 -0.33583585257273102 -0.46154451298001758 0 -0.31996487214014702 -0.45812503223877632 0 -0.32091394951536478 -0.47111542970977399 0 -0.31996487214014702 -0.45812503223877632 0 -0.32091394951536478 -0.47111542970977399 0 -0.30552100506296692 -0.46476228695319899 0 -0.3241924254942295 -0.47990531832345851 0 -0.32091394951536478 -0.47111542970977399 0 -0.31488038898242288 -0.48680735012653481 0 -0.32091394951536478 -0.47111542970977399 0 -0.31488038898242288 -0.48680735012653481 0 -0.30552100506296692 -0.46476228695319899 0 -0.3241924254942295 -0.47990531832345851 0 -0.31488038898242288 -0.48680735012653481 0 -0.3297479410611574 -0.48584740574955843 0 -0.3241924254942295 -0.47990531832345851 0 -0.32091394951536478 -0.47111542970977399 0 -0.33483321798940258 -0.47487751545710449 0 -0.31488038898242288 -0.48680735012653481 0 -0.33440301077096291 -0.499999999999999 0 -0.31861021658129501 -0.49559257421290442 0 -0.31488038898242288 -0.48680735012653481 0 -0.33440301077096291 -0.499999999999999 0 -0.31488038898242288 -0.48680735012653481 0 -0.33440301077096291 -0.499999999999999 0 -0.3297479410611574 -0.48584740574955843 0 -0.31861021658129501 -0.49559257421290442 0 -0.33440301077096291 -0.499999999999999 0 -0.30513416282190792 -0.5 0 -0.31861021658129501 -0.49559257421290442 0 -0.31488038898242288 -0.48680735012653481 0 -0.30513416282190792 -0.5 0 -0.31861021658129501 -0.49559257421290442 0 -0.31488038898242288 -0.48680735012653481 0 -0.33440301077096291 -0.499999999999999 0 -0.3297479410611574 -0.48584740574955843 0 -0.34529086391222741 -0.48559708891986447 0 -0.33583585257273102 -0.46154451298001758 0 -0.32091394951536478 -0.47111542970977399 0 -0.33483321798940258 -0.47487751545710449 0 -0.3241924254942295 -0.47990531832345851 0 -0.3297479410611574 -0.48584740574955843 0 -0.33483321798940258 -0.47487751545710449 0 -0.3297479410611574 -0.48584740574955843 0 -0.33483321798940258 -0.47487751545710449 0 -0.34529086391222741 -0.48559708891986447 0 -0.33483321798940258 -0.47487751545710449 0 -0.35182778459928238 -0.46921643330432128 0 -0.34529086391222741 -0.48559708891986447 0 -0.35182778459928238 -0.46921643330432128 0 -0.34529086391222741 -0.48559708891986447 0 -0.36373787493066739 -0.4809431370486088 0 -0.33440301077096291 -0.499999999999999 0 -0.35661589897504747 -0.5 0 -0.34529086391222741 -0.48559708891986447 0 -0.35661589897504747 -0.5 0 -0.34529086391222741 -0.48559708891986447 0 -0.36373787493066739 -0.4809431370486088 0 -0.3788287871791321 -0.5 0 -0.35661589897504747 -0.5 0 -0.36373787493066739 -0.4809431370486088 0 -0.38127112574101862 -0.48059009943010811 0 -0.3788287871791321 -0.5 0 -0.36373787493066739 -0.4809431370486088 0 -0.37636412918400652 -0.45964011391711779 0 -0.38127112574101862 -0.48059009943010811 0 -0.36373787493066739 -0.4809431370486088 0 -0.37636412918400652 -0.45964011391711779 0 -0.35182778459928238 -0.46921643330432128 0 -0.36373787493066739 -0.4809431370486088 0 -0.37636412918400652 -0.45964011391711779 0 -0.35182778459928238 -0.46921643330432128 0 -0.35490476900666001 -0.45269623150321497 0 -0.37636412918400652 -0.45964011391711779 0 -0.35490476900666001 -0.45269623150321497 0 -0.33583585257273102 -0.46154451298001758 0 -0.35182778459928238 -0.46921643330432128 0 -0.35490476900666001 -0.45269623150321497 0 -0.35490476900666001 -0.45269623150321497 0 -0.37275712677371792 -0.4347192382895293 0 -0.34712509253917861 -0.43174215198137061 0 -0.33344540882931351 -0.44575234908931233 0 -0.35490476900666001 -0.45269623150321497 0 -0.34712509253917861 -0.43174215198137061 0 -0.33344540882931351 -0.44575234908931233 0 -0.35490476900666001 -0.45269623150321497 0 -0.37636412918400652 -0.45964011391711779 0 -0.35490476900666001 -0.45269623150321497 0 -0.37275712677371792 -0.4347192382895293 0 -0.37275712677371792 -0.4347192382895293 0 -0.35895430953065122 -0.4153086428392499 0 -0.34712509253917861 -0.43174215198137061 0 -0.37760474262666699 -0.41452263388052502 0 -0.37275712677371792 -0.4347192382895293 0 -0.35895430953065122 -0.4153086428392499 0 -0.37760474262666699 -0.41452263388052502 0 -0.35895430953065122 -0.4153086428392499 0 -0.37097450932769388 -0.39646289137879731 0 -0.35895430953065122 -0.4153086428392499 0 -0.34712509253917861 -0.43174215198137061 0 -0.33200370087054831 -0.41267426141643909 0 -0.35895430953065122 -0.4153086428392499 0 -0.34911926828759909 -0.39869469225860182 0 -0.33200370087054831 -0.41267426141643909 0 -0.36088233818292131 -0.38161855996961669 0 -0.37384784130039411 -0.37908610291096989 0 -0.37097450932769388 -0.39646289137879731 0 -0.37147786899998098 -0.36461615061484642 0 -0.36088233818292131 -0.38161855996961669 0 -0.37384784130039411 -0.37908610291096989 0 -0.36088233818292131 -0.38161855996961669 0 -0.37097450932769388 -0.39646289137879731 0 -0.34911926828759909 -0.39869469225860182 0 -0.35895430953065122 -0.4153086428392499 0 -0.37097450932769388 -0.39646289137879731 0 -0.34911926828759909 -0.39869469225860182 0 -0.36088233818292131 -0.38161855996961669 0 -0.34911926828759909 -0.39869469225860182 0 -0.34193648861946829 -0.3871348041400568 0 -0.3438453124723363 -0.3749924932956567 0 -0.36088233818292131 -0.38161855996961669 0 -0.34193648861946829 -0.3871348041400568 0 -0.3438453124723363 -0.3749924932956567 0 -0.33233182300425917 -0.3774120161041053 0 -0.34193648861946829 -0.3871348041400568 0 -0.34193648861946829 -0.3871348041400568 0 -0.32966029634475208 -0.38652290187866289 0 -0.33453639316116129 -0.3981690317259759 0 -0.33233182300425917 -0.3774120161041053 0 -0.34193648861946829 -0.3871348041400568 0 -0.32966029634475208 -0.38652290187866289 0 -0.34911926828759909 -0.39869469225860182 0 -0.33453639316116129 -0.3981690317259759 0 -0.33200370087054831 -0.41267426141643909 0 -0.32966029634475208 -0.38652290187866289 0 -0.33453639316116129 -0.3981690317259759 0 -0.32138437058671548 -0.3987054793659765 0 -0.34911926828759909 -0.39869469225860182 0 -0.34193648861946829 -0.3871348041400568 0 -0.33453639316116129 -0.3981690317259759 0 -0.33453639316116129 -0.3981690317259759 0 -0.32138437058671548 -0.3987054793659765 0 -0.33200370087054831 -0.41267426141643909 0 -0.32138437058671548 -0.3987054793659765 0 -0.3135044666469492 -0.41369687790259002 0 -0.3067123698065819 -0.39998553190189079 0 -0.32138437058671548 -0.3987054793659765 0 -0.31662439459370229 -0.38476816362969279 0 -0.3067123698065819 -0.39998553190189079 0 -0.31885962155413078 -0.3616152787081755 0 -0.31492691851223498 -0.38398304066337391 0 -0.31662439459370229 -0.38476816362969279 0 -0.33233182300425917 -0.3774120161041053 0 -0.32966029634475208 -0.38652290187866289 0 -0.31662439459370229 -0.38476816362969279 0 -0.32966029634475208 -0.38652290187866289 0 -0.32138437058671548 -0.3987054793659765 0 -0.31662439459370229 -0.38476816362969279 0 -0.32966029634475208 -0.38652290187866289 0 -0.31662439459370229 -0.38476816362969279 0 -0.33344540882931351 -0.44575234908931233 0 -0.34712509253917861 -0.43174215198137061 0 -0.33068524022418089 -0.42930218875047832 0 -0.33344540882931351 -0.44575234908931233 0 -0.33068524022418089 -0.42930218875047832 0 -0.3232077329144506 -0.43729614974457631 0 -0.34712509253917861 -0.43174215198137061 0 -0.33068524022418089 -0.42930218875047832 0 -0.33200370087054831 -0.41267426141643909 0 -0.33200370087054831 -0.41267426141643909 0 -0.3135044666469492 -0.41369687790259002 0 -0.31408266100702997 -0.42769574259815119 0 -0.32138437058671548 -0.3987054793659765 0 -0.33200370087054831 -0.41267426141643909 0 -0.3135044666469492 -0.41369687790259002 0 -0.33200370087054831 -0.41267426141643909 0 -0.31408266100702997 -0.42769574259815119 0 -0.33068524022418089 -0.42930218875047832 0 -0.33200370087054831 -0.41267426141643909 0 -0.31408266100702997 -0.42769574259815119 0 -0.33068524022418089 -0.42930218875047832 0 -0.31408266100702997 -0.42769574259815119 0 -0.3232077329144506 -0.43729614974457631 0 -0.31461762159727807 -0.44643431854036381 0 -0.31408266100702997 -0.42769574259815119 0 -0.3232077329144506 -0.43729614974457631 0 -0.31408266100702997 -0.42769574259815119 0 -0.30483035561235661 -0.43545105883158391 0 -0.31461762159727807 -0.44643431854036381 0 -0.31408266100702997 -0.42769574259815119 0 -0.30483035561235661 -0.43545105883158391 0 -0.30483035561235661 -0.43545105883158391 0 -0.29827502262268779 -0.42556983292369288 0 -0.29223588668353018 -0.4334705612947346 0 -0.30483035561235661 -0.43545105883158391 0 -0.29223588668353018 -0.4334705612947346 0 -0.29616162114351169 -0.442717223779863 0 -0.30483035561235661 -0.43545105883158391 0 -0.29223588668353018 -0.4334705612947346 0 -0.29827502262268779 -0.42556983292369288 0 -0.30624801827141979 -0.42466684829735107 0 -0.30059567933940012 -0.4184534038357316 0 -0.30483035561235661 -0.43545105883158391 0 -0.29827502262268779 -0.42556983292369288 0 -0.30624801827141979 -0.42466684829735107 0 -0.3135044666469492 -0.41369687790259002 0 -0.31408266100702997 -0.42769574259815119 0 -0.30624801827141979 -0.42466684829735107 0 -0.31408266100702997 -0.42769574259815119 0 -0.30483035561235661 -0.43545105883158391 0 -0.30624801827141979 -0.42466684829735107 0 -0.3135044666469492 -0.41369687790259002 0 -0.30624801827141979 -0.42466684829735107 0 -0.30059567933940012 -0.4184534038357316 0 -0.3135044666469492 -0.41369687790259002 0 -0.30059567933940012 -0.4184534038357316 0 -0.3067123698065819 -0.39998553190189079 0 -0.30059567933940012 -0.4184534038357316 0 -0.29680034501946179 -0.41520290017408912 0 -0.3067123698065819 -0.39998553190189079 0 -0.29680034501946179 -0.41520290017408912 0 -0.3067123698065819 -0.39998553190189079 0 -0.29827502262268779 -0.42556983292369288 0 -0.30059567933940012 -0.4184534038357316 0 -0.29680034501946179 -0.41520290017408912 0 -0.30059567933940012 -0.4184534038357316 0 -0.29680034501946179 -0.41520290017408912 0 -0.29680034501946179 -0.41520290017408912 0 -0.28934173361078253 -0.42665368233441381 0 -0.29680034501946179 -0.41520290017408912 0 -0.3067123698065819 -0.39998553190189079 0 -0.28462117387159519 -0.40477208247143232 0 -0.29680034501946179 -0.41520290017408912 0 -0.28414465937429711 -0.41441251017545788 0 -0.28934173361078253 -0.42665368233441381 0 -0.29680034501946179 -0.41520290017408912 0 -0.28462117387159519 -0.40477208247143232 0 -0.28414465937429711 -0.41441251017545788 0 -0.28462117387159519 -0.40477208247143232 0 -0.27704976059193831 -0.4143478441174791 0 -0.29680034501946179 -0.41520290017408912 0 -0.28414465937429711 -0.41441251017545788 0 -0.28462117387159519 -0.40477208247143232 0 -0.28414465937429711 -0.41441251017545788 0 -0.28934173361078253 -0.42665368233441381 0 -0.28414465937429711 -0.41441251017545788 0 -0.28934173361078253 -0.42665368233441381 0 -0.27744364824877948 -0.42322436149945641 0 -0.28544595689629543 -0.4326346468945253 0 -0.28934173361078253 -0.42665368233441381 0 -0.27744364824877948 -0.42322436149945641 0 -0.28544595689629543 -0.4326346468945253 0 -0.28934173361078253 -0.42665368233441381 0 -0.28544595689629543 -0.4326346468945253 0 -0.29223588668353018 -0.4334705612947346 0 -0.28939794083574299 -0.43933230148746649 0 -0.28544595689629543 -0.4326346468945253 0 -0.29223588668353018 -0.4334705612947346 0 -0.28934173361078253 -0.42665368233441381 0 -0.28544595689629543 -0.4326346468945253 0 -0.29223588668353018 -0.4334705612947346 0 -0.29223588668353018 -0.4334705612947346 0 -0.28934173361078253 -0.42665368233441381 0 -0.29827502262268779 -0.42556983292369288 0 -0.29680034501946179 -0.41520290017408912 0 -0.28934173361078253 -0.42665368233441381 0 -0.29827502262268779 -0.42556983292369288 0 -0.29223588668353018 -0.4334705612947346 0 -0.28934173361078253 -0.42665368233441381 0 -0.31662439459370229 -0.38476816362969279 0 -0.30029567898772841 -0.38257018589270553 0 -0.3067123698065819 -0.39998553190189079 0 -0.31662439459370229 -0.38476816362969279 0 -0.30029567898772841 -0.38257018589270553 0 -0.31492691851223498 -0.38398304066337391 0 -0.31662439459370229 -0.38476816362969279 0 -0.30029567898772841 -0.38257018589270553 0 -0.30778987349537518 -0.37298653901980933 0 -0.31492691851223498 -0.38398304066337391 0 -0.30029567898772841 -0.38257018589270553 0 -0.30029567898772841 -0.38257018589270553 0 -0.3067123698065819 -0.39998553190189079 0 -0.29066001885745152 -0.39240146117951502 0 -0.31662439459370229 -0.38476816362969279 0 -0.3067123698065819 -0.39998553190189079 0 -0.29066001885745152 -0.39240146117951502 0 -0.28462117387159519 -0.40477208247143232 0 -0.27244200272372843 -0.39434126476877551 0 -0.3067123698065819 -0.39998553190189079 0 -0.29066001885745152 -0.39240146117951502 0 -0.28462117387159519 -0.40477208247143232 0 -0.30029567898772841 -0.38257018589270553 0 -0.29066001885745152 -0.39240146117951502 0 -0.28396696338175431 -0.38037220815571982 0 -0.29066001885745152 -0.39240146117951502 0 -0.28396696338175431 -0.38037220815571982 0 -0.27244200272372843 -0.39434126476877551 0 -0.29552329085019791 -0.36636513277943478 0 -0.30029567898772841 -0.38257018589270553 0 -0.28396696338175431 -0.38037220815571982 0 -0.30029567898772841 -0.38257018589270553 0 -0.28396696338175431 -0.38037220815571982 0 -0.28396696338175431 -0.38037220815571982 0 -0.26409233776414781 -0.37769692213245848 0 -0.27877621244215528 -0.36977381684238059 0 -0.28396696338175431 -0.38037220815571982 0 -0.26409233776414781 -0.37769692213245848 0 -0.28396696338175431 -0.38037220815571982 0 -0.27244200272372843 -0.39434126476877551 0 -0.26409233776414781 -0.37769692213245848 0 -0.28396696338175431 -0.38037220815571982 0 -0.27244200272372843 -0.39434126476877551 0 -0.27244200272372843 -0.39434126476877551 0 -0.25924401713776563 -0.38303788623684781 0 -0.28462117387159519 -0.40477208247143232 0 -0.27244200272372843 -0.39434126476877551 0 -0.28462117387159519 -0.40477208247143232 0 -0.27244200272372843 -0.39434126476877551 0 -0.27096225551146008 -0.40975514760256321 0 -0.27244200272372843 -0.39434126476877551 0 -0.2550062573411308 -0.41547460496553729 0 -0.27244200272372843 -0.39434126476877551 0 -0.25820169925308001 -0.39758881074413732 0 -0.2550062573411308 -0.41547460496553729 0 -0.25820169925308001 -0.39758881074413732 0 -0.2550062573411308 -0.41547460496553729 0 -0.24611451980969501 -0.39750148700538851 0 -0.25820169925308001 -0.39758881074413732 0 -0.25924401713776563 -0.38303788623684781 0 -0.24611451980969501 -0.39750148700538851 0 -0.27244200272372843 -0.39434126476877551 0 -0.25820169925308001 -0.39758881074413732 0 -0.25924401713776563 -0.38303788623684781 0 -0.27244200272372843 -0.39434126476877551 0 -0.25924401713776563 -0.38303788623684781 0 -0.26409233776414781 -0.37769692213245848 0 -0.25924401713776563 -0.38303788623684781 0 -0.24105497242100751 -0.36745992881080353 0 -0.25924401713776563 -0.38303788623684781 0 -0.25332125165414882 -0.37624704646285623 0 -0.24105497242100751 -0.36745992881080353 0 -0.25924401713776563 -0.38303788623684781 0 -0.24611451980969501 -0.39750148700538851 0 -0.25332125165414882 -0.37624704646285623 0 -0.26409233776414781 -0.37769692213245848 0 -0.25924401713776563 -0.38303788623684781 0 -0.25332125165414882 -0.37624704646285623 0 -0.26409233776414781 -0.37769692213245848 0 -0.25924401713776563 -0.38303788623684781 0 -0.26409233776414781 -0.37769692213245848 0 -0.28544595689629543 -0.4326346468945253 0 -0.27744364824877948 -0.42322436149945641 0 -0.262109838323214 -0.42976171622050502 0 -0.28544595689629543 -0.4326346468945253 0 -0.262109838323214 -0.42976171622050502 0 -0.27040613543522152 -0.44032325829246061 0 -0.28544595689629543 -0.4326346468945253 0 -0.262109838323214 -0.42976171622050502 0 -0.27744364824877948 -0.42322436149945641 0 -0.26807706595355962 -0.41957511883848569 0 -0.262109838323214 -0.42976171622050502 0 -0.27244200272372843 -0.39434126476877551 0 -0.27096225551146008 -0.40975514760256321 0 -0.2550062573411308 -0.41547460496553729 0 -0.28414465937429711 -0.41441251017545788 0 -0.27744364824877948 -0.42322436149945641 0 -0.27704976059193831 -0.4143478441174791 0 -0.27744364824877948 -0.42322436149945641 0 -0.27704976059193831 -0.4143478441174791 0 -0.26807706595355962 -0.41957511883848569 0 -0.28462117387159519 -0.40477208247143232 0 -0.27704976059193831 -0.4143478441174791 0 -0.27096225551146008 -0.40975514760256321 0 -0.27704976059193831 -0.4143478441174791 0 -0.27096225551146008 -0.40975514760256321 0 -0.26807706595355962 -0.41957511883848569 0 -0.27096225551146008 -0.40975514760256321 0 -0.26807706595355962 -0.41957511883848569 0 -0.2550062573411308 -0.41547460496553729 0 -0.26807706595355962 -0.41957511883848569 0 -0.2550062573411308 -0.41547460496553729 0 -0.262109838323214 -0.42976171622050502 0 -0.262109838323214 -0.42976171622050502 0 -0.2387737197501327 -0.42688878554648341 0 -0.2550062573411308 -0.41547460496553729 0 -0.262109838323214 -0.42976171622050502 0 -0.2387737197501327 -0.42688878554648341 0 -0.262109838323214 -0.42976171622050502 0 -0.26207602443942962 -0.4456080364099485 0 -0.24763836182198071 -0.4497425008136135 0 -0.262109838323214 -0.42976171622050502 0 -0.26207602443942962 -0.4456080364099485 0 -0.27040613543522152 -0.44032325829246061 0 -0.26207602443942962 -0.4456080364099485 0 -0.25797640229713431 -0.45742475779125741 0 -0.24763836182198071 -0.4497425008136135 0 -0.26207602443942962 -0.4456080364099485 0 -0.25797640229713431 -0.45742475779125741 0 -0.27199272208194719 -0.45328863364486088 0 -0.25797640229713431 -0.45742475779125741 0 -0.26222478779060282 -0.47116320166172598 0 -0.24147585669114799 -0.46578551541764779 0 -0.25797640229713431 -0.45742475779125741 0 -0.27199272208194719 -0.45328863364486088 0 -0.26222478779060282 -0.47116320166172598 0 -0.27919320446705731 -0.45694021272079449 0 -0.26222478779060282 -0.47116320166172598 0 -0.27199272208194719 -0.45328863364486088 0 -0.27919320446705731 -0.45694021272079449 0 -0.26222478779060282 -0.47116320166172598 0 -0.27919320446705731 -0.45694021272079449 0 -0.27827754110982922 -0.4730811893490145 0 -0.26222478779060282 -0.47116320166172598 0 -0.28544595689629543 -0.4326346468945253 0 -0.27199272208194719 -0.45328863364486088 0 -0.28440413114108531 -0.44515706758051421 0 -0.28544595689629543 -0.4326346468945253 0 -0.27199272208194719 -0.45328863364486088 0 -0.28544595689629543 -0.4326346468945253 0 -0.27199272208194719 -0.45328863364486088 0 -0.27040613543522152 -0.44032325829246061 0 -0.26207602443942962 -0.4456080364099485 0 -0.27199272208194719 -0.45328863364486088 0 -0.27040613543522152 -0.44032325829246061 0 -0.27199272208194719 -0.45328863364486088 0 -0.27919320446705731 -0.45694021272079449 0 -0.28440413114108531 -0.44515706758051421 0 -0.27919320446705731 -0.45694021272079449 0 -0.28440413114108531 -0.44515706758051421 0 -0.29616162114351169 -0.442717223779863 0 -0.27919320446705731 -0.45694021272079449 0 -0.29616162114351169 -0.442717223779863 0 -0.27919320446705731 -0.45694021272079449 0 -0.29616162114351169 -0.442717223779863 0 -0.28817589411354438 -0.45690428995527821 0 -0.28544595689629543 -0.4326346468945253 0 -0.28440413114108531 -0.44515706758051421 0 -0.28939794083574299 -0.43933230148746649 0 -0.28440413114108531 -0.44515706758051421 0 -0.29616162114351169 -0.442717223779863 0 -0.28939794083574299 -0.43933230148746649 0 -0.29223588668353018 -0.4334705612947346 0 -0.29616162114351169 -0.442717223779863 0 -0.29223588668353018 -0.4334705612947346 0 -0.29616162114351169 -0.442717223779863 0 -0.28939794083574299 -0.43933230148746649 0 -0.29616162114351169 -0.442717223779863 0 -0.28817589411354438 -0.45690428995527821 0 -0.29378814427437588 -0.46077449049611152 0 -0.27919320446705731 -0.45694021272079449 0 -0.2864335197662824 -0.46533466677175062 0 -0.27827754110982922 -0.4730811893490145 0 -0.27919320446705731 -0.45694021272079449 0 -0.28817589411354438 -0.45690428995527821 0 -0.2864335197662824 -0.46533466677175062 0 -0.2864335197662824 -0.46533466677175062 0 -0.29378814427437588 -0.46077449049611152 0 -0.29444425203373009 -0.47299738123759621 0 -0.28817589411354438 -0.45690428995527821 0 -0.2864335197662824 -0.46533466677175062 0 -0.29378814427437588 -0.46077449049611152 0 -0.29616162114351169 -0.442717223779863 0 -0.30552100506296692 -0.46476228695319899 0 -0.29616162114351169 -0.442717223779863 0 -0.29378814427437588 -0.46077449049611152 0 -0.30552100506296692 -0.46476228695319899 0 -0.29378814427437588 -0.46077449049611152 0 -0.30552100506296692 -0.46476228695319899 0 -0.29444425203373009 -0.47299738123759621 0 -0.31461762159727807 -0.44643431854036381 0 -0.29616162114351169 -0.442717223779863 0 -0.30552100506296692 -0.46476228695319899 0 -0.31461762159727807 -0.44643431854036381 0 -0.30483035561235661 -0.43545105883158391 0 -0.29616162114351169 -0.442717223779863 0 -0.30483035561235661 -0.43545105883158391 0 -0.29616162114351169 -0.442717223779863 0 -0.30035655132883821 -0.48627408811851919 0 -0.30513416282190792 -0.5 0 -0.28618553049626982 -0.48617908397958198 0 -0.31488038898242288 -0.48680735012653481 0 -0.30035655132883821 -0.48627408811851919 0 -0.30513416282190792 -0.5 0 -0.31488038898242288 -0.48680735012653481 0 -0.30035655132883821 -0.48627408811851919 0 -0.29444425203373009 -0.47299738123759621 0 -0.31488038898242288 -0.48680735012653481 0 -0.30552100506296692 -0.46476228695319899 0 -0.31488038898242288 -0.48680735012653481 0 -0.29444425203373009 -0.47299738123759621 0 -0.31488038898242288 -0.48680735012653481 0 -0.30552100506296692 -0.46476228695319899 0 -0.29444425203373009 -0.47299738123759621 0 -0.30035655132883821 -0.48627408811851919 0 -0.29444425203373009 -0.47299738123759621 0 -0.28618553049626982 -0.48617908397958198 0 -0.29444425203373009 -0.47299738123759621 0 -0.28618553049626982 -0.48617908397958198 0 -0.27827754110982922 -0.4730811893490145 0 -0.2864335197662824 -0.46533466677175062 0 -0.29444425203373009 -0.47299738123759621 0 -0.27827754110982922 -0.4730811893490145 0 -0.30513416282190792 -0.5 0 -0.28618553049626982 -0.48617908397958198 0 -0.27586531487285287 -0.5 0 -0.28618553049626982 -0.48617908397958198 0 -0.27586531487285287 -0.5 0 -0.26573433538458341 -0.48596827759882988 0 -0.26573433538458341 -0.48596827759882988 0 -0.27827754110982922 -0.4730811893490145 0 -0.26222478779060282 -0.47116320166172598 0 -0.28618553049626982 -0.48617908397958198 0 -0.26573433538458341 -0.48596827759882988 0 -0.27827754110982922 -0.4730811893490145 0 -0.26573433538458341 -0.48596827759882988 0 -0.26222478779060282 -0.47116320166172598 0 -0.2452563711141483 -0.48538619060265742 0 -0.26222478779060282 -0.47116320166172598 0 -0.2452563711141483 -0.48538619060265742 0 -0.26573433538458341 -0.48596827759882988 0 -0.24659646692379791 -0.5 0 -0.2452563711141483 -0.48538619060265742 0 -0.27586531487285287 -0.5 0 -0.26573433538458341 -0.48596827759882988 0 -0.24659646692379791 -0.5 0 -0.24659646692379791 -0.5 0 -0.2452563711141483 -0.48538619060265742 0 -0.2309126923675329 -0.48409753664799809 0 -0.2452563711141483 -0.48538619060265742 0 -0.2309126923675329 -0.48409753664799809 0 -0.24147585669114799 -0.46578551541764779 0 -0.26222478779060282 -0.47116320166172598 0 -0.2452563711141483 -0.48538619060265742 0 -0.24147585669114799 -0.46578551541764779 0 -0.2309126923675329 -0.48409753664799809 0 -0.21969550002053881 -0.46902191420728367 0 -0.24147585669114799 -0.46578551541764779 0 -0.2309126923675329 -0.48409753664799809 0 -0.21969550002053881 -0.46902191420728367 0 -0.21675194002770651 -0.48325747376132488 0 -0.2309126923675329 -0.48409753664799809 0 -0.2173276189747429 -0.5 0 -0.21675194002770651 -0.48325747376132488 0 -0.24659646692379791 -0.5 0 -0.2309126923675329 -0.48409753664799809 0 -0.2173276189747429 -0.5 0 -0.24763836182198071 -0.4497425008136135 0 -0.22624076892076589 -0.44706692865257169 0 -0.2387737197501327 -0.42688878554648341 0 -0.24763836182198071 -0.4497425008136135 0 -0.2387737197501327 -0.42688878554648341 0 -0.25797640229713431 -0.45742475779125741 0 -0.24763836182198071 -0.4497425008136135 0 -0.24147585669114799 -0.46578551541764779 0 -0.24763836182198071 -0.4497425008136135 0 -0.24147585669114799 -0.46578551541764779 0 -0.22624076892076589 -0.44706692865257169 0 -0.21969550002053881 -0.46902191420728367 0 -0.24147585669114799 -0.46578551541764779 0 -0.22624076892076589 -0.44706692865257169 0 -0.22624076892076589 -0.44706692865257169 0 -0.20601400179423029 -0.44167666513253268 0 -0.20712040864686981 -0.4581205685470397 0 -0.22624076892076589 -0.44706692865257169 0 -0.20601400179423029 -0.44167666513253268 0 -0.2213815359168774 -0.42474761805685379 0 -0.21969550002053881 -0.46902191420728367 0 -0.22624076892076589 -0.44706692865257169 0 -0.20712040864686981 -0.4581205685470397 0 -0.20712040864686981 -0.4581205685470397 0 -0.19064646767158311 -0.45860571220821139 0 -0.1990719487480116 -0.47991044419001788 0 -0.20601400179423029 -0.44167666513253268 0 -0.19064646767158311 -0.45860571220821139 0 -0.18445472089260331 -0.43906110971624801 0 -0.20601400179423029 -0.44167666513253268 0 -0.19064646767158311 -0.45860571220821139 0 -0.20601400179423029 -0.44167666513253268 0 -0.20712040864686981 -0.4581205685470397 0 -0.19064646767158311 -0.45860571220821139 0 -0.2173276189747429 -0.5 0 -0.21675194002770651 -0.48325747376132488 0 -0.1990719487480116 -0.47991044419001788 0 -0.21969550002053881 -0.46902191420728367 0 -0.20712040864686981 -0.4581205685470397 0 -0.1990719487480116 -0.47991044419001788 0 -0.21969550002053881 -0.46902191420728367 0 -0.21675194002770651 -0.48325747376132488 0 -0.1990719487480116 -0.47991044419001788 0 -0.19064646767158311 -0.45860571220821139 0 -0.1990719487480116 -0.47991044419001788 0 -0.17527893354893601 -0.47553475928389022 0 -0.2173276189747429 -0.5 0 -0.1990719487480116 -0.47991044419001788 0 -0.18805877102568799 -0.5 0 -0.1990719487480116 -0.47991044419001788 0 -0.18805877102568799 -0.5 0 -0.17527893354893601 -0.47553475928389022 0 -0.18805877102568799 -0.5 0 -0.158789923076633 -0.5 0 -0.17527893354893601 -0.47553475928389022 0 -0.158789923076633 -0.5 0 -0.17527893354893601 -0.47553475928389022 0 -0.15258114748495741 -0.47793113246425178 0 -0.17527893354893601 -0.47553475928389022 0 -0.16975404859066071 -0.45820284632279651 0 -0.15258114748495741 -0.47793113246425178 0 -0.19064646767158311 -0.45860571220821139 0 -0.17527893354893601 -0.47553475928389022 0 -0.19064646767158311 -0.45860571220821139 0 -0.17527893354893601 -0.47553475928389022 0 -0.16975404859066071 -0.45820284632279651 0 -0.19064646767158311 -0.45860571220821139 0 -0.18445472089260331 -0.43906110971624801 0 -0.16975404859066071 -0.45820284632279651 0 -0.18445472089260331 -0.43906110971624801 0 -0.16320509876658421 -0.43865683305399722 0 -0.16975404859066071 -0.45820284632279651 0 -0.16320509876658421 -0.43865683305399722 0 -0.16975404859066071 -0.45820284632279651 0 -0.15065212369680259 -0.45818279375183418 0 -0.16320509876658421 -0.43865683305399722 0 -0.15065212369680259 -0.45818279375183418 0 -0.16975404859066071 -0.45820284632279651 0 -0.15065212369680259 -0.45818279375183418 0 -0.15258114748495741 -0.47793113246425178 0 -0.16320509876658421 -0.43865683305399722 0 -0.15065212369680259 -0.45818279375183418 0 -0.13210046924937691 -0.43812745560136918 0 -0.15065212369680259 -0.45818279375183418 0 -0.13210046924937691 -0.43812745560136918 0 -0.13305422342256629 -0.45585323589074578 0 -0.15065212369680259 -0.45818279375183418 0 -0.13305422342256629 -0.45585323589074578 0 -0.12739686211113951 -0.47267902552695912 0 -0.12739686211113951 -0.47267902552695912 0 -0.12952107512757799 -0.5 0 -0.15258114748495741 -0.47793113246425178 0 -0.158789923076633 -0.5 0 -0.12952107512757799 -0.5 0 -0.15258114748495741 -0.47793113246425178 0 -0.15065212369680259 -0.45818279375183418 0 -0.12739686211113951 -0.47267902552695912 0 -0.15258114748495741 -0.47793113246425178 0 -0.15060865621318489 -0.39257818694634811 0 -0.14910468990712941 -0.41584955014240033 0 -0.16644251617935421 -0.40172770011528802 0 -0.15060865621318489 -0.39257818694634811 0 -0.13374979159626499 -0.39907784342358538 0 -0.14910468990712941 -0.41584955014240033 0 -0.15060865621318489 -0.39257818694634811 0 -0.16482306542293579 -0.38042793245751311 0 -0.14769016579911429 -0.37411897798284788 0 -0.15060865621318489 -0.39257818694634811 0 -0.1324737139895279 -0.38156968967221461 0 -0.14769016579911429 -0.37411897798284788 0 -0.15060865621318489 -0.39257818694634811 0 -0.1324737139895279 -0.38156968967221461 0 -0.13374979159626499 -0.39907784342358538 0 -0.1324737139895279 -0.38156968967221461 0 -0.13374979159626499 -0.39907784342358538 0 -0.1141105918935905 -0.3928235624283245 0 -0.14910468990712941 -0.41584955014240033 0 -0.12245130597789219 -0.41256822792863962 0 -0.13374979159626499 -0.39907784342358538 0 -0.14910468990712941 -0.41584955014240033 0 -0.12245130597789219 -0.41256822792863962 0 -0.13210046924937691 -0.43812745560136918 0 -0.14910468990712941 -0.41584955014240033 0 -0.12245130597789219 -0.41256822792863962 0 -0.16320509876658421 -0.43865683305399722 0 -0.13210046924937691 -0.43812745560136918 0 -0.14910468990712941 -0.41584955014240033 0 -0.14910468990712941 -0.41584955014240033 0 -0.1757580738363666 -0.41913087235616059 0 -0.14910468990712941 -0.41584955014240033 0 -0.1757580738363666 -0.41913087235616059 0 -0.16644251617935421 -0.40172770011528802 0 -0.16320509876658421 -0.43865683305399722 0 -0.14910468990712941 -0.41584955014240033 0 -0.1757580738363666 -0.41913087235616059 0 -0.16320509876658421 -0.43865683305399722 0 -0.1757580738363666 -0.41913087235616059 0 -0.18445472089260331 -0.43906110971624801 0 -0.1757580738363666 -0.41913087235616059 0 -0.19856980487662201 -0.4219392452065075 0 -0.18445472089260331 -0.43906110971624801 0 -0.16320509876658421 -0.43865683305399722 0 -0.1757580738363666 -0.41913087235616059 0 -0.1757580738363666 -0.41913087235616059 0 -0.19856980487662201 -0.4219392452065075 0 -0.1757580738363666 -0.41913087235616059 0 -0.18472287462456349 -0.40518626186492501 0 -0.16644251617935421 -0.40172770011528802 0 -0.1757580738363666 -0.41913087235616059 0 -0.18472287462456349 -0.40518626186492501 0 -0.19856980487662201 -0.4219392452065075 0 -0.1757580738363666 -0.41913087235616059 0 -0.18472287462456349 -0.40518626186492501 0 -0.18472287462456349 -0.40518626186492501 0 -0.16644251617935421 -0.40172770011528802 0 -0.17923880837421341 -0.38888546249602352 0 -0.18472287462456349 -0.40518626186492501 0 -0.17923880837421341 -0.38888546249602352 0 -0.19368767541276141 -0.39124165137368982 0 -0.15060865621318489 -0.39257818694634811 0 -0.16644251617935421 -0.40172770011528802 0 -0.16482306542293579 -0.38042793245751311 0 -0.16644251617935421 -0.40172770011528802 0 -0.16482306542293579 -0.38042793245751311 0 -0.17923880837421341 -0.38888546249602352 0 -0.16482306542293579 -0.38042793245751311 0 -0.17923880837421341 -0.38888546249602352 0 -0.18651791023145209 -0.36584376666870178 0 -0.17923880837421341 -0.38888546249602352 0 -0.19368767541276141 -0.39124165137368982 0 -0.18651791023145209 -0.36584376666870178 0 -0.19368767541276141 -0.39124165137368982 0 -0.2062757552168949 -0.37744739725944437 0 -0.18651791023145209 -0.36584376666870178 0 -0.18472287462456349 -0.40518626186492501 0 -0.19368767541276141 -0.39124165137368982 0 -0.19368767541276141 -0.39124165137368982 0 -0.19783493023631221 -0.40489237619724511 0 -0.21151459507585629 -0.40371472223312382 0 -0.18472287462456349 -0.40518626186492501 0 -0.19368767541276141 -0.39124165137368982 0 -0.19783493023631221 -0.40489237619724511 0 -0.19368767541276141 -0.39124165137368982 0 -0.21151459507585629 -0.40371472223312382 0 -0.2062757552168949 -0.37744739725944437 0 -0.21151459507585629 -0.40371472223312382 0 -0.2062757552168949 -0.37744739725944437 0 -0.2228977154353044 -0.38595925006721982 0 -0.20601400179423029 -0.44167666513253268 0 -0.18445472089260331 -0.43906110971624801 0 -0.19856980487662201 -0.4219392452065075 0 -0.19783493023631221 -0.40489237619724511 0 -0.21151459507585629 -0.40371472223312382 0 -0.19856980487662201 -0.4219392452065075 0 -0.18472287462456349 -0.40518626186492501 0 -0.19783493023631221 -0.40489237619724511 0 -0.19856980487662201 -0.4219392452065075 0 -0.21151459507585629 -0.40371472223312382 0 -0.19856980487662201 -0.4219392452065075 0 -0.2213815359168774 -0.42474761805685379 0 -0.20601400179423029 -0.44167666513253268 0 -0.2213815359168774 -0.42474761805685379 0 -0.20601400179423029 -0.44167666513253268 0 -0.19856980487662201 -0.4219392452065075 0 -0.2213815359168774 -0.42474761805685379 0 -0.19856980487662201 -0.4219392452065075 0 -0.2213815359168774 -0.42474761805685379 0 -0.2213815359168774 -0.42474761805685379 0 -0.2387737197501327 -0.42688878554648341 0 -0.22624076892076589 -0.44706692865257169 0 -0.2213815359168774 -0.42474761805685379 0 -0.2387737197501327 -0.42688878554648341 0 -0.2213815359168774 -0.42474761805685379 0 -0.2329850224816209 -0.41196508777392588 0 -0.2387737197501327 -0.42688878554648341 0 -0.21151459507585629 -0.40371472223312382 0 -0.2213815359168774 -0.42474761805685379 0 -0.2329850224816209 -0.41196508777392588 0 -0.2213815359168774 -0.42474761805685379 0 -0.2329850224816209 -0.41196508777392588 0 -0.2550062573411308 -0.41547460496553729 0 -0.2329850224816209 -0.41196508777392588 0 -0.2387737197501327 -0.42688878554648341 0 -0.2550062573411308 -0.41547460496553729 0 -0.2329850224816209 -0.41196508777392588 0 -0.24611451980969501 -0.39750148700538851 0 -0.2329850224816209 -0.41196508777392588 0 -0.2387737197501327 -0.42688878554648341 0 -0.262109838323214 -0.42976171622050502 0 -0.24763836182198071 -0.4497425008136135 0 -0.2387737197501327 -0.42688878554648341 0 -0.2329850224816209 -0.41196508777392588 0 -0.2228977154353044 -0.38595925006721982 0 -0.2329850224816209 -0.41196508777392588 0 -0.2228977154353044 -0.38595925006721982 0 -0.24611451980969501 -0.39750148700538851 0 -0.21151459507585629 -0.40371472223312382 0 -0.2329850224816209 -0.41196508777392588 0 -0.2228977154353044 -0.38595925006721982 0 -0.2329850224816209 -0.41196508777392588 0 -0.24611451980969501 -0.39750148700538851 0 -0.25924401713776563 -0.38303788623684781 0 -0.24611451980969501 -0.39750148700538851 0 -0.24401838833616121 -0.38240767463359998 0 -0.25924401713776563 -0.38303788623684781 0 -0.24401838833616121 -0.38240767463359998 0 -0.24105497242100751 -0.36745992881080353 0 -0.2228977154353044 -0.38595925006721982 0 -0.24611451980969501 -0.39750148700538851 0 -0.24401838833616121 -0.38240767463359998 0 -0.2228977154353044 -0.38595925006721982 0 -0.24401838833616121 -0.38240767463359998 0 -0.24105497242100751 -0.36745992881080353 0 -0.25194145847748572 -0.36021967413465472 0 -0.25332125165414882 -0.37624704646285623 0 -0.24105497242100751 -0.36745992881080353 0 -0.2228977154353044 -0.38595925006721982 0 -0.24105497242100751 -0.36745992881080353 0 -0.2128104083889901 -0.35995341236051281 0 -0.24105497242100751 -0.36745992881080353 0 -0.2268103111271047 -0.34766851292397538 0 -0.2128104083889901 -0.35995341236051281 0 -0.24105497242100751 -0.36745992881080353 0 -0.2268103111271047 -0.34766851292397538 0 -0.24351774139019899 -0.34721305845703598 0 -0.25194145847748572 -0.36021967413465472 0 -0.24105497242100751 -0.36745992881080353 0 -0.24351774139019899 -0.34721305845703598 0 -0.2268103111271047 -0.34766851292397538 0 -0.24351774139019899 -0.34721305845703598 0 -0.23394533209265089 -0.32976859033771883 0 -0.25326403807678288 -0.33062610714259633 0 -0.24351774139019899 -0.34721305845703598 0 -0.23394533209265089 -0.32976859033771883 0 -0.25326403807678288 -0.33062610714259633 0 -0.24498448815358889 -0.31332958945376088 0 -0.23394533209265089 -0.32976859033771883 0 -0.24498448815358889 -0.31332958945376088 0 -0.22052467421204361 -0.31301413780967591 0 -0.23394533209265089 -0.32976859033771883 0 -0.22052467421204361 -0.31301413780967591 0 -0.23394533209265089 -0.32976859033771883 0 -0.20272310134267571 -0.33394757465380592 0 -0.2268103111271047 -0.34766851292397538 0 -0.23394533209265089 -0.32976859033771883 0 -0.20272310134267571 -0.33394757465380592 0 -0.22052467421204361 -0.31301413780967591 0 -0.20272310134267571 -0.33394757465380592 0 -0.19263579429636141 -0.30794173694709892 0 -0.20272310134267571 -0.33394757465380592 0 -0.19263579429636141 -0.30794173694709892 0 -0.20272310134267571 -0.33394757465380592 0 -0.19263579429636141 -0.30794173694709892 0 -0.17589327806136959 -0.33538904181950091 0 -0.20272310134267571 -0.33394757465380592 0 -0.18651791023145209 -0.36584376666870178 0 -0.17589327806136959 -0.33538904181950091 0 -0.20272310134267571 -0.33394757465380592 0 -0.2128104083889901 -0.35995341236051281 0 -0.18651791023145209 -0.36584376666870178 0 -0.2062757552168949 -0.37744739725944437 0 -0.2128104083889901 -0.35995341236051281 0 -0.18651791023145209 -0.36584376666870178 0 -0.2228977154353044 -0.38595925006721982 0 -0.2128104083889901 -0.35995341236051281 0 -0.2062757552168949 -0.37744739725944437 0 -0.2228977154353044 -0.38595925006721982 0 -0.2128104083889901 -0.35995341236051281 0 -0.20272310134267571 -0.33394757465380592 0 -0.2128104083889901 -0.35995341236051281 0 -0.2268103111271047 -0.34766851292397538 0 -0.20272310134267571 -0.33394757465380592 0 -0.2128104083889901 -0.35995341236051281 0 -0.22823748671299449 -0.25415354987929822 0 -0.22147577491600931 -0.26649824332957772 0 -0.21643980561120099 -0.25084770210860802 0 -0.22823748671299449 -0.25415354987929822 0 -0.23900332938381449 -0.26651279367317338 0 -0.22147577491600931 -0.26649824332957772 0 -0.22823748671299449 -0.25415354987929822 0 -0.23794787901225001 -0.25330527174049489 0 -0.23186755267698561 -0.2448229521010889 0 -0.23794787901225001 -0.25330527174049489 0 -0.24600714451458441 -0.25444927941191592 0 -0.24224057098266269 -0.25022626791248759 0 -0.23794787901225001 -0.25330527174049489 0 -0.24224057098266269 -0.25022626791248759 0 -0.23868877876693431 -0.24663366575695589 0 -0.24600714451458441 -0.25444927941191592 0 -0.24224057098266269 -0.25022626791248759 0 -0.246318481636882 -0.24651685474058371 0 -0.2528604376347906 -0.26013299407687013 0 -0.24600714451458441 -0.25444927941191592 0 -0.23900332938381449 -0.26651279367317338 0 -0.22823748671299449 -0.25415354987929822 0 -0.23794787901225001 -0.25330527174049489 0 -0.23900332938381449 -0.26651279367317338 0 -0.23794787901225001 -0.25330527174049489 0 -0.24600714451458441 -0.25444927941191592 0 -0.23900332938381449 -0.26651279367317338 0 -0.25514632749560662 -0.27384936393554832 0 -0.2528604376347906 -0.26013299407687013 0 -0.23900332938381449 -0.26651279367317338 0 -0.25514632749560662 -0.27384936393554832 0 -0.23900332938381449 -0.26651279367317338 0 -0.24376531709121729 -0.28439320758891068 0 -0.23900332938381449 -0.26651279367317338 0 -0.22697232308880011 -0.28186859299723838 0 -0.24376531709121729 -0.28439320758891068 0 -0.22147577491600931 -0.26649824332957772 0 -0.22697232308880011 -0.28186859299723838 0 -0.2082292833427484 -0.27825185123206819 0 -0.23900332938381449 -0.26651279367317338 0 -0.22147577491600931 -0.26649824332957772 0 -0.22697232308880011 -0.28186859299723838 0 -0.22697232308880011 -0.28186859299723838 0 -0.23370755133055041 -0.29720993164566928 0 -0.213294979832092 -0.29484329323070269 0 -0.22697232308880011 -0.28186859299723838 0 -0.24376531709121729 -0.28439320758891068 0 -0.23370755133055041 -0.29720993164566928 0 -0.24376531709121729 -0.28439320758891068 0 -0.24880175103288879 -0.29859028208546617 0 -0.23370755133055041 -0.29720993164566928 0 -0.24498448815358889 -0.31332958945376088 0 -0.24880175103288879 -0.29859028208546617 0 -0.23370755133055041 -0.29720993164566928 0 -0.24498448815358889 -0.31332958945376088 0 -0.22052467421204361 -0.31301413780967591 0 -0.23370755133055041 -0.29720993164566928 0 -0.22052467421204361 -0.31301413780967591 0 -0.23370755133055041 -0.29720993164566928 0 -0.213294979832092 -0.29484329323070269 0 -0.22052467421204361 -0.31301413780967591 0 -0.19263579429636141 -0.30794173694709892 0 -0.213294979832092 -0.29484329323070269 0 -0.19263579429636141 -0.30794173694709892 0 -0.19810845350828671 -0.29101174489689141 0 -0.213294979832092 -0.29484329323070269 0 -0.19263579429636141 -0.30794173694709892 0 -0.19810845350828671 -0.29101174489689141 0 -0.18254848725004699 -0.28193589924039181 0 -0.19810845350828671 -0.29101174489689141 0 -0.2082292833427484 -0.27825185123206819 0 -0.18254848725004699 -0.28193589924039181 0 -0.19263579429636141 -0.30794173694709892 0 -0.18254848725004699 -0.28193589924039181 0 -0.22697232308880011 -0.28186859299723838 0 -0.213294979832092 -0.29484329323070269 0 -0.2082292833427484 -0.27825185123206819 0 -0.19810845350828671 -0.29101174489689141 0 -0.213294979832092 -0.29484329323070269 0 -0.2082292833427484 -0.27825185123206819 0 -0.22147577491600931 -0.26649824332957772 0 -0.2082292833427484 -0.27825185123206819 0 -0.2086672977659946 -0.26051625911390258 0 -0.2082292833427484 -0.27825185123206819 0 -0.1941456266669376 -0.26312615092081038 0 -0.2086672977659946 -0.26051625911390258 0 -0.2082292833427484 -0.27825185123206819 0 -0.1941456266669376 -0.26312615092081038 0 -0.18254848725004699 -0.28193589924039181 0 -0.2082292833427484 -0.27825185123206819 0 -0.1941456266669376 -0.26312615092081038 0 -0.1941456266669376 -0.26312615092081038 0 -0.2086672977659946 -0.26051625911390258 0 -0.20342667864636929 -0.24140926617106809 0 -0.1941456266669376 -0.26312615092081038 0 -0.1800619699911267 -0.2480004506095525 0 -0.19013797293464271 -0.24075832243545531 0 -0.2086672977659946 -0.26051625911390258 0 -0.21643980561120099 -0.25084770210860802 0 -0.20342667864636929 -0.24140926617106809 0 -0.22147577491600931 -0.26649824332957772 0 -0.2086672977659946 -0.26051625911390258 0 -0.21643980561120099 -0.25084770210860802 0 -0.15628590189421601 -0.26004639834603649 0 -0.1734874352466852 -0.26319137942928039 0 -0.16658918924755431 -0.24642551003272711 0 -0.15628590189421601 -0.26004639834603649 0 -0.15533815674961349 -0.24436674266429001 0 -0.16658918924755431 -0.24642551003272711 0 -0.1941456266669376 -0.26312615092081038 0 -0.1734874352466852 -0.26319137942928039 0 -0.1800619699911267 -0.2480004506095525 0 -0.1734874352466852 -0.26319137942928039 0 -0.1800619699911267 -0.2480004506095525 0 -0.16658918924755431 -0.24642551003272711 0 -0.1941456266669376 -0.26312615092081038 0 -0.1800619699911267 -0.2480004506095525 0 -0.1941456266669376 -0.26312615092081038 0 -0.1734874352466852 -0.26319137942928039 0 -0.18254848725004699 -0.28193589924039181 0 -0.1734874352466852 -0.26319137942928039 0 -0.16129343643022989 -0.27961386742616462 0 -0.18254848725004699 -0.28193589924039181 0 -0.15628590189421601 -0.26004639834603649 0 -0.1734874352466852 -0.26319137942928039 0 -0.16129343643022989 -0.27961386742616462 0 -0.16129343643022989 -0.27961386742616462 0 -0.18254848725004699 -0.28193589924039181 0 -0.16461546646963829 -0.30482505447579672 0 -0.16129343643022989 -0.27961386742616462 0 -0.16461546646963829 -0.30482505447579672 0 -0.14565220823612679 -0.29035403768028661 0 -0.19263579429636141 -0.30794173694709892 0 -0.18254848725004699 -0.28193589924039181 0 -0.16461546646963829 -0.30482505447579672 0 -0.16461546646963829 -0.30482505447579672 0 -0.14018665112810039 -0.30846577399565478 0 -0.14565220823612679 -0.29035403768028661 0 -0.14018665112810039 -0.30846577399565478 0 -0.12676569158053769 -0.29249242320801672 0 -0.1198765751022695 -0.31059615465344997 0 -0.14018665112810039 -0.30846577399565478 0 -0.12676569158053769 -0.29249242320801672 0 -0.14565220823612679 -0.29035403768028661 0 -0.12676569158053769 -0.29249242320801672 0 -0.14565220823612679 -0.29035403768028661 0 -0.132640416096617 -0.27969181905677598 0 -0.12676569158053769 -0.29249242320801672 0 -0.132640416096617 -0.27969181905677598 0 -0.1193712189294322 -0.27877260701353213 0 -0.16129343643022989 -0.27961386742616462 0 -0.14565220823612679 -0.29035403768028661 0 -0.14487816473109921 -0.27579654209861931 0 -0.14565220823612679 -0.29035403768028661 0 -0.14487816473109921 -0.27579654209861931 0 -0.132640416096617 -0.27969181905677598 0 -0.15628590189421601 -0.26004639834603649 0 -0.16129343643022989 -0.27961386742616462 0 -0.14487816473109921 -0.27579654209861931 0 -0.14487816473109921 -0.27579654209861931 0 -0.132640416096617 -0.27969181905677598 0 -0.1296698667638875 -0.26595416089586238 0 -0.132640416096617 -0.27969181905677598 0 -0.1296698667638875 -0.26595416089586238 0 -0.1193712189294322 -0.27877260701353213 0 -0.14487816473109921 -0.27579654209861931 0 -0.1296698667638875 -0.26595416089586238 0 -0.14188130786409961 -0.26044461795862539 0 -0.1296698667638875 -0.26595416089586238 0 -0.133676601901451 -0.25257419266825232 0 -0.14188130786409961 -0.26044461795862539 0 -0.1296698667638875 -0.26595416089586238 0 -0.133676601901451 -0.25257419266825232 0 -0.1211633612078321 -0.25046901761301937 0 -0.133676601901451 -0.25257419266825232 0 -0.14188130786409961 -0.26044461795862539 0 -0.14489600402984401 -0.24785179578435679 0 -0.15628590189421601 -0.26004639834603649 0 -0.14487816473109921 -0.27579654209861931 0 -0.14188130786409961 -0.26044461795862539 0 -0.15628590189421601 -0.26004639834603649 0 -0.15533815674961349 -0.24436674266429001 0 -0.14489600402984401 -0.24785179578435679 0 -0.15628590189421601 -0.26004639834603649 0 -0.14188130786409961 -0.26044461795862539 0 -0.14489600402984401 -0.24785179578435679 0 -0.16482306542293579 -0.38042793245751311 0 -0.15741204104076431 -0.3561613953165963 0 -0.18651791023145209 -0.36584376666870178 0 -0.16482306542293579 -0.38042793245751311 0 -0.15741204104076431 -0.3561613953165963 0 -0.14769016579911429 -0.37411897798284788 0 -0.15741204104076431 -0.3561613953165963 0 -0.18651791023145209 -0.36584376666870178 0 -0.17589327806136959 -0.33538904181950091 0 -0.19263579429636141 -0.30794173694709892 0 -0.16461546646963829 -0.30482505447579672 0 -0.17589327806136959 -0.33538904181950091 0 -0.16461546646963829 -0.30482505447579672 0 -0.17589327806136959 -0.33538904181950091 0 -0.15169668566913749 -0.32880253669639892 0 -0.15741204104076431 -0.3561613953165963 0 -0.17589327806136959 -0.33538904181950091 0 -0.15169668566913749 -0.32880253669639892 0 -0.15741204104076431 -0.3561613953165963 0 -0.15169668566913749 -0.32880253669639892 0 -0.13845917590957141 -0.34223026001071388 0 -0.16461546646963829 -0.30482505447579672 0 -0.14018665112810039 -0.30846577399565478 0 -0.15169668566913749 -0.32880253669639892 0 -0.14018665112810039 -0.30846577399565478 0 -0.15169668566913749 -0.32880253669639892 0 -0.12962254700005721 -0.32659582462884801 0 -0.14018665112810039 -0.30846577399565478 0 -0.12962254700005721 -0.32659582462884801 0 -0.1198765751022695 -0.31059615465344997 0 -0.12962254700005721 -0.32659582462884801 0 -0.13845917590957141 -0.34223026001071388 0 -0.11754052079790341 -0.34260524525902608 0 -0.15169668566913749 -0.32880253669639892 0 -0.12962254700005721 -0.32659582462884801 0 -0.13845917590957141 -0.34223026001071388 0 -0.13845917590957141 -0.34223026001071388 0 -0.1331333523291586 -0.35985768552156772 0 -0.11754052079790341 -0.34260524525902608 0 -0.15741204104076431 -0.3561613953165963 0 -0.13845917590957141 -0.34223026001071388 0 -0.1331333523291586 -0.35985768552156772 0 -0.15741204104076431 -0.3561613953165963 0 -0.14769016579911429 -0.37411897798284788 0 -0.1331333523291586 -0.35985768552156772 0 -0.1324737139895279 -0.38156968967221461 0 -0.14769016579911429 -0.37411897798284788 0 -0.1331333523291586 -0.35985768552156772 0 -0.1324737139895279 -0.38156968967221461 0 -0.1331333523291586 -0.35985768552156772 0 -0.1081898133327939 -0.36728426875769921 0 -0.1081898133327939 -0.36728426875769921 0 -0.085442700105856306 -0.3602809244362567 0 -0.1081898133327939 -0.36728426875769921 0 -0.085442700105856306 -0.3602809244362567 0 -0.090248853336356419 -0.38510713801451868 0 -0.1081898133327939 -0.36728426875769921 0 -0.095295896510132774 -0.34429158720256509 0 -0.085442700105856306 -0.3602809244362567 0 -0.1081898133327939 -0.36728426875769921 0 -0.095295896510132774 -0.34429158720256509 0 -0.11754052079790341 -0.34260524525902608 0 -0.1331333523291586 -0.35985768552156772 0 -0.1081898133327939 -0.36728426875769921 0 -0.11754052079790341 -0.34260524525902608 0 -0.12962254700005721 -0.32659582462884801 0 -0.11754052079790341 -0.34260524525902608 0 -0.1099756733933608 -0.32687497715784408 0 -0.12962254700005721 -0.32659582462884801 0 -0.1099756733933608 -0.32687497715784408 0 -0.1198765751022695 -0.31059615465344997 0 -0.1099756733933608 -0.32687497715784408 0 -0.10315830753685221 -0.31340023768398989 0 -0.1198765751022695 -0.31059615465344997 0 -0.1099756733933608 -0.32687497715784408 0 -0.10315830753685221 -0.31340023768398989 0 -0.091469460702114092 -0.32663220088805311 0 -0.10315830753685221 -0.31340023768398989 0 -0.089542056047893198 -0.31391395639485792 0 -0.091469460702114092 -0.32663220088805311 0 -0.095295896510132774 -0.34429158720256509 0 -0.11754052079790341 -0.34260524525902608 0 -0.1099756733933608 -0.32687497715784408 0 -0.095295896510132774 -0.34429158720256509 0 -0.1099756733933608 -0.32687497715784408 0 -0.091469460702114092 -0.32663220088805311 0 -0.095295896510132774 -0.34429158720256509 0 -0.082825402242906396 -0.33592425649424251 0 -0.091469460702114092 -0.32663220088805311 0 -0.095295896510132774 -0.34429158720256509 0 -0.082825402242906396 -0.33592425649424251 0 -0.076906209528589342 -0.3475643601617503 0 -0.082825402242906396 -0.33592425649424251 0 -0.080669660717701153 -0.32505401139680479 0 -0.071525930352803177 -0.33404841716412692 0 -0.082825402242906396 -0.33592425649424251 0 -0.091469460702114092 -0.32663220088805311 0 -0.080669660717701153 -0.32505401139680479 0 -0.089542056047893198 -0.31391395639485792 0 -0.091469460702114092 -0.32663220088805311 0 -0.080669660717701153 -0.32505401139680479 0 -0.089542056047893198 -0.31391395639485792 0 -0.080669660717701153 -0.32505401139680479 0 -0.077738741910086562 -0.31472519818810629 0 -0.077738741910086562 -0.31472519818810629 0 -0.071459126984834268 -0.3241073781223795 0 -0.066575733691644948 -0.31699733184104301 0 -0.077738741910086562 -0.31472519818810629 0 -0.066575733691644948 -0.31699733184104301 0 -0.072969933573113835 -0.30748509248116518 0 -0.080669660717701153 -0.32505401139680479 0 -0.071459126984834268 -0.3241073781223795 0 -0.071525930352803177 -0.33404841716412692 0 -0.080669660717701153 -0.32505401139680479 0 -0.077738741910086562 -0.31472519818810629 0 -0.071459126984834268 -0.3241073781223795 0 -0.071459126984834268 -0.3241073781223795 0 -0.066575733691644948 -0.31699733184104301 0 -0.063665861140279362 -0.32968026850946291 0 -0.082825402242906396 -0.33592425649424251 0 -0.071525930352803177 -0.33404841716412692 0 -0.076906209528589342 -0.3475643601617503 0 -0.071525930352803177 -0.33404841716412692 0 -0.064960344927782673 -0.3424790206820677 0 -0.076906209528589342 -0.3475643601617503 0 -0.071525930352803177 -0.33404841716412692 0 -0.063665861140279362 -0.32968026850946291 0 -0.064960344927782673 -0.3424790206820677 0 -0.071459126984834268 -0.3241073781223795 0 -0.071525930352803177 -0.33404841716412692 0 -0.063665861140279362 -0.32968026850946291 0 -0.062695586878918616 -0.3532775801148143 0 -0.065827513604356985 -0.36390520847841862 0 -0.085442700105856306 -0.3602809244362567 0 -0.076906209528589342 -0.3475643601617503 0 -0.062695586878918616 -0.3532775801148143 0 -0.085442700105856306 -0.3602809244362567 0 -0.064960344927782673 -0.3424790206820677 0 -0.076906209528589342 -0.3475643601617503 0 -0.062695586878918616 -0.3532775801148143 0 -0.062695586878918616 -0.3532775801148143 0 -0.085442700105856306 -0.3602809244362567 0 -0.065827513604356985 -0.36390520847841862 0 -0.085442700105856306 -0.3602809244362567 0 -0.070167868057358251 -0.37810281183176742 0 -0.065827513604356985 -0.36390520847841862 0 -0.055645102446688778 -0.37101202434693931 0 -0.070167868057358251 -0.37810281183176742 0 -0.085442700105856306 -0.3602809244362567 0 -0.090248853336356419 -0.38510713801451868 0 -0.070167868057358251 -0.37810281183176742 0 -0.095295896510132774 -0.34429158720256509 0 -0.076906209528589342 -0.3475643601617503 0 -0.085442700105856306 -0.3602809244362567 0 -0.099037796482378648 -0.263921838957415 0 -0.084735484443660622 -0.24752925842373499 0 -0.10419962477012849 -0.24840166149822179 0 -0.099037796482378648 -0.263921838957415 0 -0.11334723512464751 -0.26333882728217978 0 -0.10419962477012849 -0.24840166149822179 0 -0.1296698667638875 -0.26595416089586238 0 -0.1211633612078321 -0.25046901761301937 0 -0.11334723512464751 -0.26333882728217978 0 -0.1211633612078321 -0.25046901761301937 0 -0.11334723512464751 -0.26333882728217978 0 -0.10419962477012849 -0.24840166149822179 0 -0.1296698667638875 -0.26595416089586238 0 -0.11334723512464751 -0.26333882728217978 0 -0.1193712189294322 -0.27877260701353213 0 -0.11334723512464751 -0.26333882728217978 0 -0.1193712189294322 -0.27877260701353213 0 -0.1058495085004163 -0.27732777605678471 0 -0.099037796482378648 -0.263921838957415 0 -0.1058495085004163 -0.27732777605678471 0 -0.090845420923701722 -0.28309629514307039 0 -0.099037796482378648 -0.263921838957415 0 -0.11334723512464751 -0.26333882728217978 0 -0.1058495085004163 -0.27732777605678471 0 -0.1058495085004163 -0.27732777605678471 0 -0.1079545955104874 -0.29383063558157319 0 -0.090845420923701722 -0.28309629514307039 0 -0.1079545955104874 -0.29383063558157319 0 -0.091725538236425527 -0.30018566433739752 0 -0.090845420923701722 -0.28309629514307039 0 -0.1193712189294322 -0.27877260701353213 0 -0.1058495085004163 -0.27732777605678471 0 -0.1079545955104874 -0.29383063558157319 0 -0.12676569158053769 -0.29249242320801672 0 -0.1193712189294322 -0.27877260701353213 0 -0.1079545955104874 -0.29383063558157319 0 -0.12676569158053769 -0.29249242320801672 0 -0.1079545955104874 -0.29383063558157319 0 -0.1198765751022695 -0.31059615465344997 0 -0.10315830753685221 -0.31340023768398989 0 -0.1079545955104874 -0.29383063558157319 0 -0.1198765751022695 -0.31059615465344997 0 -0.10315830753685221 -0.31340023768398989 0 -0.1079545955104874 -0.29383063558157319 0 -0.091725538236425527 -0.30018566433739752 0 -0.10315830753685221 -0.31340023768398989 0 -0.089542056047893198 -0.31391395639485792 0 -0.091725538236425527 -0.30018566433739752 0 -0.089542056047893198 -0.31391395639485792 0 -0.091725538236425527 -0.30018566433739752 0 -0.08236589484487418 -0.30584077687932271 0 -0.091725538236425527 -0.30018566433739752 0 -0.08236589484487418 -0.30584077687932271 0 -0.080131564739416211 -0.29636749613776048 0 -0.08236589484487418 -0.30584077687932271 0 -0.072969933573113835 -0.30748509248116518 0 -0.080131564739416211 -0.29636749613776048 0 -0.089542056047893198 -0.31391395639485792 0 -0.077738741910086562 -0.31472519818810629 0 -0.08236589484487418 -0.30584077687932271 0 -0.077738741910086562 -0.31472519818810629 0 -0.08236589484487418 -0.30584077687932271 0 -0.072969933573113835 -0.30748509248116518 0 -0.066575733691644948 -0.31699733184104301 0 -0.072969933573113835 -0.30748509248116518 0 -0.065684322841083942 -0.30278108873697368 0 -0.072969933573113835 -0.30748509248116518 0 -0.065684322841083942 -0.30278108873697368 0 -0.071559850928203897 -0.29892825650642801 0 -0.064545836859961403 -0.2993402676103577 0 -0.065684322841083942 -0.30278108873697368 0 -0.064545836859961403 -0.2993402676103577 0 -0.065684322841083942 -0.30278108873697368 0 -0.071559850928203897 -0.29892825650642801 0 -0.072969933573113835 -0.30748509248116518 0 -0.071559850928203897 -0.29892825650642801 0 -0.080131564739416211 -0.29636749613776048 0 -0.071559850928203897 -0.29892825650642801 0 -0.080131564739416211 -0.29636749613776048 0 -0.074366698512984497 -0.28060118552032481 0 -0.064545836859961403 -0.2993402676103577 0 -0.071559850928203897 -0.29892825650642801 0 -0.074366698512984497 -0.28060118552032481 0 -0.064545836859961403 -0.2993402676103577 0 -0.074366698512984497 -0.28060118552032481 0 -0.056347516433288912 -0.27456266420150172 0 -0.064545836859961403 -0.2993402676103577 0 -0.074366698512984497 -0.28060118552032481 0 -0.090845420923701722 -0.28309629514307039 0 -0.080131564739416211 -0.29636749613776048 0 -0.074366698512984497 -0.28060118552032481 0 -0.091725538236425527 -0.30018566433739752 0 -0.090845420923701722 -0.28309629514307039 0 -0.080131564739416211 -0.29636749613776048 0 -0.099037796482378648 -0.263921838957415 0 -0.090845420923701722 -0.28309629514307039 0 -0.084187560166006273 -0.26186210343029098 0 -0.090845420923701722 -0.28309629514307039 0 -0.074366698512984497 -0.28060118552032481 0 -0.084187560166006273 -0.26186210343029098 0 -0.074366698512984497 -0.28060118552032481 0 -0.084187560166006273 -0.26186210343029098 0 -0.074366698512984497 -0.28060118552032481 0 -0.069496567584621013 -0.25885955043290959 0 -0.084187560166006273 -0.26186210343029098 0 -0.074366698512984497 -0.28060118552032481 0 -0.069496567584621013 -0.25885955043290959 0 -0.056347516433288912 -0.27456266420150172 0 -0.069496567584621013 -0.25885955043290959 0 -0.060448829213659488 -0.25318272383180729 0 -0.069871929085139714 -0.24061746932221709 0 -0.099037796482378648 -0.263921838957415 0 -0.084187560166006273 -0.26186210343029098 0 -0.084735484443660622 -0.24752925842373499 0 -0.069496567584621013 -0.25885955043290959 0 -0.084187560166006273 -0.26186210343029098 0 -0.084735484443660622 -0.24752925842373499 0 -0.037679908679877347 -0.2500595486970863 0 -0.039481749951316383 -0.2632541548990317 0 -0.026436026022765829 -0.24804826044618741 0 -0.037679908679877347 -0.2500595486970863 0 -0.039481749951316383 -0.2632541548990317 0 -0.048149196006618503 -0.2497850607926449 0 -0.039481749951316383 -0.2632541548990317 0 -0.056347516433288912 -0.27456266420150172 0 -0.048149196006618503 -0.2497850607926449 0 -0.069496567584621013 -0.25885955043290959 0 -0.060448829213659488 -0.25318272383180729 0 -0.056347516433288912 -0.27456266420150172 0 -0.056347516433288912 -0.27456266420150172 0 -0.048149196006618503 -0.2497850607926449 0 -0.060448829213659488 -0.25318272383180729 0 -0.056347516433288912 -0.27456266420150172 0 -0.048149196006618503 -0.2497850607926449 0 -0.039481749951316383 -0.2632541548990317 0 -0.041306033747936122 -0.27963418978942067 0 -0.021324587487928238 -0.27351131618496533 0 -0.039481749951316383 -0.2632541548990317 0 -0.056347516433288912 -0.27456266420150172 0 -0.041306033747936122 -0.27963418978942067 0 -0.041306033747936122 -0.27963418978942067 0 -0.037375201873153678 -0.29394146366601193 0 -0.021324587487928238 -0.27351131618496533 0 -0.041306033747936122 -0.27963418978942067 0 -0.037375201873153678 -0.29394146366601193 0 -0.052001112993993397 -0.29290134999559292 0 -0.056347516433288912 -0.27456266420150172 0 -0.041306033747936122 -0.27963418978942067 0 -0.052001112993993397 -0.29290134999559292 0 -0.064545836859961403 -0.2993402676103577 0 -0.056347516433288912 -0.27456266420150172 0 -0.064545836859961403 -0.2993402676103577 0 -0.056347516433288912 -0.27456266420150172 0 -0.052001112993993397 -0.29290134999559292 0 -0.064545836859961403 -0.2993402676103577 0 -0.065684322841083942 -0.30278108873697368 0 -0.052247155255971477 -0.32280725170186808 0 -0.064545836859961403 -0.2993402676103577 0 -0.049684526502909727 -0.30585023073918283 0 -0.052247155255971477 -0.32280725170186808 0 -0.064545836859961403 -0.2993402676103577 0 -0.052247155255971477 -0.32280725170186808 0 -0.064545836859961403 -0.2993402676103577 0 -0.052001112993993397 -0.29290134999559292 0 -0.049684526502909727 -0.30585023073918283 0 -0.049684526502909727 -0.30585023073918283 0 -0.036262026978577513 -0.30671101275581503 0 -0.052247155255971477 -0.32280725170186808 0 -0.037375201873153678 -0.29394146366601193 0 -0.049684526502909727 -0.30585023073918283 0 -0.036262026978577513 -0.30671101275581503 0 -0.037375201873153678 -0.29394146366601193 0 -0.052001112993993397 -0.29290134999559292 0 -0.049684526502909727 -0.30585023073918283 0 -0.036262026978577513 -0.30671101275581503 0 -0.016213148953090679 -0.29897437192374288 0 -0.030111300489291452 -0.31823299165535751 0 -0.037375201873153678 -0.29394146366601193 0 -0.036262026978577513 -0.30671101275581503 0 -0.016213148953090679 -0.29897437192374288 0 -0.016213148953090679 -0.29897437192374288 0 -0.00071537767241249797 -0.32089594914946479 0 0.0106582947817542 -0.30133372407665487 0 -0.016213148953090679 -0.29897437192374288 0 -0.0035048592993648111 -0.2831787560597297 0 -0.021324587487928238 -0.27351131618496533 0 -0.016213148953090679 -0.29897437192374288 0 -0.0035048592993648111 -0.2831787560597297 0 0.0106582947817542 -0.30133372407665487 0 -0.016213148953090679 -0.29897437192374288 0 -0.021324587487928238 -0.27351131618496533 0 -0.037375201873153678 -0.29394146366601193 0 -0.016213148953090679 -0.29897437192374288 0 -0.021324587487928238 -0.27351131618496533 0 -0.0035048592993648111 -0.2831787560597297 0 -0.021324587487928238 -0.27351131618496533 0 0.00024504688106969801 -0.25583511949747562 0 -0.021324587487928238 -0.27351131618496533 0 -0.026436026022765829 -0.24804826044618741 0 -0.021324587487928238 -0.27351131618496533 0 -0.026436026022765829 -0.24804826044618741 0 0.00024504688106969801 -0.25583511949747562 0 -0.039481749951316383 -0.2632541548990317 0 -0.021324587487928238 -0.27351131618496533 0 -0.026436026022765829 -0.24804826044618741 0 -0.039948473651979233 -0.34627423579337729 0 -0.035028235863563059 -0.35566248939853212 0 -0.055186310532962933 -0.35685270166231547 0 -0.035028235863563059 -0.35566248939853212 0 -0.055186310532962933 -0.35685270166231547 0 -0.039948473651979233 -0.34627423579337729 0 -0.035028235863563059 -0.35566248939853212 0 -0.039948473651979233 -0.34627423579337729 0 -0.024499109592794392 -0.34151771064776909 0 -0.039948473651979233 -0.34627423579337729 0 -0.035028235863563059 -0.35566248939853212 0 -0.024499109592794392 -0.34151771064776909 0 -0.035028235863563059 -0.35566248939853212 0 -0.036199852910278572 -0.37204627301946502 0 -0.044763497596444421 -0.36570292112665098 0 -0.035028235863563059 -0.35566248939853212 0 -0.044763497596444421 -0.36570292112665098 0 -0.055186310532962933 -0.35685270166231547 0 -0.036199852910278572 -0.37204627301946502 0 -0.044763497596444421 -0.36570292112665098 0 -0.044361187025453191 -0.3765948631082211 0 -0.044763497596444421 -0.36570292112665098 0 -0.055645102446688778 -0.37101202434693931 0 -0.055186310532962933 -0.35685270166231547 0 -0.044763497596444421 -0.36570292112665098 0 -0.055645102446688778 -0.37101202434693931 0 -0.044361187025453191 -0.3765948631082211 0 -0.065827513604356985 -0.36390520847841862 0 -0.055645102446688778 -0.37101202434693931 0 -0.055186310532962933 -0.35685270166231547 0 -0.062695586878918616 -0.3532775801148143 0 -0.065827513604356985 -0.36390520847841862 0 -0.055186310532962933 -0.35685270166231547 0 -0.062695586878918616 -0.3532775801148143 0 -0.039948473651979233 -0.34627423579337729 0 -0.055186310532962933 -0.35685270166231547 0 -0.062695586878918616 -0.3532775801148143 0 -0.039948473651979233 -0.34627423579337729 0 -0.055707820271830043 -0.34491826203388792 0 -0.062695586878918616 -0.3532775801148143 0 -0.039948473651979233 -0.34627423579337729 0 -0.064960344927782673 -0.3424790206820677 0 -0.062695586878918616 -0.3532775801148143 0 -0.055707820271830043 -0.34491826203388792 0 -0.039948473651979233 -0.34627423579337729 0 -0.055707820271830043 -0.34491826203388792 0 -0.055226875628639628 -0.33764221154529211 0 -0.063665861140279362 -0.32968026850946291 0 -0.064960344927782673 -0.3424790206820677 0 -0.055226875628639628 -0.33764221154529211 0 -0.064960344927782673 -0.3424790206820677 0 -0.055707820271830043 -0.34491826203388792 0 -0.055226875628639628 -0.33764221154529211 0 -0.039948473651979233 -0.34627423579337729 0 -0.055226875628639628 -0.33764221154529211 0 -0.052247155255971477 -0.32280725170186808 0 -0.063665861140279362 -0.32968026850946291 0 -0.055226875628639628 -0.33764221154529211 0 -0.052247155255971477 -0.32280725170186808 0 -0.066575733691644948 -0.31699733184104301 0 -0.065684322841083942 -0.30278108873697368 0 -0.052247155255971477 -0.32280725170186808 0 -0.066575733691644948 -0.31699733184104301 0 -0.063665861140279362 -0.32968026850946291 0 -0.052247155255971477 -0.32280725170186808 0 -0.036262026978577513 -0.30671101275581503 0 -0.052247155255971477 -0.32280725170186808 0 -0.030111300489291452 -0.31823299165535751 0 -0.052247155255971477 -0.32280725170186808 0 -0.033813426849704488 -0.33154396168486228 0 -0.030111300489291452 -0.31823299165535751 0 -0.039948473651979233 -0.34627423579337729 0 -0.052247155255971477 -0.32280725170186808 0 -0.039948473651979233 -0.34627423579337729 0 -0.052247155255971477 -0.32280725170186808 0 -0.033813426849704488 -0.33154396168486228 0 -0.039948473651979233 -0.34627423579337729 0 -0.033813426849704488 -0.33154396168486228 0 -0.024499109592794392 -0.34151771064776909 0 -0.033813426849704488 -0.33154396168486228 0 -0.024499109592794392 -0.34151771064776909 0 -0.018036758396354501 -0.32823077732829298 0 -0.024499109592794392 -0.34151771064776909 0 -0.018036758396354501 -0.32823077732829298 0 -0.0064887875579589431 -0.33914414189327291 0 -0.033813426849704488 -0.33154396168486228 0 -0.018036758396354501 -0.32823077732829298 0 -0.030111300489291452 -0.31823299165535751 0 -0.016213148953090679 -0.29897437192374288 0 -0.018036758396354501 -0.32823077732829298 0 -0.030111300489291452 -0.31823299165535751 0 -0.016213148953090679 -0.29897437192374288 0 -0.018036758396354501 -0.32823077732829298 0 -0.00071537767241249797 -0.32089594914946479 0 -0.018036758396354501 -0.32823077732829298 0 -0.00071537767241249797 -0.32089594914946479 0 -0.0064887875579589431 -0.33914414189327291 0 -0.01445380265719045 -0.35444769368396573 0 -0.005094240634022776 -0.36399048738348788 0 0.0061206305491817194 -0.3532328979693915 0 -0.01445380265719045 -0.35444769368396573 0 0.0061206305491817194 -0.3532328979693915 0 -0.024499109592794392 -0.34151771064776909 0 -0.0064887875579589431 -0.33914414189327291 0 -0.01445380265719045 -0.35444769368396573 0 -0.0064887875579589431 -0.33914414189327291 0 -0.01445380265719045 -0.35444769368396573 0 0.0061206305491817194 -0.3532328979693915 0 -0.035028235863563059 -0.35566248939853212 0 -0.01445380265719045 -0.35444769368396573 0 -0.035028235863563059 -0.35566248939853212 0 -0.01445380265719045 -0.35444769368396573 0 -0.0213823572081384 -0.36597843712993711 0 -0.035028235863563059 -0.35566248939853212 0 -0.024499109592794392 -0.34151771064776909 0 -0.01445380265719045 -0.35444769368396573 0 -0.035028235863563059 -0.35566248939853212 0 -0.021808297632521761 -0.38088731350145238 0 -0.035028235863563059 -0.35566248939853212 0 -0.036199852910278572 -0.37204627301946502 0 -0.021808297632521761 -0.38088731350145238 0 -0.035028235863563059 -0.35566248939853212 0 -0.0213823572081384 -0.36597843712993711 0 -0.021808297632521761 -0.38088731350145238 0 -0.01445380265719045 -0.35444769368396573 0 -0.0213823572081384 -0.36597843712993711 0 -0.013170816256919571 -0.36654517240563878 0 -0.0213823572081384 -0.36597843712993711 0 -0.01454839679227745 -0.37508660909969638 0 -0.021808297632521761 -0.38088731350145238 0 -0.0213823572081384 -0.36597843712993711 0 -0.013170816256919571 -0.36654517240563878 0 -0.01454839679227745 -0.37508660909969638 0 -0.013170816256919571 -0.36654517240563878 0 -0.0060682613240709924 -0.37238455121018821 0 -0.01454839679227745 -0.37508660909969638 0 -0.013170816256919571 -0.36654517240563878 0 -0.005094240634022776 -0.36399048738348788 0 -0.0060682613240709924 -0.37238455121018821 0 -0.01445380265719045 -0.35444769368396573 0 -0.013170816256919571 -0.36654517240563878 0 -0.005094240634022776 -0.36399048738348788 0 -0.005094240634022776 -0.36399048738348788 0 -0.0060682613240709924 -0.37238455121018821 0 0.0040815130034665562 -0.37227814972297701 0 -0.01454839679227745 -0.37508660909969638 0 -0.0043455370979135809 -0.39541487434033717 0 -0.002301545340072768 -0.38144261677986668 0 -0.01454839679227745 -0.37508660909969638 0 -0.0043455370979135809 -0.39541487434033717 0 -0.0060682613240709924 -0.37238455121018821 0 -0.002301545340072768 -0.38144261677986668 0 0.0040815130034665562 -0.37227814972297701 0 -0.01454839679227745 -0.37508660909969638 0 -0.0043455370979135809 -0.39541487434033717 0 -0.021808297632521761 -0.38088731350145238 0 -0.0060682613240709924 -0.37238455121018821 0 -0.002301545340072768 -0.38144261677986668 0 -0.01454839679227745 -0.37508660909969638 0 -0.0043455370979135809 -0.39541487434033717 0 -0.0085883594014833208 -0.40611213760437431 0 0.0058573225964503057 -0.41574313958097803 0 -0.0085883594014833208 -0.40611213760437431 0 -0.01583777026094332 -0.39944293907359629 0 -0.021808297632521761 -0.38088731350145238 0 -0.0043455370979135809 -0.39541487434033717 0 -0.0085883594014833208 -0.40611213760437431 0 -0.021808297632521761 -0.38088731350145238 0 -0.0085883594014833208 -0.40611213760437431 0 -0.021808297632521761 -0.38088731350145238 0 -0.01583777026094332 -0.39944293907359629 0 -0.042491154190180638 -0.40272426128735722 0 -0.01583777026094332 -0.39944293907359629 0 -0.042491154190180638 -0.40272426128735722 0 -0.02312878730928429 -0.4137746742506403 0 -0.01583777026094332 -0.39944293907359629 0 -0.031639822577762072 -0.39091148879046611 0 -0.042491154190180638 -0.40272426128735722 0 -0.01583777026094332 -0.39944293907359629 0 -0.021808297632521761 -0.38088731350145238 0 -0.031639822577762072 -0.39091148879046611 0 -0.021808297632521761 -0.38088731350145238 0 -0.035038046433410401 -0.38138377796246847 0 -0.031639822577762072 -0.39091148879046611 0 -0.036199852910278572 -0.37204627301946502 0 -0.021808297632521761 -0.38088731350145238 0 -0.035038046433410401 -0.38138377796246847 0 -0.036199852910278572 -0.37204627301946502 0 -0.035038046433410401 -0.38138377796246847 0 -0.044361187025453191 -0.3765948631082211 0 -0.035038046433410401 -0.38138377796246847 0 -0.044361187025453191 -0.3765948631082211 0 -0.042056858768387863 -0.3875206831144592 0 -0.035038046433410401 -0.38138377796246847 0 -0.042056858768387863 -0.3875206831144592 0 -0.031639822577762072 -0.39091148879046611 0 -0.042056858768387863 -0.3875206831144592 0 -0.031639822577762072 -0.39091148879046611 0 -0.042491154190180638 -0.40272426128735722 0 -0.042056858768387863 -0.3875206831144592 0 -0.042491154190180638 -0.40272426128735722 0 -0.056754083615132962 -0.38598902442378308 0 -0.042491154190180638 -0.40272426128735722 0 -0.056754083615132962 -0.38598902442378308 0 -0.069144538119417856 -0.40600558350111787 0 -0.042491154190180638 -0.40272426128735722 0 -0.069144538119417856 -0.40600558350111787 0 -0.055645102446688778 -0.37101202434693931 0 -0.056754083615132962 -0.38598902442378308 0 -0.070167868057358251 -0.37810281183176742 0 -0.055645102446688778 -0.37101202434693931 0 -0.044361187025453191 -0.3765948631082211 0 -0.056754083615132962 -0.38598902442378308 0 -0.044361187025453191 -0.3765948631082211 0 -0.042056858768387863 -0.3875206831144592 0 -0.056754083615132962 -0.38598902442378308 0 -0.042491154190180638 -0.40272426128735722 0 -0.054014596713494421 -0.4269014743127022 0 -0.069144538119417856 -0.40600558350111787 0 -0.042491154190180638 -0.40272426128735722 0 -0.054014596713494421 -0.4269014743127022 0 -0.037597930334493351 -0.42248487718702271 0 -0.042491154190180638 -0.40272426128735722 0 -0.037597930334493351 -0.42248487718702271 0 -0.02312878730928429 -0.4137746742506403 0 -0.054014596713494421 -0.4269014743127022 0 -0.037597930334493351 -0.42248487718702271 0 -0.040337133850569099 -0.44636072010154931 0 -0.037597930334493351 -0.42248487718702271 0 -0.024743170416154151 -0.4313842352903543 0 -0.040337133850569099 -0.44636072010154931 0 -0.037597930334493351 -0.42248487718702271 0 -0.024743170416154151 -0.4313842352903543 0 -0.02312878730928429 -0.4137746742506403 0 -0.024743170416154151 -0.4313842352903543 0 -0.02312878730928429 -0.4137746742506403 0 -0.012220369219442711 -0.42402813289585789 0 -0.0085883594014833208 -0.40611213760437431 0 -0.01583777026094332 -0.39944293907359629 0 -0.02312878730928429 -0.4137746742506403 0 -0.0085883594014833208 -0.40611213760437431 0 -0.02312878730928429 -0.4137746742506403 0 -0.012220369219442711 -0.42402813289585789 0 -0.0085883594014833208 -0.40611213760437431 0 0.0046315788295552187 -0.4313369617072963 0 -0.0085883594014833208 -0.40611213760437431 0 -0.012220369219442711 -0.42402813289585789 0 0.0046315788295552187 -0.4313369617072963 0 -0.012220369219442711 -0.42402813289585789 0 -0.0092731077998469934 -0.43753265562662452 0 0.0046315788295552187 -0.4313369617072963 0 -0.024743170416154151 -0.4313842352903543 0 -0.012220369219442711 -0.42402813289585789 0 -0.0092731077998469934 -0.43753265562662452 0 -0.00088972168063912731 -0.44219186557544948 0 -0.0092731077998469934 -0.43753265562662452 0 0.0046315788295552187 -0.4313369617072963 0 -0.00088972168063912731 -0.44219186557544948 0 -0.0092731077998469934 -0.43753265562662452 0 -0.0049109966380322459 -0.45110520302394008 0 -0.0049109966380322459 -0.45110520302394008 0 -0.021738366704081941 -0.46123363440405563 0 -0.02020055508173688 -0.44552328968930482 0 -0.0092731077998469934 -0.43753265562662452 0 -0.0049109966380322459 -0.45110520302394008 0 -0.02020055508173688 -0.44552328968930482 0 -0.00088972168063912731 -0.44219186557544948 0 -0.0049109966380322459 -0.45110520302394008 0 0.0032196226666316961 -0.44724249138027827 0 -0.0049109966380322459 -0.45110520302394008 0 -0.0060942376894543814 -0.46416944557302392 0 0.0056129295235970858 -0.45849178134335722 0 -0.0060942376894543814 -0.46416944557302392 0 -0.021738366704081941 -0.46123363440405563 0 -0.013021950601819361 -0.47811333693598118 0 -0.0049109966380322459 -0.45110520302394008 0 -0.0060942376894543814 -0.46416944557302392 0 -0.021738366704081941 -0.46123363440405563 0 -0.024743170416154151 -0.4313842352903543 0 -0.02020055508173688 -0.44552328968930482 0 -0.040337133850569099 -0.44636072010154931 0 -0.021738366704081941 -0.46123363440405563 0 -0.02020055508173688 -0.44552328968930482 0 -0.040337133850569099 -0.44636072010154931 0 -0.024743170416154151 -0.4313842352903543 0 -0.0092731077998469934 -0.43753265562662452 0 -0.02020055508173688 -0.44552328968930482 0 -0.0124456833313582 -0.5 0 -0.013021950601819361 -0.47811333693598118 0 0.002949759188172708 -0.48578715135778872 0 -0.013021950601819361 -0.47811333693598118 0 0.0035871959730645478 -0.47190327215778533 0 0.002949759188172708 -0.48578715135778872 0 -0.0060942376894543814 -0.46416944557302392 0 -0.013021950601819361 -0.47811333693598118 0 0.0035871959730645478 -0.47190327215778533 0 -0.021738366704081941 -0.46123363440405563 0 -0.013021950601819361 -0.47811333693598118 0 -0.029979332358554451 -0.48303054758709779 0 -0.0124456833313582 -0.5 0 -0.029979332358554451 -0.48303054758709779 0 -0.041714531280413192 -0.5 0 -0.0124456833313582 -0.5 0 -0.013021950601819361 -0.47811333693598118 0 -0.029979332358554451 -0.48303054758709779 0 -0.029979332358554451 -0.48303054758709779 0 -0.041714531280413192 -0.5 0 -0.046685072413589372 -0.47184194385236061 0 -0.021738366704081941 -0.46123363440405563 0 -0.029979332358554451 -0.48303054758709779 0 -0.046685072413589372 -0.47184194385236061 0 -0.041714531280413192 -0.5 0 -0.046685072413589372 -0.47184194385236061 0 -0.066201068117687334 -0.47932888331465562 0 -0.041714531280413192 -0.5 0 -0.070983379229468124 -0.5 0 -0.066201068117687334 -0.47932888331465562 0 -0.021738366704081941 -0.46123363440405563 0 -0.046685072413589372 -0.47184194385236061 0 -0.040337133850569099 -0.44636072010154931 0 -0.046685072413589372 -0.47184194385236061 0 -0.067281856035258436 -0.45190824074622149 0 -0.066201068117687334 -0.47932888331465562 0 -0.046685072413589372 -0.47184194385236061 0 -0.040337133850569099 -0.44636072010154931 0 -0.067281856035258436 -0.45190824074622149 0 -0.054014596713494421 -0.4269014743127022 0 -0.040337133850569099 -0.44636072010154931 0 -0.067281856035258436 -0.45190824074622149 0 -0.067281856035258436 -0.45190824074622149 0 -0.072995042555924539 -0.42536081390686159 0 -0.088950782616096846 -0.43598547198110782 0 -0.067281856035258436 -0.45190824074622149 0 -0.066201068117687334 -0.47932888331465562 0 -0.087463294569253003 -0.47314855548327411 0 -0.067281856035258436 -0.45190824074622149 0 -0.088653266434884095 -0.45373593573722548 0 -0.087463294569253003 -0.47314855548327411 0 -0.067281856035258436 -0.45190824074622149 0 -0.088653266434884095 -0.45373593573722548 0 -0.088950782616096846 -0.43598547198110782 0 -0.070983379229468124 -0.5 0 -0.066201068117687334 -0.47932888331465562 0 -0.087463294569253003 -0.47314855548327411 0 -0.070983379229468124 -0.5 0 -0.087463294569253003 -0.47314855548327411 0 -0.1002522271785231 -0.5 0 -0.087463294569253003 -0.47314855548327411 0 -0.1002522271785231 -0.5 0 -0.10835021462212829 -0.4799978881484131 0 -0.087463294569253003 -0.47314855548327411 0 -0.10835021462212829 -0.4799978881484131 0 -0.1089954475936509 -0.45313849189486199 0 -0.12739686211113951 -0.47267902552695912 0 -0.12952107512757799 -0.5 0 -0.10835021462212829 -0.4799978881484131 0 -0.12952107512757799 -0.5 0 -0.1002522271785231 -0.5 0 -0.10835021462212829 -0.4799978881484131 0 -0.1089954475936509 -0.45313849189486199 0 -0.1096591854971343 -0.4298213106241715 0 -0.088950782616096846 -0.43598547198110782 0 -0.088653266434884095 -0.45373593573722548 0 -0.1089954475936509 -0.45313849189486199 0 -0.088950782616096846 -0.43598547198110782 0 -0.088653266434884095 -0.45373593573722548 0 -0.087463294569253003 -0.47314855548327411 0 -0.1089954475936509 -0.45313849189486199 0 -0.13305422342256629 -0.45585323589074578 0 -0.12739686211113951 -0.47267902552695912 0 -0.1089954475936509 -0.45313849189486199 0 -0.12739686211113951 -0.47267902552695912 0 -0.10835021462212829 -0.4799978881484131 0 -0.1089954475936509 -0.45313849189486199 0 -0.13210046924937691 -0.43812745560136918 0 -0.1089954475936509 -0.45313849189486199 0 -0.1096591854971343 -0.4298213106241715 0 -0.13210046924937691 -0.43812745560136918 0 -0.13305422342256629 -0.45585323589074578 0 -0.1089954475936509 -0.45313849189486199 0 -0.13210046924937691 -0.43812745560136918 0 -0.1096591854971343 -0.4298213106241715 0 -0.12245130597789219 -0.41256822792863962 0 -0.1096591854971343 -0.4298213106241715 0 -0.095797922048655018 -0.4092869057148788 0 -0.088950782616096846 -0.43598547198110782 0 -0.095797922048655018 -0.4092869057148788 0 -0.12245130597789219 -0.41256822792863962 0 -0.1096591854971343 -0.4298213106241715 0 -0.095797922048655018 -0.4092869057148788 0 -0.12245130597789219 -0.41256822792863962 0 -0.095797922048655018 -0.4092869057148788 0 -0.12245130597789219 -0.41256822792863962 0 -0.1141105918935905 -0.3928235624283245 0 -0.13374979159626499 -0.39907784342358538 0 -0.12245130597789219 -0.41256822792863962 0 -0.1141105918935905 -0.3928235624283245 0 -0.1324737139895279 -0.38156968967221461 0 -0.1081898133327939 -0.36728426875769921 0 -0.1141105918935905 -0.3928235624283245 0 -0.1081898133327939 -0.36728426875769921 0 -0.1141105918935905 -0.3928235624283245 0 -0.090248853336356419 -0.38510713801451868 0 -0.095797922048655018 -0.4092869057148788 0 -0.1141105918935905 -0.3928235624283245 0 -0.090248853336356419 -0.38510713801451868 0 -0.095797922048655018 -0.4092869057148788 0 -0.090248853336356419 -0.38510713801451868 0 -0.069144538119417856 -0.40600558350111787 0 -0.056754083615132962 -0.38598902442378308 0 -0.070167868057358251 -0.37810281183176742 0 -0.069144538119417856 -0.40600558350111787 0 -0.090248853336356419 -0.38510713801451868 0 -0.070167868057358251 -0.37810281183176742 0 -0.069144538119417856 -0.40600558350111787 0 -0.054014596713494421 -0.4269014743127022 0 -0.069144538119417856 -0.40600558350111787 0 -0.072995042555924539 -0.42536081390686159 0 -0.054014596713494421 -0.4269014743127022 0 -0.067281856035258436 -0.45190824074622149 0 -0.072995042555924539 -0.42536081390686159 0 -0.095797922048655018 -0.4092869057148788 0 -0.072995042555924539 -0.42536081390686159 0 -0.088950782616096846 -0.43598547198110782 0 -0.095797922048655018 -0.4092869057148788 0 -0.069144538119417856 -0.40600558350111787 0 -0.095797922048655018 -0.4092869057148788 0 -0.069144538119417856 -0.40600558350111787 0 -0.072995042555924539 -0.42536081390686159 0 -0.079741780838211374 -0.084976598603155012 0 -0.090725534595571145 -0.080355832240318448 0 -0.07646927915634566 -0.075970979772019803 0 -0.079741780838211374 -0.084976598603155012 0 -0.090725534595571145 -0.080355832240318448 0 -0.082403332562072898 -0.094727181067946975 0 -0.090725534595571145 -0.080355832240318448 0 -0.090420607899726085 -0.07178693691837415 0 -0.096059743082537799 -0.077410256774782499 0 -0.090420607899726085 -0.07178693691837415 0 -0.084239227520782695 -0.06331609701190094 0 -0.07646927915634566 -0.075970979772019803 0 -0.090725534595571145 -0.080355832240318448 0 -0.090420607899726085 -0.07178693691837415 0 -0.07646927915634566 -0.075970979772019803 0 -0.084239227520782695 -0.06331609701190094 0 -0.057772948815808169 -0.061937991212737548 0 -0.07646927915634566 -0.075970979772019803 0 -0.066668816380432566 -0.088741435799671975 0 -0.057772948815808169 -0.061937991212737548 0 -0.084239227520782695 -0.06331609701190094 0 -0.07646927915634566 -0.075970979772019803 0 -0.057772948815808169 -0.061937991212737548 0 -0.079741780838211374 -0.084976598603155012 0 -0.066668816380432566 -0.088741435799671975 0 -0.082403332562072898 -0.094727181067946975 0 -0.079741780838211374 -0.084976598603155012 0 -0.07646927915634566 -0.075970979772019803 0 -0.066668816380432566 -0.088741435799671975 0 -0.066668816380432566 -0.088741435799671975 0 -0.082403332562072898 -0.094727181067946975 0 -0.081266935775000604 -0.1062679642639044 0 -0.066668816380432566 -0.088741435799671975 0 -0.075513308001846996 -0.1155618225024789 0 -0.066668816380432566 -0.088741435799671975 0 -0.075513308001846996 -0.1155618225024789 0 -0.060022263899450763 -0.10646730990085999 0 -0.066668816380432566 -0.088741435799671975 0 -0.075513308001846996 -0.1155618225024789 0 -0.081266935775000604 -0.1062679642639044 0 -0.075513308001846996 -0.1155618225024789 0 -0.057676160878965037 -0.122034910198639 0 -0.067929108130763347 -0.13455384253238439 0 -0.075513308001846996 -0.1155618225024789 0 -0.057676160878965037 -0.122034910198639 0 -0.060022263899450763 -0.10646730990085999 0 -0.091551120145272391 -0.1099714201295765 0 -0.095558559899628123 -0.11689609343698119 0 -0.092376705694973638 -0.13958700801883481 0 -0.085704256028387479 -0.1247366695190476 0 -0.091551120145272391 -0.1099714201295765 0 -0.092376705694973638 -0.13958700801883481 0 -0.091551120145272391 -0.1099714201295765 0 -0.092376705694973638 -0.13958700801883481 0 -0.075513308001846996 -0.1155618225024789 0 -0.085704256028387479 -0.1247366695190476 0 -0.083508904987626864 -0.1141344691037519 0 -0.075513308001846996 -0.1155618225024789 0 -0.083508904987626864 -0.1141344691037519 0 -0.081266935775000604 -0.1062679642639044 0 -0.083508904987626864 -0.1141344691037519 0 -0.091551120145272391 -0.1099714201295765 0 -0.081266935775000604 -0.1062679642639044 0 -0.085704256028387479 -0.1247366695190476 0 -0.083508904987626864 -0.1141344691037519 0 -0.091551120145272391 -0.1099714201295765 0 -0.090725534595571145 -0.080355832240318448 0 -0.091551120145272391 -0.1099714201295765 0 -0.082403332562072898 -0.094727181067946975 0 -0.090725534595571145 -0.080355832240318448 0 -0.091551120145272391 -0.1099714201295765 0 -0.095633963174267589 -0.095479890881432605 0 -0.090725534595571145 -0.080355832240318448 0 -0.091551120145272391 -0.1099714201295765 0 -0.091551120145272391 -0.1099714201295765 0 -0.082403332562072898 -0.094727181067946975 0 -0.081266935775000604 -0.1062679642639044 0 -0.095633963174267589 -0.095479890881432605 0 -0.10349903871305741 -0.10509818039768561 0 -0.098185000732098182 -0.085320141581431447 0 -0.10349903871305741 -0.10509818039768561 0 -0.098185000732098182 -0.085320141581431447 0 -0.091551120145272391 -0.1099714201295765 0 -0.095633963174267589 -0.095479890881432605 0 -0.097273142069503382 -0.1052935935581657 0 -0.095633963174267589 -0.095479890881432605 0 -0.097273142069503382 -0.1052935935581657 0 -0.10349903871305741 -0.10509818039768561 0 -0.091551120145272391 -0.1099714201295765 0 -0.097273142069503382 -0.1052935935581657 0 -0.099073118573187152 -0.11191218176918361 0 -0.097273142069503382 -0.1052935935581657 0 -0.10349903871305741 -0.10509818039768561 0 -0.099073118573187152 -0.11191218176918361 0 -0.10349903871305741 -0.10509818039768561 0 -0.099073118573187152 -0.11191218176918361 0 -0.10881307669401651 -0.1248762192139397 0 -0.10349903871305741 -0.10509818039768561 0 -0.10881307669401651 -0.1248762192139397 0 -0.095558559899628123 -0.11689609343698119 0 -0.099073118573187152 -0.11191218176918361 0 -0.10881307669401651 -0.1248762192139397 0 -0.095558559899628123 -0.11689609343698119 0 -0.10881307669401651 -0.1248762192139397 0 -0.0999446941900657 -0.12925163280406379 0 -0.091551120145272391 -0.1099714201295765 0 -0.095558559899628123 -0.11689609343698119 0 -0.099073118573187152 -0.11191218176918361 0 -0.095558559899628123 -0.11689609343698119 0 -0.10881307669401651 -0.1248762192139397 0 -0.10349903871305741 -0.10509818039768561 0 -0.10881307669401651 -0.1248762192139397 0 -0.1298083766661651 -0.1154066856681179 0 -0.10349903871305741 -0.10509818039768561 0 -0.12729292281487301 -0.089641500266321977 0 -0.1298083766661651 -0.1154066856681179 0 -0.098185000732098182 -0.085320141581431447 0 -0.12729292281487301 -0.089641500266321977 0 -0.11116089082247339 -0.077939314469110302 0 -0.12565215501394869 -0.075270613096626485 0 -0.12729292281487301 -0.089641500266321977 0 -0.098185000732098182 -0.085320141581431447 0 -0.11116089082247339 -0.077939314469110302 0 -0.12729292281487301 -0.089641500266321977 0 -0.10349903871305741 -0.10509818039768561 0 -0.098185000732098182 -0.085320141581431447 0 -0.12729292281487301 -0.089641500266321977 0 -0.098185000732098182 -0.085320141581431447 0 -0.096059743082537799 -0.077410256774782499 0 -0.11116089082247339 -0.077939314469110302 0 -0.098185000732098182 -0.085320141581431447 0 -0.095259260798618045 -0.084885786575418801 0 -0.096059743082537799 -0.077410256774782499 0 -0.098185000732098182 -0.085320141581431447 0 -0.096059743082537799 -0.077410256774782499 0 -0.090725534595571145 -0.080355832240318448 0 -0.095259260798618045 -0.084885786575418801 0 -0.096059743082537799 -0.077410256774782499 0 -0.098185000732098182 -0.085320141581431447 0 -0.095259260798618045 -0.084885786575418801 0 -0.090725534595571145 -0.080355832240318448 0 -0.095633963174267589 -0.095479890881432605 0 -0.095259260798618045 -0.084885786575418801 0 -0.095633963174267589 -0.095479890881432605 0 -0.098185000732098182 -0.085320141581431447 0 -0.095259260798618045 -0.084885786575418801 0 -0.090420607899726085 -0.07178693691837415 0 -0.096059743082537799 -0.077410256774782499 0 -0.1107055062257572 -0.064694202811064347 0 -0.084239227520782695 -0.06331609701190094 0 -0.1107055062257572 -0.064694202811064347 0 -0.090420607899726085 -0.07178693691837415 0 -0.084239227520782695 -0.06331609701190094 0 -0.1107055062257572 -0.064694202811064347 0 -0.096059743082537799 -0.077410256774782499 0 -0.1107055062257572 -0.064694202811064347 0 -0.11116089082247339 -0.077939314469110302 0 -0.1107055062257572 -0.064694202811064347 0 -0.13717178493073179 -0.066072308610227753 0 -0.1107055062257572 -0.064694202811064347 0 -0.13717178493073179 -0.066072308610227753 0 -0.12565215501394869 -0.075270613096626485 0 -0.1107055062257572 -0.064694202811064347 0 -0.11116089082247339 -0.077939314469110302 0 -0.12565215501394869 -0.075270613096626485 0 -0.1107055062257572 -0.064694202811064347 0 -0.12072901509081049 -0.055606870153676179 0 -0.1296178645725459 -0.05828272664711881 0 -0.1107055062257572 -0.064694202811064347 0 -0.12072901509081049 -0.055606870153676179 0 -0.1136605542908193 -0.049229856965917702 0 -0.12072901509081049 -0.055606870153676179 0 -0.1136605542908193 -0.049229856965917702 0 -0.12909348314102209 -0.048113565243073711 0 -0.1136605542908193 -0.049229856965917702 0 -0.1318435256229 -0.039986910284571513 0 -0.12909348314102209 -0.048113565243073711 0 -0.1019075972888443 -0.039550777096665317 0 -0.1235350187125325 -0.022546665772505459 0 -0.1318435256229 -0.039986910284571513 0 -0.1019075972888443 -0.039550777096665317 0 -0.1318435256229 -0.039986910284571513 0 -0.1136605542908193 -0.049229856965917702 0 -0.1019075972888443 -0.039550777096665317 0 -0.1318435256229 -0.039986910284571513 0 -0.1136605542908193 -0.049229856965917702 0 -0.1019075972888443 -0.039550777096665317 0 -0.092795029841810622 -0.048239574925654019 0 -0.084239227520782695 -0.06331609701190094 0 -0.1107055062257572 -0.064694202811064347 0 -0.092795029841810622 -0.048239574925654019 0 -0.1107055062257572 -0.064694202811064347 0 -0.1136605542908193 -0.049229856965917702 0 -0.092795029841810622 -0.048239574925654019 0 -0.115226511802166 -0.0051064212604388631 0 -0.1235350187125325 -0.022546665772505459 0 -0.115226511802166 -0.0051064212604388631 0 -0.1235350187125325 -0.022546665772505459 0 -0.1126788798780106 -0.017934170234351229 0 -0.115226511802166 -0.0051064212604388631 0 -0.1235350187125325 -0.022546665772505459 0 -0.13403602875563489 -0.0080065778185182575 0 -0.115226511802166 -0.0051064212604388631 0 -0.11364214257659171 -0.006178193437103463 0 -0.1088701870959535 0.0082360310321715341 0 -0.115226511802166 -0.0051064212604388631 0 -0.11364214257659171 -0.006178193437103463 0 -0.115226511802166 -0.0051064212604388631 0 -0.11364214257659171 -0.006178193437103463 0 -0.1126788798780106 -0.017934170234351229 0 -0.11364214257659171 -0.006178193437103463 0 -0.1126788798780106 -0.017934170234351229 0 -0.103400713868518 -0.0098829024848068395 0 -0.1019075972888443 -0.039550777096665317 0 -0.1235350187125325 -0.022546665772505459 0 -0.1126788798780106 -0.017934170234351229 0 -0.1019075972888443 -0.039550777096665317 0 -0.098378258021062787 -0.022584050870809329 0 -0.086497930842920692 -0.03154499744412384 0 -0.1019075972888443 -0.039550777096665317 0 -0.1126788798780106 -0.017934170234351229 0 -0.098378258021062787 -0.022584050870809329 0 -0.098378258021062787 -0.022584050870809329 0 -0.103400713868518 -0.0098829024848068395 0 -0.08878315768006409 -0.01509409520300372 0 -0.1126788798780106 -0.017934170234351229 0 -0.098378258021062787 -0.022584050870809329 0 -0.103400713868518 -0.0098829024848068395 0 -0.103400713868518 -0.0098829024848068395 0 -0.095495773167924874 -0.002391330978720841 0 -0.1088701870959535 0.0082360310321715341 0 -0.11364214257659171 -0.006178193437103463 0 -0.103400713868518 -0.0098829024848068395 0 -0.1088701870959535 0.0082360310321715341 0 -0.103400713868518 -0.0098829024848068395 0 -0.095495773167924874 -0.002391330978720841 0 -0.08878315768006409 -0.01509409520300372 0 -0.095495773167924874 -0.002391330978720841 0 -0.08878315768006409 -0.01509409520300372 0 -0.077201372329570958 -0.0024362297925788201 0 -0.08878315768006409 -0.01509409520300372 0 -0.071724897850387298 -0.021725059646982649 0 -0.077201372329570958 -0.0024362297925788201 0 -0.08878315768006409 -0.01509409520300372 0 -0.071724897850387298 -0.021725059646982649 0 -0.086497930842920692 -0.03154499744412384 0 -0.098378258021062787 -0.022584050870809329 0 -0.08878315768006409 -0.01509409520300372 0 -0.086497930842920692 -0.03154499744412384 0 -0.071724897850387298 -0.021725059646982649 0 -0.077201372329570958 -0.0024362297925788201 0 -0.059369039005888302 -0.0082183496493909575 0 -0.084239227520782695 -0.06331609701190094 0 -0.092795029841810622 -0.048239574925654019 0 -0.072025358400688161 -0.04305213915032944 0 -0.1019075972888443 -0.039550777096665317 0 -0.092795029841810622 -0.048239574925654019 0 -0.086497930842920692 -0.03154499744412384 0 -0.092795029841810622 -0.048239574925654019 0 -0.086497930842920692 -0.03154499744412384 0 -0.072025358400688161 -0.04305213915032944 0 -0.071724897850387298 -0.021725059646982649 0 -0.086497930842920692 -0.03154499744412384 0 -0.072025358400688161 -0.04305213915032944 0 -0.071724897850387298 -0.021725059646982649 0 -0.072025358400688161 -0.04305213915032944 0 -0.048423657320365403 -0.033414092817016121 0 -0.084239227520782695 -0.06331609701190094 0 -0.072025358400688161 -0.04305213915032944 0 -0.057772948815808169 -0.061937991212737548 0 -0.057772948815808169 -0.061937991212737548 0 -0.026453909574005379 -0.049159822129001017 0 -0.032676458149335973 -0.07546339026780384 0 -0.057772948815808169 -0.061937991212737548 0 -0.048423657320365403 -0.033414092817016121 0 -0.057772948815808169 -0.061937991212737548 0 -0.048423657320365403 -0.033414092817016121 0 -0.026453909574005379 -0.049159822129001017 0 -0.072025358400688161 -0.04305213915032944 0 -0.057772948815808169 -0.061937991212737548 0 -0.048423657320365403 -0.033414092817016121 0 -0.048423657320365403 -0.033414092817016121 0 -0.025452342722540291 -0.023200981153848829 0 -0.026453909574005379 -0.049159822129001017 0 -0.048423657320365403 -0.033414092817016121 0 -0.059369039005888302 -0.0082183496493909575 0 -0.039022989881712662 -0.0049071365371671782 0 -0.071724897850387298 -0.021725059646982649 0 -0.048423657320365403 -0.033414092817016121 0 -0.059369039005888302 -0.0082183496493909575 0 -0.048423657320365403 -0.033414092817016121 0 -0.039022989881712662 -0.0049071365371671782 0 -0.025452342722540291 -0.023200981153848829 0 -0.048423657320365403 -0.033414092817016121 0 -0.039022989881712662 -0.0049071365371671782 0 -0.039022989881712662 -0.0049071365371671782 0 -0.025452342722540291 -0.023200981153848829 0 -0.0068516570942758421 0.0027922451556188291 0 -0.025452342722540291 -0.023200981153848829 0 -0.0065094997423421836 -0.03131609944167868 0 -0.0068516570942758421 0.0027922451556188291 0 -0.025452342722540291 -0.023200981153848829 0 -0.026453909574005379 -0.049159822129001017 0 -0.0065094997423421836 -0.03131609944167868 0 -0.026453909574005379 -0.049159822129001017 0 -0.0065094997423421836 -0.03131609944167868 0 -0.0035523121447182762 -0.047781443243352088 0 -0.026453909574005379 -0.049159822129001017 0 -0.0035523121447182762 -0.047781443243352088 0 -0.0091045694076698595 -0.066017009141148927 0 -0.0035523121447182762 -0.047781443243352088 0 -0.0091045694076698595 -0.066017009141148927 0 0.01214608068858348 -0.058468125646932143 0 -0.0091045694076698595 -0.066017009141148927 0 -0.014838936978550731 -0.0872010892892984 0 0.0037294132351704638 -0.079436910830202309 0 -0.014838936978550731 -0.0872010892892984 0 0.0022731177162520662 -0.095704155261508966 0 0.0037294132351704638 -0.079436910830202309 0 -0.014838936978550731 -0.0872010892892984 0 -0.032676458149335973 -0.07546339026780384 0 -0.030886123543456 -0.1056707800224488 0 -0.0091045694076698595 -0.066017009141148927 0 -0.014838936978550731 -0.0872010892892984 0 -0.032676458149335973 -0.07546339026780384 0 -0.026453909574005379 -0.049159822129001017 0 -0.0091045694076698595 -0.066017009141148927 0 -0.032676458149335973 -0.07546339026780384 0 -0.057772948815808169 -0.061937991212737548 0 -0.032676458149335973 -0.07546339026780384 0 -0.045077850699408437 -0.092685942632230053 0 -0.032676458149335973 -0.07546339026780384 0 -0.045077850699408437 -0.092685942632230053 0 -0.030886123543456 -0.1056707800224488 0 -0.066668816380432566 -0.088741435799671975 0 -0.057772948815808169 -0.061937991212737548 0 -0.045077850699408437 -0.092685942632230053 0 -0.066668816380432566 -0.088741435799671975 0 -0.057772948815808169 -0.061937991212737548 0 -0.048344568165328207 -0.1108375653180442 0 -0.057676160878965037 -0.122034910198639 0 -0.040755284936197789 -0.124831451130107 0 -0.048344568165328207 -0.1108375653180442 0 -0.057676160878965037 -0.122034910198639 0 -0.060022263899450763 -0.10646730990085999 0 -0.066668816380432566 -0.088741435799671975 0 -0.045077850699408437 -0.092685942632230053 0 -0.060022263899450763 -0.10646730990085999 0 -0.045077850699408437 -0.092685942632230053 0 -0.048344568165328207 -0.1108375653180442 0 -0.060022263899450763 -0.10646730990085999 0 -0.045077850699408437 -0.092685942632230053 0 -0.048344568165328207 -0.1108375653180442 0 -0.030886123543456 -0.1056707800224488 0 -0.040755284936197789 -0.124831451130107 0 -0.030886123543456 -0.1056707800224488 0 -0.022723919274601038 -0.12992512066454301 0 -0.048344568165328207 -0.1108375653180442 0 -0.040755284936197789 -0.124831451130107 0 -0.030886123543456 -0.1056707800224488 0 -0.030886123543456 -0.1056707800224488 0 -0.0067497009323723104 -0.11410598435130299 0 -0.022723919274601038 -0.12992512066454301 0 -0.014838936978550731 -0.0872010892892984 0 -0.030886123543456 -0.1056707800224488 0 -0.0067497009323723104 -0.11410598435130299 0 -0.014838936978550731 -0.0872010892892984 0 -0.0067497009323723104 -0.11410598435130299 0 0.0022731177162520662 -0.095704155261508966 0 -0.0067497009323723104 -0.11410598435130299 0 -0.0045266551559220644 -0.13587719985184421 0 -0.022723919274601038 -0.12992512066454301 0 -0.022723919274601038 -0.12992512066454301 0 -0.017272654006297079 -0.15646756739094059 0 -0.035645421158068659 -0.14006329791259439 0 -0.0045266551559220644 -0.13587719985184421 0 -0.022723919274601038 -0.12992512066454301 0 -0.017272654006297079 -0.15646756739094059 0 -0.0045266551559220644 -0.13587719985184421 0 -0.017272654006297079 -0.15646756739094059 0 0.0028690433711086351 -0.15525856831387511 0 -0.017272654006297079 -0.15646756739094059 0 0.0012828736885149811 -0.17827542648663261 0 0.0028690433711086351 -0.15525856831387511 0 -0.0235542347266074 -0.17545225056607491 0 -0.017272654006297079 -0.15646756739094059 0 0.0012828736885149811 -0.17827542648663261 0 -0.0235542347266074 -0.17545225056607491 0 0.0012828736885149811 -0.17827542648663261 0 -0.0235542347266074 -0.17545225056607491 0 -0.0141894670521296 -0.19245546587468251 0 0.0012828736885149811 -0.17827542648663261 0 -0.0235542347266074 -0.17545225056607491 0 -0.037057498978648962 -0.1848469789322896 0 -0.031752555153277781 -0.20022985397493159 0 -0.0235542347266074 -0.17545225056607491 0 -0.017272654006297079 -0.15646756739094059 0 -0.04185112750976272 -0.15553175550329459 0 -0.0235542347266074 -0.17545225056607491 0 -0.017272654006297079 -0.15646756739094059 0 -0.0235542347266074 -0.17545225056607491 0 -0.046706599196502309 -0.1728205755424401 0 -0.04185112750976272 -0.15553175550329459 0 -0.037057498978648962 -0.1848469789322896 0 -0.046706599196502309 -0.1728205755424401 0 -0.049255916681542618 -0.19365034431407091 0 -0.0235542347266074 -0.17545225056607491 0 -0.046706599196502309 -0.1728205755424401 0 -0.0235542347266074 -0.17545225056607491 0 -0.037057498978648962 -0.1848469789322896 0 -0.046706599196502309 -0.1728205755424401 0 -0.046706599196502309 -0.1728205755424401 0 -0.058659731565703289 -0.18222335502722811 0 -0.049255916681542618 -0.19365034431407091 0 -0.046706599196502309 -0.1728205755424401 0 -0.058659731565703289 -0.18222335502722811 0 -0.069858963666397322 -0.17018890051880539 0 -0.046706599196502309 -0.1728205755424401 0 -0.058528178918083762 -0.1601693988562593 0 -0.069858963666397322 -0.17018890051880539 0 -0.046706599196502309 -0.1728205755424401 0 -0.058528178918083762 -0.1601693988562593 0 -0.04185112750976272 -0.15553175550329459 0 -0.046706599196502309 -0.1728205755424401 0 -0.069858963666397322 -0.17018890051880539 0 -0.06056841243908441 -0.1475606684820269 0 -0.05066398721013772 -0.1374793194363198 0 -0.04185112750976272 -0.15553175550329459 0 -0.058528178918083762 -0.1601693988562593 0 -0.06056841243908441 -0.1475606684820269 0 -0.04185112750976272 -0.15553175550329459 0 -0.06056841243908441 -0.1475606684820269 0 -0.05066398721013772 -0.1374793194363198 0 -0.067929108130763347 -0.13455384253238439 0 -0.057676160878965037 -0.122034910198639 0 -0.05066398721013772 -0.1374793194363198 0 -0.067929108130763347 -0.13455384253238439 0 -0.057676160878965037 -0.122034910198639 0 -0.040755284936197789 -0.124831451130107 0 -0.05066398721013772 -0.1374793194363198 0 -0.040755284936197789 -0.124831451130107 0 -0.022723919274601038 -0.12992512066454301 0 -0.035645421158068659 -0.14006329791259439 0 -0.040755284936197789 -0.124831451130107 0 -0.05066398721013772 -0.1374793194363198 0 -0.035645421158068659 -0.14006329791259439 0 -0.05066398721013772 -0.1374793194363198 0 -0.035645421158068659 -0.14006329791259439 0 -0.04185112750976272 -0.15553175550329459 0 -0.017272654006297079 -0.15646756739094059 0 -0.035645421158068659 -0.14006329791259439 0 -0.04185112750976272 -0.15553175550329459 0 -0.026436026022765829 -0.24804826044618741 0 -0.031547464557603377 -0.22258520470740981 0 -0.026436026022765829 -0.24804826044618741 0 -0.0086038720281311192 -0.23394438167644691 0 -0.01819109927057648 -0.22465919574300061 0 -0.0086038720281311192 -0.23394438167644691 0 0.00024504688106969801 -0.25583511949747562 0 0.0065068409169212974 -0.22813140075737029 0 -0.026436026022765829 -0.24804826044618741 0 -0.0086038720281311192 -0.23394438167644691 0 0.00024504688106969801 -0.25583511949747562 0 -0.0086038720281311192 -0.23394438167644691 0 -0.0011397733025324301 -0.21506894674116489 0 0.0065068409169212974 -0.22813140075737029 0 -0.0086038720281311192 -0.23394438167644691 0 -0.01819109927057648 -0.22465919574300061 0 -0.0011397733025324301 -0.21506894674116489 0 -0.026436026022765829 -0.24804826044618741 0 -0.01819109927057648 -0.22465919574300061 0 -0.031547464557603377 -0.22258520470740981 0 -0.01819109927057648 -0.22465919574300061 0 -0.01713342313757928 -0.21055216466984511 0 -0.031547464557603377 -0.22258520470740981 0 -0.01713342313757928 -0.21055216466984511 0 -0.031752555153277781 -0.20022985397493159 0 -0.031547464557603377 -0.22258520470740981 0 -0.01713342313757928 -0.21055216466984511 0 -0.0011397733025324301 -0.21506894674116489 0 -0.0026434654531786168 -0.19876829564483869 0 -0.01819109927057648 -0.22465919574300061 0 -0.01713342313757928 -0.21055216466984511 0 -0.0011397733025324301 -0.21506894674116489 0 -0.0026434654531786168 -0.19876829564483869 0 -0.0141894670521296 -0.19245546587468251 0 0.0012828736885149811 -0.17827542648663261 0 -0.01713342313757928 -0.21055216466984511 0 -0.0026434654531786168 -0.19876829564483869 0 -0.0141894670521296 -0.19245546587468251 0 -0.0235542347266074 -0.17545225056607491 0 -0.031752555153277781 -0.20022985397493159 0 -0.0235542347266074 -0.17545225056607491 0 -0.0141894670521296 -0.19245546587468251 0 -0.031752555153277781 -0.20022985397493159 0 -0.01713342313757928 -0.21055216466984511 0 -0.0141894670521296 -0.19245546587468251 0 -0.031752555153277781 -0.20022985397493159 0 -0.031752555153277781 -0.20022985397493159 0 -0.049255916681542618 -0.19365034431407091 0 -0.044621238166931212 -0.20849667954766149 0 -0.037057498978648962 -0.1848469789322896 0 -0.031752555153277781 -0.20022985397493159 0 -0.049255916681542618 -0.19365034431407091 0 -0.049255916681542618 -0.19365034431407091 0 -0.057202687707099527 -0.21690191468243791 0 -0.068817446718370923 -0.19223359973359591 0 -0.058659731565703289 -0.18222335502722811 0 -0.049255916681542618 -0.19365034431407091 0 -0.068817446718370923 -0.19223359973359591 0 -0.049255916681542618 -0.19365034431407091 0 -0.057202687707099527 -0.21690191468243791 0 -0.044621238166931212 -0.20849667954766149 0 -0.057202687707099527 -0.21690191468243791 0 -0.044621238166931212 -0.20849667954766149 0 -0.039950875579948128 -0.22500745738378819 0 -0.031752555153277781 -0.20022985397493159 0 -0.044621238166931212 -0.20849667954766149 0 -0.039950875579948128 -0.22500745738378819 0 -0.031752555153277781 -0.20022985397493159 0 -0.039950875579948128 -0.22500745738378819 0 -0.031752555153277781 -0.20022985397493159 0 -0.039950875579948128 -0.22500745738378819 0 -0.031547464557603377 -0.22258520470740981 0 -0.039950875579948128 -0.22500745738378819 0 -0.031547464557603377 -0.22258520470740981 0 -0.036652662738808697 -0.23915071865048121 0 -0.039950875579948128 -0.22500745738378819 0 -0.045446578403357051 -0.2416169990855711 0 -0.057202687707099527 -0.21690191468243791 0 -0.060763354862863217 -0.23215128045433159 0 -0.045446578403357051 -0.2416169990855711 0 -0.057202687707099527 -0.21690191468243791 0 -0.039950875579948128 -0.22500745738378819 0 -0.045446578403357051 -0.2416169990855711 0 -0.057202687707099527 -0.21690191468243791 0 -0.045446578403357051 -0.2416169990855711 0 -0.060763354862863217 -0.23215128045433159 0 -0.058378936958629293 -0.24208887440976351 0 -0.045446578403357051 -0.2416169990855711 0 -0.060448829213659488 -0.25318272383180729 0 -0.058378936958629293 -0.24208887440976351 0 -0.048149196006618503 -0.2497850607926449 0 -0.058378936958629293 -0.24208887440976351 0 -0.048149196006618503 -0.2497850607926449 0 -0.045446578403357051 -0.2416169990855711 0 -0.037679908679877347 -0.2500595486970863 0 -0.048149196006618503 -0.2497850607926449 0 -0.036652662738808697 -0.23915071865048121 0 -0.048149196006618503 -0.2497850607926449 0 -0.045446578403357051 -0.2416169990855711 0 -0.039950875579948128 -0.22500745738378819 0 -0.045446578403357051 -0.2416169990855711 0 -0.036652662738808697 -0.23915071865048121 0 -0.048149196006618503 -0.2497850607926449 0 -0.045446578403357051 -0.2416169990855711 0 -0.036652662738808697 -0.23915071865048121 0 -0.026436026022765829 -0.24804826044618741 0 -0.031547464557603377 -0.22258520470740981 0 -0.036652662738808697 -0.23915071865048121 0 -0.037679908679877347 -0.2500595486970863 0 -0.026436026022765829 -0.24804826044618741 0 -0.036652662738808697 -0.23915071865048121 0 -0.084735484443660622 -0.24752925842373499 0 -0.069871929085139714 -0.24061746932221709 0 -0.093255331516120837 -0.23360117398342689 0 -0.069496567584621013 -0.25885955043290959 0 -0.084735484443660622 -0.24752925842373499 0 -0.069871929085139714 -0.24061746932221709 0 -0.060448829213659488 -0.25318272383180729 0 -0.058378936958629293 -0.24208887440976351 0 -0.069871929085139714 -0.24061746932221709 0 -0.060763354862863217 -0.23215128045433159 0 -0.058378936958629293 -0.24208887440976351 0 -0.069871929085139714 -0.24061746932221709 0 -0.057202687707099527 -0.21690191468243791 0 -0.060763354862863217 -0.23215128045433159 0 -0.075294072129541367 -0.22504969695671609 0 -0.060763354862863217 -0.23215128045433159 0 -0.069871929085139714 -0.24061746932221709 0 -0.075294072129541367 -0.22504969695671609 0 -0.075294072129541367 -0.22504969695671609 0 -0.093255331516120837 -0.23360117398342689 0 -0.090885884193095387 -0.2185612249546319 0 -0.069871929085139714 -0.24061746932221709 0 -0.075294072129541367 -0.22504969695671609 0 -0.093255331516120837 -0.23360117398342689 0 -0.090885884193095387 -0.2185612249546319 0 -0.093083274181018416 -0.20507963518686059 0 -0.078077373364646027 -0.20978215113652479 0 -0.093083274181018416 -0.20507963518686059 0 -0.078077373364646027 -0.20978215113652479 0 -0.082964533920737937 -0.19984786441865041 0 -0.075294072129541367 -0.22504969695671609 0 -0.090885884193095387 -0.2185612249546319 0 -0.078077373364646027 -0.20978215113652479 0 -0.057202687707099527 -0.21690191468243791 0 -0.075294072129541367 -0.22504969695671609 0 -0.078077373364646027 -0.20978215113652479 0 -0.057202687707099527 -0.21690191468243791 0 -0.068817446718370923 -0.19223359973359591 0 -0.057202687707099527 -0.21690191468243791 0 -0.078077373364646027 -0.20978215113652479 0 -0.068817446718370923 -0.19223359973359591 0 -0.078077373364646027 -0.20978215113652479 0 -0.068817446718370923 -0.19223359973359591 0 -0.082964533920737937 -0.19984786441865041 0 -0.068817446718370923 -0.19223359973359591 0 -0.082714041146159781 -0.1910718450670981 0 -0.082964533920737937 -0.19984786441865041 0 -0.068817446718370923 -0.19223359973359591 0 -0.082714041146159781 -0.1910718450670981 0 -0.085248006262973269 -0.18062312757907431 0 -0.093083274181018416 -0.20507963518686059 0 -0.082964533920737937 -0.19984786441865041 0 -0.093826177682557022 -0.1915827885370717 0 -0.082714041146159781 -0.1910718450670981 0 -0.082964533920737937 -0.19984786441865041 0 -0.093826177682557022 -0.1915827885370717 0 -0.082714041146159781 -0.1910718450670981 0 -0.093826177682557022 -0.1915827885370717 0 -0.085248006262973269 -0.18062312757907431 0 -0.1009935683301685 -0.1928291731367579 0 -0.11377393430365899 -0.19903742602957961 0 -0.10878484541566109 -0.21645575036542289 0 -0.093083274181018416 -0.20507963518686059 0 -0.093826177682557022 -0.1915827885370717 0 -0.1009935683301685 -0.1928291731367579 0 -0.1009935683301685 -0.1928291731367579 0 -0.11377393430365899 -0.19903742602957961 0 -0.1122387073097289 -0.18660900211918979 0 -0.1222238318807243 -0.19205242747304041 0 -0.11377393430365899 -0.19903742602957961 0 -0.1122387073097289 -0.18660900211918979 0 -0.1222238318807243 -0.19205242747304041 0 -0.11377393430365899 -0.19903742602957961 0 -0.1246287185820121 -0.20724077705348731 0 -0.1246287185820121 -0.20724077705348731 0 -0.10878484541566109 -0.21645575036542289 0 -0.13052033559362511 -0.22137952670372549 0 -0.11377393430365899 -0.19903742602957961 0 -0.1246287185820121 -0.20724077705348731 0 -0.10878484541566109 -0.21645575036542289 0 -0.1009935683301685 -0.1928291731367579 0 -0.10878484541566109 -0.21645575036542289 0 -0.090885884193095387 -0.2185612249546319 0 -0.093083274181018416 -0.20507963518686059 0 -0.10878484541566109 -0.21645575036542289 0 -0.093083274181018416 -0.20507963518686059 0 -0.1009935683301685 -0.1928291731367579 0 -0.10878484541566109 -0.21645575036542289 0 -0.093255331516120837 -0.23360117398342689 0 -0.10878484541566109 -0.21645575036542289 0 -0.1148703868456416 -0.23425731518808349 0 -0.093255331516120837 -0.23360117398342689 0 -0.090885884193095387 -0.2185612249546319 0 -0.10878484541566109 -0.21645575036542289 0 -0.10878484541566109 -0.21645575036542289 0 -0.1148703868456416 -0.23425731518808349 0 -0.13052033559362511 -0.22137952670372549 0 -0.1211633612078321 -0.25046901761301937 0 -0.1148703868456416 -0.23425731518808349 0 -0.10419962477012849 -0.24840166149822179 0 -0.1211633612078321 -0.25046901761301937 0 -0.1148703868456416 -0.23425731518808349 0 -0.13121645184123629 -0.23828794814551679 0 -0.093255331516120837 -0.23360117398342689 0 -0.1148703868456416 -0.23425731518808349 0 -0.10419962477012849 -0.24840166149822179 0 -0.084735484443660622 -0.24752925842373499 0 -0.093255331516120837 -0.23360117398342689 0 -0.10419962477012849 -0.24840166149822179 0 -0.084357799623261481 -0.14238220920528591 0 -0.081483548106251164 -0.156547865320045 0 -0.093202291244675411 -0.16920259590809311 0 -0.092376705694973638 -0.13958700801883481 0 -0.093202291244675411 -0.16920259590809311 0 -0.084357799623261481 -0.14238220920528591 0 -0.093202291244675411 -0.16920259590809311 0 -0.084357799623261481 -0.14238220920528591 0 -0.092376705694973638 -0.13958700801883481 0 -0.093202291244675411 -0.16920259590809311 0 -0.084357799623261481 -0.14238220920528591 0 -0.072885951183526712 -0.1449173273946347 0 -0.077569855148817909 -0.14913994227230851 0 -0.084357799623261481 -0.14238220920528591 0 -0.077569855148817909 -0.14913994227230851 0 -0.081483548106251164 -0.156547865320045 0 -0.075513308001846996 -0.1155618225024789 0 -0.084357799623261481 -0.14238220920528591 0 -0.075513308001846996 -0.1155618225024789 0 -0.085704256028387479 -0.1247366695190476 0 -0.084357799623261481 -0.14238220920528591 0 -0.085704256028387479 -0.1247366695190476 0 -0.084357799623261481 -0.14238220920528591 0 -0.092376705694973638 -0.13958700801883481 0 -0.084357799623261481 -0.14238220920528591 0 -0.067929108130763347 -0.13455384253238439 0 -0.072885951183526712 -0.1449173273946347 0 -0.075513308001846996 -0.1155618225024789 0 -0.084357799623261481 -0.14238220920528591 0 -0.067929108130763347 -0.13455384253238439 0 -0.06056841243908441 -0.1475606684820269 0 -0.072885951183526712 -0.1449173273946347 0 -0.071552121682232281 -0.1527123671692685 0 -0.06056841243908441 -0.1475606684820269 0 -0.067929108130763347 -0.13455384253238439 0 -0.072885951183526712 -0.1449173273946347 0 -0.077569855148817909 -0.14913994227230851 0 -0.071552121682232281 -0.1527123671692685 0 -0.081483548106251164 -0.156547865320045 0 -0.072885951183526712 -0.1449173273946347 0 -0.077569855148817909 -0.14913994227230851 0 -0.071552121682232281 -0.1527123671692685 0 -0.058528178918083762 -0.1601693988562593 0 -0.06056841243908441 -0.1475606684820269 0 -0.071552121682232281 -0.1527123671692685 0 -0.058528178918083762 -0.1601693988562593 0 -0.069858963666397322 -0.17018890051880539 0 -0.072672744046854129 -0.16158384047652591 0 -0.058528178918083762 -0.1601693988562593 0 -0.071552121682232281 -0.1527123671692685 0 -0.072672744046854129 -0.16158384047652591 0 -0.069858963666397322 -0.17018890051880539 0 -0.072672744046854129 -0.16158384047652591 0 -0.080432205729642409 -0.16756528478475391 0 -0.071552121682232281 -0.1527123671692685 0 -0.072672744046854129 -0.16158384047652591 0 -0.081483548106251164 -0.156547865320045 0 -0.058659731565703289 -0.18222335502722811 0 -0.068817446718370923 -0.19223359973359591 0 -0.069858963666397322 -0.17018890051880539 0 -0.068817446718370923 -0.19223359973359591 0 -0.080432205729642409 -0.16756528478475391 0 -0.068817446718370923 -0.19223359973359591 0 -0.069858963666397322 -0.17018890051880539 0 -0.080432205729642409 -0.16756528478475391 0 -0.093826177682557022 -0.1915827885370717 0 -0.085248006262973269 -0.18062312757907431 0 -0.093202291244675411 -0.16920259590809311 0 -0.093826177682557022 -0.1915827885370717 0 -0.093202291244675411 -0.16920259590809311 0 -0.068817446718370923 -0.19223359973359591 0 -0.085248006262973269 -0.18062312757907431 0 -0.080432205729642409 -0.16756528478475391 0 -0.085248006262973269 -0.18062312757907431 0 -0.080432205729642409 -0.16756528478475391 0 -0.093202291244675411 -0.16920259590809311 0 -0.072672744046854129 -0.16158384047652591 0 -0.081483548106251164 -0.156547865320045 0 -0.080432205729642409 -0.16756528478475391 0 -0.081483548106251164 -0.156547865320045 0 -0.080432205729642409 -0.16756528478475391 0 -0.093202291244675411 -0.16920259590809311 0 -0.10487068481475199 -0.16575700975649429 0 -0.1182396963544777 -0.15996065975025081 0 -0.1011900211964266 -0.1541606229156274 0 -0.093202291244675411 -0.16920259590809311 0 -0.10487068481475199 -0.16575700975649429 0 -0.1011900211964266 -0.1541606229156274 0 -0.093202291244675411 -0.16920259590809311 0 -0.10487068481475199 -0.16575700975649429 0 -0.10308745777202021 -0.172903794510224 0 -0.10487068481475199 -0.16575700975649429 0 -0.10308745777202021 -0.172903794510224 0 -0.11111509450677159 -0.1743845544661306 0 -0.1009935683301685 -0.1928291731367579 0 -0.093202291244675411 -0.16920259590809311 0 -0.1031617605218817 -0.1822710179101783 0 -0.1009935683301685 -0.1928291731367579 0 -0.093202291244675411 -0.16920259590809311 0 -0.093826177682557022 -0.1915827885370717 0 -0.1009935683301685 -0.1928291731367579 0 -0.093202291244675411 -0.16920259590809311 0 -0.093202291244675411 -0.16920259590809311 0 -0.10308745777202021 -0.172903794510224 0 -0.1031617605218817 -0.1822710179101783 0 -0.10308745777202021 -0.172903794510224 0 -0.1031617605218817 -0.1822710179101783 0 -0.11111509450677159 -0.1743845544661306 0 -0.1031617605218817 -0.1822710179101783 0 -0.1122387073097289 -0.18660900211918979 0 -0.11111509450677159 -0.1743845544661306 0 -0.1009935683301685 -0.1928291731367579 0 -0.1031617605218817 -0.1822710179101783 0 -0.1122387073097289 -0.18660900211918979 0 -0.1222238318807243 -0.19205242747304041 0 -0.1122387073097289 -0.18660900211918979 0 -0.1245072925138984 -0.17470086501015991 0 -0.1122387073097289 -0.18660900211918979 0 -0.11111509450677159 -0.1743845544661306 0 -0.1245072925138984 -0.17470086501015991 0 -0.10487068481475199 -0.16575700975649429 0 -0.11111509450677159 -0.1743845544661306 0 -0.1182396963544777 -0.15996065975025081 0 -0.11111509450677159 -0.1743845544661306 0 -0.1245072925138984 -0.17470086501015991 0 -0.1182396963544777 -0.15996065975025081 0 -0.1182396963544777 -0.15996065975025081 0 -0.1135263865242471 -0.14241843948209529 0 -0.13083311856001631 -0.1381337906841402 0 -0.1182396963544777 -0.15996065975025081 0 -0.1135263865242471 -0.14241843948209529 0 -0.1011900211964266 -0.1541606229156274 0 -0.1182396963544777 -0.15996065975025081 0 -0.1135263865242471 -0.14241843948209529 0 -0.092376705694973638 -0.13958700801883481 0 -0.093202291244675411 -0.16920259590809311 0 -0.1011900211964266 -0.1541606229156274 0 -0.1135263865242471 -0.14241843948209529 0 -0.102530886971823 -0.14295332024076421 0 -0.1011900211964266 -0.1541606229156274 0 -0.092376705694973638 -0.13958700801883481 0 -0.102530886971823 -0.14295332024076421 0 -0.1011900211964266 -0.1541606229156274 0 -0.095558559899628123 -0.11689609343698119 0 -0.092376705694973638 -0.13958700801883481 0 -0.0999446941900657 -0.12925163280406379 0 -0.10881307669401651 -0.1248762192139397 0 -0.1135263865242471 -0.14241843948209529 0 -0.10303043447164451 -0.13564721054649931 0 -0.092376705694973638 -0.13958700801883481 0 -0.0999446941900657 -0.12925163280406379 0 -0.10303043447164451 -0.13564721054649931 0 -0.092376705694973638 -0.13958700801883481 0 -0.102530886971823 -0.14295332024076421 0 -0.10303043447164451 -0.13564721054649931 0 -0.1135263865242471 -0.14241843948209529 0 -0.102530886971823 -0.14295332024076421 0 -0.10303043447164451 -0.13564721054649931 0 -0.10881307669401651 -0.1248762192139397 0 -0.0999446941900657 -0.12925163280406379 0 -0.10303043447164451 -0.13564721054649931 0 -0.10881307669401651 -0.1248762192139397 0 -0.1135263865242471 -0.14241843948209529 0 -0.13083311856001631 -0.1381337906841402 0 -0.10881307669401651 -0.1248762192139397 0 -0.1135263865242471 -0.14241843948209529 0 -0.10881307669401651 -0.1248762192139397 0 -0.13083311856001631 -0.1381337906841402 0 -0.10881307669401651 -0.1248762192139397 0 -0.13083311856001631 -0.1381337906841402 0 -0.1298083766661651 -0.1154066856681179 0 -0.13083311856001631 -0.1381337906841402 0 -0.15186648996431951 -0.1286200371020009 0 -0.1298083766661651 -0.1154066856681179 0 -0.13083311856001631 -0.1381337906841402 0 -0.15186648996431951 -0.1286200371020009 0 -0.15285316042601621 -0.15139136215434071 0 -0.15186648996431951 -0.1286200371020009 0 -0.15285316042601621 -0.15139136215434071 0 -0.1622596675955125 -0.13883399944506089 0 -0.13083311856001631 -0.1381337906841402 0 -0.15285316042601621 -0.15139136215434071 0 -0.1182396963544777 -0.15996065975025081 0 -0.13083311856001631 -0.1381337906841402 0 -0.13522668580811559 -0.15798313216883419 0 -0.13083311856001631 -0.1381337906841402 0 -0.15285316042601621 -0.15139136215434071 0 -0.13522668580811559 -0.15798313216883419 0 -0.1245072925138984 -0.17470086501015991 0 -0.1182396963544777 -0.15996065975025081 0 -0.13522668580811559 -0.15798313216883419 0 -0.1245072925138984 -0.17470086501015991 0 -0.13522668580811559 -0.15798313216883419 0 -0.14854851708637021 -0.17835068054879091 0 -0.1222238318807243 -0.19205242747304041 0 -0.14854851708637021 -0.17835068054879091 0 -0.1222238318807243 -0.19205242747304041 0 -0.1245072925138984 -0.17470086501015991 0 -0.14854851708637021 -0.17835068054879091 0 -0.15285316042601621 -0.15139136215434071 0 -0.13522668580811559 -0.15798313216883419 0 -0.14854851708637021 -0.17835068054879091 0 -0.15285316042601621 -0.15139136215434071 0 -0.174873202292016 -0.16464893362454119 0 -0.14854851708637021 -0.17835068054879091 0 -0.174873202292016 -0.16464893362454119 0 -0.15285316042601621 -0.15139136215434071 0 -0.14854851708637021 -0.17835068054879091 0 -0.174873202292016 -0.16464893362454119 0 -0.14854851708637021 -0.17835068054879091 0 -0.16796060508240149 -0.18512046527019921 0 -0.174873202292016 -0.16464893362454119 0 -0.1826854542329 -0.18557156557060731 0 -0.174873202292016 -0.16464893362454119 0 -0.19959846420249169 -0.17953523261036061 0 -0.16796060508240149 -0.18512046527019921 0 -0.1826854542329 -0.18557156557060731 0 -0.174873202292016 -0.16464893362454119 0 -0.174873202292016 -0.16464893362454119 0 -0.19959846420249169 -0.17953523261036061 0 -0.174873202292016 -0.16464893362454119 0 -0.18423661973010991 -0.15977536438408679 0 -0.19959846420249169 -0.17953523261036061 0 -0.174873202292016 -0.16464893362454119 0 -0.18423661973010991 -0.15977536438408679 0 -0.17473396867935631 -0.14755214907287559 0 -0.174873202292016 -0.16464893362454119 0 -0.18423661973010991 -0.15977536438408679 0 -0.17473396867935631 -0.14755214907287559 0 -0.17599660612488319 -0.13228336281159969 0 -0.1908133508946111 -0.15635223870182891 0 -0.18423661973010991 -0.15977536438408679 0 -0.17473396867935631 -0.14755214907287559 0 -0.1908133508946111 -0.15635223870182891 0 -0.18118768875882929 -0.13431168533837401 0 -0.17599660612488319 -0.13228336281159969 0 -0.1908133508946111 -0.15635223870182891 0 -0.17599660612488319 -0.13228336281159969 0 -0.1908133508946111 -0.15635223870182891 0 -0.18423661973010991 -0.15977536438408679 0 -0.17473396867935631 -0.14755214907287559 0 -0.18118768875882929 -0.13431168533837401 0 -0.18126593710075051 -0.12635574114724801 0 -0.19015539867693579 -0.1285387666385743 0 -0.17599660612488319 -0.13228336281159969 0 -0.16611339645627241 -0.12856149282286861 0 -0.17496282812726621 -0.12196745928974161 0 -0.18118768875882929 -0.13431168533837401 0 -0.18126593710075051 -0.12635574114724801 0 -0.17599660612488319 -0.13228336281159969 0 -0.18126593710075051 -0.12635574114724801 0 -0.17599660612488319 -0.13228336281159969 0 -0.17496282812726621 -0.12196745928974161 0 -0.17599660612488319 -0.13228336281159969 0 -0.16611339645627241 -0.12856149282286861 0 -0.1622596675955125 -0.13883399944506089 0 -0.17473396867935631 -0.14755214907287559 0 -0.17599660612488319 -0.13228336281159969 0 -0.1622596675955125 -0.13883399944506089 0 -0.15186648996431951 -0.1286200371020009 0 -0.16611339645627241 -0.12856149282286861 0 -0.1622596675955125 -0.13883399944506089 0 -0.15285316042601621 -0.15139136215434071 0 -0.17473396867935631 -0.14755214907287559 0 -0.1622596675955125 -0.13883399944506089 0 -0.15285316042601621 -0.15139136215434071 0 -0.174873202292016 -0.16464893362454119 0 -0.17473396867935631 -0.14755214907287559 0 -0.15533815674961349 -0.24436674266429001 0 -0.14592299532698369 -0.2336721432322294 0 -0.16011914974671271 -0.23450347800616159 0 -0.15533815674961349 -0.24436674266429001 0 -0.14489600402984401 -0.24785179578435679 0 -0.14592299532698369 -0.2336721432322294 0 -0.14489600402984401 -0.24785179578435679 0 -0.13121645184123629 -0.23828794814551679 0 -0.14592299532698369 -0.2336721432322294 0 -0.133676601901451 -0.25257419266825232 0 -0.14489600402984401 -0.24785179578435679 0 -0.13121645184123629 -0.23828794814551679 0 -0.133676601901451 -0.25257419266825232 0 -0.1211633612078321 -0.25046901761301937 0 -0.13121645184123629 -0.23828794814551679 0 -0.1148703868456416 -0.23425731518808349 0 -0.13121645184123629 -0.23828794814551679 0 -0.13052033559362511 -0.22137952670372549 0 -0.13121645184123629 -0.23828794814551679 0 -0.13052033559362511 -0.22137952670372549 0 -0.14592299532698369 -0.2336721432322294 0 -0.13052033559362511 -0.22137952670372549 0 -0.14592299532698369 -0.2336721432322294 0 -0.1518085541995019 -0.2176565768649254 0 -0.14592299532698369 -0.2336721432322294 0 -0.1518085541995019 -0.2176565768649254 0 -0.16011914974671271 -0.23450347800616159 0 -0.1518085541995019 -0.2176565768649254 0 -0.1376387950836879 -0.2024384034315562 0 -0.15811384651288021 -0.19957647341126319 0 -0.1518085541995019 -0.2176565768649254 0 -0.1376387950836879 -0.2024384034315562 0 -0.13052033559362511 -0.22137952670372549 0 -0.1518085541995019 -0.2176565768649254 0 -0.1376387950836879 -0.2024384034315562 0 -0.1246287185820121 -0.20724077705348731 0 -0.13052033559362511 -0.22137952670372549 0 -0.1376387950836879 -0.2024384034315562 0 -0.1222238318807243 -0.19205242747304041 0 -0.14854851708637021 -0.17835068054879091 0 -0.1376387950836879 -0.2024384034315562 0 -0.1222238318807243 -0.19205242747304041 0 -0.1246287185820121 -0.20724077705348731 0 -0.1376387950836879 -0.2024384034315562 0 -0.14854851708637021 -0.17835068054879091 0 -0.1376387950836879 -0.2024384034315562 0 -0.15811384651288021 -0.19957647341126319 0 -0.16796060508240149 -0.18512046527019921 0 -0.15811384651288021 -0.19957647341126319 0 -0.17543912934887659 -0.20001681798744561 0 -0.14854851708637021 -0.17835068054879091 0 -0.16796060508240149 -0.18512046527019921 0 -0.15811384651288021 -0.19957647341126319 0 -0.1826854542329 -0.18557156557060731 0 -0.17543912934887659 -0.20001681798744561 0 -0.19527011836078559 -0.20366066794379409 0 -0.16796060508240149 -0.18512046527019921 0 -0.1826854542329 -0.18557156557060731 0 -0.17543912934887659 -0.20001681798744561 0 -0.17543912934887659 -0.20001681798744561 0 -0.18576536336814489 -0.21355482456018601 0 -0.19527011836078559 -0.20366066794379409 0 -0.17543912934887659 -0.20001681798744561 0 -0.18576536336814489 -0.21355482456018601 0 -0.16953441120875309 -0.21535776708519261 0 -0.18576536336814489 -0.21355482456018601 0 -0.16953441120875309 -0.21535776708519261 0 -0.18645497960433499 -0.22718265562314671 0 -0.15811384651288021 -0.19957647341126319 0 -0.17543912934887659 -0.20001681798744561 0 -0.16953441120875309 -0.21535776708519261 0 -0.1518085541995019 -0.2176565768649254 0 -0.15811384651288021 -0.19957647341126319 0 -0.16953441120875309 -0.21535776708519261 0 -0.1518085541995019 -0.2176565768649254 0 -0.16953441120875309 -0.21535776708519261 0 -0.16597831331531571 -0.23287475029829471 0 -0.1518085541995019 -0.2176565768649254 0 -0.16597831331531571 -0.23287475029829471 0 -0.16011914974671271 -0.23450347800616159 0 -0.1518085541995019 -0.2176565768649254 0 -0.16597831331531571 -0.23287475029829471 0 -0.16597831331531571 -0.23287475029829471 0 -0.16011914974671271 -0.23450347800616159 0 -0.16953441120875309 -0.21535776708519261 0 -0.16597831331531571 -0.23287475029829471 0 -0.18645497960433499 -0.22718265562314671 0 -0.16597831331531571 -0.23287475029829471 0 -0.18645497960433499 -0.22718265562314671 0 -0.18076106004731249 -0.23697699127832361 0 -0.16597831331531571 -0.23287475029829471 0 -0.18645497960433499 -0.22718265562314671 0 -0.16597831331531571 -0.23287475029829471 0 -0.1800619699911267 -0.2480004506095525 0 -0.16597831331531571 -0.23287475029829471 0 -0.18076106004731249 -0.23697699127832361 0 -0.1800619699911267 -0.2480004506095525 0 -0.18076106004731249 -0.23697699127832361 0 -0.1800619699911267 -0.2480004506095525 0 -0.19013797293464271 -0.24075832243545531 0 -0.18645497960433499 -0.22718265562314671 0 -0.18076106004731249 -0.23697699127832361 0 -0.19013797293464271 -0.24075832243545531 0 -0.16597831331531571 -0.23287475029829471 0 -0.1800619699911267 -0.2480004506095525 0 -0.16658918924755431 -0.24642551003272711 0 -0.16597831331531571 -0.23287475029829471 0 -0.16658918924755431 -0.24642551003272711 0 -0.16011914974671271 -0.23450347800616159 0 -0.15533815674961349 -0.24436674266429001 0 -0.16658918924755431 -0.24642551003272711 0 -0.16011914974671271 -0.23450347800616159 0 -0.21643980561120099 -0.25084770210860802 0 -0.2137389961994737 -0.23789116766202881 0 -0.20342667864636929 -0.24140926617106809 0 -0.21643980561120099 -0.25084770210860802 0 -0.2137389961994737 -0.23789116766202881 0 -0.22269057867770689 -0.24293433632284631 0 -0.18645497960433499 -0.22718265562314671 0 -0.20342667864636929 -0.24140926617106809 0 -0.19013797293464271 -0.24075832243545531 0 -0.1941456266669376 -0.26312615092081038 0 -0.20342667864636929 -0.24140926617106809 0 -0.19013797293464271 -0.24075832243545531 0 -0.18645497960433499 -0.22718265562314671 0 -0.20693164589335439 -0.2214905609479986 0 -0.18576536336814489 -0.21355482456018601 0 -0.18645497960433499 -0.22718265562314671 0 -0.20693164589335439 -0.2214905609479986 0 -0.18645497960433499 -0.22718265562314671 0 -0.20342667864636929 -0.24140926617106809 0 -0.20693164589335439 -0.2214905609479986 0 -0.2137389961994737 -0.23789116766202881 0 -0.20693164589335439 -0.2214905609479986 0 -0.22039491714348389 -0.23094288342617261 0 -0.2137389961994737 -0.23789116766202881 0 -0.20342667864636929 -0.24140926617106809 0 -0.20693164589335439 -0.2214905609479986 0 -0.20693164589335439 -0.2214905609479986 0 -0.22199400571811689 -0.22346345906552731 0 -0.22039491714348389 -0.23094288342617261 0 -0.20693164589335439 -0.2214905609479986 0 -0.22740831218237331 -0.21579846627284879 0 -0.20693164589335439 -0.2214905609479986 0 -0.21318456483435219 -0.20976685638135409 0 -0.19527011836078559 -0.20366066794379409 0 -0.21318456483435219 -0.20976685638135409 0 -0.21277653849906381 -0.19648612753997019 0 -0.22595461279563581 -0.21343702246957991 0 -0.20693164589335439 -0.2214905609479986 0 -0.21318456483435219 -0.20976685638135409 0 -0.22595461279563581 -0.21343702246957991 0 -0.21318456483435219 -0.20976685638135409 0 -0.19527011836078559 -0.20366066794379409 0 -0.21277653849906381 -0.19648612753997019 0 -0.18576536336814489 -0.21355482456018601 0 -0.20693164589335439 -0.2214905609479986 0 -0.19527011836078559 -0.20366066794379409 0 -0.19527011836078559 -0.20366066794379409 0 -0.21277653849906381 -0.19648612753997019 0 -0.19959846420249169 -0.17953523261036061 0 -0.1826854542329 -0.18557156557060731 0 -0.19527011836078559 -0.20366066794379409 0 -0.19959846420249169 -0.17953523261036061 0 -0.21277653849906381 -0.19648612753997019 0 -0.19959846420249169 -0.17953523261036061 0 -0.21277653849906381 -0.19648612753997019 0 -0.21713510448982781 -0.19911028241132761 0 -0.22595461279563581 -0.21343702246957991 0 -0.21277653849906381 -0.19648612753997019 0 -0.21713510448982781 -0.19911028241132761 0 -0.20831559618401979 -0.1847835423530752 0 -0.21713510448982781 -0.19911028241132761 0 -0.20831559618401979 -0.1847835423530752 0 -0.21713510448982781 -0.19911028241132761 0 -0.21575347406467241 -0.18926165362050271 0 -0.20831559618401979 -0.1847835423530752 0 -0.21713510448982781 -0.19911028241132761 0 -0.21575347406467241 -0.18926165362050271 0 -0.2272615607590818 -0.19575956472261069 0 -0.21575347406467241 -0.18926165362050271 0 -0.2272615607590818 -0.19575956472261069 0 -0.22491175049650439 -0.18241024474067441 0 -0.21713510448982781 -0.19911028241132761 0 -0.2272615607590818 -0.19575956472261069 0 -0.22605716308036711 -0.20346082080584299 0 -0.2272615607590818 -0.19575956472261069 0 -0.23387737427692259 -0.20553641361985431 0 -0.22605716308036711 -0.20346082080584299 0 -0.2272615607590818 -0.19575956472261069 0 -0.24124723605477649 -0.18103098293506359 0 -0.24252181593451819 -0.19539625923945991 0 -0.23387737427692259 -0.20553641361985431 0 -0.25408758587801827 -0.2083821735230276 0 -0.2272615607590818 -0.19575956472261069 0 -0.24252181593451819 -0.19539625923945991 0 -0.24124723605477649 -0.18103098293506359 0 -0.24252181593451819 -0.19539625923945991 0 -0.24124723605477649 -0.18103098293506359 0 -0.25506960027900177 -0.18743648878686539 0 -0.2272615607590818 -0.19575956472261069 0 -0.24252181593451819 -0.19539625923945991 0 -0.23387737427692259 -0.20553641361985431 0 -0.22740831218237331 -0.21579846627284879 0 -0.2374775042075859 -0.22825886344676219 0 -0.25408758587801827 -0.2083821735230276 0 -0.22740831218237331 -0.21579846627284879 0 -0.25408758587801827 -0.2083821735230276 0 -0.22740831218237331 -0.21579846627284879 0 -0.23387737427692259 -0.20553641361985431 0 -0.25408758587801827 -0.2083821735230276 0 -0.20693164589335439 -0.2214905609479986 0 -0.22740831218237331 -0.21579846627284879 0 -0.22595461279563581 -0.21343702246957991 0 -0.22740831218237331 -0.21579846627284879 0 -0.23387737427692259 -0.20553641361985431 0 -0.22595461279563581 -0.21343702246957991 0 -0.21277653849906381 -0.19648612753997019 0 -0.22595461279563581 -0.21343702246957991 0 -0.22740831218237331 -0.21579846627284879 0 -0.22595461279563581 -0.21343702246957991 0 -0.23387737427692259 -0.20553641361985431 0 -0.22605716308036711 -0.20346082080584299 0 -0.22595461279563581 -0.21343702246957991 0 -0.21713510448982781 -0.19911028241132761 0 -0.22595461279563581 -0.21343702246957991 0 -0.21713510448982781 -0.19911028241132761 0 -0.22605716308036711 -0.20346082080584299 0 -0.22595461279563581 -0.21343702246957991 0 -0.20693164589335439 -0.2214905609479986 0 -0.22740831218237331 -0.21579846627284879 0 -0.22199400571811689 -0.22346345906552731 0 -0.22740831218237331 -0.21579846627284879 0 -0.22199400571811689 -0.22346345906552731 0 -0.22816333831310351 -0.22362828956038561 0 -0.22199400571811689 -0.22346345906552731 0 -0.22821210941822459 -0.22772963299319909 0 -0.22816333831310351 -0.22362828956038561 0 -0.22039491714348389 -0.23094288342617261 0 -0.22821210941822459 -0.22772963299319909 0 -0.22852642902222881 -0.23585563080589941 0 -0.22199400571811689 -0.22346345906552731 0 -0.22039491714348389 -0.23094288342617261 0 -0.22821210941822459 -0.22772963299319909 0 -0.22821210941822459 -0.22772963299319909 0 -0.23196737010202251 -0.2322858665947175 0 -0.2368633969096279 -0.2311576605067161 0 -0.22821210941822459 -0.22772963299319909 0 -0.22816333831310351 -0.22362828956038561 0 -0.2368633969096279 -0.2311576605067161 0 -0.22821210941822459 -0.22772963299319909 0 -0.23196737010202251 -0.2322858665947175 0 -0.22852642902222881 -0.23585563080589941 0 -0.23196737010202251 -0.2322858665947175 0 -0.2368633969096279 -0.2311576605067161 0 -0.23389592352061581 -0.23443616348006871 0 -0.23196737010202251 -0.2322858665947175 0 -0.23389592352061581 -0.23443616348006871 0 -0.22852642902222881 -0.23585563080589941 0 -0.22740831218237331 -0.21579846627284879 0 -0.2368633969096279 -0.2311576605067161 0 -0.22740831218237331 -0.21579846627284879 0 -0.2374775042075859 -0.22825886344676219 0 -0.2368633969096279 -0.2311576605067161 0 -0.22740831218237331 -0.21579846627284879 0 -0.2374775042075859 -0.22825886344676219 0 -0.22740831218237331 -0.21579846627284879 0 -0.22816333831310351 -0.22362828956038561 0 -0.2368633969096279 -0.2311576605067161 0 -0.2374775042075859 -0.22825886344676219 0 -0.24723245661878671 -0.2408066128101595 0 -0.25418108496048908 -0.2253388114944665 0 -0.2374775042075859 -0.22825886344676219 0 -0.25418108496048908 -0.2253388114944665 0 -0.25408758587801827 -0.2083821735230276 0 -0.2374775042075859 -0.22825886344676219 0 -0.2368633969096279 -0.2311576605067161 0 -0.24723245661878671 -0.2408066128101595 0 -0.2368633969096279 -0.2311576605067161 0 -0.23563406620373181 -0.23869399094826621 0 -0.246318481636882 -0.24651685474058371 0 -0.2368633969096279 -0.2311576605067161 0 -0.23563406620373181 -0.23869399094826621 0 -0.23389592352061581 -0.23443616348006871 0 -0.2368633969096279 -0.2311576605067161 0 -0.246318481636882 -0.24651685474058371 0 -0.2374775042075859 -0.22825886344676219 0 -0.24723245661878671 -0.2408066128101595 0 -0.2368633969096279 -0.2311576605067161 0 -0.24723245661878671 -0.2408066128101595 0 -0.246318481636882 -0.24651685474058371 0 -0.24723245661878671 -0.2408066128101595 0 -0.246318481636882 -0.24651685474058371 0 -0.25430487877873142 -0.2463809903912782 0 -0.24600714451458441 -0.25444927941191592 0 -0.246318481636882 -0.24651685474058371 0 -0.25430487877873142 -0.2463809903912782 0 -0.24224057098266269 -0.25022626791248759 0 -0.246318481636882 -0.24651685474058371 0 -0.23868877876693431 -0.24663366575695589 0 -0.23563406620373181 -0.23869399094826621 0 -0.23868877876693431 -0.24663366575695589 0 -0.23186755267698561 -0.2448229521010889 0 -0.23794787901225001 -0.25330527174049489 0 -0.23868877876693431 -0.24663366575695589 0 -0.23186755267698561 -0.2448229521010889 0 -0.23563406620373181 -0.23869399094826621 0 -0.246318481636882 -0.24651685474058371 0 -0.23868877876693431 -0.24663366575695589 0 -0.22823748671299449 -0.25415354987929822 0 -0.23186755267698561 -0.2448229521010889 0 -0.22269057867770689 -0.24293433632284631 0 -0.23186755267698561 -0.2448229521010889 0 -0.22852642902222881 -0.23585563080589941 0 -0.22269057867770689 -0.24293433632284631 0 -0.23563406620373181 -0.23869399094826621 0 -0.23186755267698561 -0.2448229521010889 0 -0.22852642902222881 -0.23585563080589941 0 -0.23563406620373181 -0.23869399094826621 0 -0.23389592352061581 -0.23443616348006871 0 -0.22852642902222881 -0.23585563080589941 0 -0.22039491714348389 -0.23094288342617261 0 -0.22852642902222881 -0.23585563080589941 0 -0.22269057867770689 -0.24293433632284631 0 -0.2137389961994737 -0.23789116766202881 0 -0.22039491714348389 -0.23094288342617261 0 -0.22269057867770689 -0.24293433632284631 0 -0.22823748671299449 -0.25415354987929822 0 -0.21643980561120099 -0.25084770210860802 0 -0.22269057867770689 -0.24293433632284631 0 -0.21359618439810241 -0.1481648640407951 0 -0.2058736170545678 -0.13827220544317001 0 -0.23055954535030651 -0.14223272554796501 0 -0.20332930574923619 -0.14983780388166901 0 -0.21359618439810241 -0.1481648640407951 0 -0.2058736170545678 -0.13827220544317001 0 -0.20332930574923619 -0.14983780388166901 0 -0.21359618439810241 -0.1481648640407951 0 -0.21031245368532681 -0.16097557832863041 0 -0.21359618439810241 -0.1481648640407951 0 -0.21031245368532681 -0.16097557832863041 0 -0.22037934500006939 -0.15431234496764959 0 -0.2058736170545678 -0.13827220544317001 0 -0.23055954535030651 -0.14223272554796501 0 -0.2155426192270124 -0.12758322291067689 0 -0.2058736170545678 -0.13827220544317001 0 -0.23055954535030651 -0.14223272554796501 0 -0.2155426192270124 -0.12758322291067689 0 -0.2051439587042834 -0.12789450643092259 0 -0.2058736170545678 -0.13827220544317001 0 -0.18118768875882929 -0.13431168533837401 0 -0.2058736170545678 -0.13827220544317001 0 -0.18118768875882929 -0.13431168533837401 0 -0.2058736170545678 -0.13827220544317001 0 -0.19303052958482789 -0.14350932793285101 0 -0.2058736170545678 -0.13827220544317001 0 -0.19691436367081069 -0.1255270908600605 0 -0.19015539867693579 -0.1285387666385743 0 -0.18118768875882929 -0.13431168533837401 0 -0.2058736170545678 -0.13827220544317001 0 -0.19015539867693579 -0.1285387666385743 0 -0.2051439587042834 -0.12789450643092259 0 -0.2058736170545678 -0.13827220544317001 0 -0.19691436367081069 -0.1255270908600605 0 -0.18118768875882929 -0.13431168533837401 0 -0.19303052958482789 -0.14350932793285101 0 -0.1908133508946111 -0.15635223870182891 0 -0.20332930574923619 -0.14983780388166901 0 -0.2058736170545678 -0.13827220544317001 0 -0.19303052958482789 -0.14350932793285101 0 -0.20332930574923619 -0.14983780388166901 0 -0.19303052958482789 -0.14350932793285101 0 -0.1908133508946111 -0.15635223870182891 0 -0.20332930574923619 -0.14983780388166901 0 -0.1908133508946111 -0.15635223870182891 0 -0.20332930574923619 -0.14983780388166901 0 -0.1908133508946111 -0.15635223870182891 0 -0.2010048959671222 -0.15943337785989509 0 -0.18423661973010991 -0.15977536438408679 0 -0.1908133508946111 -0.15635223870182891 0 -0.18423661973010991 -0.15977536438408679 0 -0.199564473539315 -0.17056789052745239 0 -0.19959846420249169 -0.17953523261036061 0 -0.1908133508946111 -0.15635223870182891 0 -0.199564473539315 -0.17056789052745239 0 -0.18423661973010991 -0.15977536438408679 0 -0.1908133508946111 -0.15635223870182891 0 -0.199564473539315 -0.17056789052745239 0 -0.18423661973010991 -0.15977536438408679 0 -0.19959846420249169 -0.17953523261036061 0 -0.1908133508946111 -0.15635223870182891 0 -0.199564473539315 -0.17056789052745239 0 -0.2010048959671222 -0.15943337785989509 0 -0.199564473539315 -0.17056789052745239 0 -0.19959846420249169 -0.17953523261036061 0 -0.20831559618401979 -0.1847835423530752 0 -0.21277653849906381 -0.19648612753997019 0 -0.19959846420249169 -0.17953523261036061 0 -0.20831559618401979 -0.1847835423530752 0 -0.19959846420249169 -0.17953523261036061 0 -0.20831559618401979 -0.1847835423530752 0 -0.199564473539315 -0.17056789052745239 0 -0.20831559618401979 -0.1847835423530752 0 -0.199564473539315 -0.17056789052745239 0 -0.20831559618401979 -0.1847835423530752 0 -0.21409080735021049 -0.17674716126004539 0 -0.21575347406467241 -0.18926165362050271 0 -0.20831559618401979 -0.1847835423530752 0 -0.21409080735021049 -0.17674716126004539 0 -0.21575347406467241 -0.18926165362050271 0 -0.21409080735021049 -0.17674716126004539 0 -0.22491175049650439 -0.18241024474067441 0 -0.21575347406467241 -0.18926165362050271 0 -0.20831559618401979 -0.1847835423530752 0 -0.21409080735021049 -0.17674716126004539 0 -0.21031245368532681 -0.16097557832863041 0 -0.2262056742537806 -0.16925186116514979 0 -0.199564473539315 -0.17056789052745239 0 -0.21409080735021049 -0.17674716126004539 0 -0.21031245368532681 -0.16097557832863041 0 -0.20332930574923619 -0.14983780388166901 0 -0.2010048959671222 -0.15943337785989509 0 -0.21031245368532681 -0.16097557832863041 0 -0.199564473539315 -0.17056789052745239 0 -0.2010048959671222 -0.15943337785989509 0 -0.21031245368532681 -0.16097557832863041 0 -0.2262056742537806 -0.16925186116514979 0 -0.23142091915560911 -0.15786637206837509 0 -0.22037934500006939 -0.15431234496764959 0 -0.21031245368532681 -0.16097557832863041 0 -0.2262056742537806 -0.16925186116514979 0 -0.22037934500006939 -0.15431234496764959 0 -0.2262056742537806 -0.16925186116514979 0 -0.23142091915560911 -0.15786637206837509 0 -0.2399262676511805 -0.16662889015635821 0 -0.2262056742537806 -0.16925186116514979 0 -0.22491175049650439 -0.18241024474067441 0 -0.24124723605477649 -0.18103098293506359 0 -0.2272615607590818 -0.19575956472261069 0 -0.22491175049650439 -0.18241024474067441 0 -0.24124723605477649 -0.18103098293506359 0 -0.21409080735021049 -0.17674716126004539 0 -0.2262056742537806 -0.16925186116514979 0 -0.22491175049650439 -0.18241024474067441 0 -0.2262056742537806 -0.16925186116514979 0 -0.24124723605477649 -0.18103098293506359 0 -0.2399262676511805 -0.16662889015635821 0 -0.24124723605477649 -0.18103098293506359 0 -0.25523291135046933 -0.16630240114751471 0 -0.23142091915560911 -0.15786637206837509 0 -0.2399262676511805 -0.16662889015635821 0 -0.24289622835038829 -0.15426756334773939 0 -0.24124723605477649 -0.18103098293506359 0 -0.2399262676511805 -0.16662889015635821 0 -0.25523291135046933 -0.16630240114751471 0 -0.24289622835038829 -0.15426756334773939 0 -0.25523291135046933 -0.16630240114751471 0 -0.2399262676511805 -0.16662889015635821 0 -0.24289622835038829 -0.15426756334773939 0 -0.25523291135046933 -0.16630240114751471 0 -0.2356322541765761 -0.1430465724104989 0 -0.24647632213571591 -0.134271778900137 0 -0.2535146270831537 -0.14591555495672981 0 -0.24289622835038829 -0.15426756334773939 0 -0.2356322541765761 -0.1430465724104989 0 -0.2535146270831537 -0.14591555495672981 0 -0.2356322541765761 -0.1430465724104989 0 -0.2535146270831537 -0.14591555495672981 0 -0.23142091915560911 -0.15786637206837509 0 -0.24289622835038829 -0.15426756334773939 0 -0.23055954535030651 -0.14223272554796501 0 -0.24289622835038829 -0.15426756334773939 0 -0.2356322541765761 -0.1430465724104989 0 -0.23055954535030651 -0.14223272554796501 0 -0.24289622835038829 -0.15426756334773939 0 -0.23055954535030651 -0.14223272554796501 0 -0.23142091915560911 -0.15786637206837509 0 -0.23055954535030651 -0.14223272554796501 0 -0.22037934500006939 -0.15431234496764959 0 -0.21359618439810241 -0.1481648640407951 0 -0.23055954535030651 -0.14223272554796501 0 -0.22037934500006939 -0.15431234496764959 0 -0.2356322541765761 -0.1430465724104989 0 -0.23055954535030651 -0.14223272554796501 0 -0.2155426192270124 -0.12758322291067689 0 -0.22813417487052809 -0.12949497413197419 0 -0.22145720828966761 -0.1225986215808095 0 -0.2155426192270124 -0.12758322291067689 0 -0.23055954535030651 -0.14223272554796501 0 -0.2155426192270124 -0.12758322291067689 0 -0.23055954535030651 -0.14223272554796501 0 -0.22813417487052809 -0.12949497413197419 0 -0.23055954535030651 -0.14223272554796501 0 -0.22813417487052809 -0.12949497413197419 0 -0.234996849620774 -0.13479918853265441 0 -0.2356322541765761 -0.1430465724104989 0 -0.23055954535030651 -0.14223272554796501 0 -0.234996849620774 -0.13479918853265441 0 -0.22813417487052809 -0.12949497413197419 0 -0.23510871861306051 -0.12795550952335549 0 -0.234996849620774 -0.13479918853265441 0 -0.22813417487052809 -0.12949497413197419 0 -0.23510871861306051 -0.12795550952335549 0 -0.23114010812234781 -0.12180057669638319 0 -0.23510871861306051 -0.12795550952335549 0 -0.24647632213571591 -0.134271778900137 0 -0.2402148448148054 -0.1201688021298917 0 -0.23510871861306051 -0.12795550952335549 0 -0.234996849620774 -0.13479918853265441 0 -0.24647632213571591 -0.134271778900137 0 -0.2356322541765761 -0.1430465724104989 0 -0.234996849620774 -0.13479918853265441 0 -0.24647632213571591 -0.134271778900137 0 -0.24647632213571591 -0.134271778900137 0 -0.2402148448148054 -0.1201688021298917 0 -0.25192184582056321 -0.119995052330732 0 -0.2402148448148054 -0.1201688021298917 0 -0.23114010812234781 -0.12180057669638319 0 -0.23182343696199001 -0.1106747283465153 0 -0.23510871861306051 -0.12795550952335549 0 -0.2402148448148054 -0.1201688021298917 0 -0.23114010812234781 -0.12180057669638319 0 -0.2402148448148054 -0.1201688021298917 0 -0.2452399921806995 -0.1081871923746404 0 -0.23182343696199001 -0.1106747283465153 0 -0.2402148448148054 -0.1201688021298917 0 -0.2452399921806995 -0.1081871923746404 0 -0.25192184582056321 -0.119995052330732 0 -0.2452399921806995 -0.1081871923746404 0 -0.2362338782186606 -0.097553964579630559 0 -0.24938867277774421 -0.092037661685869493 0 -0.2452399921806995 -0.1081871923746404 0 -0.2362338782186606 -0.097553964579630559 0 -0.23182343696199001 -0.1106747283465153 0 -0.22111596590607591 -0.094404305882352241 0 -0.22145720828966761 -0.1225986215808095 0 -0.23182343696199001 -0.1106747283465153 0 -0.2362338782186606 -0.097553964579630559 0 -0.22111596590607591 -0.094404305882352241 0 -0.23182343696199001 -0.1106747283465153 0 -0.22111596590607591 -0.094404305882352241 0 -0.22145720828966761 -0.1225986215808095 0 -0.21376294977179419 -0.1084241399475095 0 -0.22111596590607591 -0.094404305882352241 0 -0.22145720828966761 -0.1225986215808095 0 -0.22145720828966761 -0.1225986215808095 0 -0.23114010812234781 -0.12180057669638319 0 -0.23182343696199001 -0.1106747283465153 0 -0.22813417487052809 -0.12949497413197419 0 -0.22145720828966761 -0.1225986215808095 0 -0.23114010812234781 -0.12180057669638319 0 -0.24521486289106231 -0.072759743293940402 0 -0.23287590059929131 -0.05966165640294821 0 -0.24521486289106231 -0.072759743293940402 0 -0.23162040814456769 -0.07170521227300021 0 -0.23287590059929131 -0.05966165640294821 0 -0.24521486289106231 -0.072759743293940402 0 -0.2340226782123376 -0.084337960001188539 0 -0.23162040814456769 -0.07170521227300021 0 -0.24521486289106231 -0.072759743293940402 0 -0.24938867277774421 -0.092037661685869493 0 -0.2340226782123376 -0.084337960001188539 0 -0.2362338782186606 -0.097553964579630559 0 -0.24938867277774421 -0.092037661685869493 0 -0.2340226782123376 -0.084337960001188539 0 -0.22111596590607591 -0.094404305882352241 0 -0.22077472352248431 -0.066209990183895007 0 -0.22111596590607591 -0.094404305882352241 0 -0.22211099933511569 -0.075884836417515644 0 -0.22077472352248431 -0.066209990183895007 0 -0.22111596590607591 -0.094404305882352241 0 -0.2340226782123376 -0.084337960001188539 0 -0.22211099933511569 -0.075884836417515644 0 -0.2362338782186606 -0.097553964579630559 0 -0.22111596590607591 -0.094404305882352241 0 -0.2340226782123376 -0.084337960001188539 0 -0.2340226782123376 -0.084337960001188539 0 -0.23162040814456769 -0.07170521227300021 0 -0.22211099933511569 -0.075884836417515644 0 -0.23162040814456769 -0.07170521227300021 0 -0.22211099933511569 -0.075884836417515644 0 -0.22077472352248431 -0.066209990183895007 0 -0.22211099933511569 -0.075884836417515644 0 -0.22077472352248431 -0.066209990183895007 0 -0.23162040814456769 -0.07170521227300021 0 -0.22077472352248431 -0.066209990183895007 0 -0.23287590059929131 -0.05966165640294821 0 -0.20846127365176989 -0.06805360734498464 0 -0.20526693354592521 -0.0753675681268898 0 -0.19985948816774551 -0.065684254996135588 0 -0.20846127365176989 -0.06805360734498464 0 -0.19985948816774551 -0.065684254996135588 0 -0.20402198711769959 -0.056198553571609147 0 -0.22077472352248431 -0.066209990183895007 0 -0.20846127365176989 -0.06805360734498464 0 -0.21287478596693979 -0.057764078996018708 0 -0.22077472352248431 -0.066209990183895007 0 -0.20846127365176989 -0.06805360734498464 0 -0.21281801502474029 -0.079717173547665193 0 -0.20846127365176989 -0.06805360734498464 0 -0.20526693354592521 -0.0753675681268898 0 -0.21281801502474029 -0.079717173547665193 0 -0.22111596590607591 -0.094404305882352241 0 -0.22077472352248431 -0.066209990183895007 0 -0.21281801502474029 -0.079717173547665193 0 -0.20526693354592521 -0.0753675681268898 0 -0.21281801502474029 -0.079717173547665193 0 -0.20054135530329201 -0.084129822828667655 0 -0.21281801502474029 -0.079717173547665193 0 -0.21078836656864841 -0.091482627853224488 0 -0.20054135530329201 -0.084129822828667655 0 -0.22111596590607591 -0.094404305882352241 0 -0.21281801502474029 -0.079717173547665193 0 -0.21078836656864841 -0.091482627853224488 0 -0.21078836656864841 -0.091482627853224488 0 -0.2023388031965207 -0.092313122393484992 0 -0.20054135530329201 -0.084129822828667655 0 -0.19736557392830231 -0.08980394955623755 0 -0.19224552592474789 -0.08711162621600084 0 -0.20054135530329201 -0.084129822828667655 0 -0.2023388031965207 -0.092313122393484992 0 -0.19736557392830231 -0.08980394955623755 0 -0.20054135530329201 -0.084129822828667655 0 -0.19736557392830231 -0.08980394955623755 0 -0.19368891899701701 -0.091066202822473671 0 -0.19554208353131189 -0.094559899343291967 0 -0.2023388031965207 -0.092313122393484992 0 -0.19736557392830231 -0.08980394955623755 0 -0.19554208353131189 -0.094559899343291967 0 -0.18960249260370601 -0.092789336174364329 0 -0.19224552592474789 -0.08711162621600084 0 -0.18429406740829599 -0.086864173974437034 0 -0.19368891899701701 -0.091066202822473671 0 -0.18960249260370601 -0.092789336174364329 0 -0.19554208353131189 -0.094559899343291967 0 -0.19368891899701701 -0.091066202822473671 0 -0.18960249260370601 -0.092789336174364329 0 -0.19224552592474789 -0.08711162621600084 0 -0.19736557392830231 -0.08980394955623755 0 -0.19368891899701701 -0.091066202822473671 0 -0.19224552592474789 -0.08711162621600084 0 -0.19224552592474789 -0.08711162621600084 0 -0.1918497957462757 -0.079984682568182905 0 -0.18429406740829599 -0.086864173974437034 0 -0.19224552592474789 -0.08711162621600084 0 -0.1918497957462757 -0.079984682568182905 0 -0.20054135530329201 -0.084129822828667655 0 -0.1918497957462757 -0.079984682568182905 0 -0.20054135530329201 -0.084129822828667655 0 -0.19770233360027689 -0.074394734057528611 0 -0.20526693354592521 -0.0753675681268898 0 -0.20054135530329201 -0.084129822828667655 0 -0.19770233360027689 -0.074394734057528611 0 -0.20526693354592521 -0.0753675681268898 0 -0.19770233360027689 -0.074394734057528611 0 -0.19985948816774551 -0.065684254996135588 0 -0.1918497957462757 -0.079984682568182905 0 -0.19770233360027689 -0.074394734057528611 0 -0.1905362563459202 -0.067788231563395349 0 -0.1918497957462757 -0.079984682568182905 0 -0.1905362563459202 -0.067788231563395349 0 -0.1854070624811196 -0.076912042627125976 0 -0.1905362563459202 -0.067788231563395349 0 -0.19985948816774551 -0.065684254996135588 0 -0.19554244661628661 -0.059102566836692523 0 -0.19770233360027689 -0.074394734057528611 0 -0.1905362563459202 -0.067788231563395349 0 -0.19985948816774551 -0.065684254996135588 0 -0.2155426192270124 -0.12758322291067689 0 -0.21376294977179419 -0.1084241399475095 0 -0.20052569310371751 -0.1129337202733897 0 -0.2155426192270124 -0.12758322291067689 0 -0.22145720828966761 -0.1225986215808095 0 -0.21376294977179419 -0.1084241399475095 0 -0.2155426192270124 -0.12758322291067689 0 -0.2051439587042834 -0.12789450643092259 0 -0.20052569310371751 -0.1129337202733897 0 -0.2155426192270124 -0.12758322291067689 0 -0.20052569310371751 -0.1129337202733897 0 -0.21078836656864841 -0.091482627853224488 0 -0.21376294977179419 -0.1084241399475095 0 -0.20247439388478239 -0.1018684933295169 0 -0.22111596590607591 -0.094404305882352241 0 -0.21078836656864841 -0.091482627853224488 0 -0.21376294977179419 -0.1084241399475095 0 -0.21078836656864841 -0.091482627853224488 0 -0.2023388031965207 -0.092313122393484992 0 -0.20247439388478239 -0.1018684933295169 0 -0.21376294977179419 -0.1084241399475095 0 -0.20247439388478239 -0.1018684933295169 0 -0.20052569310371751 -0.1129337202733897 0 -0.20247439388478239 -0.1018684933295169 0 -0.20052569310371751 -0.1129337202733897 0 -0.1870658917910672 -0.098515388202136886 0 -0.2023388031965207 -0.092313122393484992 0 -0.20247439388478239 -0.1018684933295169 0 -0.19554208353131189 -0.094559899343291967 0 -0.18960249260370601 -0.092789336174364329 0 -0.19554208353131189 -0.094559899343291967 0 -0.1870658917910672 -0.098515388202136886 0 -0.20247439388478239 -0.1018684933295169 0 -0.19554208353131189 -0.094559899343291967 0 -0.1870658917910672 -0.098515388202136886 0 -0.20052569310371751 -0.1129337202733897 0 -0.18550876698042229 -0.098284217636102761 0 -0.1870658917910672 -0.098515388202136886 0 -0.20052569310371751 -0.1129337202733897 0 -0.18550876698042229 -0.098284217636102761 0 -0.20052569310371751 -0.1129337202733897 0 -0.18553538679972051 -0.1182271104040187 0 -0.18550876698042229 -0.098284217636102761 0 -0.2051439587042834 -0.12789450643092259 0 -0.19691436367081069 -0.1255270908600605 0 -0.20052569310371751 -0.1129337202733897 0 -0.19691436367081069 -0.1255270908600605 0 -0.19015539867693579 -0.1285387666385743 0 -0.18553538679972051 -0.1182271104040187 0 -0.19691436367081069 -0.1255270908600605 0 -0.20052569310371751 -0.1129337202733897 0 -0.18553538679972051 -0.1182271104040187 0 -0.18126593710075051 -0.12635574114724801 0 -0.19015539867693579 -0.1285387666385743 0 -0.18553538679972051 -0.1182271104040187 0 -0.18126593710075051 -0.12635574114724801 0 -0.18553538679972051 -0.1182271104040187 0 -0.17496282812726621 -0.12196745928974161 0 -0.18553538679972051 -0.1182271104040187 0 -0.17496282812726621 -0.12196745928974161 0 -0.1740939601285168 -0.1091561625600808 0 -0.16611339645627241 -0.12856149282286861 0 -0.17496282812726621 -0.12196745928974161 0 -0.16380722184412849 -0.1162414870520847 0 -0.17496282812726621 -0.12196745928974161 0 -0.16380722184412849 -0.1162414870520847 0 -0.1740939601285168 -0.1091561625600808 0 -0.15186648996431951 -0.1286200371020009 0 -0.16611339645627241 -0.12856149282286861 0 -0.16380722184412849 -0.1162414870520847 0 -0.15640084489764761 -0.093962858951212591 0 -0.18550876698042229 -0.098284217636102761 0 -0.16380722184412849 -0.1162414870520847 0 -0.15640084489764761 -0.093962858951212591 0 -0.1740939601285168 -0.1091561625600808 0 -0.18553538679972051 -0.1182271104040187 0 -0.1740939601285168 -0.1091561625600808 0 -0.18550876698042229 -0.098284217636102761 0 -0.15640084489764761 -0.093962858951212591 0 -0.18550876698042229 -0.098284217636102761 0 -0.1769589309033652 -0.089943572877590222 0 -0.15640084489764761 -0.093962858951212591 0 -0.1740939601285168 -0.1091561625600808 0 -0.18550876698042229 -0.098284217636102761 0 -0.18550876698042229 -0.098284217636102761 0 -0.1769589309033652 -0.089943572877590222 0 -0.18550876698042229 -0.098284217636102761 0 -0.1870658917910672 -0.098515388202136886 0 -0.18960249260370601 -0.092789336174364329 0 -0.18550876698042229 -0.098284217636102761 0 -0.1870658917910672 -0.098515388202136886 0 -0.18550876698042229 -0.098284217636102761 0 -0.18429406740829599 -0.086864173974437034 0 -0.1769589309033652 -0.089943572877590222 0 -0.18960249260370601 -0.092789336174364329 0 -0.18550876698042229 -0.098284217636102761 0 -0.18429406740829599 -0.086864173974437034 0 -0.18429406740829599 -0.086864173974437034 0 -0.17358681962727979 -0.078539948085910027 0 -0.1854070624811196 -0.076912042627125976 0 -0.1918497957462757 -0.079984682568182905 0 -0.18429406740829599 -0.086864173974437034 0 -0.1854070624811196 -0.076912042627125976 0 -0.18429406740829599 -0.086864173974437034 0 -0.17358681962727979 -0.078539948085910027 0 -0.1769589309033652 -0.089943572877590222 0 -0.1905362563459202 -0.067788231563395349 0 -0.18289219894263081 -0.063173536212924652 0 -0.18348656114434081 -0.070029243630318594 0 -0.18289219894263081 -0.063173536212924652 0 -0.18348656114434081 -0.070029243630318594 0 -0.17689683747938931 -0.067093329206577693 0 -0.17358681962727979 -0.078539948085910027 0 -0.18348656114434081 -0.070029243630318594 0 -0.1854070624811196 -0.076912042627125976 0 -0.1905362563459202 -0.067788231563395349 0 -0.18348656114434081 -0.070029243630318594 0 -0.1854070624811196 -0.076912042627125976 0 -0.17358681962727979 -0.078539948085910027 0 -0.18348656114434081 -0.070029243630318594 0 -0.17689683747938931 -0.067093329206577693 0 -0.17358681962727979 -0.078539948085910027 0 -0.17689683747938931 -0.067093329206577693 0 -0.16749185583945769 -0.067068196314297585 0 -0.17689683747938931 -0.067093329206577693 0 -0.16749185583945769 -0.067068196314297585 0 -0.1756904645492561 -0.057168670804796019 0 -0.17358681962727979 -0.078539948085910027 0 -0.16749185583945769 -0.067068196314297585 0 -0.15798845907999479 -0.076087786264634749 0 -0.16749185583945769 -0.067068196314297585 0 -0.1570836789124207 -0.065556757399210672 0 -0.1633388458573922 -0.059098700595125779 0 -0.16749185583945769 -0.067068196314297585 0 -0.15798845907999479 -0.076087786264634749 0 -0.1570836789124207 -0.065556757399210672 0 -0.15640084489764761 -0.093962858951212591 0 -0.17358681962727979 -0.078539948085910027 0 -0.1769589309033652 -0.089943572877590222 0 -0.15640084489764761 -0.093962858951212591 0 -0.17358681962727979 -0.078539948085910027 0 -0.15798845907999479 -0.076087786264634749 0 -0.15640084489764761 -0.093962858951212591 0 -0.15798845907999479 -0.076087786264634749 0 -0.14192967027590819 -0.078005739326408058 0 -0.15640084489764761 -0.093962858951212591 0 -0.12729292281487301 -0.089641500266321977 0 -0.15640084489764761 -0.093962858951212591 0 -0.14192967027590819 -0.078005739326408058 0 -0.12729292281487301 -0.089641500266321977 0 -0.15798845907999479 -0.076087786264634749 0 -0.14852314275255471 -0.068352613492001182 0 -0.14192967027590819 -0.078005739326408058 0 -0.1570836789124207 -0.065556757399210672 0 -0.14852314275255471 -0.068352613492001182 0 -0.14807609103270419 -0.057176490329994098 0 -0.15798845907999479 -0.076087786264634749 0 -0.1570836789124207 -0.065556757399210672 0 -0.14852314275255471 -0.068352613492001182 0 -0.14852314275255471 -0.068352613492001182 0 -0.14192967027590819 -0.078005739326408058 0 -0.13717178493073179 -0.066072308610227753 0 -0.14852314275255471 -0.068352613492001182 0 -0.13717178493073179 -0.066072308610227753 0 -0.14807609103270419 -0.057176490329994098 0 -0.1107055062257572 -0.064694202811064347 0 -0.13717178493073179 -0.066072308610227753 0 -0.1296178645725459 -0.05828272664711881 0 -0.14192967027590819 -0.078005739326408058 0 -0.13717178493073179 -0.066072308610227753 0 -0.12565215501394869 -0.075270613096626485 0 -0.14192967027590819 -0.078005739326408058 0 -0.12565215501394869 -0.075270613096626485 0 -0.12729292281487301 -0.089641500266321977 0 -0.12729292281487301 -0.089641500266321977 0 -0.1298083766661651 -0.1154066856681179 0 -0.1458351712374267 -0.1087745138079476 0 -0.15186648996431951 -0.1286200371020009 0 -0.1298083766661651 -0.1154066856681179 0 -0.1458351712374267 -0.1087745138079476 0 -0.15186648996431951 -0.1286200371020009 0 -0.16380722184412849 -0.1162414870520847 0 -0.1458351712374267 -0.1087745138079476 0 -0.16380722184412849 -0.1162414870520847 0 -0.15640084489764761 -0.093962858951212591 0 -0.1458351712374267 -0.1087745138079476 0 -0.15640084489764761 -0.093962858951212591 0 -0.12729292281487301 -0.089641500266321977 0 -0.1458351712374267 -0.1087745138079476 0 -0.14109860899497001 -0.02707537877451156 0 -0.15196544394858499 -0.01461155506435473 0 -0.13403602875563489 -0.0080065778185182575 0 -0.14109860899497001 -0.02707537877451156 0 -0.15503784439644491 -0.028041545142882231 0 -0.15196544394858499 -0.01461155506435473 0 -0.15196544394858499 -0.01461155506435473 0 -0.14642400940646269 -0.001701145536478056 0 -0.13403602875563489 -0.0080065778185182575 0 -0.15196544394858499 -0.01461155506435473 0 -0.14642400940646269 -0.001701145536478056 0 -0.1570037181854573 -0.0050714379004052857 0 -0.115226511802166 -0.0051064212604388631 0 -0.13403602875563489 -0.0080065778185182575 0 -0.13822935966189301 0.010454227054453209 0 -0.1235350187125325 -0.022546665772505459 0 -0.14109860899497001 -0.02707537877451156 0 -0.1318435256229 -0.039986910284571513 0 -0.1235350187125325 -0.022546665772505459 0 -0.14109860899497001 -0.02707537877451156 0 -0.13403602875563489 -0.0080065778185182575 0 -0.1235350187125325 -0.022546665772505459 0 -0.1318435256229 -0.039986910284571513 0 -0.1318435256229 -0.039986910284571513 0 -0.13740640914847799 -0.045323292795094339 0 -0.15002679640391059 -0.040251820320558809 0 -0.1318435256229 -0.039986910284571513 0 -0.13740640914847799 -0.045323292795094339 0 -0.12909348314102209 -0.048113565243073711 0 -0.12072901509081049 -0.055606870153676179 0 -0.1296178645725459 -0.05828272664711881 0 -0.12909348314102209 -0.048113565243073711 0 -0.1296178645725459 -0.05828272664711881 0 -0.12909348314102209 -0.048113565243073711 0 -0.13857173014833349 -0.052751745283696208 0 -0.13740640914847799 -0.045323292795094339 0 -0.12909348314102209 -0.048113565243073711 0 -0.13857173014833349 -0.052751745283696208 0 -0.13717178493073179 -0.066072308610227753 0 -0.1296178645725459 -0.05828272664711881 0 -0.13857173014833349 -0.052751745283696208 0 -0.13857173014833349 -0.052751745283696208 0 -0.14807609103270419 -0.057176490329994098 0 -0.15002679640391059 -0.040251820320558809 0 -0.13717178493073179 -0.066072308610227753 0 -0.13857173014833349 -0.052751745283696208 0 -0.14807609103270419 -0.057176490329994098 0 -0.1570836789124207 -0.065556757399210672 0 -0.14807609103270419 -0.057176490329994098 0 -0.1633388458573922 -0.059098700595125779 0 -0.14807609103270419 -0.057176490329994098 0 -0.15002679640391059 -0.040251820320558809 0 -0.16821006718492121 -0.040516730356549902 0 -0.1318435256229 -0.039986910284571513 0 -0.15002679640391059 -0.040251820320558809 0 -0.14109860899497001 -0.02707537877451156 0 -0.1318435256229 -0.039986910284571513 0 -0.15002679640391059 -0.040251820320558809 0 -0.13740640914847799 -0.045323292795094339 0 -0.13857173014833349 -0.052751745283696208 0 -0.15002679640391059 -0.040251820320558809 0 -0.14109860899497001 -0.02707537877451156 0 -0.15503784439644491 -0.028041545142882231 0 -0.15002679640391059 -0.040251820320558809 0 -0.15503784439644491 -0.028041545142882231 0 -0.15002679640391059 -0.040251820320558809 0 -0.16821006718492121 -0.040516730356549902 0 -0.15002679640391059 -0.040251820320558809 0 -0.16821006718492121 -0.040516730356549902 0 -0.16821006718492121 -0.040516730356549902 0 -0.166241091874374 -0.051970869644802527 0 -0.17588999074759609 -0.045893756137550729 0 -0.14807609103270419 -0.057176490329994098 0 -0.1633388458573922 -0.059098700595125779 0 -0.166241091874374 -0.051970869644802527 0 -0.14807609103270419 -0.057176490329994098 0 -0.16821006718492121 -0.040516730356549902 0 -0.166241091874374 -0.051970869644802527 0 -0.14807609103270419 -0.057176490329994098 0 -0.16821006718492121 -0.040516730356549902 0 -0.1633388458573922 -0.059098700595125779 0 -0.166241091874374 -0.051970869644802527 0 -0.1756904645492561 -0.057168670804796019 0 -0.16749185583945769 -0.067068196314297585 0 -0.1633388458573922 -0.059098700595125779 0 -0.1756904645492561 -0.057168670804796019 0 -0.18289219894263081 -0.063173536212924652 0 -0.17689683747938931 -0.067093329206577693 0 -0.1756904645492561 -0.057168670804796019 0 -0.166241091874374 -0.051970869644802527 0 -0.1756904645492561 -0.057168670804796019 0 -0.17588999074759609 -0.045893756137550729 0 -0.1756904645492561 -0.057168670804796019 0 -0.18136482507039769 -0.051003690053458083 0 -0.17588999074759609 -0.045893756137550729 0 -0.18136482507039769 -0.051003690053458083 0 -0.1874787450539237 -0.055940788841991537 0 -0.18821850713517191 -0.047985035114241133 0 -0.1905362563459202 -0.067788231563395349 0 -0.18289219894263081 -0.063173536212924652 0 -0.1874787450539237 -0.055940788841991537 0 -0.1756904645492561 -0.057168670804796019 0 -0.18136482507039769 -0.051003690053458083 0 -0.1874787450539237 -0.055940788841991537 0 -0.18289219894263081 -0.063173536212924652 0 -0.1756904645492561 -0.057168670804796019 0 -0.1874787450539237 -0.055940788841991537 0 -0.16821006718492121 -0.040516730356549902 0 -0.18102234427890909 -0.02991527441534652 0 -0.16821006718492121 -0.040516730356549902 0 -0.1829826115581486 -0.040731949901404538 0 -0.18102234427890909 -0.02991527441534652 0 -0.16821006718492121 -0.040516730356549902 0 -0.1829826115581486 -0.040731949901404538 0 -0.16821006718492121 -0.040516730356549902 0 -0.17588999074759609 -0.045893756137550729 0 -0.1829826115581486 -0.040731949901404538 0 -0.17588999074759609 -0.045893756137550729 0 -0.1829826115581486 -0.040731949901404538 0 -0.18136482507039769 -0.051003690053458083 0 -0.17588999074759609 -0.045893756137550729 0 -0.1829826115581486 -0.040731949901404538 0 -0.1829826115581486 -0.040731949901404538 0 -0.19146811090962451 -0.040855574191316253 0 -0.18136482507039769 -0.051003690053458083 0 -0.1829826115581486 -0.040731949901404538 0 -0.18821850713517191 -0.047985035114241133 0 -0.1829826115581486 -0.040731949901404538 0 -0.18102234427890909 -0.02991527441534652 0 -0.19127163184684659 -0.027582955276476261 0 -0.16821006718492121 -0.040516730356549902 0 -0.18102234427890909 -0.02991527441534652 0 -0.16767696800655599 -0.02206320948630619 0 -0.18102234427890909 -0.02991527441534652 0 -0.19383462137289459 -0.019313818474140262 0 -0.18102234427890909 -0.02991527441534652 0 -0.1789690703246572 -0.01717390185530851 0 -0.19383462137289459 -0.019313818474140262 0 -0.1789690703246572 -0.01717390185530851 0 -0.16767696800655599 -0.02206320948630619 0 -0.17085573183366559 -0.014034471273168141 0 -0.18102234427890909 -0.02991527441534652 0 -0.1789690703246572 -0.01717390185530851 0 -0.16767696800655599 -0.02206320948630619 0 -0.15503784439644491 -0.028041545142882231 0 -0.16821006718492121 -0.040516730356549902 0 -0.16767696800655599 -0.02206320948630619 0 -0.15503784439644491 -0.028041545142882231 0 -0.15196544394858499 -0.01461155506435473 0 -0.16767696800655599 -0.02206320948630619 0 -0.15196544394858499 -0.01461155506435473 0 -0.16767696800655599 -0.02206320948630619 0 -0.16441683007662991 -0.01160867253720625 0 -0.16767696800655599 -0.02206320948630619 0 -0.16441683007662991 -0.01160867253720625 0 -0.17085573183366559 -0.014034471273168141 0 -0.15196544394858499 -0.01461155506435473 0 -0.1570037181854573 -0.0050714379004052857 0 -0.16441683007662991 -0.01160867253720625 0 -0.16441683007662991 -0.01160867253720625 0 -0.17085573183366559 -0.014034471273168141 0 -0.17236005892681949 -0.0052921012138515957 0 -0.1570037181854573 -0.0050714379004052857 0 -0.16831881494547959 -0.00265338945297307 0 -0.17236005892681949 -0.0052921012138515957 0 -0.16831881494547959 -0.00265338945297307 0 -0.17236005892681949 -0.0052921012138515957 0 -0.1570037181854573 -0.0050714379004052857 0 -0.16441683007662991 -0.01160867253720625 0 -0.17236005892681949 -0.0052921012138515957 0 -0.16831881494547959 -0.00265338945297307 0 -0.18220727298449499 -0.005875764894995205 0 -0.16831881494547959 -0.00265338945297307 0 -0.17236005892681949 -0.0052921012138515957 0 -0.18220727298449499 -0.005875764894995205 0 -0.1789690703246572 -0.01717390185530851 0 -0.17236005892681949 -0.0052921012138515957 0 -0.19383462137289459 -0.019313818474140262 0 -0.17236005892681949 -0.0052921012138515957 0 -0.18220727298449499 -0.005875764894995205 0 -0.19383462137289459 -0.019313818474140262 0 -0.17236005892681949 -0.0052921012138515957 0 -0.19383462137289459 -0.019313818474140262 0 -0.16831881494547959 -0.00265338945297307 0 -0.17765982974905589 -0.001048551291354075 0 -0.18220727298449499 -0.005875764894995205 0 -0.1789690703246572 -0.01717390185530851 0 -0.17085573183366559 -0.014034471273168141 0 -0.17236005892681949 -0.0052921012138515957 0 -0.17765982974905589 -0.001048551291354075 0 -0.18220727298449499 -0.005875764894995205 0 -0.1888529714461713 -0.00014391918048344571 0 -0.17765982974905589 -0.001048551291354075 0 -0.18220727298449499 -0.005875764894995205 0 -0.18220727298449499 -0.005875764894995205 0 -0.1954936733531995 -0.003228201738071426 0 -0.20301881461127069 -0.011714402752958399 0 -0.18220727298449499 -0.005875764894995205 0 -0.20301881461127069 -0.011714402752958399 0 -0.19383462137289459 -0.019313818474140262 0 -0.18220727298449499 -0.005875764894995205 0 -0.1888529714461713 -0.00014391918048344571 0 -0.1954936733531995 -0.003228201738071426 0 -0.18220727298449499 -0.005875764894995205 0 -0.20301881461127069 -0.011714402752958399 0 -0.1954936733531995 -0.003228201738071426 0 -0.20301881461127069 -0.011714402752958399 0 -0.20357769398676401 0.00034007957464262973 0 -0.20301881461127069 -0.011714402752958399 0 -0.19383462137289459 -0.019313818474140262 0 -0.18220727298449499 -0.005875764894995205 0 -0.19383462137289459 -0.019313818474140262 0 -0.19383462137289459 -0.019313818474140262 0 -0.19127163184684659 -0.027582955276476261 0 -0.19651553714921971 -0.02106431015976172 0 -0.19383462137289459 -0.019313818474140262 0 -0.19651553714921971 -0.02106431015976172 0 -0.18102234427890909 -0.02991527441534652 0 -0.19383462137289459 -0.019313818474140262 0 -0.19127163184684659 -0.027582955276476261 0 -0.19127163184684659 -0.027582955276476261 0 -0.2020030448750591 -0.026889423431725189 0 -0.19651553714921971 -0.02106431015976172 0 -0.2020030448750591 -0.026889423431725189 0 -0.19651553714921971 -0.02106431015976172 0 -0.20362689001065951 -0.025707635462040059 0 -0.2020030448750591 -0.026889423431725189 0 -0.19651553714921971 -0.02106431015976172 0 -0.2020030448750591 -0.026889423431725189 0 -0.20362689001065951 -0.025707635462040059 0 -0.20301881461127069 -0.011714402752958399 0 -0.19383462137289459 -0.019313818474140262 0 -0.2009599145049549 -0.018965375871264342 0 -0.19383462137289459 -0.019313818474140262 0 -0.19651553714921971 -0.02106431015976172 0 -0.2009599145049549 -0.018965375871264342 0 -0.19651553714921971 -0.02106431015976172 0 -0.20362689001065951 -0.025707635462040059 0 -0.19651553714921971 -0.02106431015976172 0 -0.2009599145049549 -0.018965375871264342 0 -0.20362689001065951 -0.025707635462040059 0 -0.20722383661608279 -0.017506525386957 0 -0.20362689001065951 -0.025707635462040059 0 -0.21412530894764231 -0.01806718691896074 0 -0.2009599145049549 -0.018965375871264342 0 -0.20722383661608279 -0.017506525386957 0 -0.20362689001065951 -0.025707635462040059 0 -0.20362689001065951 -0.025707635462040059 0 -0.21412530894764231 -0.01806718691896074 0 -0.21632583700119229 -0.033999354776542048 0 -0.21412530894764231 -0.01806718691896074 0 -0.21632583700119229 -0.033999354776542048 0 -0.21927475869302021 -0.024885445577341851 0 -0.21412530894764231 -0.01806718691896074 0 -0.21632583700119229 -0.033999354776542048 0 -0.20362689001065951 -0.025707635462040059 0 -0.21412530894764231 -0.01806718691896074 0 -0.20301881461127069 -0.011714402752958399 0 -0.2009599145049549 -0.018965375871264342 0 -0.20722383661608279 -0.017506525386957 0 -0.2020030448750591 -0.026889423431725189 0 -0.20362689001065951 -0.025707635462040059 0 -0.21632583700119229 -0.033999354776542048 0 -0.20362689001065951 -0.025707635462040059 0 -0.21632583700119229 -0.033999354776542048 0 -0.21412530894764231 -0.01806718691896074 0 -0.2173354807748184 -0.015730915828311869 0 -0.21927475869302021 -0.024885445577341851 0 -0.20722383661608279 -0.017506525386957 0 -0.21412530894764231 -0.01806718691896074 0 -0.2136602140274669 -0.014699826831923699 0 -0.21412530894764231 -0.01806718691896074 0 -0.2136602140274669 -0.014699826831923699 0 -0.21412530894764231 -0.01806718691896074 0 -0.2173354807748184 -0.015730915828311869 0 -0.21412530894764231 -0.01806718691896074 0 -0.2173354807748184 -0.015730915828311869 0 -0.2136602140274669 -0.014699826831923699 0 -0.2173354807748184 -0.015730915828311869 0 -0.2136602140274669 -0.014699826831923699 0 -0.21729596160812789 -0.0088060803998360505 0 -0.2136602140274669 -0.014699826831923699 0 -0.21219873907464229 -0.0041185192087549623 0 -0.2136602140274669 -0.014699826831923699 0 -0.21729596160812789 -0.0088060803998360505 0 -0.21219873907464229 -0.0041185192087549623 0 -0.2173354807748184 -0.015730915828311869 0 -0.2136602140274669 -0.014699826831923699 0 -0.21729596160812789 -0.0088060803998360505 0 -0.21219873907464229 -0.0041185192087549623 0 -0.22257372977858761 -0.0021406666127273418 0 -0.20301881461127069 -0.011714402752958399 0 -0.21219873907464229 -0.0041185192087549623 0 -0.20357769398676401 0.00034007957464262973 0 -0.20301881461127069 -0.011714402752958399 0 -0.20722383661608279 -0.017506525386957 0 -0.2136602140274669 -0.014699826831923699 0 -0.20301881461127069 -0.011714402752958399 0 -0.2136602140274669 -0.014699826831923699 0 -0.20301881461127069 -0.011714402752958399 0 -0.21219873907464229 -0.0041185192087549623 0 -0.20301881461127069 -0.011714402752958399 0 -0.2136602140274669 -0.014699826831923699 0 -0.21219873907464229 -0.0041185192087549623 0 -0.19554244661628661 -0.059102566836692523 0 -0.19581575639614379 -0.049901005210330952 0 -0.20402198711769959 -0.056198553571609147 0 -0.19985948816774551 -0.065684254996135588 0 -0.19554244661628661 -0.059102566836692523 0 -0.20402198711769959 -0.056198553571609147 0 -0.1905362563459202 -0.067788231563395349 0 -0.1874787450539237 -0.055940788841991537 0 -0.19554244661628661 -0.059102566836692523 0 -0.1874787450539237 -0.055940788841991537 0 -0.19554244661628661 -0.059102566836692523 0 -0.19581575639614379 -0.049901005210330952 0 -0.1874787450539237 -0.055940788841991537 0 -0.18821850713517191 -0.047985035114241133 0 -0.19581575639614379 -0.049901005210330952 0 -0.19581575639614379 -0.049901005210330952 0 -0.20470976052947529 -0.04497091179754828 0 -0.20402198711769959 -0.056198553571609147 0 -0.1829826115581486 -0.040731949901404538 0 -0.2020030448750591 -0.026889423431725189 0 -0.1829826115581486 -0.040731949901404538 0 -0.19127163184684659 -0.027582955276476261 0 -0.2020030448750591 -0.026889423431725189 0 -0.1829826115581486 -0.040731949901404538 0 -0.2020030448750591 -0.026889423431725189 0 -0.19146811090962451 -0.040855574191316253 0 -0.2020030448750591 -0.026889423431725189 0 -0.1984991681775761 -0.040654228657730787 0 -0.20470976052947529 -0.04497091179754828 0 -0.19581575639614379 -0.049901005210330952 0 -0.1984991681775761 -0.040654228657730787 0 -0.20470976052947529 -0.04497091179754828 0 -0.1829826115581486 -0.040731949901404538 0 -0.18821850713517191 -0.047985035114241133 0 -0.19146811090962451 -0.040855574191316253 0 -0.18821850713517191 -0.047985035114241133 0 -0.19581575639614379 -0.049901005210330952 0 -0.19146811090962451 -0.040855574191316253 0 -0.19581575639614379 -0.049901005210330952 0 -0.1984991681775761 -0.040654228657730787 0 -0.19146811090962451 -0.040855574191316253 0 -0.2020030448750591 -0.026889423431725189 0 -0.1984991681775761 -0.040654228657730787 0 -0.19146811090962451 -0.040855574191316253 0 -0.2020030448750591 -0.026889423431725189 0 -0.21763584104807851 -0.043483989310246753 0 -0.20470976052947529 -0.04497091179754828 0 -0.2020030448750591 -0.026889423431725189 0 -0.21763584104807851 -0.043483989310246753 0 -0.2020030448750591 -0.026889423431725189 0 -0.21632583700119229 -0.033999354776542048 0 -0.21763584104807851 -0.043483989310246753 0 -0.21632583700119229 -0.033999354776542048 0 -0.21763584104807851 -0.043483989310246753 0 -0.22045279960043121 -0.039611815028411032 0 -0.21632583700119229 -0.033999354776542048 0 -0.21763584104807851 -0.043483989310246753 0 -0.21632583700119229 -0.033999354776542048 0 -0.22113375232156521 -0.037138661079194647 0 -0.21763584104807851 -0.043483989310246753 0 -0.20470976052947529 -0.04497091179754828 0 -0.20981059366554811 -0.050604383418855738 0 -0.22077472352248431 -0.066209990183895007 0 -0.21763584104807851 -0.043483989310246753 0 -0.21287478596693979 -0.057764078996018708 0 -0.20470976052947529 -0.04497091179754828 0 -0.20981059366554811 -0.050604383418855738 0 -0.20402198711769959 -0.056198553571609147 0 -0.21763584104807851 -0.043483989310246753 0 -0.20981059366554811 -0.050604383418855738 0 -0.21287478596693979 -0.057764078996018708 0 -0.20981059366554811 -0.050604383418855738 0 -0.21287478596693979 -0.057764078996018708 0 -0.20402198711769959 -0.056198553571609147 0 -0.20846127365176989 -0.06805360734498464 0 -0.21287478596693979 -0.057764078996018708 0 -0.20402198711769959 -0.056198553571609147 0 -0.22077472352248431 -0.066209990183895007 0 -0.21763584104807851 -0.043483989310246753 0 -0.22077472352248431 -0.066209990183895007 0 -0.21763584104807851 -0.043483989310246753 0 -0.22053693830752011 -0.046563569511956379 0 -0.22077472352248431 -0.066209990183895007 0 -0.23287590059929131 -0.05966165640294821 0 -0.22053693830752011 -0.046563569511956379 0 -0.22077472352248431 -0.066209990183895007 0 -0.22053693830752011 -0.046563569511956379 0 -0.23287590059929131 -0.05966165640294821 0 -0.22053693830752011 -0.046563569511956379 0 -0.23527759135909751 -0.044634368756024313 0 -0.23287590059929131 -0.05966165640294821 0 -0.22053693830752011 -0.046563569511956379 0 -0.22775159879828 -0.040291127225230712 0 -0.23409651200222881 -0.034834407811102842 0 -0.23527759135909751 -0.044634368756024313 0 -0.22775159879828 -0.040291127225230712 0 -0.22053693830752011 -0.046563569511956379 0 -0.23527759135909751 -0.044634368756024313 0 -0.22053693830752011 -0.046563569511956379 0 -0.22045279960043121 -0.039611815028411032 0 -0.21763584104807851 -0.043483989310246753 0 -0.22053693830752011 -0.046563569511956379 0 -0.22045279960043121 -0.039611815028411032 0 -0.21763584104807851 -0.043483989310246753 0 -0.22053693830752011 -0.046563569511956379 0 -0.22053693830752011 -0.046563569511956379 0 -0.22045279960043121 -0.039611815028411032 0 -0.22370144776976761 -0.039489813360180738 0 -0.22775159879828 -0.040291127225230712 0 -0.22053693830752011 -0.046563569511956379 0 -0.22370144776976761 -0.039489813360180738 0 -0.22775159879828 -0.040291127225230712 0 -0.22370144776976761 -0.039489813360180738 0 -0.22456729608759329 -0.036166589037263802 0 -0.22370144776976761 -0.039489813360180738 0 -0.22456729608759329 -0.036166589037263802 0 -0.22113375232156521 -0.037138661079194647 0 -0.22045279960043121 -0.039611815028411032 0 -0.22370144776976761 -0.039489813360180738 0 -0.22113375232156521 -0.037138661079194647 0 -0.21632583700119229 -0.033999354776542048 0 -0.22045279960043121 -0.039611815028411032 0 -0.22113375232156521 -0.037138661079194647 0 -0.21632583700119229 -0.033999354776542048 0 -0.22113375232156521 -0.037138661079194647 0 -0.2224389564054616 -0.031421627044449819 0 -0.22456729608759329 -0.036166589037263802 0 -0.22113375232156521 -0.037138661079194647 0 -0.2224389564054616 -0.031421627044449819 0 -0.22456729608759329 -0.036166589037263802 0 -0.2224389564054616 -0.031421627044449819 0 -0.2278107251428923 -0.032491716477263073 0 -0.22775159879828 -0.040291127225230712 0 -0.2278107251428923 -0.032491716477263073 0 -0.23409651200222881 -0.034834407811102842 0 -0.22775159879828 -0.040291127225230712 0 -0.22456729608759329 -0.036166589037263802 0 -0.2278107251428923 -0.032491716477263073 0 -0.2278107251428923 -0.032491716477263073 0 -0.23409651200222881 -0.034834407811102842 0 -0.2333138492273697 -0.028524448699260772 0 -0.23409651200222881 -0.034834407811102842 0 -0.24415789293775009 -0.03563361073610772 0 -0.23874599298747659 -0.02817089803049189 0 -0.23409651200222881 -0.034834407811102842 0 -0.24415789293775009 -0.03563361073610772 0 -0.23527759135909751 -0.044634368756024313 0 -0.24415789293775009 -0.03563361073610772 0 -0.24382030568661131 -0.043466581919174477 0 -0.25265902001537383 -0.039693475959311067 0 -0.24382030568661131 -0.043466581919174477 0 -0.24549590135057761 -0.052513771955774023 0 -0.25265902001537383 -0.039693475959311067 0 -0.24415789293775009 -0.03563361073610772 0 -0.24382030568661131 -0.043466581919174477 0 -0.23527759135909751 -0.044634368756024313 0 -0.24382030568661131 -0.043466581919174477 0 -0.23527759135909751 -0.044634368756024313 0 -0.24549590135057761 -0.052513771955774023 0 -0.24521486289106231 -0.072759743293940402 0 -0.23287590059929131 -0.05966165640294821 0 -0.24549590135057761 -0.052513771955774023 0 -0.23287590059929131 -0.05966165640294821 0 -0.23527759135909751 -0.044634368756024313 0 -0.24549590135057761 -0.052513771955774023 0 -0.2173354807748184 -0.015730915828311869 0 -0.21729596160812789 -0.0088060803998360505 0 -0.23398509219838731 -0.003613805613181829 0 -0.2173354807748184 -0.015730915828311869 0 -0.23398509219838731 -0.003613805613181829 0 -0.2352483255207557 -0.01288671732485063 0 -0.2173354807748184 -0.015730915828311869 0 -0.23398509219838731 -0.003613805613181829 0 -0.21729596160812789 -0.0088060803998360505 0 -0.23398509219838731 -0.003613805613181829 0 -0.22257372977858761 -0.0021406666127273418 0 -0.2173354807748184 -0.015730915828311869 0 -0.2421800160752775 -0.022701002281783771 0 -0.2173354807748184 -0.015730915828311869 0 -0.2421800160752775 -0.022701002281783771 0 -0.2352483255207557 -0.01288671732485063 0 -0.2173354807748184 -0.015730915828311869 0 -0.22614821033598581 -0.025208143318444141 0 -0.2421800160752775 -0.022701002281783771 0 -0.22614821033598581 -0.025208143318444141 0 -0.2333138492273697 -0.028524448699260772 0 -0.2421800160752775 -0.022701002281783771 0 -0.2173354807748184 -0.015730915828311869 0 -0.21927475869302021 -0.024885445577341851 0 -0.22614821033598581 -0.025208143318444141 0 -0.21632583700119229 -0.033999354776542048 0 -0.2224389564054616 -0.031421627044449819 0 -0.21927475869302021 -0.024885445577341851 0 -0.2224389564054616 -0.031421627044449819 0 -0.21927475869302021 -0.024885445577341851 0 -0.22614821033598581 -0.025208143318444141 0 -0.2224389564054616 -0.031421627044449819 0 -0.2278107251428923 -0.032491716477263073 0 -0.22614821033598581 -0.025208143318444141 0 -0.2278107251428923 -0.032491716477263073 0 -0.22614821033598581 -0.025208143318444141 0 -0.2333138492273697 -0.028524448699260772 0 -0.23874599298747659 -0.02817089803049189 0 -0.26094928529351308 -0.02263966624536445 0 -0.2421800160752775 -0.022701002281783771 0 -0.23874599298747659 -0.02817089803049189 0 -0.26094928529351308 -0.02263966624536445 0 -0.24415789293775009 -0.03563361073610772 0 -0.23874599298747659 -0.02817089803049189 0 -0.26094928529351308 -0.02263966624536445 0 -0.2333138492273697 -0.028524448699260772 0 -0.2421800160752775 -0.022701002281783771 0 -0.23874599298747659 -0.02817089803049189 0 -0.23409651200222881 -0.034834407811102842 0 -0.2333138492273697 -0.028524448699260772 0 -0.23874599298747659 -0.02817089803049189 0 -0.23398509219838731 -0.003613805613181829 0 -0.24749271303453921 -0.0095011455761243521 0 -0.25063470362195589 0.0085033046019488169 0 -0.23398509219838731 -0.003613805613181829 0 -0.24749271303453921 -0.0095011455761243521 0 -0.2352483255207557 -0.01288671732485063 0 -0.2421800160752775 -0.022701002281783771 0 -0.24749271303453921 -0.0095011455761243521 0 -0.2352483255207557 -0.01288671732485063 0 -0.24749271303453921 -0.0095011455761243521 0 -0.26040134591200442 -0.0037715416055012908 0 -0.25063470362195589 0.0085033046019488169 0 -0.26040134591200442 -0.0037715416055012908 0 -0.26094928529351308 -0.02263966624536445 0 -0.27395337533119191 -0.0056795827660176797 0 -0.24749271303453921 -0.0095011455761243521 0 -0.26040134591200442 -0.0037715416055012908 0 -0.26094928529351308 -0.02263966624536445 0 -0.2421800160752775 -0.022701002281783771 0 -0.24749271303453921 -0.0095011455761243521 0 -0.26094928529351308 -0.02263966624536445 0 -0.26094928529351308 -0.02263966624536445 0 -0.28315257759954959 -0.017108434460237021 0 -0.26094928529351308 -0.02263966624536445 0 -0.28315257759954959 -0.017108434460237021 0 -0.27575031356088442 -0.037033000416091401 0 -0.26094928529351308 -0.02263966624536445 0 -0.27395337533119191 -0.0056795827660176797 0 -0.28315257759954959 -0.017108434460237021 0 -0.26040134591200442 -0.0037715416055012908 0 -0.27395337533119191 -0.0056795827660176797 0 -0.26954303012446962 0.0073993976477094887 0 -0.27395337533119191 -0.0056795827660176797 0 -0.28903349602016998 -0.0014867337770870851 0 -0.28046213489871319 0.0057396373972828062 0 -0.28903349602016998 -0.0014867337770870851 0 -0.28315257759954959 -0.017108434460237021 0 -0.30535586990558611 -0.0115772026751096 0 -0.28315257759954959 -0.017108434460237021 0 -0.30535586990558611 -0.0115772026751096 0 -0.27395337533119191 -0.0056795827660176797 0 -0.28903349602016998 -0.0014867337770870851 0 -0.28315257759954959 -0.017108434460237021 0 -0.28315257759954959 -0.017108434460237021 0 -0.29462219891311747 -0.034714547426330358 0 -0.27575031356088442 -0.037033000416091401 0 -0.28315257759954959 -0.017108434460237021 0 -0.30535586990558611 -0.0115772026751096 0 -0.29462219891311747 -0.034714547426330358 0 -0.30535586990558611 -0.0115772026751096 0 -0.31183562916369317 -0.036794161131154142 0 -0.30535586990558611 -0.0115772026751096 0 -0.31183562916369317 -0.036794161131154142 0 -0.29462219891311747 -0.034714547426330358 0 -0.30535586990558611 -0.0115772026751096 0 -0.31183562916369317 -0.036794161131154142 0 -0.31995893204899339 -0.02081810309961447 0 -0.30535586990558611 -0.0115772026751096 0 -0.30044644442503471 0.0075285655262422591 0 -0.31293639089989872 0.00031510465304433012 0 -0.30535586990558611 -0.0115772026751096 0 -0.30044644442503471 0.0075285655262422591 0 -0.28903349602016998 -0.0014867337770870851 0 -0.30535586990558611 -0.0115772026751096 0 -0.30044644442503471 0.0075285655262422591 0 -0.30407671758730492 -0.052701194047780869 0 -0.2886894665474159 -0.05624185893145954 0 -0.30692090489049412 -0.073744283162762658 0 -0.30407671758730492 -0.052701194047780869 0 -0.31183562916369317 -0.036794161131154142 0 -0.31831538842180351 -0.062011119587197662 0 -0.30407671758730492 -0.052701194047780869 0 -0.31183562916369317 -0.036794161131154142 0 -0.29462219891311747 -0.034714547426330358 0 -0.29462219891311747 -0.034714547426330358 0 -0.2886894665474159 -0.05624185893145954 0 -0.27575031356088442 -0.037033000416091401 0 -0.30407671758730492 -0.052701194047780869 0 -0.29462219891311747 -0.034714547426330358 0 -0.2886894665474159 -0.05624185893145954 0 -0.27255825989369731 -0.055409889196507273 0 -0.27575031356088442 -0.037033000416091401 0 -0.26091737223455758 -0.048568414452871453 0 -0.2886894665474159 -0.05624185893145954 0 -0.27255825989369731 -0.055409889196507273 0 -0.27575031356088442 -0.037033000416091401 0 -0.2886894665474159 -0.05624185893145954 0 -0.27255825989369731 -0.055409889196507273 0 -0.27320578518610739 -0.07040641202242974 0 -0.27575031356088442 -0.037033000416091401 0 -0.26298988648862959 -0.035645850643416577 0 -0.26091737223455758 -0.048568414452871453 0 -0.26094928529351308 -0.02263966624536445 0 -0.27575031356088442 -0.037033000416091401 0 -0.26298988648862959 -0.035645850643416577 0 -0.24415789293775009 -0.03563361073610772 0 -0.26094928529351308 -0.02263966624536445 0 -0.25265902001537383 -0.039693475959311067 0 -0.26094928529351308 -0.02263966624536445 0 -0.26298988648862959 -0.035645850643416577 0 -0.25265902001537383 -0.039693475959311067 0 -0.26298988648862959 -0.035645850643416577 0 -0.25265902001537383 -0.039693475959311067 0 -0.26091737223455758 -0.048568414452871453 0 -0.27255825989369731 -0.055409889196507273 0 -0.26091737223455758 -0.048568414452871453 0 -0.25984724970037182 -0.063272240404713645 0 -0.24549590135057761 -0.052513771955774023 0 -0.25265902001537383 -0.039693475959311067 0 -0.26091737223455758 -0.048568414452871453 0 -0.24549590135057761 -0.052513771955774023 0 -0.26091737223455758 -0.048568414452871453 0 -0.25984724970037182 -0.063272240404713645 0 -0.24521486289106231 -0.072759743293940402 0 -0.25984724970037182 -0.063272240404713645 0 -0.25950076052665377 -0.07921145162927376 0 -0.25984724970037182 -0.063272240404713645 0 -0.25950076052665377 -0.07921145162927376 0 -0.27320578518610739 -0.07040641202242974 0 -0.24521486289106231 -0.072759743293940402 0 -0.24549590135057761 -0.052513771955774023 0 -0.25984724970037182 -0.063272240404713645 0 -0.24938867277774421 -0.092037661685869493 0 -0.25950076052665377 -0.07921145162927376 0 -0.26551388353198718 -0.094546096630936272 0 -0.24521486289106231 -0.072759743293940402 0 -0.24938867277774421 -0.092037661685869493 0 -0.25950076052665377 -0.07921145162927376 0 -0.25950076052665377 -0.07921145162927376 0 -0.27858461378299149 -0.084641265249270708 0 -0.26551388353198718 -0.094546096630936272 0 -0.27858461378299149 -0.084641265249270708 0 -0.27320578518610739 -0.07040641202242974 0 -0.29181831724385848 -0.07771957163469273 0 -0.25950076052665377 -0.07921145162927376 0 -0.27858461378299149 -0.084641265249270708 0 -0.27320578518610739 -0.07040641202242974 0 -0.27255825989369731 -0.055409889196507273 0 -0.25984724970037182 -0.063272240404713645 0 -0.27320578518610739 -0.07040641202242974 0 -0.25192184582056321 -0.119995052330732 0 -0.26185727449043389 -0.1086929451752036 0 -0.26547515913156872 -0.12983478090114339 0 -0.2452399921806995 -0.1081871923746404 0 -0.25192184582056321 -0.119995052330732 0 -0.26185727449043389 -0.1086929451752036 0 -0.24938867277774421 -0.092037661685869493 0 -0.26551388353198718 -0.094546096630936272 0 -0.26185727449043389 -0.1086929451752036 0 -0.2452399921806995 -0.1081871923746404 0 -0.24938867277774421 -0.092037661685869493 0 -0.26185727449043389 -0.1086929451752036 0 -0.27858461378299149 -0.084641265249270708 0 -0.26551388353198718 -0.094546096630936272 0 -0.28031564036978379 -0.108800167316496 0 -0.26551388353198718 -0.094546096630936272 0 -0.26185727449043389 -0.1086929451752036 0 -0.28031564036978379 -0.108800167316496 0 -0.26185727449043389 -0.1086929451752036 0 -0.28031564036978379 -0.108800167316496 0 -0.26547515913156872 -0.12983478090114339 0 -0.28031564036978379 -0.108800167316496 0 -0.26547515913156872 -0.12983478090114339 0 -0.2884976378899114 -0.13127068225530411 0 -0.30519025722120813 -0.1136913659998296 0 -0.2884976378899114 -0.13127068225530411 0 -0.28031564036978379 -0.108800167316496 0 -0.30519025722120813 -0.1136913659998296 0 -0.2884976378899114 -0.13127068225530411 0 -0.28031564036978379 -0.108800167316496 0 -0.29478203075423232 -0.095300604193372246 0 -0.30519025722120813 -0.1136913659998296 0 -0.27858461378299149 -0.084641265249270708 0 -0.28031564036978379 -0.108800167316496 0 -0.29478203075423232 -0.095300604193372246 0 -0.30779022400085698 -0.096259869417262722 0 -0.30519025722120813 -0.1136913659998296 0 -0.32188287655250469 -0.096112049744355083 0 -0.29478203075423232 -0.095300604193372246 0 -0.30779022400085698 -0.096259869417262722 0 -0.30519025722120813 -0.1136913659998296 0 -0.30519025722120813 -0.1136913659998296 0 -0.31866719401660543 -0.12216427105626659 0 -0.31145680594539338 -0.1363568130887941 0 -0.2886894665474159 -0.05624185893145954 0 -0.27320578518610739 -0.07040641202242974 0 -0.29181831724385848 -0.07771957163469273 0 -0.2886894665474159 -0.05624185893145954 0 -0.29181831724385848 -0.07771957163469273 0 -0.30692090489049412 -0.073744283162762658 0 -0.27858461378299149 -0.084641265249270708 0 -0.29478203075423232 -0.095300604193372246 0 -0.29181831724385848 -0.07771957163469273 0 -0.29478203075423232 -0.095300604193372246 0 -0.29181831724385848 -0.07771957163469273 0 -0.30381949847024708 -0.087388193966696004 0 -0.29181831724385848 -0.07771957163469273 0 -0.30381949847024708 -0.087388193966696004 0 -0.30692090489049412 -0.073744283162762658 0 -0.29478203075423232 -0.095300604193372246 0 -0.30779022400085698 -0.096259869417262722 0 -0.30381949847024708 -0.087388193966696004 0 -0.30779022400085698 -0.096259869417262722 0 -0.30381949847024708 -0.087388193966696004 0 -0.31327645700609291 -0.088807133182060682 0 -0.30381949847024708 -0.087388193966696004 0 -0.30692090489049412 -0.073744283162762658 0 -0.31327645700609291 -0.088807133182060682 0 -0.30407671758730492 -0.052701194047780869 0 -0.30692090489049412 -0.073744283162762658 0 -0.31831538842180351 -0.062011119587197662 0 -0.30692090489049412 -0.073744283162762658 0 -0.32479514767991369 -0.08722807804324112 0 -0.31831538842180351 -0.062011119587197662 0 -0.32479514767991369 -0.08722807804324112 0 -0.31831538842180351 -0.062011119587197662 0 -0.32479514767991369 -0.08722807804324112 0 -0.33331585402351371 -0.076449112106192707 0 -0.31831538842180351 -0.062011119587197662 0 -0.30692090489049412 -0.073744283162762658 0 -0.31327645700609291 -0.088807133182060682 0 -0.32479514767991369 -0.08722807804324112 0 -0.30779022400085698 -0.096259869417262722 0 -0.31327645700609291 -0.088807133182060682 0 -0.32188287655250469 -0.096112049744355083 0 -0.31327645700609291 -0.088807133182060682 0 -0.32479514767991369 -0.08722807804324112 0 -0.32188287655250469 -0.096112049744355083 0 -0.33331585402351371 -0.076449112106192707 0 -0.3296633234960849 -0.1013047667908214 0 -0.34558554241055522 -0.09102791670633438 0 -0.33331585402351371 -0.076449112106192707 0 -0.3296633234960849 -0.1013047667908214 0 -0.33331585402351371 -0.076449112106192707 0 -0.35050814408155029 -0.076569881747450594 0 -0.34558554241055522 -0.09102791670633438 0 -0.32479514767991369 -0.08722807804324112 0 -0.33331585402351371 -0.076449112106192707 0 -0.3296633234960849 -0.1013047667908214 0 -0.33331585402351371 -0.076449112106192707 0 -0.33696838455094252 -0.051593457421563987 0 -0.33331585402351371 -0.076449112106192707 0 -0.31831538842180351 -0.062011119587197662 0 -0.33696838455094252 -0.051593457421563987 0 -0.33331585402351371 -0.076449112106192707 0 -0.34943681941101712 -0.062807406304874053 0 -0.33696838455094252 -0.051593457421563987 0 -0.31866719401660543 -0.12216427105626659 0 -0.32188287655250469 -0.096112049744355083 0 -0.33127490693802403 -0.1124450364992847 0 -0.30519025722120813 -0.1136913659998296 0 -0.31866719401660543 -0.12216427105626659 0 -0.32188287655250469 -0.096112049744355083 0 -0.32479514767991369 -0.08722807804324112 0 -0.32188287655250469 -0.096112049744355083 0 -0.33127490693802403 -0.1124450364992847 0 -0.32479514767991369 -0.08722807804324112 0 -0.33127490693802403 -0.1124450364992847 0 -0.30519025722120813 -0.1136913659998296 0 -0.32188287655250469 -0.096112049744355083 0 -0.32479514767991369 -0.08722807804324112 0 -0.3296633234960849 -0.1013047667908214 0 -0.33127490693802403 -0.1124450364992847 0 -0.3296633234960849 -0.1013047667908214 0 -0.34343410841064698 -0.1049993484580618 0 -0.34558554241055522 -0.09102791670633438 0 -0.3296633234960849 -0.1013047667908214 0 -0.34343410841064698 -0.1049993484580618 0 -0.33127490693802403 -0.1124450364992847 0 -0.31866719401660543 -0.12216427105626659 0 -0.33127490693802403 -0.1124450364992847 0 -0.33775466619613442 -0.13766199495532819 0 -0.33127490693802403 -0.1124450364992847 0 -0.34422928908335992 -0.11994907329476009 0 -0.33775466619613442 -0.13766199495532819 0 -0.34343410841064698 -0.1049993484580618 0 -0.33127490693802403 -0.1124450364992847 0 -0.34422928908335992 -0.11994907329476009 0 -0.34422928908335992 -0.11994907329476009 0 -0.3550288976355358 -0.1130637042565947 0 -0.35837968825771949 -0.12690532206742389 0 -0.34343410841064698 -0.1049993484580618 0 -0.34422928908335992 -0.11994907329476009 0 -0.3550288976355358 -0.1130637042565947 0 -0.34343410841064698 -0.1049993484580618 0 -0.3550288976355358 -0.1130637042565947 0 -0.35736296709768423 -0.10111312745218951 0 -0.34343410841064698 -0.1049993484580618 0 -0.35736296709768423 -0.10111312745218951 0 -0.34558554241055522 -0.09102791670633438 0 -0.3550288976355358 -0.1130637042565947 0 -0.35736296709768423 -0.10111312745218951 0 -0.37173843532826839 -0.1123516500105381 0 -0.35736296709768423 -0.10111312745218951 0 -0.37128139111673919 -0.096572428760646756 0 -0.37173843532826839 -0.1123516500105381 0 -0.35736296709768423 -0.10111312745218951 0 -0.37128139111673919 -0.096572428760646756 0 -0.36056690669676611 -0.086379618191137514 0 -0.37173843532826839 -0.1123516500105381 0 -0.35837968825771949 -0.12690532206742389 0 -0.37913251340974607 -0.12984462309338429 0 -0.3550288976355358 -0.1130637042565947 0 -0.37173843532826839 -0.1123516500105381 0 -0.35837968825771949 -0.12690532206742389 0 -0.33331585402351371 -0.076449112106192707 0 -0.34943681941101712 -0.062807406304874053 0 -0.35050814408155029 -0.076569881747450594 0 -0.35050814408155029 -0.076569881747450594 0 -0.36056690669676611 -0.086379618191137514 0 -0.36313189418671021 -0.068832623248677366 0 -0.34943681941101712 -0.062807406304874053 0 -0.35050814408155029 -0.076569881747450594 0 -0.36313189418671021 -0.068832623248677366 0 -0.35736296709768423 -0.10111312745218951 0 -0.34558554241055522 -0.09102791670633438 0 -0.36056690669676611 -0.086379618191137514 0 -0.35050814408155029 -0.076569881747450594 0 -0.34558554241055522 -0.09102791670633438 0 -0.36056690669676611 -0.086379618191137514 0 -0.36056690669676611 -0.086379618191137514 0 -0.36313189418671021 -0.068832623248677366 0 -0.37923385979304519 -0.082716469216209676 0 -0.37128139111673919 -0.096572428760646756 0 -0.36056690669676611 -0.086379618191137514 0 -0.37923385979304519 -0.082716469216209676 0 -0.36313189418671021 -0.068832623248677366 0 -0.38143644058991999 -0.062113401780423003 0 -0.37923385979304519 -0.082716469216209676 0 -0.36313189418671021 -0.068832623248677366 0 -0.36056388090244401 -0.047772310492921043 0 -0.38143644058991999 -0.062113401780423003 0 -0.34943681941101712 -0.062807406304874053 0 -0.36313189418671021 -0.068832623248677366 0 -0.36056388090244401 -0.047772310492921043 0 -0.34943681941101712 -0.062807406304874053 0 -0.36056388090244401 -0.047772310492921043 0 -0.33696838455094252 -0.051593457421563987 0 -0.36056388090244401 -0.047772310492921043 0 -0.36713412880463109 -0.02913640691519654 0 -0.34062091507837128 -0.02673780273693525 0 -0.36056388090244401 -0.047772310492921043 0 -0.34062091507837128 -0.02673780273693525 0 -0.33696838455094252 -0.051593457421563987 0 -0.36056388090244401 -0.047772310492921043 0 -0.36713412880463109 -0.02913640691519654 0 -0.38458770647520579 -0.042710339400430002 0 -0.36713412880463109 -0.02913640691519654 0 -0.37421019151669438 -0.013716357332173889 0 -0.35719142043985952 -0.0144786043165547 0 -0.37421019151669438 -0.013716357332173889 0 -0.35719142043985952 -0.0144786043165547 0 -0.3616504328596708 0.002446766007086057 0 -0.37421019151669438 -0.013716357332173889 0 -0.37902742011354401 0.0067756800664774443 0 -0.3616504328596708 0.002446766007086057 0 -0.35719142043985952 -0.0144786043165547 0 -0.34427344560579781 -0.0018821480523062101 0 -0.3616504328596708 0.002446766007086057 0 -0.35719142043985952 -0.0144786043165547 0 -0.34427344560579781 -0.0018821480523062101 0 -0.34062091507837128 -0.02673780273693525 0 -0.36713412880463109 -0.02913640691519654 0 -0.35719142043985952 -0.0144786043165547 0 -0.34062091507837128 -0.02673780273693525 0 -0.34062091507837128 -0.02673780273693525 0 -0.32481465775569179 -0.0067296753637074627 0 -0.31995893204899339 -0.02081810309961447 0 -0.34427344560579781 -0.0018821480523062101 0 -0.32481465775569179 -0.0067296753637074627 0 -0.34427344560579781 -0.0018821480523062101 0 -0.34062091507837128 -0.02673780273693525 0 -0.34427344560579781 -0.0018821480523062101 0 -0.34062091507837128 -0.02673780273693525 0 -0.32481465775569179 -0.0067296753637074627 0 -0.30535586990558611 -0.0115772026751096 0 -0.32481465775569179 -0.0067296753637074627 0 -0.31293639089989872 0.00031510465304433012 0 -0.30535586990558611 -0.0115772026751096 0 -0.32481465775569179 -0.0067296753637074627 0 -0.30535586990558611 -0.0115772026751096 0 -0.32481465775569179 -0.0067296753637074627 0 -0.31995893204899339 -0.02081810309961447 0 -0.31183562916369317 -0.036794161131154142 0 -0.34062091507837128 -0.02673780273693525 0 -0.31995893204899339 -0.02081810309961447 0 -0.31183562916369317 -0.036794161131154142 0 -0.31831538842180351 -0.062011119587197662 0 -0.33696838455094252 -0.051593457421563987 0 -0.31183562916369317 -0.036794161131154142 0 -0.31831538842180351 -0.062011119587197662 0 -0.34062091507837128 -0.02673780273693525 0 -0.33696838455094252 -0.051593457421563987 0 -0.31183562916369317 -0.036794161131154142 0 -0.34062091507837128 -0.02673780273693525 0 -0.33696838455094252 -0.051593457421563987 0 -0.298441072480228 -0.24149626333295901 0 -0.32317982340391699 -0.23485930302261279 0 -0.29549873679212108 -0.25827651837323362 0 -0.298441072480228 -0.24149626333295901 0 -0.31173152530869769 -0.25247476887326409 0 -0.298441072480228 -0.24149626333295901 0 -0.32317982340391699 -0.23485930302261279 0 -0.298441072480228 -0.24149626333295901 0 -0.31047938514032719 -0.22863159398348201 0 -0.32317982340391699 -0.23485930302261279 0 -0.298441072480228 -0.24149626333295901 0 -0.31047938514032719 -0.22863159398348201 0 -0.30262936326075962 -0.2176102778676515 0 -0.298441072480228 -0.24149626333295901 0 -0.30262936326075962 -0.2176102778676515 0 -0.31047938514032719 -0.22863159398348201 0 -0.30262936326075962 -0.2176102778676515 0 -0.31766728141640432 -0.22056053171070489 0 -0.2858118955193098 -0.23299122812411219 0 -0.27444563936445532 -0.22036960298337649 0 -0.30262936326075962 -0.2176102778676515 0 -0.298441072480228 -0.24149626333295901 0 -0.2858118955193098 -0.23299122812411219 0 -0.30262936326075962 -0.2176102778676515 0 -0.298441072480228 -0.24149626333295901 0 -0.2809905480289096 -0.2461779240415149 0 -0.298441072480228 -0.24149626333295901 0 -0.2858118955193098 -0.23299122812411219 0 -0.2809905480289096 -0.2461779240415149 0 -0.29549873679212108 -0.25827651837323362 0 -0.298441072480228 -0.24149626333295901 0 -0.2809905480289096 -0.2461779240415149 0 -0.2858118955193098 -0.23299122812411219 0 -0.2809905480289096 -0.2461779240415149 0 -0.26711815564734542 -0.2368318806790039 0 -0.26354002357759088 -0.25085958475006948 0 -0.2809905480289096 -0.2461779240415149 0 -0.26354002357759088 -0.25085958475006948 0 -0.2809905480289096 -0.2461779240415149 0 -0.26711815564734542 -0.2368318806790039 0 -0.26354002357759088 -0.25085958475006948 0 -0.26711815564734542 -0.2368318806790039 0 -0.25430487877873142 -0.2463809903912782 0 -0.26711815564734542 -0.2368318806790039 0 -0.2557091440013381 -0.237339573843727 0 -0.25430487877873142 -0.2463809903912782 0 -0.24723245661878671 -0.2408066128101595 0 -0.2557091440013381 -0.237339573843727 0 -0.25430487877873142 -0.2463809903912782 0 -0.24723245661878671 -0.2408066128101595 0 -0.2557091440013381 -0.237339573843727 0 -0.25418108496048908 -0.2253388114944665 0 -0.26711815564734542 -0.2368318806790039 0 -0.25418108496048908 -0.2253388114944665 0 -0.27444563936445532 -0.22036960298337649 0 -0.26711815564734542 -0.2368318806790039 0 -0.2557091440013381 -0.237339573843727 0 -0.25418108496048908 -0.2253388114944665 0 -0.2858118955193098 -0.23299122812411219 0 -0.26711815564734542 -0.2368318806790039 0 -0.27444563936445532 -0.22036960298337649 0 -0.27444563936445532 -0.22036960298337649 0 -0.25408758587801827 -0.2083821735230276 0 -0.28045261995965509 -0.2010532329626856 0 -0.25408758587801827 -0.2083821735230276 0 -0.28045261995965509 -0.2010532329626856 0 -0.25418108496048908 -0.2253388114944665 0 -0.27444563936445532 -0.22036960298337649 0 -0.25408758587801827 -0.2083821735230276 0 -0.24252181593451819 -0.19539625923945991 0 -0.25408758587801827 -0.2083821735230276 0 -0.25506960027900177 -0.18743648878686539 0 -0.25408758587801827 -0.2083821735230276 0 -0.26833805107279002 -0.19378422340670551 0 -0.25506960027900177 -0.18743648878686539 0 -0.25408758587801827 -0.2083821735230276 0 -0.26833805107279002 -0.19378422340670551 0 -0.28045261995965509 -0.2010532329626856 0 -0.26833805107279002 -0.19378422340670551 0 -0.28274709141640852 -0.19314338379132709 0 -0.26899000138343893 -0.179722892469421 0 -0.26833805107279002 -0.19378422340670551 0 -0.28045261995965509 -0.2010532329626856 0 -0.28274709141640852 -0.19314338379132709 0 -0.28045261995965509 -0.2010532329626856 0 -0.28274709141640852 -0.19314338379132709 0 -0.30681765404129169 -0.19372429240234401 0 -0.28045261995965509 -0.2010532329626856 0 -0.30681765404129169 -0.19372429240234401 0 -0.28274709141640852 -0.19314338379132709 0 -0.30681765404129169 -0.19372429240234401 0 -0.29560658690187158 -0.1845918017339509 0 -0.27444563936445532 -0.22036960298337649 0 -0.28045261995965509 -0.2010532329626856 0 -0.30262936326075962 -0.2176102778676515 0 -0.28045261995965509 -0.2010532329626856 0 -0.30262936326075962 -0.2176102778676515 0 -0.30681765404129169 -0.19372429240234401 0 -0.30262936326075962 -0.2176102778676515 0 -0.30681765404129169 -0.19372429240234401 0 -0.30262936326075962 -0.2176102778676515 0 -0.30681765404129169 -0.19372429240234401 0 -0.31758576031674379 -0.20537024919992591 0 -0.30681765404129169 -0.19372429240234401 0 -0.30875637125412603 -0.18266771261988329 0 -0.30018886574621662 -0.1770716545117248 0 -0.30510155855676152 -0.16780816676727589 0 -0.29197079652504981 -0.1726153573769719 0 -0.30018886574621662 -0.1770716545117248 0 -0.30875637125412603 -0.18266771261988329 0 -0.30510155855676152 -0.16780816676727589 0 -0.30018886574621662 -0.1770716545117248 0 -0.30875637125412603 -0.18266771261988329 0 -0.29560658690187158 -0.1845918017339509 0 -0.30681765404129169 -0.19372429240234401 0 -0.30875637125412603 -0.18266771261988329 0 -0.29560658690187158 -0.1845918017339509 0 -0.30875637125412603 -0.18266771261988329 0 -0.30510155855676152 -0.16780816676727589 0 -0.31958019219794398 -0.17435936154374951 0 -0.30510155855676152 -0.16780816676727589 0 -0.29568709209478172 -0.15380124629039379 0 -0.31996075877451358 -0.15834009985088249 0 -0.30510155855676152 -0.16780816676727589 0 -0.29197079652504981 -0.1726153573769719 0 -0.29568709209478172 -0.15380124629039379 0 -0.29197079652504981 -0.1726153573769719 0 -0.27753514534798668 -0.16673932615545409 0 -0.29568709209478172 -0.15380124629039379 0 -0.27753514534798668 -0.16673932615545409 0 -0.28081853568624471 -0.15071868703135949 0 -0.29568709209478172 -0.15380124629039379 0 -0.28336992431495112 -0.179362552305425 0 -0.29197079652504981 -0.1726153573769719 0 -0.27753514534798668 -0.16673932615545409 0 -0.30018886574621662 -0.1770716545117248 0 -0.29197079652504981 -0.1726153573769719 0 -0.29560658690187158 -0.1845918017339509 0 -0.28336992431495112 -0.179362552305425 0 -0.29197079652504981 -0.1726153573769719 0 -0.29560658690187158 -0.1845918017339509 0 -0.28274709141640852 -0.19314338379132709 0 -0.28336992431495112 -0.179362552305425 0 -0.29560658690187158 -0.1845918017339509 0 -0.28274709141640852 -0.19314338379132709 0 -0.28336992431495112 -0.179362552305425 0 -0.26899000138343893 -0.179722892469421 0 -0.28274709141640852 -0.19314338379132709 0 -0.26899000138343893 -0.179722892469421 0 -0.28336992431495112 -0.179362552305425 0 -0.26899000138343893 -0.179722892469421 0 -0.27753514534798668 -0.16673932615545409 0 -0.26899000138343893 -0.179722892469421 0 -0.25506960027900177 -0.18743648878686539 0 -0.25523291135046933 -0.16630240114751471 0 -0.24124723605477649 -0.18103098293506359 0 -0.25506960027900177 -0.18743648878686539 0 -0.25523291135046933 -0.16630240114751471 0 -0.26833805107279002 -0.19378422340670551 0 -0.26899000138343893 -0.179722892469421 0 -0.25506960027900177 -0.18743648878686539 0 -0.26899000138343893 -0.179722892469421 0 -0.25523291135046933 -0.16630240114751471 0 -0.25523291135046933 -0.16630240114751471 0 -0.27180501855861511 -0.14884999851077879 0 -0.26899000138343893 -0.179722892469421 0 -0.25523291135046933 -0.16630240114751471 0 -0.27753514534798668 -0.16673932615545409 0 -0.25523291135046933 -0.16630240114751471 0 -0.27753514534798668 -0.16673932615545409 0 -0.27180501855861511 -0.14884999851077879 0 -0.28081853568624471 -0.15071868703135949 0 -0.27180501855861511 -0.14884999851077879 0 -0.28081853568624471 -0.15071868703135949 0 -0.27180501855861511 -0.14884999851077879 0 -0.2884976378899114 -0.13127068225530411 0 -0.27753514534798668 -0.16673932615545409 0 -0.28081853568624471 -0.15071868703135949 0 -0.27180501855861511 -0.14884999851077879 0 -0.27180501855861511 -0.14884999851077879 0 -0.2535146270831537 -0.14591555495672981 0 -0.26209355444958049 -0.1405275995474827 0 -0.27180501855861511 -0.14884999851077879 0 -0.2535146270831537 -0.14591555495672981 0 -0.24289622835038829 -0.15426756334773939 0 -0.25523291135046933 -0.16630240114751471 0 -0.2535146270831537 -0.14591555495672981 0 -0.25523291135046933 -0.16630240114751471 0 -0.27180501855861511 -0.14884999851077879 0 -0.2535146270831537 -0.14591555495672981 0 -0.24647632213571591 -0.134271778900137 0 -0.25192184582056321 -0.119995052330732 0 -0.26547515913156872 -0.12983478090114339 0 -0.24647632213571591 -0.134271778900137 0 -0.26547515913156872 -0.12983478090114339 0 -0.26209355444958049 -0.1405275995474827 0 -0.24647632213571591 -0.134271778900137 0 -0.2535146270831537 -0.14591555495672981 0 -0.26209355444958049 -0.1405275995474827 0 -0.27180501855861511 -0.14884999851077879 0 -0.26547515913156872 -0.12983478090114339 0 -0.2884976378899114 -0.13127068225530411 0 -0.27180501855861511 -0.14884999851077879 0 -0.2884976378899114 -0.13127068225530411 0 -0.27180501855861511 -0.14884999851077879 0 -0.26547515913156872 -0.12983478090114339 0 -0.26209355444958049 -0.1405275995474827 0 -0.28081853568624471 -0.15071868703135949 0 -0.2884976378899114 -0.13127068225530411 0 -0.29568709209478172 -0.15380124629039379 0 -0.28081853568624471 -0.15071868703135949 0 -0.29568709209478172 -0.15380124629039379 0 -0.29568709209478172 -0.15380124629039379 0 -0.31996075877451358 -0.15834009985088249 0 -0.29568709209478172 -0.15380124629039379 0 -0.31145680594539338 -0.1363568130887941 0 -0.31996075877451358 -0.15834009985088249 0 -0.2884976378899114 -0.13127068225530411 0 -0.29568709209478172 -0.15380124629039379 0 -0.31145680594539338 -0.1363568130887941 0 -0.30519025722120813 -0.1136913659998296 0 -0.2884976378899114 -0.13127068225530411 0 -0.31145680594539338 -0.1363568130887941 0 -0.31866719401660543 -0.12216427105626659 0 -0.31145680594539338 -0.1363568130887941 0 -0.33775466619613442 -0.13766199495532819 0 -0.31145680594539338 -0.1363568130887941 0 -0.33775466619613442 -0.13766199495532819 0 -0.31996075877451358 -0.15834009985088249 0 -0.33775466619613442 -0.13766199495532819 0 -0.34423442545424549 -0.1628789534113716 0 -0.31996075877451358 -0.15834009985088249 0 -0.33775466619613442 -0.13766199495532819 0 -0.34423442545424549 -0.1628789534113716 0 -0.33127490693802403 -0.1124450364992847 0 -0.33775466619613442 -0.13766199495532819 0 -0.34422928908335992 -0.11994907329476009 0 -0.33775466619613442 -0.13766199495532819 0 -0.35837968825771949 -0.12690532206742389 0 -0.33775466619613442 -0.13766199495532819 0 -0.35837968825771949 -0.12690532206742389 0 -0.35621766700467578 -0.1483990099458258 0 -0.35837968825771949 -0.12690532206742389 0 -0.36994492827496828 -0.14309353406183539 0 -0.35621766700467578 -0.1483990099458258 0 -0.35837968825771949 -0.12690532206742389 0 -0.36994492827496828 -0.14309353406183539 0 -0.37913251340974607 -0.12984462309338429 0 -0.36794870582136358 -0.15419851090564821 0 -0.36994492827496828 -0.14309353406183539 0 -0.37563942149086249 -0.15251307589370869 0 -0.36794870582136358 -0.15419851090564821 0 -0.37472625699526269 -0.16055881789998461 0 -0.37563942149086249 -0.15251307589370869 0 -0.36794870582136358 -0.15419851090564821 0 -0.36994492827496828 -0.14309353406183539 0 -0.35621766700467578 -0.1483990099458258 0 -0.33775466619613442 -0.13766199495532819 0 -0.35621766700467578 -0.1483990099458258 0 -0.34423442545424549 -0.1628789534113716 0 -0.35621766700467578 -0.1483990099458258 0 -0.34423442545424549 -0.1628789534113716 0 -0.36321525534104881 -0.16642811672688629 0 -0.34423442545424549 -0.1628789534113716 0 -0.36321525534104881 -0.16642811672688629 0 -0.34913755618492731 -0.1819602246461702 0 -0.34423442545424549 -0.1628789534113716 0 -0.36321525534104881 -0.16642811672688629 0 -0.36321525534104881 -0.16642811672688629 0 -0.37472625699526269 -0.16055881789998461 0 -0.38219608522785209 -0.1699772800424014 0 -0.36794870582136358 -0.15419851090564821 0 -0.35621766700467578 -0.1483990099458258 0 -0.36321525534104881 -0.16642811672688629 0 -0.36321525534104881 -0.16642811672688629 0 -0.38219608522785209 -0.1699772800424014 0 -0.36321525534104881 -0.16642811672688629 0 -0.37474076545692142 -0.1748430558108324 0 -0.38219608522785209 -0.1699772800424014 0 -0.36794870582136358 -0.15419851090564821 0 -0.36321525534104881 -0.16642811672688629 0 -0.37472625699526269 -0.16055881789998461 0 -0.36321525534104881 -0.16642811672688629 0 -0.37474076545692142 -0.1748430558108324 0 -0.34913755618492731 -0.1819602246461702 0 -0.37474076545692142 -0.1748430558108324 0 -0.36557493212354603 -0.18681306940358439 0 -0.34913755618492731 -0.1819602246461702 0 -0.37474076545692142 -0.1748430558108324 0 -0.34913755618492731 -0.1819602246461702 0 -0.37474076545692142 -0.1748430558108324 0 -0.36557493212354603 -0.18681306940358439 0 -0.38032067998850949 -0.18603275360025509 0 -0.34423442545424549 -0.1628789534113716 0 -0.34913755618492731 -0.1819602246461702 0 -0.34423442545424549 -0.1628789534113716 0 -0.34913755618492731 -0.1819602246461702 0 -0.33217810754494798 -0.17307617959528601 0 -0.34913755618492731 -0.1819602246461702 0 -0.32797760511310953 -0.1878422585242569 0 -0.34913755618492731 -0.1819602246461702 0 -0.33217810754494798 -0.17307617959528601 0 -0.32797760511310953 -0.1878422585242569 0 -0.34423442545424549 -0.1628789534113716 0 -0.33217810754494798 -0.17307617959528601 0 -0.31996075877451358 -0.15834009985088249 0 -0.34423442545424549 -0.1628789534113716 0 -0.31996075877451358 -0.15834009985088249 0 -0.33217810754494798 -0.17307617959528601 0 -0.31996075877451358 -0.15834009985088249 0 -0.31958019219794398 -0.17435936154374951 0 -0.30510155855676152 -0.16780816676727589 0 -0.31996075877451358 -0.15834009985088249 0 -0.31958019219794398 -0.17435936154374951 0 -0.30875637125412603 -0.18266771261988329 0 -0.31958019219794398 -0.17435936154374951 0 -0.32797760511310953 -0.1878422585242569 0 -0.33217810754494798 -0.17307617959528601 0 -0.31958019219794398 -0.17435936154374951 0 -0.32797760511310953 -0.1878422585242569 0 -0.32797760511310953 -0.1878422585242569 0 -0.31758576031674379 -0.20537024919992591 0 -0.33875330836714512 -0.19975583162926791 0 -0.30681765404129169 -0.19372429240234401 0 -0.32797760511310953 -0.1878422585242569 0 -0.30681765404129169 -0.19372429240234401 0 -0.30875637125412603 -0.18266771261988329 0 -0.32797760511310953 -0.1878422585242569 0 -0.30681765404129169 -0.19372429240234401 0 -0.32797760511310953 -0.1878422585242569 0 -0.31758576031674379 -0.20537024919992591 0 -0.30262936326075962 -0.2176102778676515 0 -0.31758576031674379 -0.20537024919992591 0 -0.31766728141640432 -0.22056053171070489 0 -0.31758576031674379 -0.20537024919992591 0 -0.33026075245626701 -0.211828552132026 0 -0.31766728141640432 -0.22056053171070489 0 -0.33026075245626701 -0.211828552132026 0 -0.33279760459064872 -0.22183429966223309 0 -0.31766728141640432 -0.22056053171070489 0 -0.31758576031674379 -0.20537024919992591 0 -0.33026075245626701 -0.211828552132026 0 -0.33875330836714512 -0.19975583162926791 0 -0.33026075245626701 -0.211828552132026 0 -0.34496159134904919 -0.21370076873355659 0 -0.33279760459064872 -0.22183429966223309 0 -0.33026075245626701 -0.211828552132026 0 -0.33875330836714512 -0.19975583162926791 0 -0.34496159134904919 -0.21370076873355659 0 -0.34913755618492731 -0.1819602246461702 0 -0.32797760511310953 -0.1878422585242569 0 -0.33875330836714512 -0.19975583162926791 0 -0.34913755618492731 -0.1819602246461702 0 -0.35434647407535291 -0.20223151263875641 0 -0.34913755618492731 -0.1819602246461702 0 -0.33875330836714512 -0.19975583162926791 0 -0.35434647407535291 -0.20223151263875641 0 -0.36557493212354603 -0.18681306940358439 0 -0.34913755618492731 -0.1819602246461702 0 -0.35434647407535291 -0.20223151263875641 0 -0.36557493212354603 -0.18681306940358439 0 -0.35434647407535291 -0.20223151263875641 0 -0.37321206896864018 -0.19499207939536159 0 -0.35434647407535291 -0.20223151263875641 0 -0.37321206896864018 -0.19499207939536159 0 -0.37142881385151988 -0.20588563352597031 0 -0.36557493212354603 -0.18681306940358439 0 -0.37321206896864018 -0.19499207939536159 0 -0.38032067998850949 -0.18603275360025509 0 -0.35434647407535291 -0.20223151263875641 0 -0.37142881385151988 -0.20588563352597031 0 -0.37265732525129419 -0.22158538240191769 0 -0.35434647407535291 -0.20223151263875641 0 -0.34496159134904919 -0.21370076873355659 0 -0.37265732525129419 -0.22158538240191769 0 -0.33875330836714512 -0.19975583162926791 0 -0.35434647407535291 -0.20223151263875641 0 -0.34496159134904919 -0.21370076873355659 0 -0.34496159134904919 -0.21370076873355659 0 -0.34791857432760559 -0.22822234271226521 0 -0.37265732525129419 -0.22158538240191769 0 -0.34791857432760559 -0.22822234271226521 0 -0.37265732525129419 -0.22158538240191769 0 -0.36945815469922949 -0.23917882513561159 0 -0.34791857432760559 -0.22822234271226521 0 -0.37265732525129419 -0.22158538240191769 0 -0.36989754790190182 -0.26072288859677711 0 -0.36945815469922949 -0.23917882513561159 0 -0.34678717985327412 -0.24823256579686021 0 -0.34791857432760559 -0.22822234271226521 0 -0.36945815469922949 -0.23917882513561159 0 -0.34678717985327412 -0.24823256579686021 0 -0.32947092292056113 -0.25832396447058581 0 -0.33403023205647958 -0.23194833424329769 0 -0.32317982340391699 -0.23485930302261279 0 -0.34791857432760559 -0.22822234271226521 0 -0.34678717985327412 -0.24823256579686021 0 -0.33403023205647958 -0.23194833424329769 0 -0.32947092292056113 -0.25832396447058581 0 -0.34678717985327412 -0.24823256579686021 0 -0.33403023205647958 -0.23194833424329769 0 -0.32947092292056113 -0.25832396447058581 0 -0.33403023205647958 -0.23194833424329769 0 -0.34791857432760559 -0.22822234271226521 0 -0.33279760459064872 -0.22183429966223309 0 -0.33403023205647958 -0.23194833424329769 0 -0.34791857432760559 -0.22822234271226521 0 -0.33403023205647958 -0.23194833424329769 0 -0.34496159134904919 -0.21370076873355659 0 -0.34791857432760559 -0.22822234271226521 0 -0.33279760459064872 -0.22183429966223309 0 -0.33403023205647958 -0.23194833424329769 0 -0.32317982340391699 -0.23485930302261279 0 -0.33279760459064872 -0.22183429966223309 0 -0.33403023205647958 -0.23194833424329769 0 -0.32317982340391699 -0.23485930302261279 0 -0.33279760459064872 -0.22183429966223309 0 -0.31766728141640432 -0.22056053171070489 0 -0.32317982340391699 -0.23485930302261279 0 -0.31047938514032719 -0.22863159398348201 0 -0.31766728141640432 -0.22056053171070489 0 -0.32317982340391699 -0.23485930302261279 0 -0.32947092292056113 -0.25832396447058581 0 -0.31173152530869769 -0.25247476887326409 0 -0.32317982340391699 -0.23485930302261279 0 -0.43557554290393963 -0.25597886022036892 0 -0.42565591856522328 -0.24542680169927519 0 -0.43823744686291932 -0.23858129527779001 0 -0.42565591856522328 -0.24542680169927519 0 -0.42743138301484812 -0.23212360088704109 0 -0.41565470912843899 -0.23673825423782041 0 -0.42565591856522328 -0.24542680169927519 0 -0.42743138301484812 -0.23212360088704109 0 -0.43823744686291932 -0.23858129527779001 0 -0.42743138301484812 -0.23212360088704109 0 -0.43948836864817498 -0.227779586451657 0 -0.43823744686291932 -0.23858129527779001 0 -0.42671671046231618 -0.21907105497565271 0 -0.42743138301484812 -0.23212360088704109 0 -0.43948836864817498 -0.227779586451657 0 -0.42671671046231618 -0.21907105497565271 0 -0.42743138301484812 -0.23212360088704109 0 -0.41679954156358617 -0.227427559453069 0 -0.42671671046231618 -0.21907105497565271 0 -0.41679954156358617 -0.227427559453069 0 -0.4008701333486992 -0.2220442376904985 0 -0.42743138301484812 -0.23212360088704109 0 -0.41679954156358617 -0.227427559453069 0 -0.41565470912843899 -0.23673825423782041 0 -0.41679954156358617 -0.227427559453069 0 -0.40921557815523069 -0.23022277580618711 0 -0.4008701333486992 -0.2220442376904985 0 -0.42671671046231618 -0.21907105497565271 0 -0.4008701333486992 -0.2220442376904985 0 -0.41679954156358617 -0.227427559453069 0 -0.40921557815523069 -0.23022277580618711 0 -0.41565470912843899 -0.23673825423782041 0 -0.40921557815523069 -0.23022277580618711 0 -0.41565470912843899 -0.23673825423782041 0 -0.40148333172599932 -0.2362121150092876 0 -0.41565470912843899 -0.23673825423782041 0 -0.40901288029435162 -0.2476257021099563 0 -0.40148333172599932 -0.2362121150092876 0 -0.42565591856522328 -0.24542680169927519 0 -0.41565470912843899 -0.23673825423782041 0 -0.40901288029435162 -0.2476257021099563 0 -0.40901288029435162 -0.2476257021099563 0 -0.39148660300142762 -0.24627045357872851 0 -0.40148333172599932 -0.2362121150092876 0 -0.39148660300142762 -0.24627045357872851 0 -0.40148333172599932 -0.2362121150092876 0 -0.38800169785987382 -0.23003931772712119 0 -0.36945815469922949 -0.23917882513561159 0 -0.39148660300142762 -0.24627045357872851 0 -0.38800169785987382 -0.23003931772712119 0 -0.36989754790190182 -0.26072288859677711 0 -0.36945815469922949 -0.23917882513561159 0 -0.39148660300142762 -0.24627045357872851 0 -0.37265732525129419 -0.22158538240191769 0 -0.38800169785987382 -0.23003931772712119 0 -0.39739607617498268 -0.2149484220915702 0 -0.37265732525129419 -0.22158538240191769 0 -0.36945815469922949 -0.23917882513561159 0 -0.38800169785987382 -0.23003931772712119 0 -0.38800169785987382 -0.23003931772712119 0 -0.4008701333486992 -0.2220442376904985 0 -0.39739607617498268 -0.2149484220915702 0 -0.40148333172599932 -0.2362121150092876 0 -0.38800169785987382 -0.23003931772712119 0 -0.4008701333486992 -0.2220442376904985 0 -0.40921557815523069 -0.23022277580618711 0 -0.40148333172599932 -0.2362121150092876 0 -0.4008701333486992 -0.2220442376904985 0 -0.39739607617498268 -0.2149484220915702 0 -0.39633486657717448 -0.20243990941198739 0 -0.40783063729855978 -0.2055380301582444 0 -0.39739607617498268 -0.2149484220915702 0 -0.38549938711079229 -0.2047335596678454 0 -0.39633486657717448 -0.20243990941198739 0 -0.37142881385151988 -0.20588563352597031 0 -0.37265732525129419 -0.22158538240191769 0 -0.38549938711079229 -0.2047335596678454 0 -0.37265732525129419 -0.22158538240191769 0 -0.39739607617498268 -0.2149484220915702 0 -0.38549938711079229 -0.2047335596678454 0 -0.37265732525129419 -0.22158538240191769 0 -0.39739607617498268 -0.2149484220915702 0 -0.37321206896864018 -0.19499207939536159 0 -0.38379911502721792 -0.1948718531883997 0 -0.38032067998850949 -0.18603275360025509 0 -0.37321206896864018 -0.19499207939536159 0 -0.38549938711079229 -0.2047335596678454 0 -0.38379911502721792 -0.1948718531883997 0 -0.37321206896864018 -0.19499207939536159 0 -0.37142881385151988 -0.20588563352597031 0 -0.38549938711079229 -0.2047335596678454 0 -0.38549938711079229 -0.2047335596678454 0 -0.38379911502721792 -0.1948718531883997 0 -0.39633486657717448 -0.20243990941198739 0 -0.38379911502721792 -0.1948718531883997 0 -0.39301500356610458 -0.19097165084957921 0 -0.38032067998850949 -0.18603275360025509 0 -0.39301500356610458 -0.19097165084957921 0 -0.40310610735138219 -0.191452961611175 0 -0.3991182076319848 -0.18255877038535831 0 -0.39301500356610458 -0.19097165084957921 0 -0.39633486657717448 -0.20243990941198739 0 -0.40310610735138219 -0.191452961611175 0 -0.38379911502721792 -0.1948718531883997 0 -0.39301500356610458 -0.19097165084957921 0 -0.39633486657717448 -0.20243990941198739 0 -0.39633486657717448 -0.20243990941198739 0 -0.40734783932540769 -0.20035473903123349 0 -0.40783063729855978 -0.2055380301582444 0 -0.39633486657717448 -0.20243990941198739 0 -0.40310610735138219 -0.191452961611175 0 -0.40734783932540769 -0.20035473903123349 0 -0.40310610735138219 -0.191452961611175 0 -0.41994770519421099 -0.19345742095829849 0 -0.40970663308589411 -0.1824700303940418 0 -0.40310610735138219 -0.191452961611175 0 -0.41994770519421099 -0.19345742095829849 0 -0.40734783932540769 -0.20035473903123349 0 -0.41994770519421099 -0.19345742095829849 0 -0.41593957731656273 -0.20163561847520819 0 -0.40734783932540769 -0.20035473903123349 0 -0.41994770519421099 -0.19345742095829849 0 -0.41593957731656273 -0.20163561847520819 0 -0.42213482709867128 -0.2083114617812227 0 -0.41593957731656273 -0.20163561847520819 0 -0.40734783932540769 -0.20035473903123349 0 -0.40783063729855978 -0.2055380301582444 0 -0.39739607617498268 -0.2149484220915702 0 -0.40783063729855978 -0.2055380301582444 0 -0.42213482709867128 -0.2083114617812227 0 -0.4008701333486992 -0.2220442376904985 0 -0.39739607617498268 -0.2149484220915702 0 -0.42213482709867128 -0.2083114617812227 0 -0.42671671046231618 -0.21907105497565271 0 -0.4008701333486992 -0.2220442376904985 0 -0.42213482709867128 -0.2083114617812227 0 -0.39739607617498268 -0.2149484220915702 0 -0.42213482709867128 -0.2083114617812227 0 -0.41593957731656273 -0.20163561847520819 0 -0.40783063729855978 -0.2055380301582444 0 -0.42213482709867128 -0.2083114617812227 0 -0.42671671046231618 -0.21907105497565271 0 -0.42213482709867128 -0.2083114617812227 0 -0.44687357802236022 -0.20167450147087509 0 -0.42213482709867128 -0.2083114617812227 0 -0.44687357802236022 -0.20167450147087509 0 -0.42213482709867128 -0.2083114617812227 0 -0.43181976151631302 -0.19371411213005391 0 -0.44687357802236022 -0.20167450147087509 0 -0.41994770519421099 -0.19345742095829849 0 -0.43181976151631302 -0.19371411213005391 0 -0.42759446063552808 -0.17923745854980841 0 -0.41994770519421099 -0.19345742095829849 0 -0.42213482709867128 -0.2083114617812227 0 -0.43181976151631302 -0.19371411213005391 0 -0.42759446063552808 -0.17923745854980841 0 -0.44086385279506918 -0.16877427359701211 0 -0.44320143562773429 -0.1855983579274483 0 -0.43181976151631302 -0.19371411213005391 0 -0.42759446063552808 -0.17923745854980841 0 -0.44320143562773429 -0.1855983579274483 0 -0.42759446063552808 -0.17923745854980841 0 -0.41929480789415091 -0.1608747997498996 0 -0.44086385279506918 -0.16877427359701211 0 -0.41929480789415091 -0.1608747997498996 0 -0.43583480617037229 -0.1493164744880377 0 -0.44086385279506918 -0.16877427359701211 0 -0.41929480789415091 -0.1608747997498996 0 -0.41570976287515249 -0.1729538836106802 0 -0.40034397472891547 -0.16772588697549459 0 -0.42759446063552808 -0.17923745854980841 0 -0.41929480789415091 -0.1608747997498996 0 -0.41570976287515249 -0.1729538836106802 0 -0.41929480789415091 -0.1608747997498996 0 -0.40034397472891547 -0.16772588697549459 0 -0.41143138973423299 -0.14972556614949989 0 -0.41570976287515249 -0.1729538836106802 0 -0.40970663308589411 -0.1824700303940418 0 -0.40034397472891547 -0.16772588697549459 0 -0.41994770519421099 -0.19345742095829849 0 -0.42759446063552808 -0.17923745854980841 0 -0.40970663308589411 -0.1824700303940418 0 -0.42759446063552808 -0.17923745854980841 0 -0.41570976287515249 -0.1729538836106802 0 -0.40970663308589411 -0.1824700303940418 0 -0.40310610735138219 -0.191452961611175 0 -0.40970663308589411 -0.1824700303940418 0 -0.3991182076319848 -0.18255877038535831 0 -0.40970663308589411 -0.1824700303940418 0 -0.3991182076319848 -0.18255877038535831 0 -0.40034397472891547 -0.16772588697549459 0 -0.3991182076319848 -0.18255877038535831 0 -0.38941931942762742 -0.18017332209650089 0 -0.40034397472891547 -0.16772588697549459 0 -0.39301500356610458 -0.19097165084957921 0 -0.3991182076319848 -0.18255877038535831 0 -0.38941931942762742 -0.18017332209650089 0 -0.37474076545692142 -0.1748430558108324 0 -0.38941931942762742 -0.18017332209650089 0 -0.40034397472891547 -0.16772588697549459 0 -0.39301500356610458 -0.19097165084957921 0 -0.38941931942762742 -0.18017332209650089 0 -0.38032067998850949 -0.18603275360025509 0 -0.37474076545692142 -0.1748430558108324 0 -0.38941931942762742 -0.18017332209650089 0 -0.38032067998850949 -0.18603275360025509 0 -0.37474076545692142 -0.1748430558108324 0 -0.40034397472891547 -0.16772588697549459 0 -0.38219608522785209 -0.1699772800424014 0 -0.38680004664237111 -0.15766115334852271 0 -0.40034397472891547 -0.16772588697549459 0 -0.37474076545692142 -0.1748430558108324 0 -0.38219608522785209 -0.1699772800424014 0 -0.40034397472891547 -0.16772588697549459 0 -0.37472625699526269 -0.16055881789998461 0 -0.38219608522785209 -0.1699772800424014 0 -0.38680004664237111 -0.15766115334852271 0 -0.37472625699526269 -0.16055881789998461 0 -0.38680004664237111 -0.15766115334852271 0 -0.37563942149086249 -0.15251307589370869 0 -0.38680004664237111 -0.15766115334852271 0 -0.40034397472891547 -0.16772588697549459 0 -0.39680773006458853 -0.14711413448061131 0 -0.40034397472891547 -0.16772588697549459 0 -0.39680773006458853 -0.14711413448061131 0 -0.41143138973423299 -0.14972556614949989 0 -0.39680773006458853 -0.14711413448061131 0 -0.38365040385559729 -0.14396894916500749 0 -0.39357778325104781 -0.13358717411198251 0 -0.38680004664237111 -0.15766115334852271 0 -0.39680773006458853 -0.14711413448061131 0 -0.38365040385559729 -0.14396894916500749 0 -0.36994492827496828 -0.14309353406183539 0 -0.38365040385559729 -0.14396894916500749 0 -0.37563942149086249 -0.15251307589370869 0 -0.38680004664237111 -0.15766115334852271 0 -0.38365040385559729 -0.14396894916500749 0 -0.37563942149086249 -0.15251307589370869 0 -0.37913251340974607 -0.12984462309338429 0 -0.39357778325104781 -0.13358717411198251 0 -0.39783999595719988 -0.1197632480443338 0 -0.36994492827496828 -0.14309353406183539 0 -0.38365040385559729 -0.14396894916500749 0 -0.37913251340974607 -0.12984462309338429 0 -0.38365040385559729 -0.14396894916500749 0 -0.37913251340974607 -0.12984462309338429 0 -0.39357778325104781 -0.13358717411198251 0 -0.39680773006458853 -0.14711413448061131 0 -0.39357778325104781 -0.13358717411198251 0 -0.41504956805204007 -0.13487922239278949 0 -0.39357778325104781 -0.13358717411198251 0 -0.41504956805204007 -0.13487922239278949 0 -0.39783999595719988 -0.1197632480443338 0 -0.39680773006458853 -0.14711413448061131 0 -0.41504956805204007 -0.13487922239278949 0 -0.41143138973423299 -0.14972556614949989 0 -0.41504956805204007 -0.13487922239278949 0 -0.41143138973423299 -0.14972556614949989 0 -0.43583480617037229 -0.1493164744880377 0 -0.41929480789415091 -0.1608747997498996 0 -0.41143138973423299 -0.14972556614949989 0 -0.43583480617037229 -0.1493164744880377 0 -0.41504956805204007 -0.13487922239278949 0 -0.43583480617037229 -0.1493164744880377 0 -0.43619974252210958 -0.13061451668348481 0 -0.41504956805204007 -0.13487922239278949 0 -0.43619974252210958 -0.13061451668348481 0 -0.42291739076004459 -0.1187956058579131 0 -0.43619974252210958 -0.13061451668348481 0 -0.46270608658693452 -0.1352840616385631 0 -0.44405912988040153 -0.11358126071284549 0 -0.43583480617037229 -0.1493164744880377 0 -0.43619974252210958 -0.13061451668348481 0 -0.46270608658693452 -0.1352840616385631 0 -0.43583480617037229 -0.1493164744880377 0 -0.46270608658693452 -0.1352840616385631 0 -0.45903459639970201 -0.1607466361517067 0 -0.46270608658693452 -0.1352840616385631 0 -0.48135304329346762 -0.1569868625642809 0 -0.45903459639970201 -0.1607466361517067 0 -0.46270608658693452 -0.1352840616385631 0 -0.48445450596358042 -0.13721874380889251 0 -0.47714397380063578 -0.1172428160589581 0 -0.5 -0.12521900505234279 0 -0.48445450596358042 -0.13721874380889251 0 -0.47714397380063578 -0.1172428160589581 0 -0.5 -0.12521900505234279 0 -0.48445450596358042 -0.13721874380889251 0 -0.5 -0.1519543342711708 0 -0.48445450596358042 -0.13721874380889251 0 -0.5 -0.1519543342711708 0 -0.48135304329346762 -0.1569868625642809 0 -0.46270608658693452 -0.1352840616385631 0 -0.48445450596358042 -0.13721874380889251 0 -0.48135304329346762 -0.1569868625642809 0 -0.46270608658693452 -0.1352840616385631 0 -0.48135304329346762 -0.1569868625642809 0 -0.48135304329346762 -0.1569868625642809 0 -0.47612387281637858 -0.17573195227207999 0 -0.45903459639970201 -0.1607466361517067 0 -0.48135304329346762 -0.1569868625642809 0 -0.50000000000000044 -0.1786896634899989 0 -0.47612387281637858 -0.17573195227207999 0 -0.5 -0.1519543342711708 0 -0.48135304329346762 -0.1569868625642809 0 -0.50000000000000044 -0.1786896634899989 0 -0.48135304329346762 -0.1569868625642809 0 -0.50000000000000044 -0.1786896634899989 0 -0.50000000000000044 -0.1786896634899989 0 -0.47612387281637858 -0.17573195227207999 0 -0.48588472487574069 -0.1918189748454863 0 -0.47612387281637858 -0.17573195227207999 0 -0.46885388851151022 -0.19239640025326879 0 -0.48588472487574069 -0.1918189748454863 0 -0.47612387281637858 -0.17573195227207999 0 -0.45732591673598971 -0.1783861923502667 0 -0.46885388851151022 -0.19239640025326879 0 -0.47612387281637858 -0.17573195227207999 0 -0.45732591673598971 -0.1783861923502667 0 -0.45903459639970201 -0.1607466361517067 0 -0.43583480617037229 -0.1493164744880377 0 -0.45903459639970201 -0.1607466361517067 0 -0.44086385279506918 -0.16877427359701211 0 -0.45732591673598971 -0.1783861923502667 0 -0.45903459639970201 -0.1607466361517067 0 -0.44086385279506918 -0.16877427359701211 0 -0.45732591673598971 -0.1783861923502667 0 -0.44086385279506918 -0.16877427359701211 0 -0.44320143562773429 -0.1855983579274483 0 -0.45732591673598971 -0.1783861923502667 0 -0.44320143562773429 -0.1855983579274483 0 -0.45514316250746389 -0.19185635938087689 0 -0.44320143562773429 -0.1855983579274483 0 -0.44687357802236022 -0.20167450147087509 0 -0.45514316250746389 -0.19185635938087689 0 -0.43181976151631302 -0.19371411213005391 0 -0.44320143562773429 -0.1855983579274483 0 -0.44687357802236022 -0.20167450147087509 0 -0.42671671046231618 -0.21907105497565271 0 -0.44687357802236022 -0.20167450147087509 0 -0.45256328757593339 -0.21609787226080671 0 -0.42671671046231618 -0.21907105497565271 0 -0.45256328757593339 -0.21609787226080671 0 -0.45256328757593339 -0.21609787226080671 0 -0.46028623238666933 -0.20286599915691839 0 -0.47840986468955049 -0.21312468954596089 0 -0.44687357802236022 -0.20167450147087509 0 -0.45256328757593339 -0.21609787226080671 0 -0.46028623238666933 -0.20286599915691839 0 -0.45256328757593339 -0.21609787226080671 0 -0.47840986468955049 -0.21312468954596089 0 -0.46028623238666933 -0.20286599915691839 0 -0.45514316250746389 -0.19185635938087689 0 -0.46885388851151022 -0.19239640025326879 0 -0.44687357802236022 -0.20167450147087509 0 -0.46028623238666933 -0.20286599915691839 0 -0.45514316250746389 -0.19185635938087689 0 -0.45732591673598971 -0.1783861923502667 0 -0.45514316250746389 -0.19185635938087689 0 -0.46885388851151022 -0.19239640025326879 0 -0.46028623238666933 -0.20286599915691839 0 -0.46885388851151022 -0.19239640025326879 0 -0.47840986468955049 -0.21312468954596089 0 -0.46885388851151022 -0.19239640025326879 0 -0.48588472487574069 -0.1918189748454863 0 -0.47840986468955049 -0.21312468954596089 0 -0.50000000000000044 -0.1786896634899989 0 -0.48588472487574069 -0.1918189748454863 0 -0.5 -0.20571729956159579 0 -0.5 -0.20571729956159579 0 -0.47840986468955049 -0.21312468954596089 0 -0.5 -0.23274493563319271 0 -0.48588472487574069 -0.1918189748454863 0 -0.5 -0.20571729956159579 0 -0.47840986468955049 -0.21312468954596089 0 -0.47840986468955049 -0.21312468954596089 0 -0.48399465298174321 -0.2379177425729942 0 -0.46769141624373939 -0.23377847492329221 0 -0.47840986468955049 -0.21312468954596089 0 -0.5 -0.23274493563319271 0 -0.48399465298174321 -0.2379177425729942 0 -0.5 -0.2597725717047894 0 -0.5 -0.23274493563319271 0 -0.48399465298174321 -0.2379177425729942 0 -0.47534268383335959 -0.25272024051760411 0 -0.48399465298174321 -0.2379177425729942 0 -0.46769141624373939 -0.23377847492329221 0 -0.45687032481568329 -0.25273515724672291 0 -0.46769141624373939 -0.23377847492329221 0 -0.45118237780001952 -0.2348180631251417 0 -0.45687032481568329 -0.25273515724672291 0 -0.47534268383335959 -0.25272024051760411 0 -0.46769141624373939 -0.23377847492329221 0 -0.45256328757593339 -0.21609787226080671 0 -0.46769141624373939 -0.23377847492329221 0 -0.45118237780001952 -0.2348180631251417 0 -0.45256328757593339 -0.21609787226080671 0 -0.47840986468955049 -0.21312468954596089 0 -0.46769141624373939 -0.23377847492329221 0 -0.42671671046231618 -0.21907105497565271 0 -0.45256328757593339 -0.21609787226080671 0 -0.43948836864817498 -0.227779586451657 0 -0.45256328757593339 -0.21609787226080671 0 -0.43948836864817498 -0.227779586451657 0 -0.45118237780001952 -0.2348180631251417 0 -0.43948836864817498 -0.227779586451657 0 -0.43823744686291932 -0.23858129527779001 0 -0.45118237780001952 -0.2348180631251417 0 -0.43557554290393963 -0.25597886022036892 0 -0.43823744686291932 -0.23858129527779001 0 -0.4449160720575987 -0.24857784108911249 0 -0.45687032481568329 -0.25273515724672291 0 -0.4449160720575987 -0.24857784108911249 0 -0.45118237780001952 -0.2348180631251417 0 -0.43823744686291932 -0.23858129527779001 0 -0.4449160720575987 -0.24857784108911249 0 -0.45118237780001952 -0.2348180631251417 0 -0.40989323423033053 -0.036844153277240922 0 -0.43403606443929832 -0.056986122371895022 0 -0.40451809295563718 -0.057733855024313122 0 -0.40989323423033053 -0.036844153277240922 0 -0.43403606443929832 -0.056986122371895022 0 -0.43519876198545532 -0.030977967154051829 0 -0.40989323423033053 -0.036844153277240922 0 -0.43519876198545532 -0.030977967154051829 0 -0.43519876198545532 -0.030977967154051829 0 -0.4219904930527279 -0.01003483197728468 0 -0.44229791415358249 -0.01377017346316914 0 -0.40989323423033053 -0.036844153277240922 0 -0.43519876198545532 -0.030977967154051829 0 -0.4219904930527279 -0.01003483197728468 0 -0.4219904930527279 -0.01003483197728468 0 -0.44229791415358249 -0.01377017346316914 0 -0.44308901486577262 0.0042692168050426429 0 -0.4219904930527279 -0.01003483197728468 0 -0.40794681717497983 -0.0024024504873184512 0 -0.41409622305577037 0.0077217187298470949 0 -0.4219904930527279 -0.01003483197728468 0 -0.40794681717497983 -0.0024024504873184512 0 -0.40152648360854232 -0.01323820523261878 0 -0.40989323423033053 -0.036844153277240922 0 -0.4219904930527279 -0.01003483197728468 0 -0.40152648360854232 -0.01323820523261878 0 -0.40989323423033053 -0.036844153277240922 0 -0.40152648360854232 -0.01323820523261878 0 -0.38793660900764632 -0.02465654628540705 0 -0.40152648360854232 -0.01323820523261878 0 -0.38802151456323758 -0.008195795016506564 0 -0.39647087071674619 0.005563962258804277 0 -0.40794681717497983 -0.0024024504873184512 0 -0.40152648360854232 -0.01323820523261878 0 -0.39647087071674619 0.005563962258804277 0 -0.40152648360854232 -0.01323820523261878 0 -0.38802151456323758 -0.008195795016506564 0 -0.38793660900764632 -0.02465654628540705 0 -0.37421019151669438 -0.013716357332173889 0 -0.38802151456323758 -0.008195795016506564 0 -0.38793660900764632 -0.02465654628540705 0 -0.37421019151669438 -0.013716357332173889 0 -0.38802151456323758 -0.008195795016506564 0 -0.37902742011354401 0.0067756800664774443 0 -0.36713412880463109 -0.02913640691519654 0 -0.37421019151669438 -0.013716357332173889 0 -0.38793660900764632 -0.02465654628540705 0 -0.36713412880463109 -0.02913640691519654 0 -0.38793660900764632 -0.02465654628540705 0 -0.38458770647520579 -0.042710339400430002 0 -0.40989323423033053 -0.036844153277240922 0 -0.38458770647520579 -0.042710339400430002 0 -0.40451809295563718 -0.057733855024313122 0 -0.40989323423033053 -0.036844153277240922 0 -0.38793660900764632 -0.02465654628540705 0 -0.38458770647520579 -0.042710339400430002 0 -0.40989323423033053 -0.036844153277240922 0 -0.38458770647520579 -0.042710339400430002 0 -0.38458770647520579 -0.042710339400430002 0 -0.40451809295563718 -0.057733855024313122 0 -0.38143644058991999 -0.062113401780423003 0 -0.36056388090244401 -0.047772310492921043 0 -0.38458770647520579 -0.042710339400430002 0 -0.38143644058991999 -0.062113401780423003 0 -0.38143644058991999 -0.062113401780423003 0 -0.37923385979304519 -0.082716469216209676 0 -0.39658320922647761 -0.072914813299986891 0 -0.37128139111673919 -0.096572428760646756 0 -0.37923385979304519 -0.082716469216209676 0 -0.3875047866679322 -0.1003012789331589 0 -0.37923385979304519 -0.082716469216209676 0 -0.40395113974468588 -0.08897713275449004 0 -0.3875047866679322 -0.1003012789331589 0 -0.37923385979304519 -0.082716469216209676 0 -0.40395113974468588 -0.08897713275449004 0 -0.39658320922647761 -0.072914813299986891 0 -0.40451809295563718 -0.057733855024313122 0 -0.38143644058991999 -0.062113401780423003 0 -0.39658320922647761 -0.072914813299986891 0 -0.37173843532826839 -0.1123516500105381 0 -0.37913251340974607 -0.12984462309338429 0 -0.39783999595719988 -0.1197632480443338 0 -0.37173843532826839 -0.1123516500105381 0 -0.3875047866679322 -0.1003012789331589 0 -0.39783999595719988 -0.1197632480443338 0 -0.37128139111673919 -0.096572428760646756 0 -0.37173843532826839 -0.1123516500105381 0 -0.3875047866679322 -0.1003012789331589 0 -0.40395113974468588 -0.08897713275449004 0 -0.3875047866679322 -0.1003012789331589 0 -0.4119810788477376 -0.1052581241780136 0 -0.3875047866679322 -0.1003012789331589 0 -0.39783999595719988 -0.1197632480443338 0 -0.4119810788477376 -0.1052581241780136 0 -0.41504956805204007 -0.13487922239278949 0 -0.39783999595719988 -0.1197632480443338 0 -0.42291739076004459 -0.1187956058579131 0 -0.39783999595719988 -0.1197632480443338 0 -0.4119810788477376 -0.1052581241780136 0 -0.42291739076004459 -0.1187956058579131 0 -0.4119810788477376 -0.1052581241780136 0 -0.42785719443463621 -0.095953475199404864 0 -0.42291739076004459 -0.1187956058579131 0 -0.40395113974468588 -0.08897713275449004 0 -0.4119810788477376 -0.1052581241780136 0 -0.42785719443463621 -0.095953475199404864 0 -0.43619974252210958 -0.13061451668348481 0 -0.42291739076004459 -0.1187956058579131 0 -0.44405912988040153 -0.11358126071284549 0 -0.42785719443463621 -0.095953475199404864 0 -0.42291739076004459 -0.1187956058579131 0 -0.44405912988040153 -0.11358126071284549 0 -0.43403606443929832 -0.056986122371895022 0 -0.40451809295563718 -0.057733855024313122 0 -0.4211594752986717 -0.076698401301727726 0 -0.40451809295563718 -0.057733855024313122 0 -0.39658320922647761 -0.072914813299986891 0 -0.4211594752986717 -0.076698401301727726 0 -0.40395113974468588 -0.08897713275449004 0 -0.39658320922647761 -0.072914813299986891 0 -0.4211594752986717 -0.076698401301727726 0 -0.40395113974468588 -0.08897713275449004 0 -0.42785719443463621 -0.095953475199404864 0 -0.4211594752986717 -0.076698401301727726 0 -0.42785719443463621 -0.095953475199404864 0 -0.4211594752986717 -0.076698401301727726 0 -0.44587471099512388 -0.085611339671158665 0 -0.43403606443929832 -0.056986122371895022 0 -0.4211594752986717 -0.076698401301727726 0 -0.44587471099512388 -0.085611339671158665 0 -0.43403606443929832 -0.056986122371895022 0 -0.44587471099512388 -0.085611339671158665 0 -0.46043805364619761 -0.065210279008944369 0 -0.44587471099512388 -0.085611339671158665 0 -0.46043805364619761 -0.065210279008944369 0 -0.46907749764442419 -0.095094214605638591 0 -0.46270608658693452 -0.1352840616385631 0 -0.44405912988040153 -0.11358126071284549 0 -0.47714397380063578 -0.1172428160589581 0 -0.44405912988040153 -0.11358126071284549 0 -0.47714397380063578 -0.1172428160589581 0 -0.46907749764442419 -0.095094214605638591 0 -0.42785719443463621 -0.095953475199404864 0 -0.44587471099512388 -0.085611339671158665 0 -0.44405912988040153 -0.11358126071284549 0 -0.44587471099512388 -0.085611339671158665 0 -0.44405912988040153 -0.11358126071284549 0 -0.46907749764442419 -0.095094214605638591 0 -0.46270608658693452 -0.1352840616385631 0 -0.44405912988040153 -0.11358126071284549 0 -0.47714397380063578 -0.1172428160589581 0 -0.46907749764442419 -0.095094214605638591 0 -0.5 -0.098483675833514805 0 -0.5 -0.12521900505234279 0 -0.47714397380063578 -0.1172428160589581 0 -0.5 -0.098483675833514805 0 -0.46043805364619761 -0.065210279008944369 0 -0.47958353727806241 -0.076041362979466939 0 -0.47713480884121118 -0.049635535576259722 0 -0.46907749764442419 -0.095094214605638591 0 -0.5 -0.098483675833514805 0 -0.47958353727806241 -0.076041362979466939 0 -0.46043805364619761 -0.065210279008944369 0 -0.46907749764442419 -0.095094214605638591 0 -0.47958353727806241 -0.076041362979466939 0 -0.5 -0.098483675833514805 0 -0.47958353727806241 -0.076041362979466939 0 -0.5 -0.071748346614686875 0 -0.47958353727806241 -0.076041362979466939 0 -0.5 -0.071748346614686875 0 -0.47713480884121118 -0.049635535576259722 0 -0.5 -0.071748346614686875 0 -0.500000000000002 -0.045013017395858862 0 -0.47713480884121118 -0.049635535576259722 0 -0.500000000000002 -0.045013017395858862 0 -0.47713480884121118 -0.049635535576259722 0 -0.48580981749570379 -0.019245594907670961 0 -0.500000000000002 -0.045013017395858862 0 -0.48580981749570379 -0.019245594907670961 0 -0.47713480884121118 -0.049635535576259722 0 -0.46050428974057989 -0.02511178103086277 0 -0.48580981749570379 -0.019245594907670961 0 -0.46043805364619761 -0.065210279008944369 0 -0.47713480884121118 -0.049635535576259722 0 -0.45346239573054847 -0.045584337028402741 0 -0.47713480884121118 -0.049635535576259722 0 -0.45346239573054847 -0.045584337028402741 0 -0.46050428974057989 -0.02511178103086277 0 -0.43519876198545532 -0.030977967154051829 0 -0.45346239573054847 -0.045584337028402741 0 -0.46050428974057989 -0.02511178103086277 0 -0.43403606443929832 -0.056986122371895022 0 -0.43519876198545532 -0.030977967154051829 0 -0.45346239573054847 -0.045584337028402741 0 -0.43403606443929832 -0.056986122371895022 0 -0.46043805364619761 -0.065210279008944369 0 -0.45346239573054847 -0.045584337028402741 0 -0.44229791415358249 -0.01377017346316914 0 -0.45789886563204441 -0.0066896685415484434 0 -0.44308901486577262 0.0042692168050426429 0 -0.43519876198545532 -0.030977967154051829 0 -0.44229791415358249 -0.01377017346316914 0 -0.46050428974057989 -0.02511178103086277 0 -0.43519876198545532 -0.030977967154051829 0 -0.46050428974057989 -0.02511178103086277 0 -0.46050428974057989 -0.02511178103086277 0 -0.45789886563204441 -0.0066896685415484434 0 -0.48580981749570379 -0.019245594907670961 0 -0.44229791415358249 -0.01377017346316914 0 -0.46050428974057989 -0.02511178103086277 0 -0.45789886563204441 -0.0066896685415484434 0 -0.48580981749570379 -0.019245594907670961 0 -0.47239833980753981 0.0051078065850265614 0 -0.48580981749570379 -0.019245594907670961 0 -0.48479114155111641 -0.003687702266120509 0 -0.47239833980753981 0.0051078065850265614 0 -0.45789886563204441 -0.0066896685415484434 0 -0.48580981749570379 -0.019245594907670961 0 -0.47239833980753981 0.0051078065850265614 0 -0.46050428974057989 -0.02511178103086277 0 -0.48580981749570379 -0.019245594907670961 0 -0.500000000000002 -0.045013017395858862 0 -0.48580981749570379 -0.019245594907670961 0 -0.5 -0.01896198650896452 0 -0.48580981749570379 -0.019245594907670961 0 -0.49476452072040239 -0.017169765614472709 0 -0.48943243648537121 -0.011490543033682051 0 -0.48580981749570379 -0.019245594907670961 0 -0.49476452072040239 -0.017169765614472709 0 -0.48580981749570379 -0.019245594907670961 0 -0.5 -0.01896198650896452 0 -0.49476452072040239 -0.017169765614472709 0 -0.5 -0.01896198650896452 0 -0.4923642661742616 -0.0058591093464643767 0 -0.50000000000000067 0.0070890443779297371 0 -0.48479114155111641 -0.003687702266120509 0 -0.4923642661742616 -0.0058591093464643767 0 -0.48371302728304122 0.0047626526269745929 0 -0.48479114155111641 -0.003687702266120509 0 -0.48943243648537121 -0.011490543033682051 0 -0.4923642661742616 -0.0058591093464643767 0 -0.49476452072040239 -0.017169765614472709 0 -0.48943243648537121 -0.011490543033682051 0 -0.4923642661742616 -0.0058591093464643767 0 -0.48580981749570379 -0.019245594907670961 0 -0.48479114155111641 -0.003687702266120509 0 -0.48943243648537121 -0.011490543033682051 0 -0.5 -0.01896198650896452 0 -0.49476452072040239 -0.017169765614472709 0 -0.4923642661742616 -0.0058591093464643767 0 -0.50000000000000067 0.0070890443779297371 0 -0.48484772269119358 0.018492994395928299 0 -0.48371302728304122 0.0047626526269745929 0 -0.4923642661742616 -0.0058591093464643767 0 -0.50000000000000067 0.0070890443779297371 0 -0.48371302728304122 0.0047626526269745929 0 -0.48484772269119358 0.018492994395928299 0 -0.49253126799632291 0.031947949179811093 0 -0.47636778838901739 0.033422370682130907 0 -0.50000000000000067 0.0070890443779297371 0 -0.49253126799632291 0.031947949179811093 0 -0.50000000000000067 0.0070890443779297371 0 -0.48484772269119358 0.018492994395928299 0 -0.49253126799632291 0.031947949179811093 0 -0.50000000000000067 0.0070890443779297371 0 -0.49253126799632291 0.031947949179811093 0 -0.5 0.033849331656340742 0 -0.47134994470120811 0.01711193035234913 0 -0.47636778838901739 0.033422370682130907 0 -0.45898686211937512 0.02946120807772367 0 -0.48484772269119358 0.018492994395928299 0 -0.47134994470120811 0.01711193035234913 0 -0.47636778838901739 0.033422370682130907 0 -0.47134994470120811 0.01711193035234913 0 -0.47239833980753981 0.0051078065850265614 0 -0.48371302728304122 0.0047626526269745929 0 -0.48479114155111641 -0.003687702266120509 0 -0.47239833980753981 0.0051078065850265614 0 -0.48371302728304122 0.0047626526269745929 0 -0.48484772269119358 0.018492994395928299 0 -0.47134994470120811 0.01711193035234913 0 -0.48371302728304122 0.0047626526269745929 0 -0.47134994470120811 0.01711193035234913 0 -0.48371302728304122 0.0047626526269745929 0 -0.48506253599264437 0.056806853981692183 0 -0.5 0.060609618934751808 0 -0.5 0.033849331656340742 0 -0.48506253599264437 0.056806853981692183 0 -0.49253126799632291 0.031947949179811093 0 -0.48506253599264437 0.056806853981692183 0 -0.49253126799632291 0.031947949179811093 0 -0.5 0.033849331656340742 0 -0.48506253599264437 0.056806853981692183 0 -0.49253126799632291 0.031947949179811093 0 -0.47636778838901739 0.033422370682130907 0 -0.48506253599264437 0.056806853981692183 0 -0.47636778838901739 0.033422370682130907 0 -0.46542839683336018 0.046713288105281137 0 -0.48506253599264437 0.056806853981692183 0 -0.46792434504504682 0.062073427733016627 0 -0.46542839683336018 0.046713288105281137 0 -0.45313304605183102 0.056092315950494992 0 -0.46792434504504682 0.062073427733016627 0 -0.46542839683336018 0.046713288105281137 0 -0.45313304605183102 0.056092315950494992 0 -0.46542839683336018 0.046713288105281137 0 -0.4508192183158688 0.044292527446182381 0 -0.47636778838901739 0.033422370682130907 0 -0.46542839683336018 0.046713288105281137 0 -0.45898686211937512 0.02946120807772367 0 -0.46542839683336018 0.046713288105281137 0 -0.4508192183158688 0.044292527446182381 0 -0.45898686211937512 0.02946120807772367 0 -0.4508192183158688 0.044292527446182381 0 -0.45898686211937512 0.02946120807772367 0 -0.44032268180897099 0.033459748879330398 0 -0.44211083917092459 0.046318386933455677 0 -0.45898686211937512 0.02946120807772367 0 -0.44211083917092459 0.046318386933455677 0 -0.4508192183158688 0.044292527446182381 0 -0.45898686211937512 0.02946120807772367 0 -0.44211083917092459 0.046318386933455677 0 -0.45898686211937512 0.02946120807772367 0 -0.44032268180897099 0.033459748879330398 0 -0.44211083917092459 0.046318386933455677 0 -0.44032268180897099 0.033459748879330398 0 -0.44211083917092459 0.046318386933455677 0 -0.43073861524913593 0.039826752104659198 0 -0.45313304605183102 0.056092315950494992 0 -0.44211083917092459 0.046318386933455677 0 -0.44465596452459027 0.064620381165930468 0 -0.44211083917092459 0.046318386933455677 0 -0.44465596452459027 0.064620381165930468 0 -0.44211083917092459 0.046318386933455677 0 -0.4351668573720151 0.067528878583473576 0 -0.44465596452459027 0.064620381165930468 0 -0.45313304605183102 0.056092315950494992 0 -0.44211083917092459 0.046318386933455677 0 -0.4508192183158688 0.044292527446182381 0 -0.45789886563204441 -0.0066896685415484434 0 -0.47239833980753981 0.0051078065850265614 0 -0.45190414212452162 0.014376239329085751 0 -0.47134994470120811 0.01711193035234913 0 -0.45898686211937512 0.02946120807772367 0 -0.47239833980753981 0.0051078065850265614 0 -0.45898686211937512 0.02946120807772367 0 -0.47239833980753981 0.0051078065850265614 0 -0.45898686211937512 0.02946120807772367 0 -0.45190414212452162 0.014376239329085751 0 -0.47134994470120811 0.01711193035234913 0 -0.47239833980753981 0.0051078065850265614 0 -0.45898686211937512 0.02946120807772367 0 -0.44032268180897099 0.033459748879330398 0 -0.4379046558728637 0.018451777109753289 0 -0.45190414212452162 0.014376239329085751 0 -0.44032268180897099 0.033459748879330398 0 -0.45898686211937512 0.02946120807772367 0 -0.45190414212452162 0.014376239329085751 0 -0.4379046558728637 0.018451777109753289 0 -0.45190414212452162 0.014376239329085751 0 -0.44308901486577262 0.0042692168050426429 0 -0.45789886563204441 -0.0066896685415484434 0 -0.45190414212452162 0.014376239329085751 0 -0.44308901486577262 0.0042692168050426429 0 -0.42780856872527612 0.010053237536980311 0 -0.41409622305577037 0.0077217187298470949 0 -0.42379572278796829 0.02570252634930404 0 -0.4219904930527279 -0.01003483197728468 0 -0.44308901486577262 0.0042692168050426429 0 -0.42780856872527612 0.010053237536980311 0 -0.4379046558728637 0.018451777109753289 0 -0.44308901486577262 0.0042692168050426429 0 -0.42780856872527612 0.010053237536980311 0 -0.41409622305577037 0.0077217187298470949 0 -0.40864069671665493 0.019879457310700149 0 -0.39647087071674619 0.005563962258804277 0 -0.4219904930527279 -0.01003483197728468 0 -0.42780856872527612 0.010053237536980311 0 -0.41409622305577037 0.0077217187298470949 0 -0.41409622305577037 0.0077217187298470949 0 -0.40864069671665493 0.019879457310700149 0 -0.42379572278796829 0.02570252634930404 0 -0.40864069671665493 0.019879457310700149 0 -0.41054884924800078 0.032360731479020473 0 -0.40063235029415489 0.03097233522231586 0 -0.40864069671665493 0.019879457310700149 0 -0.42379572278796829 0.02570252634930404 0 -0.41054884924800078 0.032360731479020473 0 -0.4379046558728637 0.018451777109753289 0 -0.42780856872527612 0.010053237536980311 0 -0.42379572278796829 0.02570252634930404 0 -0.44032268180897099 0.033459748879330398 0 -0.4379046558728637 0.018451777109753289 0 -0.42379572278796829 0.02570252634930404 0 -0.44032268180897099 0.033459748879330398 0 -0.42379572278796829 0.02570252634930404 0 -0.43073861524913593 0.039826752104659198 0 -0.42379572278796829 0.02570252634930404 0 -0.43073861524913593 0.039826752104659198 0 -0.41957711121656538 0.041328430333908969 0 -0.44211083917092459 0.046318386933455677 0 -0.43073861524913593 0.039826752104659198 0 -0.42588425688726089 0.049147328085088128 0 -0.43073861524913593 0.039826752104659198 0 -0.42588425688726089 0.049147328085088128 0 -0.41957711121656538 0.041328430333908969 0 -0.44211083917092459 0.046318386933455677 0 -0.42588425688726089 0.049147328085088128 0 -0.4246127695763951 0.063796917845994533 0 -0.44211083917092459 0.046318386933455677 0 -0.4246127695763951 0.063796917845994533 0 -0.4351668573720151 0.067528878583473576 0 -0.44211083917092459 0.046318386933455677 0 -0.4246127695763951 0.063796917845994533 0 -0.41238194922328109 0.054466153207419668 0 -0.40669007892050901 0.067887268804753195 0 -0.4246127695763951 0.063796917845994533 0 -0.42588425688726089 0.049147328085088128 0 -0.41238194922328109 0.054466153207419668 0 -0.4246127695763951 0.063796917845994533 0 -0.42588425688726089 0.049147328085088128 0 -0.41238194922328109 0.054466153207419668 0 -0.41957711121656538 0.041328430333908969 0 -0.41238194922328109 0.054466153207419668 0 -0.40940732486233161 0.044063760421065502 0 -0.4050676711930461 0.050472452452491247 0 -0.41238194922328109 0.054466153207419668 0 -0.40512304671302451 0.059305179710874963 0 -0.40669007892050901 0.067887268804753195 0 -0.41238194922328109 0.054466153207419668 0 -0.40512304671302451 0.059305179710874963 0 -0.4050676711930461 0.050472452452491247 0 -0.42379572278796829 0.02570252634930404 0 -0.41957711121656538 0.041328430333908969 0 -0.41054884924800078 0.032360731479020473 0 -0.41238194922328109 0.054466153207419668 0 -0.41957711121656538 0.041328430333908969 0 -0.40940732486233161 0.044063760421065502 0 -0.41957711121656538 0.041328430333908969 0 -0.40940732486233161 0.044063760421065502 0 -0.41054884924800078 0.032360731479020473 0 -0.40940732486233161 0.044063760421065502 0 -0.41054884924800078 0.032360731479020473 0 -0.39946104343076438 0.041691034632487141 0 -0.39946104343076438 0.041691034632487141 0 -0.3904257530511564 0.054646755235106023 0 -0.38305914499087362 0.042372094310727283 0 -0.41054884924800078 0.032360731479020473 0 -0.39946104343076438 0.041691034632487141 0 -0.40063235029415489 0.03097233522231586 0 -0.39946104343076438 0.041691034632487141 0 -0.39004280426131649 0.031252747085143862 0 -0.38305914499087362 0.042372094310727283 0 -0.40940732486233161 0.044063760421065502 0 -0.39946104343076438 0.041691034632487141 0 -0.4050676711930461 0.050472452452491247 0 -0.39946104343076438 0.041691034632487141 0 -0.39004280426131649 0.031252747085143862 0 -0.40063235029415489 0.03097233522231586 0 -0.40512304671302451 0.059305179710874963 0 -0.39780404201619718 0.054557547311208307 0 -0.38643457344163462 0.060369715507926427 0 -0.40512304671302451 0.059305179710874963 0 -0.4050676711930461 0.050472452452491247 0 -0.39780404201619718 0.054557547311208307 0 -0.39946104343076438 0.041691034632487141 0 -0.4050676711930461 0.050472452452491247 0 -0.39780404201619718 0.054557547311208307 0 -0.39946104343076438 0.041691034632487141 0 -0.39780404201619718 0.054557547311208307 0 -0.3904257530511564 0.054646755235106023 0 -0.39946104343076438 0.041691034632487141 0 -0.3904257530511564 0.054646755235106023 0 -0.39780404201619718 0.054557547311208307 0 -0.3904257530511564 0.054646755235106023 0 -0.39780404201619718 0.054557547311208307 0 -0.38643457344163462 0.060369715507926427 0 -0.3904257530511564 0.054646755235106023 0 -0.38643457344163462 0.060369715507926427 0 -0.3904257530511564 0.054646755235106023 0 -0.37162688482725809 0.054874044788799543 0 -0.3904257530511564 0.054646755235106023 0 -0.38305914499087362 0.042372094310727283 0 -0.37162688482725809 0.054874044788799543 0 -0.3904257530511564 0.054646755235106023 0 -0.37162688482725809 0.054874044788799543 0 -0.38643457344163462 0.060369715507926427 0 -0.3904257530511564 0.054646755235106023 0 -0.38643457344163462 0.060369715507926427 0 -0.37162688482725809 0.054874044788799543 0 -0.39004280426131649 0.031252747085143862 0 -0.38305914499087362 0.042372094310727283 0 -0.37601084204503871 0.030727315394958411 0 -0.38305914499087362 0.042372094310727283 0 -0.37049140008281378 0.04140392651393858 0 -0.37162688482725809 0.054874044788799543 0 -0.38305914499087362 0.042372094310727283 0 -0.37601084204503871 0.030727315394958411 0 -0.37049140008281378 0.04140392651393858 0 -0.39004280426131649 0.031252747085143862 0 -0.37601084204503871 0.030727315394958411 0 -0.38521612608332811 0.01930211380241223 0 -0.39004280426131649 0.031252747085143862 0 -0.38521612608332811 0.01930211380241223 0 -0.39647466452727959 0.02120824725090888 0 -0.37601084204503871 0.030727315394958411 0 -0.38521612608332811 0.01930211380241223 0 -0.37301915206057368 0.01701254882749912 0 -0.38802151456323758 -0.008195795016506564 0 -0.37902742011354401 0.0067756800664774443 0 -0.39647087071674619 0.005563962258804277 0 -0.38521612608332811 0.01930211380241223 0 -0.37902742011354401 0.0067756800664774443 0 -0.39647087071674619 0.005563962258804277 0 -0.38521612608332811 0.01930211380241223 0 -0.37902742011354401 0.0067756800664774443 0 -0.37301915206057368 0.01701254882749912 0 -0.40794681717497983 -0.0024024504873184512 0 -0.41409622305577037 0.0077217187298470949 0 -0.39647087071674619 0.005563962258804277 0 -0.40864069671665493 0.019879457310700149 0 -0.39647087071674619 0.005563962258804277 0 -0.39647466452727959 0.02120824725090888 0 -0.38521612608332811 0.01930211380241223 0 -0.39647087071674619 0.005563962258804277 0 -0.39647466452727959 0.02120824725090888 0 -0.40864069671665493 0.019879457310700149 0 -0.40063235029415489 0.03097233522231586 0 -0.39647466452727959 0.02120824725090888 0 -0.39004280426131649 0.031252747085143862 0 -0.40063235029415489 0.03097233522231586 0 -0.39647466452727959 0.02120824725090888 0 -0.40022258929632881 0.117369082394154 0 -0.382465505148393 0.10444598525716541 0 -0.40877270881755112 0.093323049044369763 0 -0.40022258929632881 0.117369082394154 0 -0.382465505148393 0.10444598525716541 0 -0.40022258929632881 0.117369082394154 0 -0.382465505148393 0.10444598525716541 0 -0.37060658837752558 0.12205925704176079 0 -0.382465505148393 0.10444598525716541 0 -0.37862067197856952 0.088450990704118118 0 -0.36470842100045658 0.091522888120177781 0 -0.37862067197856952 0.088450990704118118 0 -0.37557149722104399 0.075946301814050987 0 -0.39173726454438401 0.081888787625079174 0 -0.382465505148393 0.10444598525716541 0 -0.37862067197856952 0.088450990704118118 0 -0.39173726454438401 0.081888787625079174 0 -0.38643457344163462 0.060369715507926427 0 -0.37557149722104399 0.075946301814050987 0 -0.37162688482725809 0.054874044788799543 0 -0.38643457344163462 0.060369715507926427 0 -0.37557149722104399 0.075946301814050987 0 -0.39173726454438401 0.081888787625079174 0 -0.38643457344163462 0.060369715507926427 0 -0.37557149722104399 0.075946301814050987 0 -0.40512304671302451 0.059305179710874963 0 -0.38643457344163462 0.060369715507926427 0 -0.40669007892050901 0.067887268804753195 0 -0.38643457344163462 0.060369715507926427 0 -0.39173726454438401 0.081888787625079174 0 -0.40669007892050901 0.067887268804753195 0 -0.38643457344163462 0.060369715507926427 0 -0.40669007892050901 0.067887268804753195 0 -0.382465505148393 0.10444598525716541 0 -0.39173726454438401 0.081888787625079174 0 -0.40877270881755112 0.093323049044369763 0 -0.39173726454438401 0.081888787625079174 0 -0.40877270881755112 0.093323049044369763 0 -0.40669007892050901 0.067887268804753195 0 -0.40877270881755112 0.093323049044369763 0 -0.42694558439938363 0.075404822101579047 0 -0.42988343419851532 0.097508711157131181 0 -0.40877270881755112 0.093323049044369763 0 -0.40669007892050901 0.067887268804753195 0 -0.42694558439938363 0.075404822101579047 0 -0.40669007892050901 0.067887268804753195 0 -0.42694558439938363 0.075404822101579047 0 -0.40669007892050901 0.067887268804753195 0 -0.4246127695763951 0.063796917845994533 0 -0.42694558439938363 0.075404822101579047 0 -0.42694558439938363 0.075404822101579047 0 -0.4351668573720151 0.067528878583473576 0 -0.44720108987825818 0.082922375398404941 0 -0.4246127695763951 0.063796917845994533 0 -0.42694558439938363 0.075404822101579047 0 -0.4351668573720151 0.067528878583473576 0 -0.42694558439938363 0.075404822101579047 0 -0.44720108987825818 0.082922375398404941 0 -0.42694558439938363 0.075404822101579047 0 -0.42988343419851532 0.097508711157131181 0 -0.44720108987825818 0.082922375398404941 0 -0.42988343419851532 0.097508711157131181 0 -0.43076546749043371 0.1196810661461037 0 -0.45020075632388329 0.1044929742327847 0 -0.42988343419851532 0.097508711157131181 0 -0.41541499828158179 0.10922798001954501 0 -0.43076546749043371 0.1196810661461037 0 -0.40877270881755112 0.093323049044369763 0 -0.42988343419851532 0.097508711157131181 0 -0.41541499828158179 0.10922798001954501 0 -0.40022258929632881 0.117369082394154 0 -0.40877270881755112 0.093323049044369763 0 -0.41541499828158179 0.10922798001954501 0 -0.41541499828158179 0.10922798001954501 0 -0.43076546749043371 0.1196810661461037 0 -0.40879869832282589 0.12990233951244559 0 -0.40022258929632881 0.117369082394154 0 -0.41541499828158179 0.10922798001954501 0 -0.40879869832282589 0.12990233951244559 0 -0.43076546749043371 0.1196810661461037 0 -0.45020075632388329 0.1044929742327847 0 -0.453200422769511 0.12606357306716401 0 -0.45020075632388329 0.1044929742327847 0 -0.453200422769511 0.12606357306716401 0 -0.42988343419851532 0.097508711157131181 0 -0.45020075632388329 0.1044929742327847 0 -0.44720108987825818 0.082922375398404941 0 -0.45020075632388329 0.1044929742327847 0 -0.45715167712920612 0.086615399503467722 0 -0.47012507198529219 0.1065246635854562 0 -0.47012507198529219 0.1065246635854562 0 -0.46350843132093789 0.1285474701746197 0 -0.453200422769511 0.12606357306716401 0 -0.47012507198529219 0.1065246635854562 0 -0.453200422769511 0.12606357306716401 0 -0.47012507198529219 0.1065246635854562 0 -0.46350843132093789 0.1285474701746197 0 -0.45020075632388329 0.1044929742327847 0 -0.47012507198529219 0.1065246635854562 0 -0.453200422769511 0.12606357306716401 0 -0.44465596452459027 0.064620381165930468 0 -0.44720108987825818 0.082922375398404941 0 -0.4576223965041063 0.072310226533404298 0 -0.45313304605183102 0.056092315950494992 0 -0.44465596452459027 0.064620381165930468 0 -0.4576223965041063 0.072310226533404298 0 -0.4351668573720151 0.067528878583473576 0 -0.44465596452459027 0.064620381165930468 0 -0.44720108987825818 0.082922375398404941 0 -0.44465596452459027 0.064620381165930468 0 -0.44720108987825818 0.082922375398404941 0 -0.45020075632388329 0.1044929742327847 0 -0.44720108987825818 0.082922375398404941 0 -0.45020075632388329 0.1044929742327847 0 -0.44720108987825818 0.082922375398404941 0 -0.45715167712920612 0.086615399503467722 0 -0.44720108987825818 0.082922375398404941 0 -0.45715167712920612 0.086615399503467722 0 -0.45715167712920612 0.086615399503467722 0 -0.47759380398896589 0.081665758783573433 0 -0.47012507198529219 0.1065246635854562 0 -0.45715167712920612 0.086615399503467722 0 -0.4576223965041063 0.072310226533404298 0 -0.47759380398896589 0.081665758783573433 0 -0.44720108987825818 0.082922375398404941 0 -0.45715167712920612 0.086615399503467722 0 -0.4576223965041063 0.072310226533404298 0 -0.45313304605183102 0.056092315950494992 0 -0.46792434504504682 0.062073427733016627 0 -0.4576223965041063 0.072310226533404298 0 -0.46792434504504682 0.062073427733016627 0 -0.4576223965041063 0.072310226533404298 0 -0.47759380398896589 0.081665758783573433 0 -0.48506253599264437 0.056806853981692183 0 -0.46792434504504682 0.062073427733016627 0 -0.47759380398896589 0.081665758783573433 0 -0.48506253599264437 0.056806853981692183 0 -0.47759380398896589 0.081665758783573433 0 -0.48506253599264437 0.056806853981692183 0 -0.47759380398896589 0.081665758783573433 0 -0.49033419614762891 0.070274955979880052 0 -0.47759380398896589 0.081665758783573433 0 -0.48950644731804249 0.084149550610922635 0 -0.47012507198529219 0.1065246635854562 0 -0.5 0.087369906213162873 0 -0.48950644731804249 0.084149550610922635 0 -0.48661641140458911 0.1044975713947444 0 -0.5 0.087369906213162873 0 -0.49447932044809062 0.078408544300349742 0 -0.48950644731804249 0.084149550610922635 0 -0.49447932044809062 0.078408544300349742 0 -0.49032401503715262 0.078393260572042156 0 -0.48950644731804249 0.084149550610922635 0 -0.49032401503715262 0.078393260572042156 0 -0.48950644731804249 0.084149550610922635 0 -0.49447932044809062 0.078408544300349742 0 -0.48950644731804249 0.084149550610922635 0 -0.47759380398896589 0.081665758783573433 0 -0.49032401503715262 0.078393260572042156 0 -0.48950644731804249 0.084149550610922635 0 -0.5 0.060609618934751808 0 -0.49447932044809062 0.078408544300349742 0 -0.49033419614762891 0.070274955979880052 0 -0.5 0.060609618934751808 0 -0.5 0.087369906213162873 0 -0.49447932044809062 0.078408544300349742 0 -0.49447932044809062 0.078408544300349742 0 -0.49032401503715262 0.078393260572042156 0 -0.49033419614762891 0.070274955979880052 0 -0.47759380398896589 0.081665758783573433 0 -0.49032401503715262 0.078393260572042156 0 -0.49033419614762891 0.070274955979880052 0 -0.48506253599264437 0.056806853981692183 0 -0.5 0.060609618934751808 0 -0.49033419614762891 0.070274955979880052 0 -0.48372637549113512 0.1248455921785661 0 -0.47012507198529219 0.1065246635854562 0 -0.46350843132093789 0.1285474701746197 0 -0.48372637549113512 0.1248455921785661 0 -0.47012507198529219 0.1065246635854562 0 -0.48661641140458911 0.1044975713947444 0 -0.48950644731804249 0.084149550610922635 0 -0.47012507198529219 0.1065246635854562 0 -0.47759380398896589 0.081665758783573433 0 -0.47012507198529219 0.1065246635854562 0 -0.48950644731804249 0.084149550610922635 0 -0.47012507198529219 0.1065246635854562 0 -0.48661641140458911 0.1044975713947444 0 -0.48950644731804249 0.084149550610922635 0 -0.48661641140458911 0.1044975713947444 0 -0.5 0.087369906213162873 0 -0.48661641140458911 0.1044975713947444 0 -0.5 0.1141301934915739 0 -0.48372637549113512 0.1248455921785661 0 -0.48661641140458911 0.1044975713947444 0 -0.5 0.1141301934915739 0 -0.48372637549113512 0.1248455921785661 0 -0.48661641140458911 0.1044975713947444 0 -0.48372637549113512 0.1248455921785661 0 -0.48083633957768079 0.14519361296238781 0 -0.49999999999999711 0.14089048076998489 0 -0.48372637549113512 0.1248455921785661 0 -0.5 0.1141301934915739 0 -0.49999999999999711 0.14089048076998489 0 -0.48372637549113512 0.1248455921785661 0 -0.48083633957768079 0.14519361296238781 0 -0.48372637549113512 0.1248455921785661 0 -0.48083633957768079 0.14519361296238781 0 -0.46350843132093789 0.1285474701746197 0 -0.48083633957768079 0.14519361296238781 0 -0.47833425733314261 0.16281014889458451 0 -0.46638533589595133 0.1560996515057457 0 -0.48083633957768079 0.14519361296238781 0 -0.48940467439721819 0.15787544615795679 0 -0.47833425733314261 0.16281014889458451 0 -0.48083633957768079 0.14519361296238781 0 -0.45689179065658819 0.15057027676378459 0 -0.48083633957768079 0.14519361296238781 0 -0.47833425733314261 0.16281014889458451 0 -0.48083633957768079 0.14519361296238781 0 -0.49999999999999711 0.14089048076998489 0 -0.49999999999999711 0.14089048076998489 0 -0.5 0.16763234114619111 0 -0.48940467439721819 0.15787544615795679 0 -0.48083633957768079 0.14519361296238781 0 -0.49999999999999711 0.14089048076998489 0 -0.48940467439721819 0.15787544615795679 0 -0.5 0.16763234114619111 0 -0.48940467439721819 0.15787544615795679 0 -0.4878527750752677 0.17285064701663591 0 -0.48940467439721819 0.15787544615795679 0 -0.4878527750752677 0.17285064701663591 0 -0.47833425733314261 0.16281014889458451 0 -0.4878527750752677 0.17285064701663591 0 -0.47583217508860409 0.1804266848267812 0 -0.50000000000000022 0.19437420152239709 0 -0.5 0.16763234114619111 0 -0.4878527750752677 0.17285064701663591 0 -0.50000000000000022 0.19437420152239709 0 -0.4653983815277401 0.1775602950835353 0 -0.47282364447219788 0.19473656560185171 0 -0.47583217508860409 0.1804266848267812 0 -0.4653983815277401 0.1775602950835353 0 -0.47282364447219788 0.19473656560185171 0 -0.4878527750752677 0.17285064701663591 0 -0.47583217508860409 0.1804266848267812 0 -0.47833425733314261 0.16281014889458451 0 -0.47583217508860409 0.1804266848267812 0 -0.46757844828371248 0.16642475969172979 0 -0.4653983815277401 0.1775602950835353 0 -0.47583217508860409 0.1804266848267812 0 -0.47833425733314261 0.16281014889458451 0 -0.47583217508860409 0.1804266848267812 0 -0.47833425733314261 0.16281014889458451 0 -0.46757844828371248 0.16642475969172979 0 -0.47833425733314261 0.16281014889458451 0 -0.46757844828371248 0.16642475969172979 0 -0.46638533589595133 0.1560996515057457 0 -0.46757844828371248 0.16642475969172979 0 -0.45797311858328221 0.16038402456521891 0 -0.46638533589595133 0.1560996515057457 0 -0.46757844828371248 0.16642475969172979 0 -0.45797311858328221 0.16038402456521891 0 -0.4653983815277401 0.1775602950835353 0 -0.45797311858328221 0.16038402456521891 0 -0.4653983815277401 0.1775602950835353 0 -0.45797311858328221 0.16038402456521891 0 -0.46037101962818461 0.17762732891980351 0 -0.44955021872202661 0.17500594237978839 0 -0.45797311858328221 0.16038402456521891 0 -0.44955021872202661 0.17500594237978839 0 -0.45559563792662511 0.15488438755352821 0 -0.45797311858328221 0.16038402456521891 0 -0.46037101962818461 0.17762732891980351 0 -0.45797311858328221 0.16038402456521891 0 -0.4653983815277401 0.1775602950835353 0 -0.46037101962818461 0.17762732891980351 0 -0.45797311858328221 0.16038402456521891 0 -0.45559563792662511 0.15488438755352821 0 -0.46037101962818461 0.17762732891980351 0 -0.46276892067308878 0.19487063327438781 0 -0.4653983815277401 0.1775602950835353 0 -0.46037101962818461 0.17762732891980351 0 -0.46276892067308878 0.19487063327438781 0 -0.46037101962818461 0.17762732891980351 0 -0.45404873963518128 0.18565785044500679 0 -0.46276892067308878 0.19487063327438781 0 -0.46037101962818461 0.17762732891980351 0 -0.45404873963518128 0.18565785044500679 0 -0.44955021872202661 0.17500594237978839 0 -0.45404873963518128 0.18565785044500679 0 -0.44955021872202661 0.17500594237978839 0 -0.44350479951742511 0.1951274972060478 0 -0.44955021872202661 0.17500594237978839 0 -0.44350479951742511 0.1951274972060478 0 -0.42930639366718149 0.17995525381449859 0 -0.44955021872202661 0.17500594237978839 0 -0.44350479951742511 0.1951274972060478 0 -0.44955021872202661 0.17500594237978839 0 -0.45559563792662511 0.15488438755352821 0 -0.42595545939937168 0.15751692056847 0 -0.44955021872202661 0.17500594237978839 0 -0.45559563792662511 0.15488438755352821 0 -0.44697019760122803 0.13493184210472811 0 -0.45401036066469852 0.15121729168082129 0 -0.45559563792662511 0.15488438755352821 0 -0.45401036066469852 0.15121729168082129 0 -0.42595545939937168 0.15751692056847 0 -0.43957438593964338 0.1487554161059195 0 -0.45401036066469852 0.15121729168082129 0 -0.42595545939937168 0.15751692056847 0 -0.45401036066469852 0.15121729168082129 0 -0.42595545939937168 0.15751692056847 0 -0.43957438593964338 0.1487554161059195 0 -0.44697019760122803 0.13493184210472811 0 -0.45401036066469852 0.15121729168082129 0 -0.44697019760122803 0.13493184210472811 0 -0.45689179065658819 0.15057027676378459 0 -0.45401036066469852 0.15121729168082129 0 -0.43957438593964338 0.1487554161059195 0 -0.44697019760122803 0.13493184210472811 0 -0.43409545868740651 0.14811957901991929 0 -0.453200422769511 0.12606357306716401 0 -0.43409545868740651 0.14811957901991929 0 -0.453200422769511 0.12606357306716401 0 -0.43536575659801158 0.13228451722521439 0 -0.43409545868740651 0.14811957901991929 0 -0.43076546749043371 0.1196810661461037 0 -0.453200422769511 0.12606357306716401 0 -0.43536575659801158 0.13228451722521439 0 -0.44697019760122803 0.13493184210472811 0 -0.453200422769511 0.12606357306716401 0 -0.43409545868740651 0.14811957901991929 0 -0.44697019760122803 0.13493184210472811 0 -0.453200422769511 0.12606357306716401 0 -0.45689179065658819 0.15057027676378459 0 -0.46350843132093789 0.1285474701746197 0 -0.453200422769511 0.12606357306716401 0 -0.45689179065658819 0.15057027676378459 0 -0.46350843132093789 0.1285474701746197 0 -0.45689179065658819 0.15057027676378459 0 -0.453200422769511 0.12606357306716401 0 -0.45689179065658819 0.15057027676378459 0 -0.48083633957768079 0.14519361296238781 0 -0.46638533589595133 0.1560996515057457 0 -0.45689179065658819 0.15057027676378459 0 -0.48083633957768079 0.14519361296238781 0 -0.46350843132093789 0.1285474701746197 0 -0.45689179065658819 0.15057027676378459 0 -0.45797311858328221 0.16038402456521891 0 -0.45559563792662511 0.15488438755352821 0 -0.45689179065658819 0.15057027676378459 0 -0.45797311858328221 0.16038402456521891 0 -0.46638533589595133 0.1560996515057457 0 -0.45689179065658819 0.15057027676378459 0 -0.45797311858328221 0.16038402456521891 0 -0.45689179065658819 0.15057027676378459 0 -0.45559563792662511 0.15488438755352821 0 -0.45689179065658819 0.15057027676378459 0 -0.45559563792662511 0.15488438755352821 0 -0.45401036066469852 0.15121729168082129 0 -0.45559563792662511 0.15488438755352821 0 -0.45689179065658819 0.15057027676378459 0 -0.45401036066469852 0.15121729168082129 0 -0.45689179065658819 0.15057027676378459 0 -0.45401036066469852 0.15121729168082129 0 -0.47466693263559911 0.24223148543743961 0 -0.49194031127071619 0.23895763127939859 0 -0.48288303928727749 0.2561568843484941 0 -0.5 0.23652571286333171 0 -0.49194031127071619 0.23895763127939859 0 -0.49999999999999939 0.25760146853379889 0 -0.49194031127071619 0.23895763127939859 0 -0.49999999999999939 0.25760146853379889 0 -0.49194031127071619 0.23895763127939859 0 -0.49326962549108222 0.2276065698720568 0 -0.4838806225414326 0.2203137940249984 0 -0.49326962549108222 0.2276065698720568 0 -0.4838806225414326 0.2203137940249984 0 -0.5 0.21544995719286439 0 -0.5 0.23652571286333171 0 -0.49326962549108222 0.2276065698720568 0 -0.5 0.21544995719286439 0 -0.49194031127071619 0.23895763127939859 0 -0.4838806225414326 0.2203137940249984 0 -0.5 0.23652571286333171 0 -0.49194031127071619 0.23895763127939859 0 -0.49326962549108222 0.2276065698720568 0 -0.47466693263559911 0.24223148543743961 0 -0.4838806225414326 0.2203137940249984 0 -0.47466693263559911 0.24223148543743961 0 -0.49194031127071619 0.23895763127939859 0 -0.4838806225414326 0.2203137940249984 0 -0.4838806225414326 0.2203137940249984 0 -0.46642077258096482 0.22113109720772389 0 -0.46664674076160001 0.2332043063348502 0 -0.47466693263559911 0.24223148543743961 0 -0.4838806225414326 0.2203137940249984 0 -0.46664674076160001 0.2332043063348502 0 -0.4838806225414326 0.2203137940249984 0 -0.47282364447219788 0.19473656560185171 0 -0.4838806225414326 0.2203137940249984 0 -0.47282364447219788 0.19473656560185171 0 -0.46642077258096482 0.22113109720772389 0 -0.4838806225414326 0.2203137940249984 0 -0.49025990904268391 0.2051386324561775 0 -0.47282364447219788 0.19473656560185171 0 -0.5 0.21544995719286439 0 -0.49025990904268391 0.2051386324561775 0 -0.50000000000000022 0.19437420152239709 0 -0.4838806225414326 0.2203137940249984 0 -0.49025990904268391 0.2051386324561775 0 -0.4838806225414326 0.2203137940249984 0 -0.5 0.21544995719286439 0 -0.49025990904268391 0.2051386324561775 0 -0.50000000000000022 0.19437420152239709 0 -0.47282364447219788 0.19473656560185171 0 -0.49025990904268391 0.2051386324561775 0 -0.50000000000000022 0.19437420152239709 0 -0.47282364447219788 0.19473656560185171 0 -0.47583217508860409 0.1804266848267812 0 -0.50000000000000022 0.19437420152239709 0 -0.47282364447219788 0.19473656560185171 0 -0.46276892067308878 0.19487063327438781 0 -0.44350479951742511 0.1951274972060478 0 -0.4653983815277401 0.1775602950835353 0 -0.47282364447219788 0.19473656560185171 0 -0.46276892067308878 0.19487063327438781 0 -0.45404873963518128 0.18565785044500679 0 -0.46276892067308878 0.19487063327438781 0 -0.44350479951742511 0.1951274972060478 0 -0.46276892067308878 0.19487063327438781 0 -0.44350479951742511 0.1951274972060478 0 -0.45476808683531023 0.21099407512476079 0 -0.47282364447219788 0.19473656560185171 0 -0.46276892067308878 0.19487063327438781 0 -0.44350479951742511 0.1951274972060478 0 -0.43494380407464173 0.22362188830438601 0 -0.44350479951742511 0.1951274972060478 0 -0.45476808683531023 0.21099407512476079 0 -0.43494380407464173 0.22362188830438601 0 -0.46276892067308878 0.19487063327438781 0 -0.45476808683531023 0.21099407512476079 0 -0.46642077258096482 0.22113109720772389 0 -0.46276892067308878 0.19487063327438781 0 -0.46642077258096482 0.22113109720772389 0 -0.47282364447219788 0.19473656560185171 0 -0.46276892067308878 0.19487063327438781 0 -0.46642077258096482 0.22113109720772389 0 -0.45476808683531023 0.21099407512476079 0 -0.46642077258096482 0.22113109720772389 0 -0.45460984672702293 0.23224169413549209 0 -0.45476808683531023 0.21099407512476079 0 -0.45460984672702293 0.23224169413549209 0 -0.46642077258096482 0.22113109720772389 0 -0.46664674076160001 0.2332043063348502 0 -0.45460984672702293 0.23224169413549209 0 -0.45476808683531023 0.21099407512476079 0 -0.45460984672702293 0.23224169413549209 0 -0.43494380407464173 0.22362188830438601 0 -0.45460984672702293 0.23224169413549209 0 -0.43444186131197371 0.2426279476284251 0 -0.43494380407464173 0.22362188830438601 0 -0.45460984672702293 0.23224169413549209 0 -0.43444186131197371 0.2426279476284251 0 -0.45445160661873518 0.25348931314622353 0 -0.43444186131197371 0.2426279476284251 0 -0.45445160661873518 0.25348931314622353 0 -0.45460984672702293 0.23224169413549209 0 -0.45445160661873518 0.25348931314622353 0 -0.47466693263559911 0.24223148543743961 0 -0.4632890395515995 0.2441925317333847 0 -0.46607007101504039 0.25979585961291829 0 -0.45460984672702293 0.23224169413549209 0 -0.4632890395515995 0.2441925317333847 0 -0.45445160661873518 0.25348931314622353 0 -0.46664674076160001 0.2332043063348502 0 -0.45460984672702293 0.23224169413549209 0 -0.4632890395515995 0.2441925317333847 0 -0.47466693263559911 0.24223148543743961 0 -0.46664674076160001 0.2332043063348502 0 -0.4632890395515995 0.2441925317333847 0 -0.41093177935634662 0.2474929770878776 0 -0.43444186131197371 0.2426279476284251 0 -0.41443211600521263 0.23176658211062631 0 -0.41093177935634662 0.2474929770878776 0 -0.41443211600521263 0.23176658211062631 0 -0.39696395121472272 0.2400854204933156 0 -0.43444186131197371 0.2426279476284251 0 -0.41443211600521263 0.23176658211062631 0 -0.41093177935634662 0.2474929770878776 0 -0.43444186131197371 0.2426279476284251 0 -0.42203095160741833 0.25922860252632918 0 -0.43444186131197371 0.2426279476284251 0 -0.43494380407464173 0.22362188830438601 0 -0.41443211600521263 0.23176658211062631 0 -0.43494380407464173 0.22362188830438601 0 -0.41443211600521263 0.23176658211062631 0 -0.41971311011411488 0.21720516411235899 0 -0.41443211600521263 0.23176658211062631 0 -0.40699064316458389 0.21848282235944949 0 -0.41971311011411488 0.21720516411235899 0 -0.41081229214189602 0.207072955491299 0 -0.41971311011411488 0.21720516411235899 0 -0.42818192782604442 0.20670644078476599 0 -0.40699064316458389 0.21848282235944949 0 -0.41081229214189602 0.207072955491299 0 -0.41971311011411488 0.21720516411235899 0 -0.44350479951742511 0.1951274972060478 0 -0.43494380407464173 0.22362188830438601 0 -0.42818192782604442 0.20670644078476599 0 -0.43494380407464173 0.22362188830438601 0 -0.41971311011411488 0.21720516411235899 0 -0.42818192782604442 0.20670644078476599 0 -0.44350479951742511 0.1951274972060478 0 -0.41814808037805529 0.19546559861848761 0 -0.42930639366718149 0.17995525381449859 0 -0.44350479951742511 0.1951274972060478 0 -0.41814808037805529 0.19546559861848761 0 -0.44350479951742511 0.1951274972060478 0 -0.42818192782604442 0.20670644078476599 0 -0.41814808037805529 0.19546559861848761 0 -0.41814808037805529 0.19546559861848761 0 -0.39279136123868541 0.19580370003092759 0 -0.40937341031902852 0.17666031029969881 0 -0.41081229214189602 0.207072955491299 0 -0.41814808037805529 0.19546559861848761 0 -0.39279136123868541 0.19580370003092759 0 -0.41081229214189602 0.207072955491299 0 -0.42818192782604442 0.20670644078476599 0 -0.41814808037805529 0.19546559861848761 0 -0.41814808037805529 0.19546559861848761 0 -0.39279136123868541 0.19580370003092759 0 -0.39279136123868541 0.19580370003092759 0 -0.38543861962719878 0.19093608639660911 0 -0.38586294468224941 0.18173972963412049 0 -0.39279136123868541 0.19580370003092759 0 -0.38543861962719878 0.19093608639660911 0 -0.37821827653735468 0.19599801462241831 0 -0.38543861962719878 0.19093608639660911 0 -0.37992913503385223 0.1910675255706957 0 -0.37950520873788612 0.1866993817313802 0 -0.38543861962719878 0.19093608639660911 0 -0.37992913503385223 0.1910675255706957 0 -0.37821827653735468 0.19599801462241831 0 -0.37992913503385223 0.1910675255706957 0 -0.37655443523296922 0.19063661953237551 0 -0.37821827653735468 0.19599801462241831 0 -0.37655443523296922 0.19063661953237551 0 -0.37821827653735468 0.19599801462241831 0 -0.37132531955759929 0.19154895887930201 0 -0.37992913503385223 0.1910675255706957 0 -0.37655443523296922 0.19063661953237551 0 -0.37950520873788612 0.1866993817313802 0 -0.37655443523296922 0.19063661953237551 0 -0.37950520873788612 0.1866993817313802 0 -0.37347282656227698 0.1864859339837249 0 -0.37772449303213651 0.19939150232717981 0 -0.38172811409023671 0.2008942716921028 0 -0.37624406128000892 0.2033444373685564 0 -0.37772449303213651 0.19939150232717981 0 -0.37624406128000892 0.2033444373685564 0 -0.37310170203332488 0.20050171266669681 0 -0.37772449303213651 0.19939150232717981 0 -0.37821827653735468 0.19599801462241831 0 -0.37310170203332488 0.20050171266669681 0 -0.37772449303213651 0.19939150232717981 0 -0.37821827653735468 0.19599801462241831 0 -0.38172811409023671 0.2008942716921028 0 -0.39279136123868541 0.19580370003092759 0 -0.37821827653735468 0.19599801462241831 0 -0.39279136123868541 0.19580370003092759 0 -0.38172811409023671 0.2008942716921028 0 -0.37957768082652538 0.21105842715712761 0 -0.39279136123868541 0.19580370003092759 0 -0.37821827653735468 0.19599801462241831 0 -0.38172811409023671 0.2008942716921028 0 -0.37957768082652538 0.21105842715712761 0 -0.39012127549235959 0.21857056582921019 0 -0.36636400041436601 0.22631315428332799 0 -0.39279136123868541 0.19580370003092759 0 -0.37957768082652538 0.21105842715712761 0 -0.39279136123868541 0.19580370003092759 0 -0.37957768082652538 0.21105842715712761 0 -0.39067416696835378 0.2095031139332918 0 -0.38172811409023671 0.2008942716921028 0 -0.37624406128000892 0.2033444373685564 0 -0.37957768082652538 0.21105842715712761 0 -0.37957768082652538 0.21105842715712761 0 -0.39012127549235959 0.21857056582921019 0 -0.39067416696835378 0.2095031139332918 0 -0.41081229214189602 0.207072955491299 0 -0.39279136123868541 0.19580370003092759 0 -0.39904863012989239 0.20877400704180479 0 -0.39012127549235959 0.21857056582921019 0 -0.3952778395306058 0.2141999482002829 0 -0.39067416696835378 0.2095031139332918 0 -0.39012127549235959 0.21857056582921019 0 -0.3952778395306058 0.2141999482002829 0 -0.39442237069845187 0.22090521659282661 0 -0.39279136123868541 0.19580370003092759 0 -0.39067416696835378 0.2095031139332918 0 -0.39904863012989239 0.20877400704180479 0 -0.3952778395306058 0.2141999482002829 0 -0.39067416696835378 0.2095031139332918 0 -0.39904863012989239 0.20877400704180479 0 -0.40699064316458389 0.21848282235944949 0 -0.3952778395306058 0.2141999482002829 0 -0.39442237069845187 0.22090521659282661 0 -0.40699064316458389 0.21848282235944949 0 -0.3952778395306058 0.2141999482002829 0 -0.39904863012989239 0.20877400704180479 0 -0.40699064316458389 0.21848282235944949 0 -0.41081229214189602 0.207072955491299 0 -0.39904863012989239 0.20877400704180479 0 -0.41443211600521263 0.23176658211062631 0 -0.39442237069845187 0.22090521659282661 0 -0.41443211600521263 0.23176658211062631 0 -0.39233624658770372 0.23118197797583481 0 -0.39442237069845187 0.22090521659282661 0 -0.41443211600521263 0.23176658211062631 0 -0.39233624658770372 0.23118197797583481 0 -0.39696395121472272 0.2400854204933156 0 -0.41443211600521263 0.23176658211062631 0 -0.40699064316458389 0.21848282235944949 0 -0.39442237069845187 0.22090521659282661 0 -0.40699064316458389 0.21848282235944949 0 -0.39442237069845187 0.22090521659282661 0 -0.39012127549235959 0.21857056582921019 0 -0.39442237069845187 0.22090521659282661 0 -0.39012127549235959 0.21857056582921019 0 -0.39442237069845187 0.22090521659282661 0 -0.36636400041436601 0.22631315428332799 0 -0.39442237069845187 0.22090521659282661 0 -0.38136317318346191 0.22864183809948679 0 -0.36636400041436601 0.22631315428332799 0 -0.39442237069845187 0.22090521659282661 0 -0.36636400041436601 0.22631315428332799 0 -0.38136317318346191 0.22864183809948679 0 -0.37677861979389848 0.23802011318511601 0 -0.37305763239425288 0.2322637143771786 0 -0.39233624658770372 0.23118197797583481 0 -0.39442237069845187 0.22090521659282661 0 -0.38136317318346191 0.22864183809948679 0 -0.39233624658770372 0.23118197797583481 0 -0.38136317318346191 0.22864183809948679 0 -0.38598975446886907 0.23687293661810219 0 -0.38598975446886907 0.23687293661810219 0 -0.38291842714341401 0.24644389119839349 0 -0.39696395121472272 0.2400854204933156 0 -0.38598975446886907 0.23687293661810219 0 -0.37677861979389848 0.23802011318511601 0 -0.38291842714341401 0.24644389119839349 0 -0.38136317318346191 0.22864183809948679 0 -0.38598975446886907 0.23687293661810219 0 -0.37677861979389848 0.23802011318511601 0 -0.37677861979389848 0.23802011318511601 0 -0.38291842714341401 0.24644389119839349 0 -0.36920634980925271 0.24780998901511489 0 -0.41093177935634662 0.2474929770878776 0 -0.39696395121472272 0.2400854204933156 0 -0.39207501739308243 0.25172241690722819 0 -0.38291842714341401 0.24644389119839349 0 -0.39696395121472272 0.2400854204933156 0 -0.39207501739308243 0.25172241690722819 0 -0.39233624658770372 0.23118197797583481 0 -0.38598975446886907 0.23687293661810219 0 -0.39696395121472272 0.2400854204933156 0 -0.40750485295281058 0.14503370244464919 0 -0.42595545939937168 0.15751692056847 0 -0.40206773046499089 0.16288082564274489 0 -0.40750485295281058 0.14503370244464919 0 -0.43409545868740651 0.14811957901991929 0 -0.40750485295281058 0.14503370244464919 0 -0.42340167744469709 0.13527385066766939 0 -0.43409545868740651 0.14811957901991929 0 -0.43076546749043371 0.1196810661461037 0 -0.40879869832282589 0.12990233951244559 0 -0.42340167744469709 0.13527385066766939 0 -0.40750485295281058 0.14503370244464919 0 -0.40879869832282589 0.12990233951244559 0 -0.42340167744469709 0.13527385066766939 0 -0.42340167744469709 0.13527385066766939 0 -0.43536575659801158 0.13228451722521439 0 -0.43409545868740651 0.14811957901991929 0 -0.43076546749043371 0.1196810661461037 0 -0.42340167744469709 0.13527385066766939 0 -0.43536575659801158 0.13228451722521439 0 -0.40750485295281058 0.14503370244464919 0 -0.43409545868740651 0.14811957901991929 0 -0.42595545939937168 0.15751692056847 0 -0.43957438593964338 0.1487554161059195 0 -0.43409545868740651 0.14811957901991929 0 -0.43409545868740651 0.14811957901991929 0 -0.42595545939937168 0.15751692056847 0 -0.43957438593964338 0.1487554161059195 0 -0.43409545868740651 0.14811957901991929 0 -0.42595545939937168 0.15751692056847 0 -0.44955021872202661 0.17500594237978839 0 -0.42595545939937168 0.15751692056847 0 -0.42930639366718149 0.17995525381449859 0 -0.41814808037805529 0.19546559861848761 0 -0.42930639366718149 0.17995525381449859 0 -0.40937341031902852 0.17666031029969881 0 -0.42595545939937168 0.15751692056847 0 -0.42930639366718149 0.17995525381449859 0 -0.40937341031902852 0.17666031029969881 0 -0.42595545939937168 0.15751692056847 0 -0.40206773046499089 0.16288082564274489 0 -0.42595545939937168 0.15751692056847 0 -0.40937341031902852 0.17666031029969881 0 -0.42595545939937168 0.15751692056847 0 -0.40937341031902852 0.17666031029969881 0 -0.40206773046499089 0.16288082564274489 0 -0.40206773046499089 0.16288082564274489 0 -0.39538588664564239 0.17648620520794661 0 -0.38683398652325768 0.1653464604322413 0 -0.39279136123868541 0.19580370003092759 0 -0.39538588664564239 0.17648620520794661 0 -0.38586294468224941 0.18173972963412049 0 -0.39279136123868541 0.19580370003092759 0 -0.40937341031902852 0.17666031029969881 0 -0.39538588664564239 0.17648620520794661 0 -0.39279136123868541 0.19580370003092759 0 -0.40937341031902852 0.17666031029969881 0 -0.40937341031902852 0.17666031029969881 0 -0.40206773046499089 0.16288082564274489 0 -0.39538588664564239 0.17648620520794661 0 -0.38586294468224941 0.18173972963412049 0 -0.37550483999466772 0.17803554218522749 0 -0.38683398652325768 0.1653464604322413 0 -0.39538588664564239 0.17648620520794661 0 -0.38586294468224941 0.18173972963412049 0 -0.38683398652325768 0.1653464604322413 0 -0.38543861962719878 0.19093608639660911 0 -0.38586294468224941 0.18173972963412049 0 -0.37950520873788612 0.1866993817313802 0 -0.38586294468224941 0.18173972963412049 0 -0.37550483999466772 0.17803554218522749 0 -0.37950520873788612 0.1866993817313802 0 -0.37550483999466772 0.17803554218522749 0 -0.37950520873788612 0.1866993817313802 0 -0.37347282656227698 0.1864859339837249 0 -0.38683398652325768 0.1653464604322413 0 -0.37525681827364421 0.1567807225939665 0 -0.37039181790949849 0.16621464118471979 0 -0.37550483999466772 0.17803554218522749 0 -0.38683398652325768 0.1653464604322413 0 -0.37039181790949849 0.16621464118471979 0 -0.40206773046499089 0.16288082564274489 0 -0.38683398652325768 0.1653464604322413 0 -0.38091424721821471 0.14194782586937979 0 -0.38683398652325768 0.1653464604322413 0 -0.37525681827364421 0.1567807225939665 0 -0.38091424721821471 0.14194782586937979 0 -0.40750485295281058 0.14503370244464919 0 -0.38091424721821471 0.14194782586937979 0 -0.40750485295281058 0.14503370244464919 0 -0.40206773046499089 0.16288082564274489 0 -0.38091424721821471 0.14194782586937979 0 -0.40750485295281058 0.14503370244464919 0 -0.40879869832282589 0.12990233951244559 0 -0.38091424721821471 0.14194782586937979 0 -0.40022258929632881 0.117369082394154 0 -0.40879869832282589 0.12990233951244559 0 -0.38091424721821471 0.14194782586937979 0 -0.40022258929632881 0.117369082394154 0 -0.38091424721821471 0.14194782586937979 0 -0.37060658837752558 0.12205925704176079 0 -0.38091424721821471 0.14194782586937979 0 -0.35432364148361878 0.13886194929411039 0 -0.38091424721821471 0.14194782586937979 0 -0.35432364148361878 0.13886194929411039 0 -0.37060658837752558 0.12205925704176079 0 -0.35432364148361878 0.13886194929411039 0 -0.36039229530982281 0.15577067945564479 0 -0.3379753371964333 0.15564662346672931 0 -0.38091424721821471 0.14194782586937979 0 -0.35432364148361878 0.13886194929411039 0 -0.36039229530982281 0.15577067945564479 0 -0.37525681827364421 0.1567807225939665 0 -0.38091424721821471 0.14194782586937979 0 -0.36039229530982281 0.15577067945564479 0 -0.37525681827364421 0.1567807225939665 0 -0.36039229530982281 0.15577067945564479 0 -0.37039181790949849 0.16621464118471979 0 -0.37039181790949849 0.16621464118471979 0 -0.35949348525319591 0.16893424708240809 0 -0.36452300025048717 0.1761231774395331 0 -0.36039229530982281 0.15577067945564479 0 -0.37039181790949849 0.16621464118471979 0 -0.35949348525319591 0.16893424708240809 0 -0.37550483999466772 0.17803554218522749 0 -0.36778278902888101 0.1843028470010582 0 -0.37347282656227698 0.1864859339837249 0 -0.36778278902888101 0.1843028470010582 0 -0.37347282656227698 0.1864859339837249 0 -0.37132531955759929 0.19154895887930201 0 -0.37550483999466772 0.17803554218522749 0 -0.36778278902888101 0.1843028470010582 0 -0.36452300025048717 0.1761231774395331 0 -0.37550483999466772 0.17803554218522749 0 -0.37039181790949849 0.16621464118471979 0 -0.36452300025048717 0.1761231774395331 0 -0.35949348525319591 0.16893424708240809 0 -0.36452300025048717 0.1761231774395331 0 -0.35429219413404689 0.17782326955713509 0 -0.36778278902888101 0.1843028470010582 0 -0.36452300025048717 0.1761231774395331 0 -0.35917707217825823 0.1841751884037616 0 -0.36778278902888101 0.1843028470010582 0 -0.35917707217825823 0.1841751884037616 0 -0.36315755693047819 0.18811482608589231 0 -0.34490167670683519 0.18366200660350199 0 -0.33233945684881339 0.18687779338209159 0 -0.35527886669308412 0.1914379040022548 0 -0.35341245242805602 0.18427459214166339 0 -0.35917707217825823 0.1841751884037616 0 -0.35527886669308412 0.1914379040022548 0 -0.35341245242805602 0.18427459214166339 0 -0.35917707217825823 0.1841751884037616 0 -0.35429219413404689 0.17782326955713509 0 -0.36452300025048717 0.1761231774395331 0 -0.35917707217825823 0.1841751884037616 0 -0.35429219413404689 0.17782326955713509 0 -0.35429219413404689 0.17782326955713509 0 -0.34490167670683519 0.18366200660350199 0 -0.34786811866212419 0.16873946777500781 0 -0.35341245242805602 0.18427459214166339 0 -0.34490167670683519 0.18366200660350199 0 -0.35527886669308412 0.1914379040022548 0 -0.35341245242805602 0.18427459214166339 0 -0.35429219413404689 0.17782326955713509 0 -0.34490167670683519 0.18366200660350199 0 -0.36039229530982281 0.15577067945564479 0 -0.34786811866212419 0.16873946777500781 0 -0.3379753371964333 0.15564662346672931 0 -0.36039229530982281 0.15577067945564479 0 -0.35949348525319591 0.16893424708240809 0 -0.34786811866212419 0.16873946777500781 0 -0.35949348525319591 0.16893424708240809 0 -0.35429219413404689 0.17782326955713509 0 -0.34786811866212419 0.16873946777500781 0 -0.33575819325385931 0.1740882614080391 0 -0.32361382748241962 0.16705990654243771 0 -0.3379753371964333 0.15564662346672931 0 -0.34786811866212419 0.16873946777500781 0 -0.33575819325385931 0.1740882614080391 0 -0.3379753371964333 0.15564662346672931 0 -0.33575819325385931 0.1740882614080391 0 -0.33233945684881339 0.18687779338209159 0 -0.32361382748241962 0.16705990654243771 0 -0.34490167670683519 0.18366200660350199 0 -0.33575819325385931 0.1740882614080391 0 -0.33233945684881339 0.18687779338209159 0 -0.34490167670683519 0.18366200660350199 0 -0.34786811866212419 0.16873946777500781 0 -0.33575819325385931 0.1740882614080391 0 -0.33233945684881339 0.18687779338209159 0 -0.32361382748241962 0.16705990654243771 0 -0.30940004700454271 0.18231768276192839 0 -0.33233945684881339 0.18687779338209159 0 -0.30940004700454271 0.18231768276192839 0 -0.32361382748241962 0.16705990654243771 0 -0.31613824843416571 0.1492300270730241 0 -0.3379753371964333 0.15564662346672931 0 -0.32361382748241962 0.16705990654243771 0 -0.31613824843416571 0.1492300270730241 0 -0.30213839876126908 0.16240644757090419 0 -0.31613824843416571 0.1492300270730241 0 -0.32773303574902302 0.13577607271884101 0 -0.3379753371964333 0.15564662346672931 0 -0.32773303574902302 0.13577607271884101 0 -0.31239334930198909 0.12680672044849811 0 -0.3337972457141174 0.1184275024904524 0 -0.31613824843416571 0.1492300270730241 0 -0.32773303574902302 0.13577607271884101 0 -0.31239334930198909 0.12680672044849811 0 -0.35432364148361878 0.13886194929411039 0 -0.32773303574902302 0.13577607271884101 0 -0.3337972457141174 0.1184275024904524 0 -0.35432364148361878 0.13886194929411039 0 -0.32773303574902302 0.13577607271884101 0 -0.35432364148361878 0.13886194929411039 0 -0.32773303574902302 0.13577607271884101 0 -0.3379753371964333 0.15564662346672931 0 -0.35202857838258328 0.24286289247228149 0 -0.36636400041436601 0.22631315428332799 0 -0.35202857838258328 0.24286289247228149 0 -0.36813638176414049 0.23608830980241971 0 -0.36636400041436601 0.22631315428332799 0 -0.35202857838258328 0.24286289247228149 0 -0.36813638176414049 0.23608830980241971 0 -0.35202857838258328 0.24286289247228149 0 -0.36920634980925271 0.24780998901511489 0 -0.36813638176414049 0.23608830980241971 0 -0.37677861979389848 0.23802011318511601 0 -0.36920634980925271 0.24780998901511489 0 -0.36813638176414049 0.23608830980241971 0 -0.37677861979389848 0.23802011318511601 0 -0.36813638176414049 0.23608830980241971 0 -0.37305763239425288 0.2322637143771786 0 -0.38136317318346191 0.22864183809948679 0 -0.37305763239425288 0.2322637143771786 0 -0.36636400041436601 0.22631315428332799 0 -0.36813638176414049 0.23608830980241971 0 -0.37305763239425288 0.2322637143771786 0 -0.36636400041436601 0.22631315428332799 0 -0.36636400041436601 0.22631315428332799 0 -0.3533364951722423 0.219266963917745 0 -0.36619749999272 0.21463834494055359 0 -0.35202857838258328 0.24286289247228149 0 -0.36636400041436601 0.22631315428332799 0 -0.33840794423146903 0.23170137207283639 0 -0.36636400041436601 0.22631315428332799 0 -0.33840794423146903 0.23170137207283639 0 -0.36636400041436601 0.22631315428332799 0 -0.3533364951722423 0.219266963917745 0 -0.33840794423146903 0.23170137207283639 0 -0.3533364951722423 0.219266963917745 0 -0.34045410998888498 0.22054331472951411 0 -0.33840794423146903 0.23170137207283639 0 -0.3533364951722423 0.219266963917745 0 -0.34979275359607093 0.21287784053896161 0 -0.34045410998888498 0.22054331472951411 0 -0.34979275359607093 0.21287784053896161 0 -0.35187669945446598 0.20413280129807149 0 -0.33956653114299251 0.20771547743153479 0 -0.35187669945446598 0.20413280129807149 0 -0.3588026628099435 0.20952775694127621 0 -0.36131654876256603 0.2030193351087253 0 -0.34979275359607093 0.21287784053896161 0 -0.35187669945446598 0.20413280129807149 0 -0.3588026628099435 0.20952775694127621 0 -0.3533364951722423 0.219266963917745 0 -0.34979275359607093 0.21287784053896161 0 -0.3588026628099435 0.20952775694127621 0 -0.3533364951722423 0.219266963917745 0 -0.3588026628099435 0.20952775694127621 0 -0.36619749999272 0.21463834494055359 0 -0.37957768082652538 0.21105842715712761 0 -0.36636400041436601 0.22631315428332799 0 -0.37957768082652538 0.21105842715712761 0 -0.36636400041436601 0.22631315428332799 0 -0.36619749999272 0.21463834494055359 0 -0.37624406128000892 0.2033444373685564 0 -0.37957768082652538 0.21105842715712761 0 -0.36864005399183392 0.20520875718779649 0 -0.37957768082652538 0.21105842715712761 0 -0.36619749999272 0.21463834494055359 0 -0.36864005399183392 0.20520875718779649 0 -0.3588026628099435 0.20952775694127621 0 -0.36864005399183392 0.20520875718779649 0 -0.36131654876256603 0.2030193351087253 0 -0.3588026628099435 0.20952775694127621 0 -0.36619749999272 0.21463834494055359 0 -0.36864005399183392 0.20520875718779649 0 -0.37821827653735468 0.19599801462241831 0 -0.36805049363753778 0.1999759307301906 0 -0.35921283391904862 0.1962514293862915 0 -0.37821827653735468 0.19599801462241831 0 -0.35921283391904862 0.1962514293862915 0 -0.37132531955759929 0.19154895887930201 0 -0.36315755693047819 0.18811482608589231 0 -0.35527886669308412 0.1914379040022548 0 -0.37821827653735468 0.19599801462241831 0 -0.35527886669308412 0.1914379040022548 0 -0.35921283391904862 0.1962514293862915 0 -0.37821827653735468 0.19599801462241831 0 -0.37132531955759929 0.19154895887930201 0 -0.35527886669308412 0.1914379040022548 0 -0.37821827653735468 0.19599801462241831 0 -0.35527886669308412 0.1914379040022548 0 -0.36131654876256603 0.2030193351087253 0 -0.36805049363753778 0.1999759307301906 0 -0.35921283391904862 0.1962514293862915 0 -0.36864005399183392 0.20520875718779649 0 -0.36131654876256603 0.2030193351087253 0 -0.36805049363753778 0.1999759307301906 0 -0.37821827653735468 0.19599801462241831 0 -0.36805049363753778 0.1999759307301906 0 -0.37310170203332488 0.20050171266669681 0 -0.36864005399183392 0.20520875718779649 0 -0.36805049363753778 0.1999759307301906 0 -0.37310170203332488 0.20050171266669681 0 -0.37624406128000892 0.2033444373685564 0 -0.36864005399183392 0.20520875718779649 0 -0.37310170203332488 0.20050171266669681 0 -0.36778278902888101 0.1843028470010582 0 -0.37132531955759929 0.19154895887930201 0 -0.36315755693047819 0.18811482608589231 0 -0.37655443523296922 0.19063661953237551 0 -0.37347282656227698 0.1864859339837249 0 -0.37132531955759929 0.19154895887930201 0 -0.35917707217825823 0.1841751884037616 0 -0.36315755693047819 0.18811482608589231 0 -0.35527886669308412 0.1914379040022548 0 -0.35527886669308412 0.1914379040022548 0 -0.35921283391904862 0.1962514293862915 0 -0.34020739130074251 0.19650484415016431 0 -0.35187669945446598 0.20413280129807149 0 -0.35921283391904862 0.1962514293862915 0 -0.34020739130074251 0.19650484415016431 0 -0.33233945684881339 0.18687779338209159 0 -0.35527886669308412 0.1914379040022548 0 -0.35921283391904862 0.1962514293862915 0 -0.34020739130074251 0.19650484415016431 0 -0.35187669945446598 0.20413280129807149 0 -0.36131654876256603 0.2030193351087253 0 -0.35921283391904862 0.1962514293862915 0 -0.35187669945446598 0.20413280129807149 0 -0.34020739130074251 0.19650484415016431 0 -0.33956653114299251 0.20771547743153479 0 -0.33233945684881339 0.18687779338209159 0 -0.35527886669308412 0.1914379040022548 0 -0.34020739130074251 0.19650484415016431 0 -0.34020739130074251 0.19650484415016431 0 -0.32524268924332311 0.1993821288718518 0 -0.33956653114299251 0.20771547743153479 0 -0.33233945684881339 0.18687779338209159 0 -0.34020739130074251 0.19650484415016431 0 -0.32524268924332311 0.1993821288718518 0 -0.32524268924332311 0.1993821288718518 0 -0.30353102128612891 0.1992512967844475 0 -0.30940004700454271 0.18231768276192839 0 -0.33233945684881339 0.18687779338209159 0 -0.32524268924332311 0.1993821288718518 0 -0.30940004700454271 0.18231768276192839 0 -0.32524268924332311 0.1993821288718518 0 -0.31697979084014027 0.21107471080438231 0 -0.30353102128612891 0.1992512967844475 0 -0.31697979084014027 0.21107471080438231 0 -0.32282207260056112 0.22317062074558339 0 -0.3039227876108031 0.2185031918397243 0 -0.32524268924332311 0.1993821288718518 0 -0.31697979084014027 0.21107471080438231 0 -0.32982554327446778 0.21285193500064539 0 -0.31697979084014027 0.21107471080438231 0 -0.32982554327446778 0.21285193500064539 0 -0.32282207260056112 0.22317062074558339 0 -0.32524268924332311 0.1993821288718518 0 -0.32982554327446778 0.21285193500064539 0 -0.33956653114299251 0.20771547743153479 0 -0.32982554327446778 0.21285193500064539 0 -0.33956653114299251 0.20771547743153479 0 -0.34045410998888498 0.22054331472951411 0 -0.34979275359607093 0.21287784053896161 0 -0.33956653114299251 0.20771547743153479 0 -0.34045410998888498 0.22054331472951411 0 -0.34045410998888498 0.22054331472951411 0 -0.33840794423146903 0.23170137207283639 0 -0.32282207260056112 0.22317062074558339 0 -0.32982554327446778 0.21285193500064539 0 -0.34045410998888498 0.22054331472951411 0 -0.32282207260056112 0.22317062074558339 0 -0.33840794423146903 0.23170137207283639 0 -0.32282207260056112 0.22317062074558339 0 -0.31045188804857188 0.2370895898623441 0 -0.33840794423146903 0.23170137207283639 0 -0.31045188804857188 0.2370895898623441 0 -0.31045188804857188 0.2370895898623441 0 -0.32618440658807912 0.25373237443755448 0 -0.30566712564003917 0.25094534805399937 0 -0.33840794423146903 0.23170137207283639 0 -0.31045188804857188 0.2370895898623441 0 -0.32618440658807912 0.25373237443755448 0 -0.35202857838258328 0.24286289247228149 0 -0.32618440658807912 0.25373237443755448 0 -0.35202857838258328 0.24286289247228149 0 -0.33840794423146903 0.23170137207283639 0 -0.32618440658807912 0.25373237443755448 0 -0.31045188804857188 0.2370895898623441 0 -0.28756770713743901 0.23251339916387581 0 -0.29101081565939257 0.25120719557250509 0 -0.28756770713743901 0.23251339916387581 0 -0.29101081565939257 0.25120719557250509 0 -0.27443607583592228 0.25202732137859168 0 -0.31045188804857188 0.2370895898623441 0 -0.30566712564003917 0.25094534805399937 0 -0.29101081565939257 0.25120719557250509 0 -0.31045188804857188 0.2370895898623441 0 -0.28756770713743901 0.23251339916387581 0 -0.3039227876108031 0.2185031918397243 0 -0.32282207260056112 0.22317062074558339 0 -0.31045188804857188 0.2370895898623441 0 -0.3039227876108031 0.2185031918397243 0 -0.28756770713743901 0.23251339916387581 0 -0.28433000996218122 0.20895313324248391 0 -0.3039227876108031 0.2185031918397243 0 -0.31697979084014027 0.21107471080438231 0 -0.3039227876108031 0.2185031918397243 0 -0.30353102128612891 0.1992512967844475 0 -0.28433000996218122 0.20895313324248391 0 -0.3039227876108031 0.2185031918397243 0 -0.30353102128612891 0.1992512967844475 0 -0.28433000996218122 0.20895313324248391 0 -0.30353102128612891 0.1992512967844475 0 -0.28646063716027198 0.17775757214176521 0 -0.28433000996218122 0.20895313324248391 0 -0.26735171522132622 0.1981394310174496 0 -0.28646063716027198 0.17775757214176521 0 -0.25608151350697361 0.18018137179612431 0 -0.24882025701995009 0.20843964434579729 0 -0.26735171522132622 0.1981394310174496 0 -0.25608151350697361 0.18018137179612431 0 -0.24882025701995009 0.20843964434579729 0 -0.26735171522132622 0.1981394310174496 0 -0.26610661010460818 0.2269973623330189 0 -0.24882025701995009 0.20843964434579729 0 -0.28433000996218122 0.20895313324248391 0 -0.26735171522132622 0.1981394310174496 0 -0.26610661010460818 0.2269973623330189 0 -0.28756770713743901 0.23251339916387581 0 -0.28433000996218122 0.20895313324248391 0 -0.26610661010460818 0.2269973623330189 0 -0.26610661010460818 0.2269973623330189 0 -0.24155900053292409 0.23669791689546971 0 -0.24882025701995009 0.20843964434579729 0 -0.26610661010460818 0.2269973623330189 0 -0.25868150502251502 0.25221069028746462 0 -0.24155900053292409 0.23669791689546971 0 -0.25868150502251502 0.25221069028746462 0 -0.24155900053292409 0.23669791689546971 0 -0.28756770713743901 0.23251339916387581 0 -0.26610661010460818 0.2269973623330189 0 -0.27443607583592228 0.25202732137859168 0 -0.26610661010460818 0.2269973623330189 0 -0.27443607583592228 0.25202732137859168 0 -0.25868150502251502 0.25221069028746462 0 -0.29556057224333021 0.13927816312462379 0 -0.28165706024288478 0.1587953337816462 0 -0.27060402648102039 0.12366482669677829 0 -0.29556057224333021 0.13927816312462379 0 -0.30213839876126908 0.16240644757090419 0 -0.28165706024288478 0.1587953337816462 0 -0.29556057224333021 0.13927816312462379 0 -0.27060402648102039 0.12366482669677829 0 -0.2931855617171274 0.1123481941403371 0 -0.31613824843416571 0.1492300270730241 0 -0.29556057224333021 0.13927816312462379 0 -0.31239334930198909 0.12680672044849811 0 -0.29556057224333021 0.13927816312462379 0 -0.31239334930198909 0.12680672044849811 0 -0.2931855617171274 0.1123481941403371 0 -0.31613824843416571 0.1492300270730241 0 -0.29556057224333021 0.13927816312462379 0 -0.30213839876126908 0.16240644757090419 0 -0.32361382748241962 0.16705990654243771 0 -0.30213839876126908 0.16240644757090419 0 -0.30940004700454271 0.18231768276192839 0 -0.30213839876126908 0.16240644757090419 0 -0.30940004700454271 0.18231768276192839 0 -0.28646063716027198 0.17775757214176521 0 -0.30353102128612891 0.1992512967844475 0 -0.30940004700454271 0.18231768276192839 0 -0.28646063716027198 0.17775757214176521 0 -0.30940004700454271 0.18231768276192839 0 -0.28646063716027198 0.17775757214176521 0 -0.30213839876126908 0.16240644757090419 0 -0.28646063716027198 0.17775757214176521 0 -0.28165706024288478 0.1587953337816462 0 -0.28165706024288478 0.1587953337816462 0 -0.25608151350697361 0.18018137179612431 0 -0.26334276999399697 0.1519230992464512 0 -0.26735171522132622 0.1981394310174496 0 -0.28646063716027198 0.17775757214176521 0 -0.25608151350697361 0.18018137179612431 0 -0.28646063716027198 0.17775757214176521 0 -0.28165706024288478 0.1587953337816462 0 -0.25608151350697361 0.18018137179612431 0 -0.25608151350697361 0.18018137179612431 0 -0.26334276999399697 0.1519230992464512 0 -0.25608151350697361 0.18018137179612431 0 -0.26334276999399697 0.1519230992464512 0 -0.24214244087031661 0.16195742131273111 0 -0.28165706024288478 0.1587953337816462 0 -0.26334276999399697 0.1519230992464512 0 -0.27060402648102039 0.12366482669677829 0 -0.26334276999399697 0.1519230992464512 0 -0.24702096395296941 0.13680256244353869 0 -0.24214244087031661 0.16195742131273111 0 -0.26334276999399697 0.1519230992464512 0 -0.27060402648102039 0.12366482669677829 0 -0.27060402648102039 0.12366482669677829 0 -0.24820560511999909 0.11670035018604551 0 -0.24702096395296941 0.13680256244353869 0 -0.26334276999399697 0.1519230992464512 0 -0.27060402648102039 0.12366482669677829 0 -0.24702096395296941 0.13680256244353869 0 -0.26126848508760192 0.10313317888708171 0 -0.27060402648102039 0.12366482669677829 0 -0.24820560511999909 0.11670035018604551 0 -0.26126848508760192 0.10313317888708171 0 -0.2548639998140993 0.091924317762235891 0 -0.24704274383992669 0.10260709758313501 0 -0.26126848508760192 0.10313317888708171 0 -0.24704274383992669 0.10260709758313501 0 -0.24820560511999909 0.11670035018604551 0 -0.26126848508760192 0.10313317888708171 0 -0.26760274780584059 0.088894909590624557 0 -0.2548639998140993 0.091924317762235891 0 -0.26126848508760192 0.10313317888708171 0 -0.27786528296804391 0.095406554147105499 0 -0.26760274780584059 0.088894909590624557 0 -0.26126848508760192 0.10313317888708171 0 -0.27786528296804391 0.095406554147105499 0 -0.27060402648102039 0.12366482669677829 0 -0.27786528296804391 0.095406554147105499 0 -0.27060402648102039 0.12366482669677829 0 -0.27786528296804391 0.095406554147105499 0 -0.27060402648102039 0.12366482669677829 0 -0.2931855617171274 0.1123481941403371 0 -0.27786528296804391 0.095406554147105499 0 -0.2931855617171274 0.1123481941403371 0 -0.29172980917879371 0.091458742815057795 0 -0.2931855617171274 0.1123481941403371 0 -0.30788639898422199 0.094040308656267224 0 -0.31794458870267722 0.1069450634358413 0 -0.2931855617171274 0.1123481941403371 0 -0.30788639898422199 0.094040308656267224 0 -0.29172980917879371 0.091458742815057795 0 -0.31239334930198909 0.12680672044849811 0 -0.2931855617171274 0.1123481941403371 0 -0.31794458870267722 0.1069450634358413 0 -0.30679147614748331 0.065167418256564233 0 -0.30932800300912627 0.077742405289001046 0 -0.29478896358930101 0.078002760507316402 0 -0.30932800300912627 0.077742405289001046 0 -0.29172980917879371 0.091458742815057795 0 -0.29478896358930101 0.078002760507316402 0 -0.30788639898422199 0.094040308656267224 0 -0.30932800300912627 0.077742405289001046 0 -0.29172980917879371 0.091458742815057795 0 -0.30932800300912627 0.077742405289001046 0 -0.29172980917879371 0.091458742815057795 0 -0.27786528296804391 0.095406554147105499 0 -0.29478896358930101 0.078002760507316402 0 -0.28512653945506738 0.067148281597432566 0 -0.27786528296804391 0.095406554147105499 0 -0.29172980917879371 0.091458742815057795 0 -0.29478896358930101 0.078002760507316402 0 -0.27786528296804391 0.095406554147105499 0 -0.28512653945506738 0.067148281597432566 0 -0.30679147614748331 0.065167418256564233 0 -0.28512653945506738 0.067148281597432566 0 -0.29806625990142788 0.05576343671439999 0 -0.30679147614748331 0.065167418256564233 0 -0.29478896358930101 0.078002760507316402 0 -0.28512653945506738 0.067148281597432566 0 -0.28512653945506738 0.067148281597432566 0 -0.2733900979388092 0.077360920243163003 0 -0.2740936569561267 0.061896118656013327 0 -0.2733900979388092 0.077360920243163003 0 -0.2616290394084464 0.073217153359640727 0 -0.2740936569561267 0.061896118656013327 0 -0.2616290394084464 0.073217153359640727 0 -0.2740936569561267 0.061896118656013327 0 -0.26700835649518739 0.059141463303809719 0 -0.2733900979388092 0.077360920243163003 0 -0.26760274780584059 0.088894909590624557 0 -0.2616290394084464 0.073217153359640727 0 -0.27786528296804391 0.095406554147105499 0 -0.2733900979388092 0.077360920243163003 0 -0.26760274780584059 0.088894909590624557 0 -0.27786528296804391 0.095406554147105499 0 -0.28512653945506738 0.067148281597432566 0 -0.2733900979388092 0.077360920243163003 0 -0.26760274780584059 0.088894909590624557 0 -0.2548639998140993 0.091924317762235891 0 -0.2616290394084464 0.073217153359640727 0 -0.2548639998140993 0.091924317762235891 0 -0.2616290394084464 0.073217153359640727 0 -0.2436608082664318 0.080445035613856797 0 -0.2616290394084464 0.073217153359640727 0 -0.24770149933459509 0.067117001175783092 0 -0.2436608082664318 0.080445035613856797 0 -0.2616290394084464 0.073217153359640727 0 -0.25943529823522399 0.059019700450983613 0 -0.26700835649518739 0.059141463303809719 0 -0.2616290394084464 0.073217153359640727 0 -0.25943529823522399 0.059019700450983613 0 -0.24770149933459509 0.067117001175783092 0 -0.27133662392604208 0.049991981531900952 0 -0.24185560046368451 0.053290561615520669 0 -0.25943529823522399 0.059019700450983613 0 -0.27133662392604208 0.049991981531900952 0 -0.24185560046368451 0.053290561615520669 0 -0.2597052711129415 0.035190528092441047 0 -0.27133662392604208 0.049991981531900952 0 -0.24185560046368451 0.053290561615520669 0 -0.2597052711129415 0.035190528092441047 0 -0.27385188640329378 0.037266836464021992 0 -0.27797902883413678 0.05031105943440322 0 -0.2597052711129415 0.035190528092441047 0 -0.27797902883413678 0.05031105943440322 0 -0.27133662392604208 0.049991981531900952 0 -0.2597052711129415 0.035190528092441047 0 -0.27797902883413678 0.05031105943440322 0 -0.27385188640329378 0.037266836464021992 0 -0.27151124978202251 0.0236966568248549 0 -0.29238779594209019 0.038890009047759473 0 -0.2597052711129415 0.035190528092441047 0 -0.27385188640329378 0.037266836464021992 0 -0.27151124978202251 0.0236966568248549 0 -0.27797902883413678 0.05031105943440322 0 -0.2740936569561267 0.061896118656013327 0 -0.27133662392604208 0.049991981531900952 0 -0.28512653945506738 0.067148281597432566 0 -0.27797902883413678 0.05031105943440322 0 -0.2740936569561267 0.061896118656013327 0 -0.2740936569561267 0.061896118656013327 0 -0.26700835649518739 0.059141463303809719 0 -0.27133662392604208 0.049991981531900952 0 -0.25943529823522399 0.059019700450983613 0 -0.26700835649518739 0.059141463303809719 0 -0.27133662392604208 0.049991981531900952 0 -0.26040134591200442 -0.0037715416055012908 0 -0.25063470362195589 0.0085033046019488169 0 -0.26954303012446962 0.0073993976477094887 0 -0.25063470362195589 0.0085033046019488169 0 -0.27151124978202251 0.0236966568248549 0 -0.26954303012446962 0.0073993976477094887 0 -0.26040134591200442 -0.0037715416055012908 0 -0.25063470362195589 0.0085033046019488169 0 -0.2597052711129415 0.035190528092441047 0 -0.25582068447716549 0.021865121567430239 0 -0.24143151339174609 0.020069996750478949 0 -0.25063470362195589 0.0085033046019488169 0 -0.27151124978202251 0.0236966568248549 0 -0.2597052711129415 0.035190528092441047 0 -0.24143151339174609 0.020069996750478949 0 -0.25063470362195589 0.0085033046019488169 0 -0.25582068447716549 0.021865121567430239 0 -0.27151124978202251 0.0236966568248549 0 -0.2597052711129415 0.035190528092441047 0 -0.25582068447716549 0.021865121567430239 0 -0.27151124978202251 0.0236966568248549 0 -0.27151124978202251 0.0236966568248549 0 -0.28019126828178231 0.01537993302393501 0 -0.28862412447788088 0.024068707673867061 0 -0.27151124978202251 0.0236966568248549 0 -0.28019126828178231 0.01537993302393501 0 -0.26954303012446962 0.0073993976477094887 0 -0.28019126828178231 0.01537993302393501 0 -0.28046213489871319 0.0057396373972828062 0 -0.26954303012446962 0.0073993976477094887 0 -0.27395337533119191 -0.0056795827660176797 0 -0.28046213489871319 0.0057396373972828062 0 -0.26954303012446962 0.0073993976477094887 0 -0.28903349602016998 -0.0014867337770870851 0 -0.29075624806980649 0.01309751246236192 0 -0.30044644442503471 0.0075285655262422591 0 -0.28903349602016998 -0.0014867337770870851 0 -0.28046213489871319 0.0057396373972828062 0 -0.29075624806980649 0.01309751246236192 0 -0.28019126828178231 0.01537993302393501 0 -0.28046213489871319 0.0057396373972828062 0 -0.29075624806980649 0.01309751246236192 0 -0.29075624806980649 0.01309751246236192 0 -0.29553701894448348 0.026634333727594061 0 -0.30044644442503471 0.0075285655262422591 0 -0.27151124978202251 0.0236966568248549 0 -0.28862412447788088 0.024068707673867061 0 -0.29238779594209019 0.038890009047759473 0 -0.29075624806980649 0.01309751246236192 0 -0.28862412447788088 0.024068707673867061 0 -0.29553701894448348 0.026634333727594061 0 -0.28019126828178231 0.01537993302393501 0 -0.29075624806980649 0.01309751246236192 0 -0.28862412447788088 0.024068707673867061 0 -0.28862412447788088 0.024068707673867061 0 -0.29553701894448348 0.026634333727594061 0 -0.29238779594209019 0.038890009047759473 0 -0.28862412447788088 0.024068707673867061 0 -0.29553701894448348 0.026634333727594061 0 -0.29553701894448348 0.026634333727594061 0 -0.30044644442503471 0.0075285655262422591 0 -0.30044644442503471 0.0075285655262422591 0 -0.32112859151328199 0.01203873112475211 0 -0.31293639089989872 0.00031510465304433012 0 -0.29553701894448348 0.026634333727594061 0 -0.30044644442503471 0.0075285655262422591 0 -0.32112859151328199 0.01203873112475211 0 -0.28512653945506738 0.067148281597432566 0 -0.27797902883413678 0.05031105943440322 0 -0.29238779594209019 0.038890009047759473 0 -0.28512653945506738 0.067148281597432566 0 -0.29238779594209019 0.038890009047759473 0 -0.29806625990142788 0.05576343671439999 0 -0.28512653945506738 0.067148281597432566 0 -0.29238779594209019 0.038890009047759473 0 -0.27151124978202251 0.0236966568248549 0 -0.29238779594209019 0.038890009047759473 0 -0.27385188640329378 0.037266836464021992 0 -0.27797902883413678 0.05031105943440322 0 -0.29238779594209019 0.038890009047759473 0 -0.29553701894448348 0.026634333727594061 0 -0.29238779594209019 0.038890009047759473 0 -0.29238779594209019 0.038890009047759473 0 -0.31528677553859119 0.055555230386926648 0 -0.32241842692814993 0.036610999944178962 0 -0.29553701894448348 0.026634333727594061 0 -0.29238779594209019 0.038890009047759473 0 -0.32241842692814993 0.036610999944178962 0 -0.29553701894448348 0.026634333727594061 0 -0.32241842692814993 0.036610999944178962 0 -0.29238779594209019 0.038890009047759473 0 -0.29806625990142788 0.05576343671439999 0 -0.31528677553859119 0.055555230386926648 0 -0.29806625990142788 0.05576343671439999 0 -0.31528677553859119 0.055555230386926648 0 -0.29238779594209019 0.038890009047759473 0 -0.31528677553859119 0.055555230386926648 0 -0.30679147614748331 0.065167418256564233 0 -0.29806625990142788 0.05576343671439999 0 -0.31528677553859119 0.055555230386926648 0 -0.31528677553859119 0.055555230386926648 0 -0.33814901027420119 0.05527881230326441 0 -0.32692619683945878 0.064026067762944228 0 -0.31528677553859119 0.055555230386926648 0 -0.33814901027420119 0.05527881230326441 0 -0.30679147614748331 0.065167418256564233 0 -0.31528677553859119 0.055555230386926648 0 -0.32692619683945878 0.064026067762944228 0 -0.31528677553859119 0.055555230386926648 0 -0.32241842692814993 0.036610999944178962 0 -0.33814901027420119 0.05527881230326441 0 -0.31528677553859119 0.055555230386926648 0 -0.32692619683945878 0.064026067762944228 0 -0.32241842692814993 0.036610999944178962 0 -0.33814901027420119 0.05527881230326441 0 -0.34929983491181599 0.046587666160764721 0 -0.32241842692814993 0.036610999944178962 0 -0.34772704777696511 0.021619789122463231 0 -0.34929983491181599 0.046587666160764721 0 -0.32241842692814993 0.036610999944178962 0 -0.34929983491181599 0.046587666160764721 0 -0.33814901027420119 0.05527881230326441 0 -0.34929983491181599 0.046587666160764721 0 -0.33814901027420119 0.05527881230326441 0 -0.34529948160560509 0.060498185909093817 0 -0.32692619683945878 0.064026067762944228 0 -0.33814901027420119 0.05527881230326441 0 -0.32692619683945878 0.064026067762944228 0 -0.32481465775569179 -0.0067296753637074627 0 -0.32112859151328199 0.01203873112475211 0 -0.31293639089989872 0.00031510465304433012 0 -0.29553701894448348 0.026634333727594061 0 -0.32241842692814993 0.036610999944178962 0 -0.32112859151328199 0.01203873112475211 0 -0.32241842692814993 0.036610999944178962 0 -0.32112859151328199 0.01203873112475211 0 -0.34772704777696511 0.021619789122463231 0 -0.34427344560579781 -0.0018821480523062101 0 -0.32112859151328199 0.01203873112475211 0 -0.34772704777696511 0.021619789122463231 0 -0.34427344560579781 -0.0018821480523062101 0 -0.32481465775569179 -0.0067296753637074627 0 -0.32112859151328199 0.01203873112475211 0 -0.34427344560579781 -0.0018821480523062101 0 -0.3616504328596708 0.002446766007086057 0 -0.34427344560579781 -0.0018821480523062101 0 -0.34772704777696511 0.021619789122463231 0 -0.3616504328596708 0.002446766007086057 0 -0.34427344560579781 -0.0018821480523062101 0 -0.34772704777696511 0.021619789122463231 0 -0.34772704777696511 0.021619789122463231 0 -0.36319093920128681 0.02581086886656148 0 -0.3616504328596708 0.002446766007086057 0 -0.34772704777696511 0.021619789122463231 0 -0.36319093920128681 0.02581086886656148 0 -0.35699818865149668 0.040587435721980362 0 -0.37601084204503871 0.030727315394958411 0 -0.36319093920128681 0.02581086886656148 0 -0.36667284249515902 0.034632386624359697 0 -0.37601084204503871 0.030727315394958411 0 -0.36319093920128681 0.02581086886656148 0 -0.37301915206057368 0.01701254882749912 0 -0.36319093920128681 0.02581086886656148 0 -0.37301915206057368 0.01701254882749912 0 -0.3616504328596708 0.002446766007086057 0 -0.37902742011354401 0.0067756800664774443 0 -0.37301915206057368 0.01701254882749912 0 -0.3616504328596708 0.002446766007086057 0 -0.37902742011354401 0.0067756800664774443 0 -0.3616504328596708 0.002446766007086057 0 -0.35264747094426468 0.055103517247430643 0 -0.35151698930918113 0.047410532633629099 0 -0.37162688482725809 0.054874044788799543 0 -0.35264747094426468 0.055103517247430643 0 -0.35151698930918113 0.047410532633629099 0 -0.35692978571345391 0.062241282255502801 0 -0.35264747094426468 0.055103517247430643 0 -0.35147089905181689 0.061430441986456912 0 -0.33814901027420119 0.05527881230326441 0 -0.35264747094426468 0.055103517247430643 0 -0.34529948160560509 0.060498185909093817 0 -0.33814901027420119 0.05527881230326441 0 -0.35264747094426468 0.055103517247430643 0 -0.35264747094426468 0.055103517247430643 0 -0.35147089905181689 0.061430441986456912 0 -0.34529948160560509 0.060498185909093817 0 -0.33814901027420119 0.05527881230326441 0 -0.35264747094426468 0.055103517247430643 0 -0.34929983491181599 0.046587666160764721 0 -0.35264747094426468 0.055103517247430643 0 -0.35151698930918113 0.047410532633629099 0 -0.34929983491181599 0.046587666160764721 0 -0.35151698930918113 0.047410532633629099 0 -0.34929983491181599 0.046587666160764721 0 -0.34772704777696511 0.021619789122463231 0 -0.35118064994812692 0.045121726297233419 0 -0.34772704777696511 0.021619789122463231 0 -0.35118064994812692 0.045121726297233419 0 -0.35699818865149668 0.040587435721980362 0 -0.34772704777696511 0.021619789122463231 0 -0.35118064994812692 0.045121726297233419 0 -0.34929983491181599 0.046587666160764721 0 -0.35151698930918113 0.047410532633629099 0 -0.35118064994812692 0.045121726297233419 0 -0.35151698930918113 0.047410532633629099 0 -0.35118064994812692 0.045121726297233419 0 -0.34929983491181599 0.046587666160764721 0 -0.35118064994812692 0.045121726297233419 0 -0.34929983491181599 0.046587666160764721 0 -0.35151698930918113 0.047410532633629099 0 -0.35118064994812692 0.045121726297233419 0 -0.35699818865149668 0.040587435721980362 0 -0.35118064994812692 0.045121726297233419 0 -0.35699818865149668 0.040587435721980362 0 -0.35699818865149668 0.040587435721980362 0 -0.37049140008281378 0.04140392651393858 0 -0.37162688482725809 0.054874044788799543 0 -0.35699818865149668 0.040587435721980362 0 -0.36667284249515902 0.034632386624359697 0 -0.37049140008281378 0.04140392651393858 0 -0.36319093920128681 0.02581086886656148 0 -0.35699818865149668 0.040587435721980362 0 -0.36667284249515902 0.034632386624359697 0 -0.37601084204503871 0.030727315394958411 0 -0.36667284249515902 0.034632386624359697 0 -0.37049140008281378 0.04140392651393858 0 -0.35264747094426468 0.055103517247430643 0 -0.37162688482725809 0.054874044788799543 0 -0.35692978571345391 0.062241282255502801 0 -0.35264747094426468 0.055103517247430643 0 -0.37162688482725809 0.054874044788799543 0 -0.35151698930918113 0.047410532633629099 0 -0.35699818865149668 0.040587435721980362 0 -0.37162688482725809 0.054874044788799543 0 -0.35151698930918113 0.047410532633629099 0 -0.37162688482725809 0.054874044788799543 0 -0.35692978571345391 0.062241282255502801 0 -0.37162688482725809 0.054874044788799543 0 -0.36382761858458879 0.067959027556304077 0 -0.37557149722104399 0.075946301814050987 0 -0.37162688482725809 0.054874044788799543 0 -0.36382761858458879 0.067959027556304077 0 -0.37557149722104399 0.075946301814050987 0 -0.36146040403495722 0.077105668411239309 0 -0.36382761858458879 0.067959027556304077 0 -0.35692978571345391 0.062241282255502801 0 -0.36382761858458879 0.067959027556304077 0 -0.35227465261269753 0.067615510608993179 0 -0.36146040403495722 0.077105668411239309 0 -0.34581730891995821 0.077774477941560477 0 -0.35227465261269753 0.067615510608993179 0 -0.34529948160560509 0.060498185909093817 0 -0.34581730891995821 0.077774477941560477 0 -0.35227465261269753 0.067615510608993179 0 -0.35692978571345391 0.062241282255502801 0 -0.35147089905181689 0.061430441986456912 0 -0.35227465261269753 0.067615510608993179 0 -0.36146040403495722 0.077105668411239309 0 -0.36382761858458879 0.067959027556304077 0 -0.35227465261269753 0.067615510608993179 0 -0.35147089905181689 0.061430441986456912 0 -0.34529948160560509 0.060498185909093817 0 -0.35227465261269753 0.067615510608993179 0 -0.36146040403495722 0.077105668411239309 0 -0.34581730891995821 0.077774477941560477 0 -0.36470842100045658 0.091522888120177781 0 -0.34581730891995821 0.077774477941560477 0 -0.36470842100045658 0.091522888120177781 0 -0.33967228615920769 0.098638128014996912 0 -0.34581730891995821 0.077774477941560477 0 -0.36470842100045658 0.091522888120177781 0 -0.37557149722104399 0.075946301814050987 0 -0.36470842100045658 0.091522888120177781 0 -0.37557149722104399 0.075946301814050987 0 -0.36146040403495722 0.077105668411239309 0 -0.36470842100045658 0.091522888120177781 0 -0.37862067197856952 0.088450990704118118 0 -0.37557149722104399 0.075946301814050987 0 -0.36470842100045658 0.091522888120177781 0 -0.382465505148393 0.10444598525716541 0 -0.36470842100045658 0.091522888120177781 0 -0.36714602780339273 0.1073722933508557 0 -0.36470842100045658 0.091522888120177781 0 -0.36714602780339273 0.1073722933508557 0 -0.35080359668719502 0.1114610429843198 0 -0.382465505148393 0.10444598525716541 0 -0.36470842100045658 0.091522888120177781 0 -0.36714602780339273 0.1073722933508557 0 -0.37060658837752558 0.12205925704176079 0 -0.35080359668719502 0.1114610429843198 0 -0.382465505148393 0.10444598525716541 0 -0.36714602780339273 0.1073722933508557 0 -0.37060658837752558 0.12205925704176079 0 -0.35432364148361878 0.13886194929411039 0 -0.37060658837752558 0.12205925704176079 0 -0.35080359668719502 0.1114610429843198 0 -0.35432364148361878 0.13886194929411039 0 -0.35080359668719502 0.1114610429843198 0 -0.3337972457141174 0.1184275024904524 0 -0.36470842100045658 0.091522888120177781 0 -0.35080359668719502 0.1114610429843198 0 -0.33967228615920769 0.098638128014996912 0 -0.36470842100045658 0.091522888120177781 0 -0.35080359668719502 0.1114610429843198 0 -0.33967228615920769 0.098638128014996912 0 -0.3337972457141174 0.1184275024904524 0 -0.31794458870267722 0.1069450634358413 0 -0.35080359668719502 0.1114610429843198 0 -0.33967228615920769 0.098638128014996912 0 -0.3337972457141174 0.1184275024904524 0 -0.31239334930198909 0.12680672044849811 0 -0.3337972457141174 0.1184275024904524 0 -0.31794458870267722 0.1069450634358413 0 -0.33967228615920769 0.098638128014996912 0 -0.31794458870267722 0.1069450634358413 0 -0.32496255593084139 0.085697793117630677 0 -0.30788639898422199 0.094040308656267224 0 -0.31794458870267722 0.1069450634358413 0 -0.32496255593084139 0.085697793117630677 0 -0.30788639898422199 0.094040308656267224 0 -0.30932800300912627 0.077742405289001046 0 -0.32496255593084139 0.085697793117630677 0 -0.30932800300912627 0.077742405289001046 0 -0.32692619683945878 0.064026067762944228 0 -0.30932800300912627 0.077742405289001046 0 -0.32496255593084139 0.085697793117630677 0 -0.32692619683945878 0.064026067762944228 0 -0.30679147614748331 0.065167418256564233 0 -0.30932800300912627 0.077742405289001046 0 -0.32692619683945878 0.064026067762944228 0 -0.34529948160560509 0.060498185909093817 0 -0.34581730891995821 0.077774477941560477 0 -0.32692619683945878 0.064026067762944228 0 -0.34581730891995821 0.077774477941560477 0 -0.32692619683945878 0.064026067762944228 0 -0.34581730891995821 0.077774477941560477 0 -0.32496255593084139 0.085697793117630677 0 -0.32692619683945878 0.064026067762944228 0 -0.34581730891995821 0.077774477941560477 0 -0.33967228615920769 0.098638128014996912 0 -0.32496255593084139 0.085697793117630677 0 -0.40333852279246157 0.46921816085092422 0 -0.39016740982570303 0.47895139206076781 0 -0.39128891396562931 0.46265328837790359 0 -0.40333852279246157 0.46921816085092422 0 -0.40146924670081652 0.48605566502512199 0 -0.41213401527273619 0.4801365472399215 0 -0.40333852279246157 0.46921816085092422 0 -0.40146924670081652 0.48605566502512199 0 -0.39016740982570303 0.47895139206076781 0 -0.387562213866253 0.5 0 -0.40744977605693999 0.49776567560047569 0 -0.41680333802891911 0.5 0 -0.40146924670081652 0.48605566502512199 0 -0.387562213866253 0.5 0 -0.39016740982570303 0.47895139206076781 0 -0.40146924670081652 0.48605566502512199 0 -0.387562213866253 0.5 0 -0.40744977605693999 0.49776567560047569 0 -0.37642525030549118 0.48697858337281119 0 -0.387562213866253 0.5 0 -0.39016740982570303 0.47895139206076781 0 -0.39016740982570303 0.47895139206076781 0 -0.37725121370120612 0.46743008948694897 0 -0.39128891396562931 0.46265328837790359 0 -0.37642525030549118 0.48697858337281119 0 -0.39016740982570303 0.47895139206076781 0 -0.37725121370120612 0.46743008948694897 0 -0.37725121370120612 0.46743008948694897 0 -0.38234951607040218 0.45083837096225993 0 -0.39128891396562931 0.46265328837790359 0 -0.37725121370120612 0.46743008948694897 0 -0.38234951607040218 0.45083837096225993 0 -0.36996791798041612 0.45353039050696747 0 -0.38234951607040218 0.45083837096225993 0 -0.39953426372154038 0.4476424849556721 0 -0.38225027295455011 0.43277755103197579 0 -0.38234951607040218 0.45083837096225993 0 -0.38225027295455011 0.43277755103197579 0 -0.37109403899142601 0.44381905560643731 0 -0.39953426372154038 0.4476424849556721 0 -0.38225027295455011 0.43277755103197579 0 -0.40333852279246157 0.46921816085092422 0 -0.39953426372154038 0.4476424849556721 0 -0.39128891396562931 0.46265328837790359 0 -0.38234951607040218 0.45083837096225993 0 -0.39953426372154038 0.4476424849556721 0 -0.39128891396562931 0.46265328837790359 0 -0.39953426372154038 0.4476424849556721 0 -0.41681825448853171 0.46250741887936708 0 -0.40333852279246157 0.46921816085092422 0 -0.39953426372154038 0.4476424849556721 0 -0.41681825448853171 0.46250741887936708 0 -0.39953426372154038 0.4476424849556721 0 -0.41681825448853171 0.46250741887936708 0 -0.4233706561517257 0.43784746351226927 0 -0.39953426372154038 0.4476424849556721 0 -0.4233706561517257 0.43784746351226927 0 -0.40766741109489829 0.43102381426940611 0 -0.41681825448853171 0.46250741887936708 0 -0.4233706561517257 0.43784746351226927 0 -0.41681825448853171 0.46250741887936708 0 -0.4233706561517257 0.43784746351226927 0 -0.43794969144392759 0.45795535620022809 0 -0.4233706561517257 0.43784746351226927 0 -0.43794969144392759 0.45795535620022809 0 -0.4464216589829354 0.44457314267422948 0 -0.41681825448853171 0.46250741887936708 0 -0.43525780976806039 0.4783661852087307 0 -0.43794969144392759 0.45795535620022809 0 -0.43525780976806039 0.4783661852087307 0 -0.41213401527273619 0.4801365472399215 0 -0.42434628876090758 0.48774633294029057 0 -0.41681825448853171 0.46250741887936708 0 -0.43525780976806039 0.4783661852087307 0 -0.40333852279246157 0.46921816085092422 0 -0.41681825448853171 0.46250741887936708 0 -0.41213401527273619 0.4801365472399215 0 -0.41681825448853171 0.46250741887936708 0 -0.43525780976806039 0.4783661852087307 0 -0.41213401527273619 0.4801365472399215 0 -0.41681825448853171 0.46250741887936708 0 -0.41213401527273619 0.4801365472399215 0 -0.41213401527273619 0.4801365472399215 0 -0.41680333802891911 0.5 0 -0.42434628876090758 0.48774633294029057 0 -0.41213401527273619 0.4801365472399215 0 -0.40744977605693999 0.49776567560047569 0 -0.41213401527273619 0.4801365472399215 0 -0.40744977605693999 0.49776567560047569 0 -0.41680333802891911 0.5 0 -0.40146924670081652 0.48605566502512199 0 -0.41213401527273619 0.4801365472399215 0 -0.40744977605693999 0.49776567560047569 0 -0.43525780976806039 0.4783661852087307 0 -0.42434628876090758 0.48774633294029057 0 -0.44604446219158511 0.50000000000000122 0 -0.41680333802891911 0.5 0 -0.42434628876090758 0.48774633294029057 0 -0.44604446219158511 0.50000000000000122 0 -0.44604446219158511 0.50000000000000122 0 -0.45250905150241039 0.48003810855654488 0 -0.5 0.5 0 -0.48079990607082052 0.45611686428204762 0 -0.5 0.40691634429846768 0 -0.43525780976806039 0.4783661852087307 0 -0.44604446219158511 0.50000000000000122 0 -0.45250905150241039 0.48003810855654488 0 -0.43525780976806039 0.4783661852087307 0 -0.45250905150241039 0.48003810855654488 0 -0.44555480425152583 0.46885780070369831 0 -0.45250905150241039 0.48003810855654488 0 -0.44555480425152583 0.46885780070369831 0 -0.45897364081323527 0.46007621711308849 0 -0.45250905150241039 0.48003810855654488 0 -0.47152731187127078 0.47897475576042331 0 -0.45897364081323527 0.46007621711308849 0 -0.45250905150241039 0.48003810855654488 0 -0.45897364081323527 0.46007621711308849 0 -0.44604446219158511 0.50000000000000122 0 -0.45250905150241039 0.48003810855654488 0 -0.47152731187127078 0.47897475576042331 0 -0.5 0.5 0 -0.47152731187127078 0.47897475576042331 0 -0.48079990607082052 0.45611686428204762 0 -0.44604446219158511 0.50000000000000122 0 -0.5 0.5 0 -0.47152731187127078 0.47897475576042331 0 -0.48079990607082052 0.45611686428204762 0 -0.46543823012406033 0.44011432566963199 0 -0.47458457162389411 0.42424769604813001 0 -0.47152731187127078 0.47897475576042331 0 -0.48079990607082052 0.45611686428204762 0 -0.45897364081323527 0.46007621711308849 0 -0.46543823012406033 0.44011432566963199 0 -0.45897364081323527 0.46007621711308849 0 -0.46543823012406033 0.44011432566963199 0 -0.45897364081323527 0.46007621711308849 0 -0.4464216589829354 0.44457314267422948 0 -0.48079990607082052 0.45611686428204762 0 -0.46543823012406033 0.44011432566963199 0 -0.45897364081323527 0.46007621711308849 0 -0.43525780976806039 0.4783661852087307 0 -0.44555480425152583 0.46885780070369831 0 -0.43794969144392759 0.45795535620022809 0 -0.45897364081323527 0.46007621711308849 0 -0.43794969144392759 0.45795535620022809 0 -0.4464216589829354 0.44457314267422948 0 -0.44555480425152583 0.46885780070369831 0 -0.45897364081323527 0.46007621711308849 0 -0.43794969144392759 0.45795535620022809 0 -0.4233706561517257 0.43784746351226927 0 -0.4464216589829354 0.44457314267422948 0 -0.44637607638172783 0.42687235087592967 0 -0.46543823012406033 0.44011432566963199 0 -0.4464216589829354 0.44457314267422948 0 -0.44637607638172783 0.42687235087592967 0 -0.44637607638172783 0.42687235087592967 0 -0.44789186311986989 0.40933567155793538 0 -0.42992305781491902 0.41318750814517141 0 -0.44637607638172783 0.42687235087592967 0 -0.44789186311986989 0.40933567155793538 0 -0.46185925148519918 0.41939372461809837 0 -0.46185925148519918 0.41939372461809837 0 -0.47458457162389411 0.42424769604813001 0 -0.4648254704393911 0.39869722137240449 0 -0.44789186311986989 0.40933567155793538 0 -0.46185925148519918 0.41939372461809837 0 -0.4648254704393911 0.39869722137240449 0 -0.46543823012406033 0.44011432566963199 0 -0.46185925148519918 0.41939372461809837 0 -0.47458457162389411 0.42424769604813001 0 -0.46543823012406033 0.44011432566963199 0 -0.44637607638172783 0.42687235087592967 0 -0.46185925148519918 0.41939372461809837 0 -0.5 0.40691634429846768 0 -0.47458457162389411 0.42424769604813001 0 -0.4648254704393911 0.39869722137240449 0 -0.48079990607082052 0.45611686428204762 0 -0.5 0.40691634429846768 0 -0.47458457162389411 0.42424769604813001 0 -0.5 0.40691634429846768 0 -0.4648254704393911 0.39869722137240449 0 -0.47913224245016189 0.37039376080268838 0 -0.4648254704393911 0.39869722137240449 0 -0.45718077722390671 0.37281470426978902 0 -0.47913224245016189 0.37039376080268838 0 -0.4648254704393911 0.39869722137240449 0 -0.43647545947811228 0.38852755277807338 0 -0.44789186311986989 0.40933567155793538 0 -0.43647545947811228 0.38852755277807338 0 -0.42992305781491902 0.41318750814517141 0 -0.44789186311986989 0.40933567155793538 0 -0.4648254704393911 0.39869722137240449 0 -0.43647545947811228 0.38852755277807338 0 -0.4648254704393911 0.39869722137240449 0 -0.43647545947811228 0.38852755277807338 0 -0.45718077722390671 0.37281470426978902 0 -0.43647545947811228 0.38852755277807338 0 -0.44187845350571497 0.3681933915928986 0 -0.45718077722390671 0.37281470426978902 0 -0.43647545947811228 0.38852755277807338 0 -0.44187845350571497 0.3681933915928986 0 -0.43647545947811228 0.38852755277807338 0 -0.42946288989057718 0.37461555539647551 0 -0.44187845350571497 0.3681933915928986 0 -0.43647545947811228 0.38852755277807338 0 -0.41740512542069891 0.38168667438786802 0 -0.42278953272421022 0.39667819700770451 0 -0.43647545947811228 0.38852755277807338 0 -0.41740512542069891 0.38168667438786802 0 -0.43647545947811228 0.38852755277807338 0 -0.41740512542069891 0.38168667438786802 0 -0.42946288989057718 0.37461555539647551 0 -0.41740512542069891 0.38168667438786802 0 -0.4069036891188369 0.39785189433529072 0 -0.39826903959940663 0.38850559453683797 0 -0.41740512542069891 0.38168667438786802 0 -0.39833479136328542 0.37484579599766282 0 -0.4069036891188369 0.39785189433529072 0 -0.42278953272421022 0.39667819700770451 0 -0.4042894135416123 0.4141232878761838 0 -0.41740512542069891 0.38168667438786802 0 -0.4069036891188369 0.39785189433529072 0 -0.42278953272421022 0.39667819700770451 0 -0.43647545947811228 0.38852755277807338 0 -0.42992305781491902 0.41318750814517141 0 -0.43647545947811228 0.38852755277807338 0 -0.42278953272421022 0.39667819700770451 0 -0.42992305781491902 0.41318750814517141 0 -0.4233706561517257 0.43784746351226927 0 -0.44637607638172783 0.42687235087592967 0 -0.42992305781491902 0.41318750814517141 0 -0.4233706561517257 0.43784746351226927 0 -0.42992305781491902 0.41318750814517141 0 -0.4233706561517257 0.43784746351226927 0 -0.42992305781491902 0.41318750814517141 0 -0.40766741109489829 0.43102381426940611 0 -0.42278953272421022 0.39667819700770451 0 -0.42992305781491902 0.41318750814517141 0 -0.4042894135416123 0.4141232878761838 0 -0.42992305781491902 0.41318750814517141 0 -0.40766741109489829 0.43102381426940611 0 -0.4042894135416123 0.4141232878761838 0 -0.4042894135416123 0.4141232878761838 0 -0.38750046006088412 0.40977969819921439 0 -0.39664627107769201 0.40289261460528247 0 -0.4042894135416123 0.4141232878761838 0 -0.38225027295455011 0.43277755103197579 0 -0.38750046006088412 0.40977969819921439 0 -0.39953426372154038 0.4476424849556721 0 -0.40766741109489829 0.43102381426940611 0 -0.38225027295455011 0.43277755103197579 0 -0.40766741109489829 0.43102381426940611 0 -0.4042894135416123 0.4141232878761838 0 -0.38225027295455011 0.43277755103197579 0 -0.38225027295455011 0.43277755103197579 0 -0.38750046006088412 0.40977969819921439 0 -0.37586449145356821 0.41361807768461889 0 -0.37586449145356821 0.41361807768461889 0 -0.38034764091455359 0.40217074719944179 0 -0.37184609505917388 0.40317754786485999 0 -0.38750046006088412 0.40977969819921439 0 -0.37586449145356821 0.41361807768461889 0 -0.38034764091455359 0.40217074719944179 0 -0.38778280764980633 0.39540518385019141 0 -0.37927843635080682 0.3887133025101378 0 -0.39826903959940663 0.38850559453683797 0 -0.38750046006088412 0.40977969819921439 0 -0.38034764091455359 0.40217074719944179 0 -0.38778280764980633 0.39540518385019141 0 -0.38778280764980633 0.39540518385019141 0 -0.37927843635080682 0.3887133025101378 0 -0.38034764091455359 0.40217074719944179 0 -0.38778280764980633 0.39540518385019141 0 -0.37927843635080682 0.3887133025101378 0 -0.38034764091455359 0.40217074719944179 0 -0.37927843635080682 0.3887133025101378 0 -0.37184609505917388 0.40317754786485999 0 -0.37927843635080682 0.3887133025101378 0 -0.39833479136328542 0.37484579599766282 0 -0.37916374637096312 0.36796879074905048 0 -0.37927843635080682 0.3887133025101378 0 -0.39833479136328542 0.37484579599766282 0 -0.41740512542069891 0.38168667438786802 0 -0.39826903959940663 0.38850559453683797 0 -0.39833479136328542 0.37484579599766282 0 -0.37927843635080682 0.3887133025101378 0 -0.39826903959940663 0.38850559453683797 0 -0.39833479136328542 0.37484579599766282 0 -0.4069036891188369 0.39785189433529072 0 -0.4042894135416123 0.4141232878761838 0 -0.39664627107769201 0.40289261460528247 0 -0.4069036891188369 0.39785189433529072 0 -0.39826903959940663 0.38850559453683797 0 -0.39664627107769201 0.40289261460528247 0 -0.38750046006088412 0.40977969819921439 0 -0.38778280764980633 0.39540518385019141 0 -0.39664627107769201 0.40289261460528247 0 -0.38778280764980633 0.39540518385019141 0 -0.39826903959940663 0.38850559453683797 0 -0.39664627107769201 0.40289261460528247 0 -0.39093886796668598 0.35655805231783722 0 -0.40269498107053803 0.36164470654492631 0 -0.40660952362168701 0.35173218540276069 0 -0.39093886796668598 0.35655805231783722 0 -0.39181729148686739 0.33893368938096358 0 -0.40660952362168701 0.35173218540276069 0 -0.39093886796668598 0.35655805231783722 0 -0.40269498107053803 0.36164470654492631 0 -0.39833479136328542 0.37484579599766282 0 -0.40269498107053803 0.36164470654492631 0 -0.39833479136328542 0.37484579599766282 0 -0.41683941902911681 0.36137978717809571 0 -0.39093886796668598 0.35655805231783722 0 -0.39833479136328542 0.37484579599766282 0 -0.37916374637096312 0.36796879074905048 0 -0.39833479136328542 0.37484579599766282 0 -0.37916374637096312 0.36796879074905048 0 -0.37590499643275432 0.35001273744070133 0 -0.39181729148686739 0.33893368938096358 0 -0.39093886796668598 0.35655805231783722 0 -0.37590499643275432 0.35001273744070133 0 -0.39181729148686739 0.33893368938096358 0 -0.39093886796668598 0.35655805231783722 0 -0.37916374637096312 0.36796879074905048 0 -0.37590499643275432 0.35001273744070133 0 -0.37590499643275432 0.35001273744070133 0 -0.37733466838916191 0.33240587866346949 0 -0.39181729148686739 0.33893368938096358 0 -0.37733466838916191 0.33240587866346949 0 -0.39488054620202317 0.31281368012921412 0 -0.36633001913705038 0.31939009951638858 0 -0.37733466838916191 0.33240587866346949 0 -0.39488054620202317 0.31281368012921412 0 -0.39181729148686739 0.33893368938096358 0 -0.39488054620202317 0.31281368012921412 0 -0.36633001913705038 0.31939009951638858 0 -0.39488054620202317 0.31281368012921412 0 -0.39181729148686739 0.33893368938096358 0 -0.41556094937578442 0.32954483091238268 0 -0.39181729148686739 0.33893368938096358 0 -0.41556094937578442 0.32954483091238268 0 -0.40660952362168701 0.35173218540276069 0 -0.41556094937578442 0.32954483091238268 0 -0.42871363100179882 0.33642809347119429 0 -0.42061351394466712 0.34539973506459248 0 -0.41556094937578442 0.32954483091238268 0 -0.42061351394466712 0.34539973506459248 0 -0.40660952362168701 0.35173218540276069 0 -0.41556094937578442 0.32954483091238268 0 -0.40660952362168701 0.35173218540276069 0 -0.39488054620202317 0.31281368012921412 0 -0.41556094937578442 0.32954483091238268 0 -0.41459623599367129 0.3139883120514102 0 -0.41556094937578442 0.32954483091238268 0 -0.41459623599367129 0.3139883120514102 0 -0.42343107326699603 0.3062372607420395 0 -0.41556094937578442 0.32954483091238268 0 -0.42343107326699603 0.3062372607420395 0 -0.41556094937578442 0.32954483091238268 0 -0.42728294981992421 0.32488381966224877 0 -0.42343107326699603 0.3062372607420395 0 -0.42728294981992421 0.32488381966224877 0 -0.43251193545246558 0.31340392290570251 0 -0.42343107326699603 0.3062372607420395 0 -0.42728294981992421 0.32488381966224877 0 -0.43485716398362018 0.32498436188471391 0 -0.43373231526131162 0.33060271031673533 0 -0.43485716398362018 0.32498436188471391 0 -0.43373231526131162 0.33060271031673533 0 -0.43976723603239859 0.32779211022713362 0 -0.43485716398362018 0.32498436188471391 0 -0.43413725348244953 0.3201100749334192 0 -0.43930858275764612 0.32072600048000011 0 -0.42728294981992421 0.32488381966224877 0 -0.43485716398362018 0.32498436188471391 0 -0.43413725348244953 0.3201100749334192 0 -0.43670572736503899 0.31693342394972718 0 -0.43251193545246558 0.31340392290570251 0 -0.44086513776759523 0.31349369747978723 0 -0.42728294981992421 0.32488381966224877 0 -0.43413725348244953 0.3201100749334192 0 -0.43251193545246558 0.31340392290570251 0 -0.43670572736503899 0.31693342394972718 0 -0.43413725348244953 0.3201100749334192 0 -0.43251193545246558 0.31340392290570251 0 -0.43670572736503899 0.31693342394972718 0 -0.43413725348244953 0.3201100749334192 0 -0.43930858275764612 0.32072600048000011 0 -0.42871363100179882 0.33642809347119429 0 -0.43534404669494842 0.34791377835852888 0 -0.42061351394466712 0.34539973506459248 0 -0.41556094937578442 0.32954483091238268 0 -0.42728294981992421 0.32488381966224877 0 -0.42871363100179882 0.33642809347119429 0 -0.42728294981992421 0.32488381966224877 0 -0.42871363100179882 0.33642809347119429 0 -0.43373231526131162 0.33060271031673533 0 -0.42871363100179882 0.33642809347119429 0 -0.43373231526131162 0.33060271031673533 0 -0.43776467915983802 0.33505111607902949 0 -0.43373231526131162 0.33060271031673533 0 -0.43776467915983802 0.33505111607902949 0 -0.43976723603239859 0.32779211022713362 0 -0.42871363100179882 0.33642809347119429 0 -0.43534404669494842 0.34791377835852888 0 -0.43776467915983802 0.33505111607902949 0 -0.43534404669494842 0.34791377835852888 0 -0.43068370718949839 0.36187393276678848 0 -0.44187845350571497 0.3681933915928986 0 -0.43534404669494842 0.34791377835852888 0 -0.42061351394466712 0.34539973506459248 0 -0.41683941902911681 0.36137978717809571 0 -0.43534404669494842 0.34791377835852888 0 -0.41683941902911681 0.36137978717809571 0 -0.43534404669494842 0.34791377835852888 0 -0.41683941902911681 0.36137978717809571 0 -0.43068370718949839 0.36187393276678848 0 -0.42061351394466712 0.34539973506459248 0 -0.40660952362168701 0.35173218540276069 0 -0.41683941902911681 0.36137978717809571 0 -0.40269498107053803 0.36164470654492631 0 -0.40660952362168701 0.35173218540276069 0 -0.41683941902911681 0.36137978717809571 0 -0.41740512542069891 0.38168667438786802 0 -0.41683941902911681 0.36137978717809571 0 -0.42946288989057718 0.37461555539647551 0 -0.39833479136328542 0.37484579599766282 0 -0.41683941902911681 0.36137978717809571 0 -0.41740512542069891 0.38168667438786802 0 -0.39833479136328542 0.37484579599766282 0 -0.41683941902911681 0.36137978717809571 0 -0.41683941902911681 0.36137978717809571 0 -0.42946288989057718 0.37461555539647551 0 -0.43068370718949839 0.36187393276678848 0 -0.42946288989057718 0.37461555539647551 0 -0.43068370718949839 0.36187393276678848 0 -0.44187845350571497 0.3681933915928986 0 -0.5 0.40691634429846768 0 -0.47913224245016189 0.37039376080268838 0 -0.5 0.34007385370511811 0 -0.44187845350571497 0.3681933915928986 0 -0.45370944851322148 0.3531422572851099 0 -0.45718077722390671 0.37281470426978902 0 -0.44187845350571497 0.3681933915928986 0 -0.44728144753331772 0.34785923040772382 0 -0.45370944851322148 0.3531422572851099 0 -0.44728144753331772 0.34785923040772382 0 -0.45370944851322148 0.3531422572851099 0 -0.45384867436077903 0.33444776953896083 0 -0.43534404669494842 0.34791377835852888 0 -0.44187845350571497 0.3681933915928986 0 -0.44728144753331772 0.34785923040772382 0 -0.44187845350571497 0.3681933915928986 0 -0.44728144753331772 0.34785923040772382 0 -0.45370944851322148 0.3531422572851099 0 -0.45384867436077903 0.33444776953896083 0 -0.45370944851322148 0.3531422572851099 0 -0.46778029206709182 0.35748877352342728 0 -0.46585829846466781 0.34252305538738043 0 -0.46778029206709182 0.35748877352342728 0 -0.45718077722390671 0.37281470426978902 0 -0.47913224245016189 0.37039376080268838 0 -0.45370944851322148 0.3531422572851099 0 -0.46778029206709182 0.35748877352342728 0 -0.45718077722390671 0.37281470426978902 0 -0.46778029206709182 0.35748877352342728 0 -0.47913224245016189 0.37039376080268838 0 -0.47776687548184621 0.34845489113198819 0 -0.46778029206709182 0.35748877352342728 0 -0.47776687548184621 0.34845489113198819 0 -0.46585829846466781 0.34252305538738043 0 -0.47913224245016189 0.37039376080268838 0 -0.47776687548184621 0.34845489113198819 0 -0.5 0.34007385370511811 0 -0.5 0.34007385370511811 0 -0.48140716065419059 0.31285291986837682 0 -0.5 0.29207298341333021 0 -0.47776687548184621 0.34845489113198819 0 -0.5 0.34007385370511811 0 -0.47606354442730942 0.33179501224132718 0 -0.5 0.34007385370511811 0 -0.47606354442730942 0.33179501224132718 0 -0.48140716065419059 0.31285291986837682 0 -0.47776687548184621 0.34845489113198819 0 -0.47606354442730942 0.33179501224132718 0 -0.46585829846466781 0.34252305538738043 0 -0.47606354442730942 0.33179501224132718 0 -0.48140716065419059 0.31285291986837682 0 -0.46777555034971019 0.31620641579502923 0 -0.45961661569852641 0.33025037900901061 0 -0.45384867436077903 0.33444776953896083 0 -0.45404965178009721 0.30746161740804823 0 -0.46777555034971019 0.31620641579502923 0 -0.45961661569852641 0.33025037900901061 0 -0.45404965178009721 0.30746161740804823 0 -0.47606354442730942 0.33179501224132718 0 -0.46777555034971019 0.31620641579502923 0 -0.45961661569852641 0.33025037900901061 0 -0.45384867436077903 0.33444776953896083 0 -0.45404965178009721 0.30746161740804823 0 -0.47606354442730942 0.33179501224132718 0 -0.46585829846466781 0.34252305538738043 0 -0.45961661569852641 0.33025037900901061 0 -0.45370944851322148 0.3531422572851099 0 -0.46585829846466781 0.34252305538738043 0 -0.45384867436077903 0.33444776953896083 0 -0.46585829846466781 0.34252305538738043 0 -0.45961661569852641 0.33025037900901061 0 -0.45384867436077903 0.33444776953896083 0 -0.45961661569852641 0.33025037900901061 0 -0.45384867436077903 0.33444776953896083 0 -0.43534404669494842 0.34791377835852888 0 -0.45384867436077903 0.33444776953896083 0 -0.44441247973281311 0.33448108848792368 0 -0.43534404669494842 0.34791377835852888 0 -0.44728144753331772 0.34785923040772382 0 -0.45384867436077903 0.33444776953896083 0 -0.43534404669494842 0.34791377835852888 0 -0.45384867436077903 0.33444776953896083 0 -0.45384867436077903 0.33444776953896083 0 -0.448747864624847 0.32926956219609371 0 -0.44441247973281311 0.33448108848792368 0 -0.448747864624847 0.32926956219609371 0 -0.44441247973281311 0.33448108848792368 0 -0.44572050242654371 0.32761706880061592 0 -0.44234425357464618 0.33116981219318808 0 -0.44572050242654371 0.32761706880061592 0 -0.43976723603239859 0.32779211022713362 0 -0.44234425357464618 0.33116981219318808 0 -0.44441247973281311 0.33448108848792368 0 -0.44572050242654371 0.32761706880061592 0 -0.44234425357464618 0.33116981219318808 0 -0.43776467915983802 0.33505111607902949 0 -0.43976723603239859 0.32779211022713362 0 -0.44234425357464618 0.33116981219318808 0 -0.43776467915983802 0.33505111607902949 0 -0.44441247973281311 0.33448108848792368 0 -0.43534404669494842 0.34791377835852888 0 -0.43776467915983802 0.33505111607902949 0 -0.44441247973281311 0.33448108848792368 0 -0.45384867436077903 0.33444776953896083 0 -0.44839414683780082 0.31800230911712413 0 -0.45404965178009721 0.30746161740804823 0 -0.45384867436077903 0.33444776953896083 0 -0.448747864624847 0.32926956219609371 0 -0.44839414683780082 0.31800230911712413 0 -0.44839414683780082 0.31800230911712413 0 -0.44086513776759523 0.31349369747978723 0 -0.45404965178009721 0.30746161740804823 0 -0.44839414683780082 0.31800230911712413 0 -0.44572050242654371 0.32761706880061592 0 -0.44329761701359732 0.32353437215621839 0 -0.448747864624847 0.32926956219609371 0 -0.44839414683780082 0.31800230911712413 0 -0.44572050242654371 0.32761706880061592 0 -0.44839414683780082 0.31800230911712413 0 -0.44329761701359732 0.32353437215621839 0 -0.43930858275764612 0.32072600048000011 0 -0.44572050242654371 0.32761706880061592 0 -0.44329761701359732 0.32353437215621839 0 -0.43976723603239859 0.32779211022713362 0 -0.43485716398362018 0.32498436188471391 0 -0.43976723603239859 0.32779211022713362 0 -0.43930858275764612 0.32072600048000011 0 -0.44329761701359732 0.32353437215621839 0 -0.43976723603239859 0.32779211022713362 0 -0.43930858275764612 0.32072600048000011 0 -0.44839414683780082 0.31800230911712413 0 -0.43930858275764612 0.32072600048000011 0 -0.44086513776759523 0.31349369747978723 0 -0.43670572736503899 0.31693342394972718 0 -0.43930858275764612 0.32072600048000011 0 -0.44086513776759523 0.31349369747978723 0 -0.44086513776759523 0.31349369747978723 0 -0.44001358879339281 0.30482560615968868 0 -0.45404965178009721 0.30746161740804823 0 -0.43251193545246558 0.31340392290570251 0 -0.44086513776759523 0.31349369747978723 0 -0.44001358879339281 0.30482560615968868 0 -0.44001358879339281 0.30482560615968868 0 -0.4435251713578422 0.29270119057742378 0 -0.43512381383120158 0.29814548298733468 0 -0.44001358879339281 0.30482560615968868 0 -0.4435251713578422 0.29270119057742378 0 -0.45404965178009721 0.30746161740804823 0 -0.4435251713578422 0.29270119057742378 0 -0.45404965178009721 0.30746161740804823 0 -0.45425062919941639 0.28047546527713579 0 -0.44463368322718011 0.28269451448052452 0 -0.4435251713578422 0.29270119057742378 0 -0.4334638008839794 0.28517012193162677 0 -0.44463368322718011 0.28269451448052452 0 -0.4435251713578422 0.29270119057742378 0 -0.45425062919941639 0.28047546527713579 0 -0.45404965178009721 0.30746161740804823 0 -0.45425062919941639 0.28047546527713579 0 -0.4562395528239348 0.28606686826232308 0 -0.45404965178009721 0.30746161740804823 0 -0.45425062919941639 0.28047546527713579 0 -0.4562395528239348 0.28606686826232308 0 -0.46874581969410978 0.28494078920978799 0 -0.47033488376190702 0.2980854308266237 0 -0.4562395528239348 0.28606686826232308 0 -0.46874581969410978 0.28494078920978799 0 -0.4662993831988429 0.27713399147244322 0 -0.4562395528239348 0.28606686826232308 0 -0.45404965178009721 0.30746161740804823 0 -0.47033488376190702 0.2980854308266237 0 -0.46777555034971019 0.31620641579502923 0 -0.45404965178009721 0.30746161740804823 0 -0.47033488376190702 0.2980854308266237 0 -0.48140716065419059 0.31285291986837682 0 -0.46777555034971019 0.31620641579502923 0 -0.47033488376190702 0.2980854308266237 0 -0.48140716065419059 0.31285291986837682 0 -0.47033488376190702 0.2980854308266237 0 -0.5 0.29207298341333021 0 -0.46874581969410978 0.28494078920978799 0 -0.47033488376190702 0.2980854308266237 0 -0.4811592977012909 0.28047418173629168 0 -0.47033488376190702 0.2980854308266237 0 -0.5 0.29207298341333021 0 -0.4811592977012909 0.28047418173629168 0 -0.5 0.29207298341333021 0 -0.49999999999999939 0.25760146853379889 0 -0.4811592977012909 0.28047418173629168 0 -0.49999999999999939 0.25760146853379889 0 -0.48017493337326361 0.26723013741821122 0 -0.48288303928727749 0.2561568843484941 0 -0.49194031127071619 0.23895763127939859 0 -0.49999999999999939 0.25760146853379889 0 -0.48288303928727749 0.2561568843484941 0 -0.49999999999999939 0.25760146853379889 0 -0.48017493337326361 0.26723013741821122 0 -0.4811592977012909 0.28047418173629168 0 -0.48017493337326361 0.26723013741821122 0 -0.4811592977012909 0.28047418173629168 0 -0.47366311877646877 0.27611569663113628 0 -0.47366311877646877 0.27611569663113628 0 -0.47201345501254621 0.26910806775152463 0 -0.4662993831988429 0.27713399147244322 0 -0.46874581969410978 0.28494078920978799 0 -0.47366311877646877 0.27611569663113628 0 -0.4662993831988429 0.27713399147244322 0 -0.46874581969410978 0.28494078920978799 0 -0.4811592977012909 0.28047418173629168 0 -0.47366311877646877 0.27611569663113628 0 -0.48017493337326361 0.26723013741821122 0 -0.47366311877646877 0.27611569663113628 0 -0.47201345501254621 0.26910806775152463 0 -0.47466693263559911 0.24223148543743961 0 -0.47451524453324317 0.26006567860223939 0 -0.48288303928727749 0.2561568843484941 0 -0.47201345501254621 0.26910806775152463 0 -0.47451524453324317 0.26006567860223939 0 -0.46545324272976701 0.26414917684988132 0 -0.48017493337326361 0.26723013741821122 0 -0.47201345501254621 0.26910806775152463 0 -0.47451524453324317 0.26006567860223939 0 -0.47466693263559911 0.24223148543743961 0 -0.46545324272976701 0.26414917684988132 0 -0.47466693263559911 0.24223148543743961 0 -0.47451524453324317 0.26006567860223939 0 -0.46545324272976701 0.26414917684988132 0 -0.48017493337326361 0.26723013741821122 0 -0.47451524453324317 0.26006567860223939 0 -0.48288303928727749 0.2561568843484941 0 -0.47466693263559911 0.24223148543743961 0 -0.46545324272976701 0.26414917684988132 0 -0.46607007101504039 0.25979585961291829 0 -0.4632890395515995 0.2441925317333847 0 -0.46607007101504039 0.25979585961291829 0 -0.45445160661873518 0.25348931314622353 0 -0.46545324272976701 0.26414917684988132 0 -0.46607007101504039 0.25979585961291829 0 -0.45445160661873518 0.25348931314622353 0 -0.46607007101504039 0.25979585961291829 0 -0.45445160661873518 0.25348931314622353 0 -0.46545324272976701 0.26414917684988132 0 -0.45445160661873518 0.25348931314622353 0 -0.45425062919941639 0.28047546527713579 0 -0.4562395528239348 0.28606686826232308 0 -0.46545324272976701 0.26414917684988132 0 -0.45425062919941639 0.28047546527713579 0 -0.4562395528239348 0.28606686826232308 0 -0.46545324272976701 0.26414917684988132 0 -0.4662993831988429 0.27713399147244322 0 -0.4562395528239348 0.28606686826232308 0 -0.46545324272976701 0.26414917684988132 0 -0.45445160661873518 0.25348931314622353 0 -0.45425062919941639 0.28047546527713579 0 -0.47201345501254621 0.26910806775152463 0 -0.46545324272976701 0.26414917684988132 0 -0.4662993831988429 0.27713399147244322 0 -0.44584298931347771 0.2729624364553519 0 -0.44241522663807692 0.26298276744124882 0 -0.4334638008839794 0.28517012193162677 0 -0.45445160661873518 0.25348931314622353 0 -0.45425062919941639 0.28047546527713579 0 -0.44584298931347771 0.2729624364553519 0 -0.44241522663807692 0.26298276744124882 0 -0.4334638008839794 0.28517012193162677 0 -0.44463368322718011 0.28269451448052452 0 -0.45425062919941639 0.28047546527713579 0 -0.44584298931347771 0.2729624364553519 0 -0.44463368322718011 0.28269451448052452 0 -0.44584298931347771 0.2729624364553519 0 -0.4334638008839794 0.28517012193162677 0 -0.45445160661873518 0.25348931314622353 0 -0.44584298931347771 0.2729624364553519 0 -0.44241522663807692 0.26298276744124882 0 -0.43444186131197371 0.2426279476284251 0 -0.45445160661873518 0.25348931314622353 0 -0.44241522663807692 0.26298276744124882 0 -0.44241522663807692 0.26298276744124882 0 -0.42203095160741833 0.25922860252632918 0 -0.43017209728059691 0.27086871444227573 0 -0.43444186131197371 0.2426279476284251 0 -0.44241522663807692 0.26298276744124882 0 -0.42203095160741833 0.25922860252632918 0 -0.41093177935634662 0.2474929770878776 0 -0.42203095160741833 0.25922860252632918 0 -0.40133174629599982 0.26030346168439228 0 -0.42203095160741833 0.25922860252632918 0 -0.40896944832452359 0.27188832744279717 0 -0.40133174629599982 0.26030346168439228 0 -0.42203095160741833 0.25922860252632918 0 -0.40896944832452359 0.27188832744279717 0 -0.42031777217692851 0.27987326029522103 0 -0.40896944832452359 0.27188832744279717 0 -0.42031777217692851 0.27987326029522103 0 -0.40642230437836507 0.28627926614206128 0 -0.44241522663807692 0.26298276744124882 0 -0.43017209728059691 0.27086871444227573 0 -0.4334638008839794 0.28517012193162677 0 -0.42203095160741833 0.25922860252632918 0 -0.42031777217692851 0.27987326029522103 0 -0.43017209728059691 0.27086871444227573 0 -0.42031777217692851 0.27987326029522103 0 -0.43017209728059691 0.27086871444227573 0 -0.4334638008839794 0.28517012193162677 0 -0.4334638008839794 0.28517012193162677 0 -0.42343107326699603 0.3062372607420395 0 -0.4334638008839794 0.28517012193162677 0 -0.42343107326699603 0.3062372607420395 0 -0.41810160314462491 0.29123939350464961 0 -0.4334638008839794 0.28517012193162677 0 -0.43512381383120158 0.29814548298733468 0 -0.42343107326699603 0.3062372607420395 0 -0.4435251713578422 0.29270119057742378 0 -0.4334638008839794 0.28517012193162677 0 -0.43512381383120158 0.29814548298733468 0 -0.42031777217692851 0.27987326029522103 0 -0.4334638008839794 0.28517012193162677 0 -0.41810160314462491 0.29123939350464961 0 -0.43251193545246558 0.31340392290570251 0 -0.44001358879339281 0.30482560615968868 0 -0.43315861771164388 0.30534866631059893 0 -0.43251193545246558 0.31340392290570251 0 -0.43315861771164388 0.30534866631059893 0 -0.42343107326699603 0.3062372607420395 0 -0.43315861771164388 0.30534866631059893 0 -0.43512381383120158 0.29814548298733468 0 -0.42343107326699603 0.3062372607420395 0 -0.44001358879339281 0.30482560615968868 0 -0.43315861771164388 0.30534866631059893 0 -0.43512381383120158 0.29814548298733468 0 -0.42343107326699603 0.3062372607420395 0 -0.4068730650168555 0.29863705841229932 0 -0.41810160314462491 0.29123939350464961 0 -0.39488054620202317 0.31281368012921412 0 -0.42343107326699603 0.3062372607420395 0 -0.39488054620202317 0.31281368012921412 0 -0.41459623599367129 0.3139883120514102 0 -0.42343107326699603 0.3062372607420395 0 -0.39488054620202317 0.31281368012921412 0 -0.42343107326699603 0.3062372607420395 0 -0.4068730650168555 0.29863705841229932 0 -0.42031777217692851 0.27987326029522103 0 -0.41810160314462491 0.29123939350464961 0 -0.40642230437836507 0.28627926614206128 0 -0.4068730650168555 0.29863705841229932 0 -0.41810160314462491 0.29123939350464961 0 -0.40642230437836507 0.28627926614206128 0 -0.40642230437836507 0.28627926614206128 0 -0.39486343233729382 0.29284718668816628 0 -0.3928653898908242 0.27637265217305018 0 -0.4068730650168555 0.29863705841229932 0 -0.40642230437836507 0.28627926614206128 0 -0.39486343233729382 0.29284718668816628 0 -0.39488054620202317 0.31281368012921412 0 -0.4068730650168555 0.29863705841229932 0 -0.39486343233729382 0.29284718668816628 0 -0.39488054620202317 0.31281368012921412 0 -0.37398488790505252 0.29060536602801001 0 -0.36633001913705038 0.31939009951638858 0 -0.39488054620202317 0.31281368012921412 0 -0.39486343233729382 0.29284718668816628 0 -0.37398488790505252 0.29060536602801001 0 -0.39486343233729382 0.29284718668816628 0 -0.3928653898908242 0.27637265217305018 0 -0.37398488790505252 0.29060536602801001 0 -0.37903982788211171 0.26125224899283561 0 -0.3928653898908242 0.27637265217305018 0 -0.37398488790505252 0.29060536602801001 0 -0.37903982788211171 0.26125224899283561 0 -0.40133174629599982 0.26030346168439228 0 -0.38291842714341401 0.24644389119839349 0 -0.36920634980925271 0.24780998901511489 0 -0.37903982788211171 0.26125224899283561 0 -0.38291842714341401 0.24644389119839349 0 -0.37903982788211171 0.26125224899283561 0 -0.39207501739308243 0.25172241690722819 0 -0.37903982788211171 0.26125224899283561 0 -0.40133174629599982 0.26030346168439228 0 -0.39207501739308243 0.25172241690722819 0 -0.41093177935634662 0.2474929770878776 0 -0.40133174629599982 0.26030346168439228 0 -0.39207501739308243 0.25172241690722819 0 -0.40896944832452359 0.27188832744279717 0 -0.40642230437836507 0.28627926614206128 0 -0.3928653898908242 0.27637265217305018 0 -0.40896944832452359 0.27188832744279717 0 -0.40133174629599982 0.26030346168439228 0 -0.3928653898908242 0.27637265217305018 0 -0.37903982788211171 0.26125224899283561 0 -0.40133174629599982 0.26030346168439228 0 -0.3928653898908242 0.27637265217305018 0 -0.34593454437877452 0.27352391584179891 0 -0.3567479094682236 0.26220103630127878 0 -0.33445599105433571 0.26314982360972528 0 -0.34593454437877452 0.27352391584179891 0 -0.3567479094682236 0.26220103630127878 0 -0.35957006662897278 0.27860757094990879 0 -0.34593454437877452 0.27352391584179891 0 -0.35957006662897278 0.27860757094990879 0 -0.34454983628485097 0.28605172638829562 0 -0.3567479094682236 0.26220103630127878 0 -0.33445599105433571 0.26314982360972528 0 -0.35202857838258328 0.24286289247228149 0 -0.3567479094682236 0.26220103630127878 0 -0.33445599105433571 0.26314982360972528 0 -0.35202857838258328 0.24286289247228149 0 -0.36920634980925271 0.24780998901511489 0 -0.3567479094682236 0.26220103630127878 0 -0.36920634980925271 0.24780998901511489 0 -0.37903982788211171 0.26125224899283561 0 -0.3567479094682236 0.26220103630127878 0 -0.37903982788211171 0.26125224899283561 0 -0.3567479094682236 0.26220103630127878 0 -0.37903982788211171 0.26125224899283561 0 -0.35957006662897278 0.27860757094990879 0 -0.37398488790505252 0.29060536602801001 0 -0.37903982788211171 0.26125224899283561 0 -0.3567479094682236 0.26220103630127878 0 -0.35957006662897278 0.27860757094990879 0 -0.35957006662897278 0.27860757094990879 0 -0.37398488790505252 0.29060536602801001 0 -0.35586313666980701 0.29915474156175048 0 -0.37398488790505252 0.29060536602801001 0 -0.35586313666980701 0.29915474156175048 0 -0.36633001913705038 0.31939009951638858 0 -0.35586313666980701 0.29915474156175048 0 -0.34017545069992428 0.31069412101972249 0 -0.36633001913705038 0.31939009951638858 0 -0.35586313666980701 0.29915474156175048 0 -0.34017545069992428 0.31069412101972249 0 -0.34201039762047281 0.29802205255021158 0 -0.35957006662897278 0.27860757094990879 0 -0.35586313666980701 0.29915474156175048 0 -0.34454983628485097 0.28605172638829562 0 -0.35586313666980701 0.29915474156175048 0 -0.34454983628485097 0.28605172638829562 0 -0.34201039762047281 0.29802205255021158 0 -0.34454983628485097 0.28605172638829562 0 -0.328793893965796 0.29596427214143278 0 -0.34201039762047281 0.29802205255021158 0 -0.34454983628485097 0.28605172638829562 0 -0.328793893965796 0.29596427214143278 0 -0.33434891845748749 0.2776094219597845 0 -0.328793893965796 0.29596427214143278 0 -0.34017545069992428 0.31069412101972249 0 -0.31629505250595707 0.31118959117717832 0 -0.34017545069992428 0.31069412101972249 0 -0.31629505250595707 0.31118959117717832 0 -0.328793893965796 0.29596427214143278 0 -0.34017545069992428 0.31069412101972249 0 -0.34201039762047281 0.29802205255021158 0 -0.328793893965796 0.29596427214143278 0 -0.31629505250595707 0.31118959117717832 0 -0.30642843322610652 0.29550664875966659 0 -0.328793893965796 0.29596427214143278 0 -0.32044221214022189 0.27932823618469671 0 -0.30642843322610652 0.29550664875966659 0 -0.328793893965796 0.29596427214143278 0 -0.32044221214022189 0.27932823618469671 0 -0.33434891845748749 0.2776094219597845 0 -0.32044221214022189 0.27932823618469671 0 -0.30642843322610652 0.29550664875966659 0 -0.32044221214022189 0.27932823618469671 0 -0.33445599105433571 0.26314982360972528 0 -0.31739811292395498 0.2638758400062739 0 -0.32044221214022189 0.27932823618469671 0 -0.33445599105433571 0.26314982360972528 0 -0.32044221214022189 0.27932823618469671 0 -0.31739811292395498 0.2638758400062739 0 -0.30802621139084863 0.27659197069017671 0 -0.32044221214022189 0.27932823618469671 0 -0.33434891845748749 0.2776094219597845 0 -0.33445599105433571 0.26314982360972528 0 -0.34593454437877452 0.27352391584179891 0 -0.33434891845748749 0.2776094219597845 0 -0.33445599105433571 0.26314982360972528 0 -0.34593454437877452 0.27352391584179891 0 -0.34454983628485097 0.28605172638829562 0 -0.33434891845748749 0.2776094219597845 0 -0.35202857838258328 0.24286289247228149 0 -0.33445599105433571 0.26314982360972528 0 -0.35202857838258328 0.24286289247228149 0 -0.33445599105433571 0.26314982360972528 0 -0.32618440658807912 0.25373237443755448 0 -0.33445599105433571 0.26314982360972528 0 -0.32618440658807912 0.25373237443755448 0 -0.31739811292395498 0.2638758400062739 0 -0.33445599105433571 0.26314982360972528 0 -0.31739811292395498 0.2638758400062739 0 -0.32618440658807912 0.25373237443755448 0 -0.30034023479357441 0.26460185640282641 0 -0.32618440658807912 0.25373237443755448 0 -0.31739811292395498 0.2638758400062739 0 -0.30034023479357441 0.26460185640282641 0 -0.32618440658807912 0.25373237443755448 0 -0.30566712564003917 0.25094534805399937 0 -0.30034023479357441 0.26460185640282641 0 -0.31739811292395498 0.2638758400062739 0 -0.30034023479357441 0.26460185640282641 0 -0.30566712564003917 0.25094534805399937 0 -0.30034023479357441 0.26460185640282641 0 -0.29101081565939257 0.25120719557250509 0 -0.31739811292395498 0.2638758400062739 0 -0.30034023479357441 0.26460185640282641 0 -0.30802621139084863 0.27659197069017671 0 -0.30034023479357441 0.26460185640282641 0 -0.30802621139084863 0.27659197069017671 0 -0.29552206387038488 0.27964727209741919 0 -0.30034023479357441 0.26460185640282641 0 -0.28371254762445308 0.27159509059295861 0 -0.30034023479357441 0.26460185640282641 0 -0.29552206387038488 0.27964727209741919 0 -0.28371254762445308 0.27159509059295861 0 -0.30034023479357441 0.26460185640282641 0 -0.28371254762445308 0.27159509059295861 0 -0.28285327999094018 0.26534613513523497 0 -0.28371254762445308 0.27159509059295861 0 -0.28285327999094018 0.26534613513523497 0 -0.27822003632147618 0.27280143099210957 0 -0.29552206387038488 0.27964727209741919 0 -0.28371254762445308 0.27159509059295861 0 -0.28380469838380828 0.28042418650408302 0 -0.28371254762445308 0.27159509059295861 0 -0.28380469838380828 0.28042418650408302 0 -0.27822003632147618 0.27280143099210957 0 -0.30034023479357441 0.26460185640282641 0 -0.28285327999094018 0.26534613513523497 0 -0.30034023479357441 0.26460185640282641 0 -0.29101081565939257 0.25120719557250509 0 -0.28285327999094018 0.26534613513523497 0 -0.29101081565939257 0.25120719557250509 0 -0.28285327999094018 0.26534613513523497 0 -0.27443607583592228 0.25202732137859168 0 -0.27580400951210959 0.26772346367945538 0 -0.26541344505859849 0.26735904312371711 0 -0.25868150502251502 0.25221069028746462 0 -0.27443607583592228 0.25202732137859168 0 -0.27580400951210959 0.26772346367945538 0 -0.25868150502251502 0.25221069028746462 0 -0.27580400951210959 0.26772346367945538 0 -0.25868150502251502 0.25221069028746462 0 -0.28285327999094018 0.26534613513523497 0 -0.27443607583592228 0.25202732137859168 0 -0.27580400951210959 0.26772346367945538 0 -0.28285327999094018 0.26534613513523497 0 -0.27822003632147618 0.27280143099210957 0 -0.27580400951210959 0.26772346367945538 0 -0.27822003632147618 0.27280143099210957 0 -0.27580400951210959 0.26772346367945538 0 -0.27167450410172972 0.27276489570584861 0 -0.28380469838380828 0.28042418650408302 0 -0.27822003632147618 0.27280143099210957 0 -0.27553170930768689 0.27882718142375151 0 -0.27822003632147618 0.27280143099210957 0 -0.27553170930768689 0.27882718142375151 0 -0.27167450410172972 0.27276489570584861 0 -0.27553170930768689 0.27882718142375151 0 -0.26576415588408853 0.27551018908858788 0 -0.27167450410172972 0.27276489570584861 0 -0.27553170930768689 0.27882718142375151 0 -0.26576415588408853 0.27551018908858788 0 -0.27145665344460601 0.2875988435891389 0 -0.27580400951210959 0.26772346367945538 0 -0.27167450410172972 0.27276489570584861 0 -0.26541344505859849 0.26735904312371711 0 -0.26576415588408853 0.27551018908858788 0 -0.27167450410172972 0.27276489570584861 0 -0.26541344505859849 0.26735904312371711 0 -0.26576415588408853 0.27551018908858788 0 -0.26541344505859849 0.26735904312371711 0 -0.25514305077254962 0.26858597685722868 0 -0.26576415588408853 0.27551018908858788 0 -0.2588276697556966 0.27676043544242729 0 -0.25514305077254962 0.26858597685722868 0 -0.26576415588408853 0.27551018908858788 0 -0.2588276697556966 0.27676043544242729 0 -0.26112212420048758 0.28489484091813588 0 -0.2588276697556966 0.27676043544242729 0 -0.25328134816566078 0.27805073490575699 0 -0.26112212420048758 0.28489484091813588 0 -0.25328134816566078 0.27805073490575699 0 -0.25514305077254962 0.26858597685722868 0 -0.24305133852416599 0.27715019349946252 0 -0.2588276697556966 0.27676043544242729 0 -0.25328134816566078 0.27805073490575699 0 -0.25514305077254962 0.26858597685722868 0 -0.26541344505859849 0.26735904312371711 0 -0.25514305077254962 0.26858597685722868 0 -0.25868150502251502 0.25221069028746462 0 -0.26149772425566631 0.2990380086504516 0 -0.27012212036433481 0.31214758650759877 0 -0.24782958641667949 0.31261011168055858 0 -0.27012212036433481 0.31214758650759877 0 -0.24782958641667949 0.31261011168055858 0 -0.26149772425566631 0.2990380086504516 0 -0.24782958641667949 0.31261011168055858 0 -0.24771474827656509 0.2991549189819479 0 -0.26149772425566631 0.2990380086504516 0 -0.25375933293801167 0.29364580216907221 0 -0.24771474827656509 0.2991549189819479 0 -0.25375933293801167 0.29364580216907221 0 -0.25039465432294428 0.28694624282567072 0 -0.26112212420048758 0.28489484091813588 0 -0.25328134816566078 0.27805073490575699 0 -0.25039465432294428 0.28694624282567072 0 -0.26112212420048758 0.28489484091813588 0 -0.25328134816566078 0.27805073490575699 0 -0.25039465432294428 0.28694624282567072 0 -0.2477747424954663 0.28158973246324809 0 -0.26149772425566631 0.2990380086504516 0 -0.26112212420048758 0.28489484091813588 0 -0.27145665344460601 0.2875988435891389 0 -0.26149772425566631 0.2990380086504516 0 -0.25375933293801167 0.29364580216907221 0 -0.26112212420048758 0.28489484091813588 0 -0.26149772425566631 0.2990380086504516 0 -0.27145665344460601 0.2875988435891389 0 -0.27881195062223929 0.29933781276810989 0 -0.26576415588408853 0.27551018908858788 0 -0.26112212420048758 0.28489484091813588 0 -0.27145665344460601 0.2875988435891389 0 -0.27553170930768689 0.27882718142375151 0 -0.27145665344460601 0.2875988435891389 0 -0.28024395766365567 0.28899621817699978 0 -0.28380469838380828 0.28042418650408302 0 -0.27553170930768689 0.27882718142375151 0 -0.28024395766365567 0.28899621817699978 0 -0.27145665344460601 0.2875988435891389 0 -0.28024395766365567 0.28899621817699978 0 -0.27881195062223929 0.29933781276810989 0 -0.26149772425566631 0.2990380086504516 0 -0.27881195062223929 0.29933781276810989 0 -0.27012212036433481 0.31214758650759877 0 -0.27881195062223929 0.29933781276810989 0 -0.27012212036433481 0.31214758650759877 0 -0.2924146543119901 0.3116850613346358 0 -0.27881195062223929 0.29933781276810989 0 -0.2924146543119901 0.3116850613346358 0 -0.28959787551519278 0.29067792574125922 0 -0.2924146543119901 0.3116850613346358 0 -0.28959787551519278 0.29067792574125922 0 -0.30642843322610652 0.29550664875966659 0 -0.27012212036433481 0.31214758650759877 0 -0.2924146543119901 0.3116850613346358 0 -0.28380469838380828 0.28042418650408302 0 -0.28024395766365567 0.28899621817699978 0 -0.28959787551519278 0.29067792574125922 0 -0.28024395766365567 0.28899621817699978 0 -0.27881195062223929 0.29933781276810989 0 -0.28959787551519278 0.29067792574125922 0 -0.29552206387038488 0.27964727209741919 0 -0.28380469838380828 0.28042418650408302 0 -0.28959787551519278 0.29067792574125922 0 -0.32044221214022189 0.27932823618469671 0 -0.30802621139084863 0.27659197069017671 0 -0.30642843322610652 0.29550664875966659 0 -0.30802621139084863 0.27659197069017671 0 -0.29552206387038488 0.27964727209741919 0 -0.30642843322610652 0.29550664875966659 0 -0.29552206387038488 0.27964727209741919 0 -0.28959787551519278 0.29067792574125922 0 -0.30642843322610652 0.29550664875966659 0 -0.2924146543119901 0.3116850613346358 0 -0.30642843322610652 0.29550664875966659 0 -0.31629505250595707 0.31118959117717832 0 -0.2924146543119901 0.3116850613346358 0 -0.31629505250595707 0.31118959117717832 0 -0.2924146543119901 0.3116850613346358 0 -0.30642843322610652 0.29550664875966659 0 -0.2924146543119901 0.3116850613346358 0 -0.30882106133123949 0.32056215633411839 0 -0.2971290643422228 0.32485142476078183 0 -0.31629505250595707 0.31118959117717832 0 -0.2924146543119901 0.3116850613346358 0 -0.30882106133123949 0.32056215633411839 0 -0.30882106133123949 0.32056215633411839 0 -0.2971290643422228 0.32485142476078183 0 -0.30922896500710489 0.33254293829073778 0 -0.30973893358894211 0.34306483783062047 0 -0.28855403579224798 0.33546542666667339 0 -0.2966478747617009 0.34616052256733792 0 -0.30973893358894211 0.34306483783062047 0 -0.30922896500710489 0.33254293829073778 0 -0.28855403579224798 0.33546542666667339 0 -0.2971290643422228 0.32485142476078183 0 -0.30922896500710489 0.33254293829073778 0 -0.28855403579224798 0.33546542666667339 0 -0.30973893358894211 0.34306483783062047 0 -0.28855403579224798 0.33546542666667339 0 -0.2971290643422228 0.32485142476078183 0 -0.28855403579224798 0.33546542666667339 0 -0.28021741469793432 0.325766343475688 0 -0.28855403579224798 0.33546542666667339 0 -0.28865408854805469 0.34474492707024418 0 -0.2966478747617009 0.34616052256733792 0 -0.28855403579224798 0.33546542666667339 0 -0.28021741469793432 0.325766343475688 0 -0.27985113388608102 0.33775526919145632 0 -0.28855403579224798 0.33546542666667339 0 -0.27985113388608102 0.33775526919145632 0 -0.28865408854805469 0.34474492707024418 0 -0.27985113388608102 0.33775526919145632 0 -0.28865408854805469 0.34474492707024418 0 -0.28209947690864168 0.34709110836246282 0 -0.2924146543119901 0.3116850613346358 0 -0.2971290643422228 0.32485142476078183 0 -0.28021741469793432 0.325766343475688 0 -0.2924146543119901 0.3116850613346358 0 -0.28021741469793432 0.325766343475688 0 -0.27012212036433481 0.31214758650759877 0 -0.2924146543119901 0.3116850613346358 0 -0.28021741469793432 0.325766343475688 0 -0.27012212036433481 0.31214758650759877 0 -0.28021741469793432 0.325766343475688 0 -0.25792488075028341 0.32622886864864642 0 -0.28021741469793432 0.325766343475688 0 -0.26802017508387882 0.33984762561674048 0 -0.28021741469793432 0.325766343475688 0 -0.27985113388608102 0.33775526919145632 0 -0.26802017508387882 0.33984762561674048 0 -0.28021741469793432 0.325766343475688 0 -0.26802017508387882 0.33984762561674048 0 -0.25792488075028341 0.32622886864864642 0 -0.27985113388608102 0.33775526919145632 0 -0.26802017508387882 0.33984762561674048 0 -0.28209947690864168 0.34709110836246282 0 -0.26802017508387882 0.33984762561674048 0 -0.26646652557478839 0.34164125907627868 0 -0.26607420016007771 0.34969094872615508 0 -0.26802017508387882 0.33984762561674048 0 -0.26646652557478839 0.34164125907627868 0 -0.26802017508387882 0.33984762561674048 0 -0.25630673087751638 0.33910533344962401 0 -0.25792488075028341 0.32622886864864642 0 -0.26802017508387882 0.33984762561674048 0 -0.25792488075028341 0.32622886864864642 0 -0.26646652557478839 0.34164125907627868 0 -0.25630673087751638 0.33910533344962401 0 -0.26059469910496191 0.345078007645095 0 -0.26802017508387882 0.33984762561674048 0 -0.26646652557478839 0.34164125907627868 0 -0.25630673087751638 0.33910533344962401 0 -0.25630673087751638 0.33910533344962401 0 -0.25792488075028341 0.32622886864864642 0 -0.24368054773794831 0.32795945494115231 0 -0.27012212036433481 0.31214758650759877 0 -0.25792488075028341 0.32622886864864642 0 -0.24782958641667949 0.31261011168055858 0 -0.25792488075028341 0.32622886864864642 0 -0.24782958641667949 0.31261011168055858 0 -0.26393503510602512 0.36069779179502498 0 -0.25085497189729122 0.36699657159686377 0 -0.25471412628714402 0.35077718333124619 0 -0.26393503510602512 0.36069779179502498 0 -0.25085497189729122 0.36699657159686377 0 -0.26515197413678981 0.3760028326984316 0 -0.25630673087751638 0.33910533344962401 0 -0.25471412628714402 0.35077718333124619 0 -0.26059469910496191 0.345078007645095 0 -0.25630673087751638 0.33910533344962401 0 -0.25471412628714402 0.35077718333124619 0 -0.24271913920463381 0.34172874295787281 0 -0.26646652557478839 0.34164125907627868 0 -0.26059469910496191 0.345078007645095 0 -0.26607420016007771 0.34969094872615508 0 -0.25471412628714402 0.35077718333124619 0 -0.26059469910496191 0.345078007645095 0 -0.26607420016007771 0.34969094872615508 0 -0.26393503510602512 0.36069779179502498 0 -0.25471412628714402 0.35077718333124619 0 -0.26607420016007771 0.34969094872615508 0 -0.26802017508387882 0.33984762561674048 0 -0.28345388135346872 0.36066800864437332 0 -0.28209947690864168 0.34709110836246282 0 -0.26802017508387882 0.33984762561674048 0 -0.28345388135346872 0.36066800864437332 0 -0.26802017508387882 0.33984762561674048 0 -0.26607420016007771 0.34969094872615508 0 -0.28345388135346872 0.36066800864437332 0 -0.26393503510602512 0.36069779179502498 0 -0.26607420016007771 0.34969094872615508 0 -0.28345388135346872 0.36066800864437332 0 -0.28345388135346872 0.36066800864437332 0 -0.27972399840306078 0.38023652484371467 0 -0.26515197413678981 0.3760028326984316 0 -0.26393503510602512 0.36069779179502498 0 -0.28345388135346872 0.36066800864437332 0 -0.26515197413678981 0.3760028326984316 0 -0.28345388135346872 0.36066800864437332 0 -0.26515197413678981 0.3760028326984316 0 -0.28345388135346872 0.36066800864437332 0 -0.29862755390243811 0.38113760090479809 0 -0.27972399840306078 0.38023652484371467 0 -0.28345388135346872 0.36066800864437332 0 -0.29766823423305738 0.36342685326134322 0 -0.29862755390243811 0.38113760090479809 0 -0.28345388135346872 0.36066800864437332 0 -0.29862755390243811 0.38113760090479809 0 -0.28865408854805469 0.34474492707024418 0 -0.28209947690864168 0.34709110836246282 0 -0.2922450893384666 0.35330202071336048 0 -0.28345388135346872 0.36066800864437332 0 -0.2922450893384666 0.35330202071336048 0 -0.28345388135346872 0.36066800864437332 0 -0.28209947690864168 0.34709110836246282 0 -0.2922450893384666 0.35330202071336048 0 -0.28345388135346872 0.36066800864437332 0 -0.2922450893384666 0.35330202071336048 0 -0.29766823423305738 0.36342685326134322 0 -0.28865408854805469 0.34474492707024418 0 -0.2922450893384666 0.35330202071336048 0 -0.2966478747617009 0.34616052256733792 0 -0.2922450893384666 0.35330202071336048 0 -0.2966478747617009 0.34616052256733792 0 -0.30404722654079319 0.35422540055579088 0 -0.30973893358894211 0.34306483783062047 0 -0.2966478747617009 0.34616052256733792 0 -0.30404722654079319 0.35422540055579088 0 -0.2922450893384666 0.35330202071336048 0 -0.30404722654079319 0.35422540055579088 0 -0.29766823423305738 0.36342685326134322 0 -0.30973893358894211 0.34306483783062047 0 -0.30404722654079319 0.35422540055579088 0 -0.31609341737403929 0.35614697761549419 0 -0.29766823423305738 0.36342685326134322 0 -0.30986968435042339 0.36845527631315789 0 -0.29862755390243811 0.38113760090479809 0 -0.30404722654079319 0.35422540055579088 0 -0.29766823423305738 0.36342685326134322 0 -0.30986968435042339 0.36845527631315789 0 -0.30404722654079319 0.35422540055579088 0 -0.30986968435042339 0.36845527631315789 0 -0.31609341737403929 0.35614697761549419 0 -0.30986968435042339 0.36845527631315789 0 -0.32675662607711209 0.36641536578671541 0 -0.31609341737403929 0.35614697761549419 0 -0.30986968435042339 0.36845527631315789 0 -0.32675662607711209 0.36641536578671541 0 -0.31843651778143811 0.37683389078229518 0 -0.32675662607711209 0.36641536578671541 0 -0.33361533201145471 0.37945721562316481 0 -0.31843651778143811 0.37683389078229518 0 -0.32675662607711209 0.36641536578671541 0 -0.35160097355968151 0.36693458539161189 0 -0.33361533201145471 0.37945721562316481 0 -0.35160097355968151 0.36693458539161189 0 -0.33361533201145471 0.37945721562316481 0 -0.32675662607711209 0.36641536578671541 0 -0.33092383138563602 0.35066424899456838 0 -0.35160097355968151 0.36693458539161189 0 -0.33092383138563602 0.35066424899456838 0 -0.35160097355968151 0.36693458539161189 0 -0.34545826638213861 0.35587801724750279 0 -0.33092383138563602 0.35066424899456838 0 -0.35160097355968151 0.36693458539161189 0 -0.33092383138563602 0.35066424899456838 0 -0.34050150195459222 0.34198803259191152 0 -0.34545826638213861 0.35587801724750279 0 -0.33092383138563602 0.35066424899456838 0 -0.34545826638213861 0.35587801724750279 0 -0.30973893358894211 0.34306483783062047 0 -0.33092383138563602 0.35066424899456838 0 -0.31609341737403929 0.35614697761549419 0 -0.33092383138563602 0.35066424899456838 0 -0.31860566916683702 0.34097138905260199 0 -0.32675662607711209 0.36641536578671541 0 -0.33092383138563602 0.35066424899456838 0 -0.31609341737403929 0.35614697761549419 0 -0.30973893358894211 0.34306483783062047 0 -0.33092383138563602 0.35066424899456838 0 -0.30973893358894211 0.34306483783062047 0 -0.33092383138563602 0.35066424899456838 0 -0.31860566916683702 0.34097138905260199 0 -0.30922896500710489 0.33254293829073778 0 -0.33777949207207758 0.32596651890356321 0 -0.30973893358894211 0.34306483783062047 0 -0.30922896500710489 0.33254293829073778 0 -0.31860566916683702 0.34097138905260199 0 -0.30922896500710489 0.33254293829073778 0 -0.31860566916683702 0.34097138905260199 0 -0.32897403362928829 0.33750853514896212 0 -0.30922896500710489 0.33254293829073778 0 -0.33777949207207758 0.32596651890356321 0 -0.32897403362928829 0.33750853514896212 0 -0.33092383138563602 0.35066424899456838 0 -0.31860566916683702 0.34097138905260199 0 -0.32897403362928829 0.33750853514896212 0 -0.30882106133123949 0.32056215633411839 0 -0.30922896500710489 0.33254293829073778 0 -0.33777949207207758 0.32596651890356321 0 -0.31629505250595707 0.31118959117717832 0 -0.30882106133123949 0.32056215633411839 0 -0.33777949207207758 0.32596651890356321 0 -0.34017545069992428 0.31069412101972249 0 -0.31629505250595707 0.31118959117717832 0 -0.33777949207207758 0.32596651890356321 0 -0.33777949207207758 0.32596651890356321 0 -0.32897403362928829 0.33750853514896212 0 -0.34050150195459222 0.34198803259191152 0 -0.33092383138563602 0.35066424899456838 0 -0.32897403362928829 0.33750853514896212 0 -0.34050150195459222 0.34198803259191152 0 -0.33777949207207758 0.32596651890356321 0 -0.35774048868711372 0.34087918685007967 0 -0.36633001913705038 0.31939009951638858 0 -0.33777949207207758 0.32596651890356321 0 -0.34050150195459222 0.34198803259191152 0 -0.35774048868711372 0.34087918685007967 0 -0.34017545069992428 0.31069412101972249 0 -0.33777949207207758 0.32596651890356321 0 -0.36633001913705038 0.31939009951638858 0 -0.33777949207207758 0.32596651890356321 0 -0.36633001913705038 0.31939009951638858 0 -0.37590499643275432 0.35001273744070133 0 -0.37733466838916191 0.33240587866346949 0 -0.35774048868711372 0.34087918685007967 0 -0.37733466838916191 0.33240587866346949 0 -0.35774048868711372 0.34087918685007967 0 -0.36633001913705038 0.31939009951638858 0 -0.37590499643275432 0.35001273744070133 0 -0.3599927013786407 0.36109178550043841 0 -0.37590499643275432 0.35001273744070133 0 -0.35774048868711372 0.34087918685007967 0 -0.3599927013786407 0.36109178550043841 0 -0.37916374637096312 0.36796879074905048 0 -0.3599927013786407 0.36109178550043841 0 -0.37916374637096312 0.36796879074905048 0 -0.37590499643275432 0.35001273744070133 0 -0.3599927013786407 0.36109178550043841 0 -0.37916374637096312 0.36796879074905048 0 -0.3599927013786407 0.36109178550043841 0 -0.36543970495524369 0.37782394395087537 0 -0.3599927013786407 0.36109178550043841 0 -0.35160097355968151 0.36693458539161189 0 -0.35160097355968151 0.36693458539161189 0 -0.34904178319516749 0.38023045121795568 0 -0.36543970495524369 0.37782394395087537 0 -0.3599927013786407 0.36109178550043841 0 -0.35160097355968151 0.36693458539161189 0 -0.36543970495524369 0.37782394395087537 0 -0.3599927013786407 0.36109178550043841 0 -0.35160097355968151 0.36693458539161189 0 -0.34545826638213861 0.35587801724750279 0 -0.35160097355968151 0.36693458539161189 0 -0.36543970495524369 0.37782394395087537 0 -0.35774048868711372 0.34087918685007967 0 -0.3599927013786407 0.36109178550043841 0 -0.34545826638213861 0.35587801724750279 0 -0.34050150195459222 0.34198803259191152 0 -0.35774048868711372 0.34087918685007967 0 -0.34545826638213861 0.35587801724750279 0 -0.3599927013786407 0.36109178550043841 0 -0.34545826638213861 0.35587801724750279 0 -0.35290503540522938 0.39649171218382562 0 -0.35579704987917832 0.40580095015335138 0 -0.36203045402837147 0.39167543707330071 0 -0.35290503540522938 0.39649171218382562 0 -0.3557161142037556 0.38804364354646409 0 -0.36203045402837147 0.39167543707330071 0 -0.35290503540522938 0.39649171218382562 0 -0.35579704987917832 0.40580095015335138 0 -0.34768229142056939 0.40304768318458323 0 -0.35290503540522938 0.39649171218382562 0 -0.3557161142037556 0.38804364354646409 0 -0.34126740879898149 0.39088358091773401 0 -0.35290503540522938 0.39649171218382562 0 -0.34768229142056939 0.40304768318458323 0 -0.34126740879898149 0.39088358091773401 0 -0.34904178319516749 0.38023045121795568 0 -0.3557161142037556 0.38804364354646409 0 -0.34126740879898149 0.39088358091773401 0 -0.35160097355968151 0.36693458539161189 0 -0.34904178319516749 0.38023045121795568 0 -0.33361533201145471 0.37945721562316481 0 -0.34904178319516749 0.38023045121795568 0 -0.3557161142037556 0.38804364354646409 0 -0.36543970495524369 0.37782394395087537 0 -0.37927843635080682 0.3887133025101378 0 -0.36543970495524369 0.37782394395087537 0 -0.36203045402837147 0.39167543707330071 0 -0.3557161142037556 0.38804364354646409 0 -0.36543970495524369 0.37782394395087537 0 -0.36203045402837147 0.39167543707330071 0 -0.37927843635080682 0.3887133025101378 0 -0.37916374637096312 0.36796879074905048 0 -0.36543970495524369 0.37782394395087537 0 -0.37927843635080682 0.3887133025101378 0 -0.36543970495524369 0.37782394395087537 0 -0.37927843635080682 0.3887133025101378 0 -0.35579704987917832 0.40580095015335138 0 -0.37927843635080682 0.3887133025101378 0 -0.35579704987917832 0.40580095015335138 0 -0.36203045402837147 0.39167543707330071 0 -0.37927843635080682 0.3887133025101378 0 -0.35579704987917832 0.40580095015335138 0 -0.37184609505917388 0.40317754786485999 0 -0.35579704987917832 0.40580095015335138 0 -0.37184609505917388 0.40317754786485999 0 -0.36496628218755978 0.41791261710827948 0 -0.37586449145356821 0.41361807768461889 0 -0.37184609505917388 0.40317754786485999 0 -0.36496628218755978 0.41791261710827948 0 -0.38225027295455011 0.43277755103197579 0 -0.37586449145356821 0.41361807768461889 0 -0.36496628218755978 0.41791261710827948 0 -0.38225027295455011 0.43277755103197579 0 -0.36053647195670668 0.43363444571383358 0 -0.37109403899142601 0.44381905560643731 0 -0.38225027295455011 0.43277755103197579 0 -0.36496628218755978 0.41791261710827948 0 -0.38225027295455011 0.43277755103197579 0 -0.36496628218755978 0.41791261710827948 0 -0.36053647195670668 0.43363444571383358 0 -0.36496628218755978 0.41791261710827948 0 -0.36053647195670668 0.43363444571383358 0 -0.34781954044529712 0.42006378968489277 0 -0.36053647195670668 0.43363444571383358 0 -0.34741448202371961 0.43211808571978638 0 -0.35261796521541039 0.44135790580892742 0 -0.36053647195670668 0.43363444571383358 0 -0.34741448202371961 0.43211808571978638 0 -0.34781954044529712 0.42006378968489277 0 -0.34768229142056939 0.40304768318458323 0 -0.36496628218755978 0.41791261710827948 0 -0.34768229142056939 0.40304768318458323 0 -0.36496628218755978 0.41791261710827948 0 -0.34781954044529712 0.42006378968489277 0 -0.35579704987917832 0.40580095015335138 0 -0.34768229142056939 0.40304768318458323 0 -0.36496628218755978 0.41791261710827948 0 -0.34768229142056939 0.40304768318458323 0 -0.34781954044529712 0.42006378968489277 0 -0.3373428160828485 0.4115931209572275 0 -0.32897489900037857 0.42207678542564669 0 -0.32356025754367851 0.39863184607942392 0 -0.33296742182861588 0.40016396612574601 0 -0.3373428160828485 0.4115931209572275 0 -0.32897489900037857 0.42207678542564669 0 -0.33296742182861588 0.40016396612574601 0 -0.34781954044529712 0.42006378968489277 0 -0.3373428160828485 0.4115931209572275 0 -0.32897489900037857 0.42207678542564669 0 -0.32897489900037857 0.42207678542564669 0 -0.32775830472488088 0.44441218373341812 0 -0.34414857154934891 0.44254637768607119 0 -0.34741448202371961 0.43211808571978638 0 -0.34781954044529712 0.42006378968489277 0 -0.32897489900037857 0.42207678542564669 0 -0.34741448202371961 0.43211808571978638 0 -0.32897489900037857 0.42207678542564669 0 -0.34414857154934891 0.44254637768607119 0 -0.32897489900037857 0.42207678542564669 0 -0.34414857154934891 0.44254637768607119 0 -0.32897489900037857 0.42207678542564669 0 -0.31854873594069288 0.43270971195924363 0 -0.32775830472488088 0.44441218373341812 0 -0.32897489900037857 0.42207678542564669 0 -0.31854873594069288 0.43270971195924363 0 -0.31234731770053398 0.4185437009303436 0 -0.32897489900037857 0.42207678542564669 0 -0.31380122645140829 0.40160719316522242 0 -0.31234731770053398 0.4185437009303436 0 -0.32897489900037857 0.42207678542564669 0 -0.31380122645140829 0.40160719316522242 0 -0.32897489900037857 0.42207678542564669 0 -0.31380122645140829 0.40160719316522242 0 -0.32356025754367851 0.39863184607942392 0 -0.31380122645140829 0.40160719316522242 0 -0.31562969046322759 0.3919798458547174 0 -0.3094026104870915 0.38299279585596269 0 -0.31380122645140829 0.40160719316522242 0 -0.31562969046322759 0.3919798458547174 0 -0.32356025754367851 0.39863184607942392 0 -0.32356025754367851 0.39863184607942392 0 -0.33296742182861588 0.40016396612574601 0 -0.33361533201145471 0.37945721562316481 0 -0.33296742182861588 0.40016396612574601 0 -0.34126740879898149 0.39088358091773401 0 -0.33981498453275383 0.40142208779632271 0 -0.34768229142056939 0.40304768318458323 0 -0.34126740879898149 0.39088358091773401 0 -0.33981498453275383 0.40142208779632271 0 -0.3373428160828485 0.4115931209572275 0 -0.33296742182861588 0.40016396612574601 0 -0.33981498453275383 0.40142208779632271 0 -0.34768229142056939 0.40304768318458323 0 -0.3373428160828485 0.4115931209572275 0 -0.33981498453275383 0.40142208779632271 0 -0.33296742182861588 0.40016396612574601 0 -0.34126740879898149 0.39088358091773401 0 -0.33361533201145471 0.37945721562316481 0 -0.34904178319516749 0.38023045121795568 0 -0.34126740879898149 0.39088358091773401 0 -0.33361533201145471 0.37945721562316481 0 -0.31562969046322759 0.3919798458547174 0 -0.32356025754367851 0.39863184607942392 0 -0.33361533201145471 0.37945721562316481 0 -0.31562969046322759 0.3919798458547174 0 -0.33361533201145471 0.37945721562316481 0 -0.31843651778143811 0.37683389078229518 0 -0.31562969046322759 0.3919798458547174 0 -0.33361533201145471 0.37945721562316481 0 -0.31562969046322759 0.3919798458547174 0 -0.31843651778143811 0.37683389078229518 0 -0.3094026104870915 0.38299279585596269 0 -0.30986968435042339 0.36845527631315789 0 -0.31843651778143811 0.37683389078229518 0 -0.3094026104870915 0.38299279585596269 0 -0.31380122645140829 0.40160719316522242 0 -0.3094026104870915 0.38299279585596269 0 -0.29862755390243811 0.38113760090479809 0 -0.30986968435042339 0.36845527631315789 0 -0.3094026104870915 0.38299279585596269 0 -0.29862755390243811 0.38113760090479809 0 -0.31380122645140829 0.40160719316522242 0 -0.29862755390243811 0.38113760090479809 0 -0.31380122645140829 0.40160719316522242 0 -0.29862755390243811 0.38113760090479809 0 -0.29875481290479761 0.39692609517661448 0 -0.31380122645140829 0.40160719316522242 0 -0.29875481290479761 0.39692609517661448 0 -0.30392638828997631 0.40718733206271518 0 -0.29875481290479761 0.39692609517661448 0 -0.29140095926427889 0.40425633436152958 0 -0.30392638828997631 0.40718733206271518 0 -0.29875481290479761 0.39692609517661448 0 -0.29140095926427889 0.40425633436152958 0 -0.28523908652865798 0.39121654325344662 0 -0.29140095926427889 0.40425633436152958 0 -0.28523908652865798 0.39121654325344662 0 -0.27820516703136239 0.40273208208891598 0 -0.29862755390243811 0.38113760090479809 0 -0.28523908652865798 0.39121654325344662 0 -0.27972399840306078 0.38023652484371467 0 -0.29862755390243811 0.38113760090479809 0 -0.29875481290479761 0.39692609517661448 0 -0.28523908652865798 0.39121654325344662 0 -0.27972399840306078 0.38023652484371467 0 -0.26614749609394939 0.39215763871752368 0 -0.26515197413678981 0.3760028326984316 0 -0.28523908652865798 0.39121654325344662 0 -0.27972399840306078 0.38023652484371467 0 -0.26614749609394939 0.39215763871752368 0 -0.28523908652865798 0.39121654325344662 0 -0.27820516703136239 0.40273208208891598 0 -0.26614749609394939 0.39215763871752368 0 -0.27820516703136239 0.40273208208891598 0 -0.26698902561669341 0.40462332470505641 0 -0.26614749609394939 0.39215763871752368 0 -0.26614749609394939 0.39215763871752368 0 -0.25529022715609978 0.40505602855942868 0 -0.24685006692011099 0.39133765675248999 0 -0.26698902561669341 0.40462332470505641 0 -0.26614749609394939 0.39215763871752368 0 -0.25529022715609978 0.40505602855942868 0 -0.25529022715609978 0.40505602855942868 0 -0.24685006692011099 0.39133765675248999 0 -0.26515197413678981 0.3760028326984316 0 -0.24685006692011099 0.39133765675248999 0 -0.25085497189729122 0.36699657159686377 0 -0.26515197413678981 0.3760028326984316 0 -0.24685006692011099 0.39133765675248999 0 -0.26614749609394939 0.39215763871752368 0 -0.26515197413678981 0.3760028326984316 0 -0.24685006692011099 0.39133765675248999 0 -0.25916036524285641 0.42712043461028509 0 -0.25388615904060829 0.42336714543515402 0 -0.275408131530475 0.42472397070761481 0 -0.25388615904060829 0.42336714543515402 0 -0.275408131530475 0.42472397070761481 0 -0.25916036524285641 0.42712043461028509 0 -0.25877684929408251 0.43696007300084899 0 -0.26742979704650383 0.43401448362235362 0 -0.25877684929408251 0.43696007300084899 0 -0.26742979704650383 0.43401448362235362 0 -0.2697556285788783 0.43909307589361762 0 -0.25877684929408251 0.43696007300084899 0 -0.25264552368118082 0.43036471232322282 0 -0.2478769523507319 0.43708749980195832 0 -0.25916036524285641 0.42712043461028509 0 -0.25877684929408251 0.43696007300084899 0 -0.25264552368118082 0.43036471232322282 0 -0.25264552368118082 0.43036471232322282 0 -0.25388615904060829 0.42336714543515402 0 -0.2443575169500326 0.42990801978412962 0 -0.25916036524285641 0.42712043461028509 0 -0.25264552368118082 0.43036471232322282 0 -0.25388615904060829 0.42336714543515402 0 -0.25388615904060829 0.42336714543515402 0 -0.25452607659170268 0.41420682399965308 0 -0.243712179313125 0.41337763108498299 0 -0.25388615904060829 0.42336714543515402 0 -0.26521574085697802 0.41502649091904692 0 -0.275408131530475 0.42472397070761481 0 -0.25529022715609978 0.40505602855942868 0 -0.25452607659170268 0.41420682399965308 0 -0.243712179313125 0.41337763108498299 0 -0.25529022715609978 0.40505602855942868 0 -0.25452607659170268 0.41420682399965308 0 -0.26521574085697802 0.41502649091904692 0 -0.26698902561669341 0.40462332470505641 0 -0.25529022715609978 0.40505602855942868 0 -0.26521574085697802 0.41502649091904692 0 -0.25388615904060829 0.42336714543515402 0 -0.25452607659170268 0.41420682399965308 0 -0.26521574085697802 0.41502649091904692 0 -0.26521574085697802 0.41502649091904692 0 -0.27587727043951388 0.41360880208090539 0 -0.275408131530475 0.42472397070761481 0 -0.26698902561669341 0.40462332470505641 0 -0.26521574085697802 0.41502649091904692 0 -0.27587727043951388 0.41360880208090539 0 -0.27820516703136239 0.40273208208891598 0 -0.26698902561669341 0.40462332470505641 0 -0.27587727043951388 0.41360880208090539 0 -0.27820516703136239 0.40273208208891598 0 -0.27587727043951388 0.41360880208090539 0 -0.28571632520131041 0.41199733393025939 0 -0.27587727043951388 0.41360880208090539 0 -0.275408131530475 0.42472397070761481 0 -0.28548287011360512 0.42103013752199392 0 -0.25916036524285641 0.42712043461028509 0 -0.26742979704650383 0.43401448362235362 0 -0.28202634507019791 0.43288435098466271 0 -0.25916036524285641 0.42712043461028509 0 -0.275408131530475 0.42472397070761481 0 -0.28202634507019791 0.43288435098466271 0 -0.25916036524285641 0.42712043461028509 0 -0.28202634507019791 0.43288435098466271 0 -0.275408131530475 0.42472397070761481 0 -0.28202634507019791 0.43288435098466271 0 -0.28548287011360512 0.42103013752199392 0 -0.26742979704650383 0.43401448362235362 0 -0.28202634507019791 0.43288435098466271 0 -0.2697556285788783 0.43909307589361762 0 -0.28202634507019791 0.43288435098466271 0 -0.30489232489753942 0.43864826735904039 0 -0.28202634507019791 0.43288435098466271 0 -0.29997692822535632 0.42654913140208511 0 -0.30489232489753942 0.43864826735904039 0 -0.28202634507019791 0.43288435098466271 0 -0.28548287011360512 0.42103013752199392 0 -0.29997692822535632 0.42654913140208511 0 -0.29140095926427889 0.40425633436152958 0 -0.27820516703136239 0.40273208208891598 0 -0.28571632520131041 0.41199733393025939 0 -0.27587727043951388 0.41360880208090539 0 -0.28571632520131041 0.41199733393025939 0 -0.28548287011360512 0.42103013752199392 0 -0.28571632520131041 0.41199733393025939 0 -0.28548287011360512 0.42103013752199392 0 -0.29656397562956871 0.41547861965722671 0 -0.28548287011360512 0.42103013752199392 0 -0.29656397562956871 0.41547861965722671 0 -0.29997692822535632 0.42654913140208511 0 -0.29140095926427889 0.40425633436152958 0 -0.28571632520131041 0.41199733393025939 0 -0.29656397562956871 0.41547861965722671 0 -0.29656397562956871 0.41547861965722671 0 -0.31234731770053398 0.4185437009303436 0 -0.30392638828997631 0.40718733206271518 0 -0.31380122645140829 0.40160719316522242 0 -0.31234731770053398 0.4185437009303436 0 -0.30392638828997631 0.40718733206271518 0 -0.29656397562956871 0.41547861965722671 0 -0.31234731770053398 0.4185437009303436 0 -0.29997692822535632 0.42654913140208511 0 -0.29140095926427889 0.40425633436152958 0 -0.29656397562956871 0.41547861965722671 0 -0.30392638828997631 0.40718733206271518 0 -0.31854873594069288 0.43270971195924363 0 -0.29997692822535632 0.42654913140208511 0 -0.30489232489753942 0.43864826735904039 0 -0.31854873594069288 0.43270971195924363 0 -0.31234731770053398 0.4185437009303436 0 -0.29997692822535632 0.42654913140208511 0 -0.31013594733451511 0.4644424280833897 0 -0.28970829520918367 0.45928240955599953 0 -0.29487480115961762 0.47752720585489489 0 -0.30489232489753942 0.43864826735904039 0 -0.31013594733451511 0.4644424280833897 0 -0.28970829520918367 0.45928240955599953 0 -0.28202634507019791 0.43288435098466271 0 -0.30489232489753942 0.43864826735904039 0 -0.28116305598628261 0.44603919599363989 0 -0.30489232489753942 0.43864826735904039 0 -0.28970829520918367 0.45928240955599953 0 -0.28116305598628261 0.44603919599363989 0 -0.28202634507019791 0.43288435098466271 0 -0.2697556285788783 0.43909307589361762 0 -0.28116305598628261 0.44603919599363989 0 -0.2697556285788783 0.43909307589361762 0 -0.28116305598628261 0.44603919599363989 0 -0.26496223570102839 0.4474471003732608 0 -0.28116305598628261 0.44603919599363989 0 -0.27283118318145688 0.45705290502119361 0 -0.26496223570102839 0.4474471003732608 0 -0.28970829520918367 0.45928240955599953 0 -0.28116305598628261 0.44603919599363989 0 -0.27283118318145688 0.45705290502119361 0 -0.28970829520918367 0.45928240955599953 0 -0.27283118318145688 0.45705290502119361 0 -0.27249940233815761 0.47281456721830778 0 -0.27283118318145688 0.45705290502119361 0 -0.25582292667263201 0.45968125196475967 0 -0.27249940233815761 0.47281456721830778 0 -0.27283118318145688 0.45705290502119361 0 -0.25582292667263201 0.45968125196475967 0 -0.26496223570102839 0.4474471003732608 0 -0.25582292667263201 0.45968125196475967 0 -0.25380366426781198 0.44592563910641969 0 -0.24259414451577949 0.44815725022804509 0 -0.25877684929408251 0.43696007300084899 0 -0.25380366426781198 0.44592563910641969 0 -0.2478769523507319 0.43708749980195832 0 -0.25877684929408251 0.43696007300084899 0 -0.2697556285788783 0.43909307589361762 0 -0.26496223570102839 0.4474471003732608 0 -0.25877684929408251 0.43696007300084899 0 -0.25380366426781198 0.44592563910641969 0 -0.26496223570102839 0.4474471003732608 0 -0.25582292667263201 0.45968125196475967 0 -0.25380366426781198 0.44592563910641969 0 -0.26496223570102839 0.4474471003732608 0 -0.25119871102661279 0.47911727848019359 0 -0.2705977172155889 0.5 0 -0.2413565930529229 0.5 0 -0.25582292667263201 0.45968125196475967 0 -0.25119871102661279 0.47911727848019359 0 -0.27249940233815761 0.47281456721830778 0 -0.25119871102661279 0.47911727848019359 0 -0.27249940233815761 0.47281456721830778 0 -0.2705977172155889 0.5 0 -0.27249940233815761 0.47281456721830778 0 -0.2705977172155889 0.5 0 -0.29487480115961762 0.47752720585489489 0 -0.2705977172155889 0.5 0 -0.29487480115961762 0.47752720585489489 0 -0.29983884137825489 0.5 0 -0.28970829520918367 0.45928240955599953 0 -0.27249940233815761 0.47281456721830778 0 -0.29487480115961762 0.47752720585489489 0 -0.31013594733451511 0.4644424280833897 0 -0.29487480115961762 0.47752720585489489 0 -0.31412561132294242 0.48246555271501829 0 -0.29487480115961762 0.47752720585489489 0 -0.29983884137825489 0.5 0 -0.31412561132294242 0.48246555271501829 0 -0.29983884137825489 0.5 0 -0.329079965540921 0.5 0 -0.31412561132294242 0.48246555271501829 0 -0.329079965540921 0.5 0 -0.33278353920875392 0.47227434879775237 0 -0.31412561132294242 0.48246555271501829 0 -0.329079965540921 0.5 0 -0.33278353920875392 0.47227434879775237 0 -0.34722558077557331 0.48454409982940599 0 -0.33278353920875392 0.47227434879775237 0 -0.34599540114916882 0.46248927245782928 0 -0.34998130989911957 0.47187613450834898 0 -0.33278353920875392 0.47227434879775237 0 -0.34722558077557331 0.48454409982940599 0 -0.34998130989911957 0.47187613450834898 0 -0.31013594733451511 0.4644424280833897 0 -0.33278353920875392 0.47227434879775237 0 -0.31412561132294242 0.48246555271501829 0 -0.31013594733451511 0.4644424280833897 0 -0.33278353920875392 0.47227434879775237 0 -0.32361549512725202 0.45685599654282999 0 -0.30489232489753942 0.43864826735904039 0 -0.31013594733451511 0.4644424280833897 0 -0.32361549512725202 0.45685599654282999 0 -0.30489232489753942 0.43864826735904039 0 -0.32361549512725202 0.45685599654282999 0 -0.32775830472488088 0.44441218373341812 0 -0.30489232489753942 0.43864826735904039 0 -0.32775830472488088 0.44441218373341812 0 -0.31854873594069288 0.43270971195924363 0 -0.30489232489753942 0.43864826735904039 0 -0.32775830472488088 0.44441218373341812 0 -0.32775830472488088 0.44441218373341812 0 -0.35062428455222228 0.45017610010779568 0 -0.32775830472488088 0.44441218373341812 0 -0.33660481045566942 0.45706547252686192 0 -0.35062428455222228 0.45017610010779568 0 -0.32775830472488088 0.44441218373341812 0 -0.34414857154934891 0.44254637768607119 0 -0.35062428455222228 0.45017610010779568 0 -0.32361549512725202 0.45685599654282999 0 -0.32775830472488088 0.44441218373341812 0 -0.33660481045566942 0.45706547252686192 0 -0.33278353920875392 0.47227434879775237 0 -0.32361549512725202 0.45685599654282999 0 -0.33660481045566942 0.45706547252686192 0 -0.33278353920875392 0.47227434879775237 0 -0.33660481045566942 0.45706547252686192 0 -0.34599540114916882 0.46248927245782928 0 -0.33660481045566942 0.45706547252686192 0 -0.34599540114916882 0.46248927245782928 0 -0.35062428455222228 0.45017610010779568 0 -0.35062428455222228 0.45017610010779568 0 -0.36036601599505491 0.44831451981714998 0 -0.3599830616300787 0.46105430634838751 0 -0.34599540114916882 0.46248927245782928 0 -0.35062428455222228 0.45017610010779568 0 -0.3599830616300787 0.46105430634838751 0 -0.34599540114916882 0.46248927245782928 0 -0.3599830616300787 0.46105430634838751 0 -0.34998130989911957 0.47187613450834898 0 -0.34741448202371961 0.43211808571978638 0 -0.34414857154934891 0.44254637768607119 0 -0.35261796521541039 0.44135790580892742 0 -0.34414857154934891 0.44254637768607119 0 -0.35062428455222228 0.45017610010779568 0 -0.35261796521541039 0.44135790580892742 0 -0.35062428455222228 0.45017610010779568 0 -0.35261796521541039 0.44135790580892742 0 -0.36036601599505491 0.44831451981714998 0 -0.36053647195670668 0.43363444571383358 0 -0.35261796521541039 0.44135790580892742 0 -0.36036601599505491 0.44831451981714998 0 -0.36053647195670668 0.43363444571383358 0 -0.36036601599505491 0.44831451981714998 0 -0.37109403899142601 0.44381905560643731 0 -0.36036601599505491 0.44831451981714998 0 -0.37109403899142601 0.44381905560643731 0 -0.36996791798041612 0.45353039050696747 0 -0.38234951607040218 0.45083837096225993 0 -0.37109403899142601 0.44381905560643731 0 -0.36996791798041612 0.45353039050696747 0 -0.37725121370120612 0.46743008948694897 0 -0.3599830616300787 0.46105430634838751 0 -0.36996791798041612 0.45353039050696747 0 -0.36036601599505491 0.44831451981714998 0 -0.3599830616300787 0.46105430634838751 0 -0.36996791798041612 0.45353039050696747 0 -0.37642525030549118 0.48697858337281119 0 -0.37725121370120612 0.46743008948694897 0 -0.36153125100250932 0.47864720225765028 0 -0.37725121370120612 0.46743008948694897 0 -0.3599830616300787 0.46105430634838751 0 -0.36153125100250932 0.47864720225765028 0 -0.37642525030549118 0.48697858337281119 0 -0.36153125100250932 0.47864720225765028 0 -0.358321089703587 0.5 0 -0.37642525030549118 0.48697858337281119 0 -0.387562213866253 0.5 0 -0.358321089703587 0.5 0 -0.329079965540921 0.5 0 -0.358321089703587 0.5 0 -0.34722558077557331 0.48454409982940599 0 -0.36153125100250932 0.47864720225765028 0 -0.358321089703587 0.5 0 -0.34722558077557331 0.48454409982940599 0 -0.3599830616300787 0.46105430634838751 0 -0.36153125100250932 0.47864720225765028 0 -0.34998130989911957 0.47187613450834898 0 -0.36153125100250932 0.47864720225765028 0 -0.34722558077557331 0.48454409982940599 0 -0.34998130989911957 0.47187613450834898 0 -0.1418668696370623 0.48149962721235018 0 -0.14975464368560401 0.46816185208504429 0 -0.1628345655853729 0.48285504223694731 0 -0.1418668696370623 0.48149962721235018 0 -0.13679343415293199 0.46785292278959872 0 -0.14975464368560401 0.46816185208504429 0 -0.1418668696370623 0.48149962721235018 0 -0.15363322056492479 0.5 0 -0.1628345655853729 0.48285504223694731 0 -0.1418668696370623 0.48149962721235018 0 -0.1248073326255514 0.47607895861677529 0 -0.1243920964022588 0.5 0 -0.1418668696370623 0.48149962721235018 0 -0.15363322056492479 0.5 0 -0.1243920964022588 0.5 0 -0.1418668696370623 0.48149962721235018 0 -0.13679343415293199 0.46785292278959872 0 -0.1248073326255514 0.47607895861677529 0 -0.12586151078380181 0.45797273389188708 0 -0.1325221618618912 0.44629436581552218 0 -0.1416768140326404 0.45555144214193649 0 -0.12586151078380181 0.45797273389188708 0 -0.13679343415293199 0.46785292278959872 0 -0.1416768140326404 0.45555144214193649 0 -0.12586151078380181 0.45797273389188708 0 -0.13679343415293199 0.46785292278959872 0 -0.1248073326255514 0.47607895861677529 0 -0.1325221618618912 0.44629436581552218 0 -0.1530653275498722 0.44456898546354418 0 -0.12927579944994311 0.42929022474158463 0 -0.1325221618618912 0.44629436581552218 0 -0.1530653275498722 0.44456898546354418 0 -0.1416768140326404 0.45555144214193649 0 -0.1530653275498722 0.44456898546354418 0 -0.1416768140326404 0.45555144214193649 0 -0.15712690746067459 0.45895837740547651 0 -0.1530653275498722 0.44456898546354418 0 -0.15712690746067459 0.45895837740547651 0 -0.13679343415293199 0.46785292278959872 0 -0.1416768140326404 0.45555144214193649 0 -0.14975464368560401 0.46816185208504429 0 -0.1416768140326404 0.45555144214193649 0 -0.14975464368560401 0.46816185208504429 0 -0.15712690746067459 0.45895837740547651 0 -0.14975464368560401 0.46816185208504429 0 -0.15712690746067459 0.45895837740547651 0 -0.16799155537577121 0.46781116864840988 0 -0.15712690746067459 0.45895837740547651 0 -0.16741914907498939 0.45604492425268017 0 -0.16020917085405251 0.449157099696885 0 -0.15712690746067459 0.45895837740547651 0 -0.16741914907498939 0.45604492425268017 0 -0.16799155537577121 0.46781116864840988 0 -0.1530653275498722 0.44456898546354418 0 -0.16020917085405251 0.449157099696885 0 -0.16513981818224779 0.43362426573443702 0 -0.1530653275498722 0.44456898546354418 0 -0.15712690746067459 0.45895837740547651 0 -0.16020917085405251 0.449157099696885 0 -0.1530653275498722 0.44456898546354418 0 -0.16020917085405251 0.449157099696885 0 -0.16741914907498939 0.45604492425268017 0 -0.16020917085405251 0.449157099696885 0 -0.17117976150598349 0.44532388410472512 0 -0.16020917085405251 0.449157099696885 0 -0.17117976150598349 0.44532388410472512 0 -0.16513981818224779 0.43362426573443702 0 -0.17117976150598349 0.44532388410472512 0 -0.1817548328453317 0.43936909470976171 0 -0.18418963309777259 0.46007197020669122 0 -0.1817548328453317 0.43936909470976171 0 -0.18418963309777259 0.46007197020669122 0 -0.17117976150598349 0.44532388410472512 0 -0.1817548328453317 0.43936909470976171 0 -0.16513981818224779 0.43362426573443702 0 -0.16741914907498939 0.45604492425268017 0 -0.16799155537577121 0.46781116864840988 0 -0.18418963309777259 0.46007197020669122 0 -0.16741914907498939 0.45604492425268017 0 -0.17117976150598349 0.44532388410472512 0 -0.18418963309777259 0.46007197020669122 0 -0.16799155537577121 0.46781116864840988 0 -0.18418963309777259 0.46007197020669122 0 -0.1866244333502135 0.48077484570362078 0 -0.18418963309777259 0.46007197020669122 0 -0.1866244333502135 0.48077484570362078 0 -0.16799155537577121 0.46781116864840988 0 -0.1866244333502135 0.48077484570362078 0 -0.1628345655853729 0.48285504223694731 0 -0.14975464368560401 0.46816185208504429 0 -0.16799155537577121 0.46781116864840988 0 -0.1628345655853729 0.48285504223694731 0 -0.15363322056492479 0.5 0 -0.1628345655853729 0.48285504223694731 0 -0.18287434472759079 0.5 0 -0.1866244333502135 0.48077484570362078 0 -0.1628345655853729 0.48285504223694731 0 -0.18287434472759079 0.5 0 -0.1866244333502135 0.48077484570362078 0 -0.18287434472759079 0.5 0 -0.20371188393309531 0.48317042269320898 0 -0.18287434472759079 0.5 0 -0.20371188393309531 0.48317042269320898 0 -0.2121154688902569 0.5 0 -0.18418963309777259 0.46007197020669122 0 -0.1866244333502135 0.48077484570362078 0 -0.19860381669761429 0.46887137564265191 0 -0.1866244333502135 0.48077484570362078 0 -0.19860381669761429 0.46887137564265191 0 -0.20371188393309531 0.48317042269320898 0 -0.19860381669761429 0.46887137564265191 0 -0.20371188393309531 0.48317042269320898 0 -0.2153760365122363 0.46689884747647081 0 -0.20371188393309531 0.48317042269320898 0 -0.22667720342065989 0.48247746733651109 0 -0.2153760365122363 0.46689884747647081 0 -0.20371188393309531 0.48317042269320898 0 -0.2121154688902569 0.5 0 -0.22667720342065989 0.48247746733651109 0 -0.2121154688902569 0.5 0 -0.22667720342065989 0.48247746733651109 0 -0.2413565930529229 0.5 0 -0.22667720342065989 0.48247746733651109 0 -0.23688819234987191 0.46344442105495548 0 -0.2153760365122363 0.46689884747647081 0 -0.25119871102661279 0.47911727848019359 0 -0.22667720342065989 0.48247746733651109 0 -0.23688819234987191 0.46344442105495548 0 -0.25119871102661279 0.47911727848019359 0 -0.22667720342065989 0.48247746733651109 0 -0.2413565930529229 0.5 0 -0.24259414451577949 0.44815725022804509 0 -0.2478769523507319 0.43708749980195832 0 -0.23501476312690059 0.43671042119761971 0 -0.25380366426781198 0.44592563910641969 0 -0.24259414451577949 0.44815725022804509 0 -0.2478769523507319 0.43708749980195832 0 -0.24259414451577949 0.44815725022804509 0 -0.23688819234987191 0.46344442105495548 0 -0.2252725007803966 0.45059640594735051 0 -0.25582292667263201 0.45968125196475967 0 -0.25119871102661279 0.47911727848019359 0 -0.23688819234987191 0.46344442105495548 0 -0.25582292667263201 0.45968125196475967 0 -0.24259414451577949 0.44815725022804509 0 -0.23688819234987191 0.46344442105495548 0 -0.23688819234987191 0.46344442105495548 0 -0.2252725007803966 0.45059640594735051 0 -0.2153760365122363 0.46689884747647081 0 -0.2252725007803966 0.45059640594735051 0 -0.2184535020861294 0.43512264227780362 0 -0.23501476312690059 0.43671042119761971 0 -0.24259414451577949 0.44815725022804509 0 -0.2252725007803966 0.45059640594735051 0 -0.23501476312690059 0.43671042119761971 0 -0.2252725007803966 0.45059640594735051 0 -0.20362793026588319 0.45069128276052062 0 -0.2184535020861294 0.43512264227780362 0 -0.20362793026588319 0.45069128276052062 0 -0.20195192051702049 0.43309927433796952 0 -0.2184535020861294 0.43512264227780362 0 -0.2252725007803966 0.45059640594735051 0 -0.20362793026588319 0.45069128276052062 0 -0.2153760365122363 0.46689884747647081 0 -0.19860381669761429 0.46887137564265191 0 -0.20362793026588319 0.45069128276052062 0 -0.2153760365122363 0.46689884747647081 0 -0.18418963309777259 0.46007197020669122 0 -0.19860381669761429 0.46887137564265191 0 -0.20362793026588319 0.45069128276052062 0 -0.1817548328453317 0.43936909470976171 0 -0.18418963309777259 0.46007197020669122 0 -0.20362793026588319 0.45069128276052062 0 -0.1817548328453317 0.43936909470976171 0 -0.20362793026588319 0.45069128276052062 0 -0.20195192051702049 0.43309927433796952 0 -0.1817548328453317 0.43936909470976171 0 -0.20195192051702049 0.43309927433796952 0 -0.19508112332688321 0.41965985705153069 0 -0.20195192051702049 0.43309927433796952 0 -0.19508112332688321 0.41965985705153069 0 -0.21084221406087511 0.42065349489023091 0 -0.19508112332688321 0.41965985705153069 0 -0.21084221406087511 0.42065349489023091 0 -0.19699472800860349 0.39432926225404358 0 -0.19508112332688321 0.41965985705153069 0 -0.19699472800860349 0.39432926225404358 0 -0.18690247093724441 0.40614859801832132 0 -0.19508112332688321 0.41965985705153069 0 -0.21084221406087511 0.42065349489023091 0 -0.21084221406087511 0.42065349489023091 0 -0.19699472800860349 0.39432926225404358 0 -0.21084221406087511 0.42065349489023091 0 -0.22754719883283581 0.40751116710595198 0 -0.21308980529991009 0.40263548466506027 0 -0.20195192051702049 0.43309927433796952 0 -0.21084221406087511 0.42065349489023091 0 -0.2184535020861294 0.43512264227780362 0 -0.21084221406087511 0.42065349489023091 0 -0.2184535020861294 0.43512264227780362 0 -0.21084221406087511 0.42065349489023091 0 -0.2184535020861294 0.43512264227780362 0 -0.23236418655074159 0.42201032016269319 0 -0.2184535020861294 0.43512264227780362 0 -0.23236418655074159 0.42201032016269319 0 -0.23501476312690059 0.43671042119761971 0 -0.21084221406087511 0.42065349489023091 0 -0.23236418655074159 0.42201032016269319 0 -0.21084221406087511 0.42065349489023091 0 -0.23236418655074159 0.42201032016269319 0 -0.22754719883283581 0.40751116710595198 0 -0.23236418655074159 0.42201032016269319 0 -0.22754719883283581 0.40751116710595198 0 -0.243712179313125 0.41337763108498299 0 -0.25388615904060829 0.42336714543515402 0 -0.23236418655074159 0.42201032016269319 0 -0.243712179313125 0.41337763108498299 0 -0.25388615904060829 0.42336714543515402 0 -0.23236418655074159 0.42201032016269319 0 -0.25388615904060829 0.42336714543515402 0 -0.23236418655074159 0.42201032016269319 0 -0.2443575169500326 0.42990801978412962 0 -0.2478769523507319 0.43708749980195832 0 -0.2443575169500326 0.42990801978412962 0 -0.23501476312690059 0.43671042119761971 0 -0.25264552368118082 0.43036471232322282 0 -0.2478769523507319 0.43708749980195832 0 -0.2443575169500326 0.42990801978412962 0 -0.23236418655074159 0.42201032016269319 0 -0.2443575169500326 0.42990801978412962 0 -0.23501476312690059 0.43671042119761971 0 -0.24685006692011099 0.39133765675248999 0 -0.22875065235671749 0.38204888576230051 0 -0.23162633693510051 0.36659348337384201 0 -0.24685006692011099 0.39133765675248999 0 -0.23162633693510051 0.36659348337384201 0 -0.24685006692011099 0.39133765675248999 0 -0.22910268802733541 0.39285156190238191 0 -0.22875065235671749 0.38204888576230051 0 -0.22754719883283581 0.40751116710595198 0 -0.24685006692011099 0.39133765675248999 0 -0.22910268802733541 0.39285156190238191 0 -0.25529022715609978 0.40505602855942868 0 -0.243712179313125 0.41337763108498299 0 -0.24685006692011099 0.39133765675248999 0 -0.22754719883283581 0.40751116710595198 0 -0.24685006692011099 0.39133765675248999 0 -0.22754719883283581 0.40751116710595198 0 -0.243712179313125 0.41337763108498299 0 -0.24685006692011099 0.39133765675248999 0 -0.22754719883283581 0.40751116710595198 0 -0.22164975766532921 0.39765987670381492 0 -0.21308980529991009 0.40263548466506027 0 -0.22754719883283581 0.40751116710595198 0 -0.22910268802733541 0.39285156190238191 0 -0.22164975766532921 0.39765987670381492 0 -0.22910268802733541 0.39285156190238191 0 -0.22164975766532921 0.39765987670381492 0 -0.21864358793183281 0.38777012403802952 0 -0.22910268802733541 0.39285156190238191 0 -0.22875065235671749 0.38204888576230051 0 -0.21864358793183281 0.38777012403802952 0 -0.22875065235671749 0.38204888576230051 0 -0.21313549045071359 0.37644102821443892 0 -0.23162633693510051 0.36659348337384201 0 -0.22875065235671749 0.38204888576230051 0 -0.21313549045071359 0.37644102821443892 0 -0.21864358793183281 0.38777012403802952 0 -0.21313549045071359 0.37644102821443892 0 -0.19699472800860349 0.39432926225404358 0 -0.2001314422896959 0.3758749862682132 0 -0.21313549045071359 0.37644102821443892 0 -0.21864358793183281 0.38777012403802952 0 -0.19699472800860349 0.39432926225404358 0 -0.21084221406087511 0.42065349489023091 0 -0.21308980529991009 0.40263548466506027 0 -0.19699472800860349 0.39432926225404358 0 -0.21864358793183281 0.38777012403802952 0 -0.21308980529991009 0.40263548466506027 0 -0.19699472800860349 0.39432926225404358 0 -0.22164975766532921 0.39765987670381492 0 -0.21864358793183281 0.38777012403802952 0 -0.21308980529991009 0.40263548466506027 0 -0.19699472800860349 0.39432926225404358 0 -0.18398917625309061 0.39310018283721748 0 -0.18690247093724441 0.40614859801832132 0 -0.19699472800860349 0.39432926225404358 0 -0.18314724195632909 0.36800502961785792 0 -0.19699472800860349 0.39432926225404358 0 -0.2001314422896959 0.3758749862682132 0 -0.18314724195632909 0.36800502961785792 0 -0.19699472800860349 0.39432926225404358 0 -0.18286330577929349 0.38009127382120811 0 -0.18314724195632909 0.36800502961785792 0 -0.19699472800860349 0.39432926225404358 0 -0.18286330577929349 0.38009127382120811 0 -0.18398917625309061 0.39310018283721748 0 -0.18286330577929349 0.38009127382120811 0 -0.17503337691176971 0.38221719273705179 0 -0.15848455632842021 0.37874517255958839 0 -0.18286330577929349 0.38009127382120811 0 -0.17503337691176971 0.38221719273705179 0 -0.18398917625309061 0.39310018283721748 0 -0.18286330577929349 0.38009127382120811 0 -0.15848455632842021 0.37874517255958839 0 -0.17503337691176971 0.38221719273705179 0 -0.15848455632842021 0.37874517255958839 0 -0.16324781917143419 0.39116118111933212 0 -0.18286330577929349 0.38009127382120811 0 -0.15848455632842021 0.37874517255958839 0 -0.17217008453624399 0.37221014176153561 0 -0.15848455632842021 0.37874517255958839 0 -0.16324781917143419 0.39116118111933212 0 -0.15018649647090879 0.38950442627596499 0 -0.17503337691176971 0.38221719273705179 0 -0.16324781917143419 0.39116118111933212 0 -0.17717670475233019 0.400441705974942 0 -0.16324781917143419 0.39116118111933212 0 -0.17717670475233019 0.400441705974942 0 -0.1554684797223406 0.40326129551436968 0 -0.16324781917143419 0.39116118111933212 0 -0.15018649647090879 0.38950442627596499 0 -0.1554684797223406 0.40326129551436968 0 -0.17503337691176971 0.38221719273705179 0 -0.17717670475233019 0.400441705974942 0 -0.18398917625309061 0.39310018283721748 0 -0.17503337691176971 0.38221719273705179 0 -0.17717670475233019 0.400441705974942 0 -0.17717670475233019 0.400441705974942 0 -0.18398917625309061 0.39310018283721748 0 -0.18690247093724441 0.40614859801832132 0 -0.19508112332688321 0.41965985705153069 0 -0.18690247093724441 0.40614859801832132 0 -0.17932003259289131 0.41866621921283209 0 -0.17717670475233019 0.400441705974942 0 -0.18690247093724441 0.40614859801832132 0 -0.17932003259289131 0.41866621921283209 0 -0.19508112332688321 0.41965985705153069 0 -0.17932003259289131 0.41866621921283209 0 -0.17717670475233019 0.400441705974942 0 -0.17932003259289131 0.41866621921283209 0 -0.16223293311247269 0.41758898484599771 0 -0.17717670475233019 0.400441705974942 0 -0.17932003259289131 0.41866621921283209 0 -0.1817548328453317 0.43936909470976171 0 -0.17932003259289131 0.41866621921283209 0 -0.16513981818224779 0.43362426573443702 0 -0.1817548328453317 0.43936909470976171 0 -0.19508112332688321 0.41965985705153069 0 -0.17932003259289131 0.41866621921283209 0 -0.1817548328453317 0.43936909470976171 0 -0.17932003259289131 0.41866621921283209 0 -0.16513981818224779 0.43362426573443702 0 -0.16223293311247269 0.41758898484599771 0 -0.14514583363205399 0.41651175047916578 0 -0.17932003259289131 0.41866621921283209 0 -0.16513981818224779 0.43362426573443702 0 -0.16223293311247269 0.41758898484599771 0 -0.17717670475233019 0.400441705974942 0 -0.16223293311247269 0.41758898484599771 0 -0.1554684797223406 0.40326129551436968 0 -0.17932003259289131 0.41866621921283209 0 -0.16223293311247269 0.41758898484599771 0 -0.16223293311247269 0.41758898484599771 0 -0.14514583363205399 0.41651175047916578 0 -0.16223293311247269 0.41758898484599771 0 -0.14514583363205399 0.41651175047916578 0 -0.1554684797223406 0.40326129551436968 0 -0.14514583363205399 0.41651175047916578 0 -0.139625820254802 0.39695541088856651 0 -0.1530653275498722 0.44456898546354418 0 -0.12927579944994311 0.42929022474158463 0 -0.1530653275498722 0.44456898546354418 0 -0.14514583363205399 0.41651175047916578 0 -0.12927579944994311 0.42929022474158463 0 -0.1530653275498722 0.44456898546354418 0 -0.14514583363205399 0.41651175047916578 0 -0.1530653275498722 0.44456898546354418 0 -0.16513981818224779 0.43362426573443702 0 -0.14514583363205399 0.41651175047916578 0 -0.14514583363205399 0.41651175047916578 0 -0.12531605249103381 0.41526160724939642 0 -0.139625820254802 0.39695541088856651 0 -0.14514583363205399 0.41651175047916578 0 -0.12927579944994311 0.42929022474158463 0 -0.12531605249103381 0.41526160724939642 0 -0.14514583363205399 0.41651175047916578 0 -0.12531605249103381 0.41526160724939642 0 -0.12531605249103381 0.41526160724939642 0 -0.139625820254802 0.39695541088856651 0 -0.1185131256585881 0.39649428645488988 0 -0.139625820254802 0.39695541088856651 0 -0.13410580687754689 0.37739907129796813 0 -0.139625820254802 0.39695541088856651 0 -0.13410580687754689 0.37739907129796813 0 -0.1185131256585881 0.39649428645488988 0 -0.15848455632842021 0.37874517255958839 0 -0.13410580687754689 0.37739907129796813 0 -0.15018649647090879 0.38950442627596499 0 -0.15848455632842021 0.37874517255958839 0 -0.13410580687754689 0.37739907129796813 0 -0.139625820254802 0.39695541088856651 0 -0.13410580687754689 0.37739907129796813 0 -0.15018649647090879 0.38950442627596499 0 -0.139625820254802 0.39695541088856651 0 -0.15018649647090879 0.38950442627596499 0 -0.1554684797223406 0.40326129551436968 0 -0.14514583363205399 0.41651175047916578 0 -0.139625820254802 0.39695541088856651 0 -0.1554684797223406 0.40326129551436968 0 -0.15355624598107601 0.34898037664309173 0 -0.14706402691122331 0.3641478447064973 0 -0.16418523408093311 0.36199909104748762 0 -0.15355624598107601 0.34898037664309173 0 -0.14706402691122331 0.3641478447064973 0 -0.12681378854039749 0.3515648609154628 0 -0.15355624598107601 0.34898037664309173 0 -0.12681378854039749 0.3515648609154628 0 -0.14383355742259929 0.33374101417451812 0 -0.15848455632842021 0.37874517255958839 0 -0.13410580687754689 0.37739907129796813 0 -0.14706402691122331 0.3641478447064973 0 -0.13410580687754689 0.37739907129796813 0 -0.12681378854039749 0.3515648609154628 0 -0.13410580687754689 0.37739907129796813 0 -0.14706402691122331 0.3641478447064973 0 -0.12681378854039749 0.3515648609154628 0 -0.12681378854039749 0.3515648609154628 0 -0.14383355742259929 0.33374101417451812 0 -0.11952177020324629 0.32573065053295791 0 -0.1382715025484135 0.31461125521349631 0 -0.14383355742259929 0.33374101417451812 0 -0.11952177020324629 0.32573065053295791 0 -0.1382715025484135 0.31461125521349631 0 -0.12872666223844931 0.30306132065797048 0 -0.11952177020324629 0.32573065053295791 0 -0.1382715025484135 0.31461125521349631 0 -0.15545226985178029 0.31535656434548642 0 -0.14383355742259929 0.33374101417451812 0 -0.15545226985178029 0.31535656434548642 0 -0.14383355742259929 0.33374101417451812 0 -0.16929975590405469 0.34168079698167209 0 -0.15355624598107601 0.34898037664309173 0 -0.14383355742259929 0.33374101417451812 0 -0.16929975590405469 0.34168079698167209 0 -0.15545226985178029 0.31535656434548642 0 -0.16929975590405469 0.34168079698167209 0 -0.15545226985178029 0.31535656434548642 0 -0.17126572548504229 0.32614304593322091 0 -0.1679152812389918 0.31499214503199269 0 -0.15545226985178029 0.31535656434548642 0 -0.16929975590405469 0.34168079698167209 0 -0.17126572548504229 0.32614304593322091 0 -0.15545226985178029 0.31535656434548642 0 -0.1679152812389918 0.31499214503199269 0 -0.16160025389916349 0.30765039886189438 0 -0.18231746204768201 0.32119443961216299 0 -0.19130551644248531 0.32162952208531997 0 -0.17484486148816419 0.29728686113846309 0 -0.17126572548504229 0.32614304593322091 0 -0.1679152812389918 0.31499214503199269 0 -0.18231746204768201 0.32119443961216299 0 -0.18231746204768201 0.32119443961216299 0 -0.18134385838270281 0.33749128369478992 0 -0.19827639916838161 0.34238086348036828 0 -0.16929975590405469 0.34168079698167209 0 -0.18134385838270281 0.33749128369478992 0 -0.1855822537992344 0.34999655080010739 0 -0.17126572548504229 0.32614304593322091 0 -0.18231746204768201 0.32119443961216299 0 -0.18134385838270281 0.33749128369478992 0 -0.16929975590405469 0.34168079698167209 0 -0.17126572548504229 0.32614304593322091 0 -0.18134385838270281 0.33749128369478992 0 -0.16929975590405469 0.34168079698167209 0 -0.1855822537992344 0.34999655080010739 0 -0.18314724195632909 0.36800502961785792 0 -0.16929975590405469 0.34168079698167209 0 -0.16418523408093311 0.36199909104748762 0 -0.18314724195632909 0.36800502961785792 0 -0.16929975590405469 0.34168079698167209 0 -0.18314724195632909 0.36800502961785792 0 -0.15355624598107601 0.34898037664309173 0 -0.16929975590405469 0.34168079698167209 0 -0.16418523408093311 0.36199909104748762 0 -0.15848455632842021 0.37874517255958839 0 -0.16418523408093311 0.36199909104748762 0 -0.17217008453624399 0.37221014176153561 0 -0.15848455632842021 0.37874517255958839 0 -0.14706402691122331 0.3641478447064973 0 -0.16418523408093311 0.36199909104748762 0 -0.16418523408093311 0.36199909104748762 0 -0.17217008453624399 0.37221014176153561 0 -0.18314724195632909 0.36800502961785792 0 -0.18286330577929349 0.38009127382120811 0 -0.17217008453624399 0.37221014176153561 0 -0.18314724195632909 0.36800502961785792 0 -0.1855822537992344 0.34999655080010739 0 -0.18314724195632909 0.36800502961785792 0 -0.1958440135847038 0.36042478022584862 0 -0.2001314422896959 0.3758749862682132 0 -0.18314724195632909 0.36800502961785792 0 -0.1958440135847038 0.36042478022584862 0 -0.1855822537992344 0.34999655080010739 0 -0.1958440135847038 0.36042478022584862 0 -0.19827639916838161 0.34238086348036828 0 -0.1958440135847038 0.36042478022584862 0 -0.2142353362890812 0.36356728734857369 0 -0.19827639916838161 0.34238086348036828 0 -0.2142353362890812 0.36356728734857369 0 -0.19827639916838161 0.34238086348036828 0 -0.2142353362890812 0.36356728734857369 0 -0.21640260695008881 0.34184930999519469 0 -0.19827639916838161 0.34238086348036828 0 -0.2001314422896959 0.3758749862682132 0 -0.1958440135847038 0.36042478022584862 0 -0.2142353362890812 0.36356728734857369 0 -0.21313549045071359 0.37644102821443892 0 -0.2001314422896959 0.3758749862682132 0 -0.2142353362890812 0.36356728734857369 0 -0.21313549045071359 0.37644102821443892 0 -0.2142353362890812 0.36356728734857369 0 -0.23162633693510051 0.36659348337384201 0 -0.23162633693510051 0.36659348337384201 0 -0.21640260695008881 0.34184930999519469 0 -0.23162633693510051 0.36659348337384201 0 -0.2322332992430976 0.34813002506569629 0 -0.21640260695008881 0.34184930999519469 0 -0.2142353362890812 0.36356728734857369 0 -0.23162633693510051 0.36659348337384201 0 -0.21640260695008881 0.34184930999519469 0 -0.25085497189729122 0.36699657159686377 0 -0.25471412628714402 0.35077718333124619 0 -0.24171084963275449 0.35713765635886879 0 -0.23162633693510051 0.36659348337384201 0 -0.2322332992430976 0.34813002506569629 0 -0.24171084963275449 0.35713765635886879 0 -0.2322332992430976 0.34813002506569629 0 -0.24171084963275449 0.35713765635886879 0 -0.24271913920463381 0.34172874295787281 0 -0.25471412628714402 0.35077718333124619 0 -0.24171084963275449 0.35713765635886879 0 -0.24271913920463381 0.34172874295787281 0 -0.25085497189729122 0.36699657159686377 0 -0.24685006692011099 0.39133765675248999 0 -0.23162633693510051 0.36659348337384201 0 -0.25085497189729122 0.36699657159686377 0 -0.23162633693510051 0.36659348337384201 0 -0.24171084963275449 0.35713765635886879 0 -0.24782958641667949 0.31261011168055858 0 -0.24368054773794831 0.32795945494115231 0 -0.22650342249270131 0.31305258662220892 0 -0.24782958641667949 0.31261011168055858 0 -0.22650342249270131 0.31305258662220892 0 -0.25792488075028341 0.32622886864864642 0 -0.24782958641667949 0.31261011168055858 0 -0.24368054773794831 0.32795945494115231 0 -0.25630673087751638 0.33910533344962401 0 -0.24368054773794831 0.32795945494115231 0 -0.24271913920463381 0.34172874295787281 0 -0.2322332992430976 0.34813002506569629 0 -0.24271913920463381 0.34172874295787281 0 -0.2289604932088094 0.33253418465080958 0 -0.24368054773794831 0.32795945494115231 0 -0.24271913920463381 0.34172874295787281 0 -0.2289604932088094 0.33253418465080958 0 -0.2289604932088094 0.33253418465080958 0 -0.21436297740228549 0.32542718534346071 0 -0.21640260695008881 0.34184930999519469 0 -0.2322332992430976 0.34813002506569629 0 -0.2289604932088094 0.33253418465080958 0 -0.21640260695008881 0.34184930999519469 0 -0.2289604932088094 0.33253418465080958 0 -0.22650342249270131 0.31305258662220892 0 -0.21436297740228549 0.32542718534346071 0 -0.24368054773794831 0.32795945494115231 0 -0.2289604932088094 0.33253418465080958 0 -0.22650342249270131 0.31305258662220892 0 -0.22650342249270131 0.31305258662220892 0 -0.21436297740228549 0.32542718534346071 0 -0.2051772585687229 0.31349506156385409 0 -0.22650342249270131 0.31305258662220892 0 -0.2051772585687229 0.31349506156385409 0 -0.21436297740228549 0.32542718534346071 0 -0.2051772585687229 0.31349506156385409 0 -0.20117887696507719 0.31710513661654738 0 -0.21436297740228549 0.32542718534346071 0 -0.21640260695008881 0.34184930999519469 0 -0.20117887696507719 0.31710513661654738 0 -0.21640260695008881 0.34184930999519469 0 -0.20117887696507719 0.31710513661654738 0 -0.21640260695008881 0.34184930999519469 0 -0.20179084988150819 0.33074120804435758 0 -0.20117887696507719 0.31710513661654738 0 -0.21640260695008881 0.34184930999519469 0 -0.19827639916838161 0.34238086348036828 0 -0.20179084988150819 0.33074120804435758 0 -0.18231746204768201 0.32119443961216299 0 -0.19827639916838161 0.34238086348036828 0 -0.19827639916838161 0.34238086348036828 0 -0.20179084988150819 0.33074120804435758 0 -0.19130551644248531 0.32162952208531997 0 -0.18134385838270281 0.33749128369478992 0 -0.1855822537992344 0.34999655080010739 0 -0.19827639916838161 0.34238086348036828 0 -0.18231746204768201 0.32119443961216299 0 -0.19827639916838161 0.34238086348036828 0 -0.19130551644248531 0.32162952208531997 0 -0.20179084988150819 0.33074120804435758 0 -0.20117887696507719 0.31710513661654738 0 -0.19130551644248531 0.32162952208531997 0 -0.20117887696507719 0.31710513661654738 0 -0.19130551644248531 0.32162952208531997 0 -0.19040335188435051 0.30804398461215998 0 -0.20117887696507719 0.31710513661654738 0 -0.18595514698006549 0.29236096323790012 0 -0.20117887696507719 0.31710513661654738 0 -0.1982467481595066 0.30048997403669392 0 -0.18595514698006549 0.29236096323790012 0 -0.20117887696507719 0.31710513661654738 0 -0.19040335188435051 0.30804398461215998 0 -0.18595514698006549 0.29236096323790012 0 -0.19130551644248531 0.32162952208531997 0 -0.19040335188435051 0.30804398461215998 0 -0.1856272191987664 0.30483033276846078 0 -0.20117887696507719 0.31710513661654738 0 -0.1982467481595066 0.30048997403669392 0 -0.20374706780481441 0.30638607504977211 0 -0.1982467481595066 0.30048997403669392 0 -0.20374706780481441 0.30638607504977211 0 -0.20479941755016751 0.29699800650281238 0 -0.19881141129275781 0.28849212926368012 0 -0.18721157283587719 0.28143688455235383 0 -0.18595514698006549 0.29236096323790012 0 -0.1982467481595066 0.30048997403669392 0 -0.19881141129275781 0.28849212926368012 0 -0.18595514698006549 0.29236096323790012 0 -0.1982467481595066 0.30048997403669392 0 -0.19881141129275781 0.28849212926368012 0 -0.20479941755016751 0.29699800650281238 0 -0.19881141129275781 0.28849212926368012 0 -0.2092446246067817 0.28246703672368179 0 -0.2000921796050473 0.27345456774279941 0 -0.19881141129275781 0.28849212926368012 0 -0.2092446246067817 0.28246703672368179 0 -0.21029675510093379 0.29200695518531222 0 -0.19881141129275781 0.28849212926368012 0 -0.21029675510093379 0.29200695518531222 0 -0.20479941755016751 0.29699800650281238 0 -0.21029675510093379 0.29200695518531222 0 -0.22116426289772839 0.2984824662969664 0 -0.22008219729005701 0.28744131672426182 0 -0.2092446246067817 0.28246703672368179 0 -0.21029675510093379 0.29200695518531222 0 -0.22008219729005701 0.28744131672426182 0 -0.22650342249270131 0.31305258662220892 0 -0.2051772585687229 0.31349506156385409 0 -0.21178526586648089 0.30349150271108832 0 -0.2051772585687229 0.31349506156385409 0 -0.20117887696507719 0.31710513661654738 0 -0.20374706780481441 0.30638607504977211 0 -0.2051772585687229 0.31349506156385409 0 -0.20374706780481441 0.30638607504977211 0 -0.21178526586648089 0.30349150271108832 0 -0.20374706780481441 0.30638607504977211 0 -0.20479941755016751 0.29699800650281238 0 -0.21178526586648089 0.30349150271108832 0 -0.21029675510093379 0.29200695518531222 0 -0.20479941755016751 0.29699800650281238 0 -0.21178526586648089 0.30349150271108832 0 -0.21029675510093379 0.29200695518531222 0 -0.21178526586648089 0.30349150271108832 0 -0.22116426289772839 0.2984824662969664 0 -0.22650342249270131 0.31305258662220892 0 -0.2319129328730421 0.30309628546351391 0 -0.22116426289772839 0.2984824662969664 0 -0.22650342249270131 0.31305258662220892 0 -0.21178526586648089 0.30349150271108832 0 -0.22116426289772839 0.2984824662969664 0 -0.2319129328730421 0.30309628546351391 0 -0.22116426289772839 0.2984824662969664 0 -0.22638611903543121 0.29519880791904962 0 -0.22116426289772839 0.2984824662969664 0 -0.22638611903543121 0.29519880791904962 0 -0.22008219729005701 0.28744131672426182 0 -0.22008219729005701 0.28744131672426182 0 -0.23238508308089731 0.29177516319145641 0 -0.21694057974511269 0.27094021470235569 0 -0.23238508308089731 0.29177516319145641 0 -0.21694057974511269 0.27094021470235569 0 -0.22928511554663189 0.28446358772749331 0 -0.23238508308089731 0.29177516319145641 0 -0.21694057974511269 0.27094021470235569 0 -0.22638611903543121 0.29519880791904962 0 -0.22008219729005701 0.28744131672426182 0 -0.23238508308089731 0.29177516319145641 0 -0.22928511554663189 0.28446358772749331 0 -0.23238508308089731 0.29177516319145641 0 -0.2375602070203009 0.28574225218516902 0 -0.2319129328730421 0.30309628546351391 0 -0.22638611903543121 0.29519880791904962 0 -0.23238508308089731 0.29177516319145641 0 -0.23238508308089731 0.29177516319145641 0 -0.2375602070203009 0.28574225218516902 0 -0.24376690763809311 0.29095322134099971 0 -0.23238508308089731 0.29177516319145641 0 -0.24376690763809311 0.29095322134099971 0 -0.24771474827656509 0.2991549189819479 0 -0.2375602070203009 0.28574225218516902 0 -0.24297847202221201 0.28376321814117561 0 -0.24305133852416599 0.27715019349946252 0 -0.22928511554663189 0.28446358772749331 0 -0.2375602070203009 0.28574225218516902 0 -0.24305133852416599 0.27715019349946252 0 -0.2375602070203009 0.28574225218516902 0 -0.24297847202221201 0.28376321814117561 0 -0.24376690763809311 0.29095322134099971 0 -0.25039465432294428 0.28694624282567072 0 -0.24297847202221201 0.28376321814117561 0 -0.24376690763809311 0.29095322134099971 0 -0.25039465432294428 0.28694624282567072 0 -0.24297847202221201 0.28376321814117561 0 -0.2477747424954663 0.28158973246324809 0 -0.25375933293801167 0.29364580216907221 0 -0.25039465432294428 0.28694624282567072 0 -0.24376690763809311 0.29095322134099971 0 -0.25375933293801167 0.29364580216907221 0 -0.24376690763809311 0.29095322134099971 0 -0.24771474827656509 0.2991549189819479 0 -0.24782958641667949 0.31261011168055858 0 -0.22650342249270131 0.31305258662220892 0 -0.2319129328730421 0.30309628546351391 0 -0.24782958641667949 0.31261011168055858 0 -0.2319129328730421 0.30309628546351391 0 -0.23238508308089731 0.29177516319145641 0 -0.24782958641667949 0.31261011168055858 0 -0.23238508308089731 0.29177516319145641 0 -0.24782958641667949 0.31261011168055858 0 -0.23238508308089731 0.29177516319145641 0 -0.24771474827656509 0.2991549189819479 0 -0.25514305077254962 0.26858597685722868 0 -0.25868150502251502 0.25221069028746462 0 -0.23542205803977931 0.26058075231148192 0 -0.25514305077254962 0.26858597685722868 0 -0.23542205803977931 0.26058075231148192 0 -0.24305133852416599 0.27715019349946252 0 -0.22928511554663189 0.28446358772749331 0 -0.23542205803977931 0.26058075231148192 0 -0.24305133852416599 0.27715019349946252 0 -0.25328134816566078 0.27805073490575699 0 -0.2477747424954663 0.28158973246324809 0 -0.24305133852416599 0.27715019349946252 0 -0.24297847202221201 0.28376321814117561 0 -0.2477747424954663 0.28158973246324809 0 -0.24305133852416599 0.27715019349946252 0 -0.22928511554663189 0.28446358772749331 0 -0.23542205803977931 0.26058075231148192 0 -0.21694057974511269 0.27094021470235569 0 -0.22928511554663189 0.28446358772749331 0 -0.23542205803977931 0.26058075231148192 0 -0.23542205803977931 0.26058075231148192 0 -0.21694057974511269 0.27094021470235569 0 -0.22246037984147479 0.24532269043558419 0 -0.21694057974511269 0.27094021470235569 0 -0.2014960764093281 0.25010526621325518 0 -0.22246037984147479 0.24532269043558419 0 -0.21694057974511269 0.27094021470235569 0 -0.2000921796050473 0.27345456774279941 0 -0.2014960764093281 0.25010526621325518 0 -0.21694057974511269 0.27094021470235569 0 -0.2014960764093281 0.25010526621325518 0 -0.2092446246067817 0.28246703672368179 0 -0.22008219729005701 0.28744131672426182 0 -0.21694057974511269 0.27094021470235569 0 -0.2092446246067817 0.28246703672368179 0 -0.21694057974511269 0.27094021470235569 0 -0.2000921796050473 0.27345456774279941 0 -0.2000921796050473 0.27345456774279941 0 -0.1868802397862836 0.2655731454092336 0 -0.18721157283587719 0.28143688455235383 0 -0.19881141129275781 0.28849212926368012 0 -0.2000921796050473 0.27345456774279941 0 -0.18721157283587719 0.28143688455235383 0 -0.2000921796050473 0.27345456774279941 0 -0.2014960764093281 0.25010526621325518 0 -0.1868802397862836 0.2655731454092336 0 -0.2014960764093281 0.25010526621325518 0 -0.1868802397862836 0.2655731454092336 0 -0.18601518914558959 0.2478148674771414 0 -0.1868802397862836 0.2655731454092336 0 -0.17279903986257189 0.25969803152923548 0 -0.18601518914558959 0.2478148674771414 0 -0.17279903986257189 0.25969803152923548 0 -0.1583842065338433 0.27294420019160659 0 -0.15444919076106531 0.25155912296188709 0 -0.17279903986257189 0.25969803152923548 0 -0.1583842065338433 0.27294420019160659 0 -0.17390880033028511 0.28018310354506049 0 -0.1868802397862836 0.2655731454092336 0 -0.17279903986257189 0.25969803152923548 0 -0.17390880033028511 0.28018310354506049 0 -0.1868802397862836 0.2655731454092336 0 -0.17390880033028511 0.28018310354506049 0 -0.18721157283587719 0.28143688455235383 0 -0.17390880033028511 0.28018310354506049 0 -0.180480095408598 0.28781695311844441 0 -0.17484486148816419 0.29728686113846309 0 -0.180480095408598 0.28781695311844441 0 -0.18721157283587719 0.28143688455235383 0 -0.18595514698006549 0.29236096323790012 0 -0.17390880033028511 0.28018310354506049 0 -0.180480095408598 0.28781695311844441 0 -0.18721157283587719 0.28143688455235383 0 -0.180480095408598 0.28781695311844441 0 -0.18595514698006549 0.29236096323790012 0 -0.17484486148816419 0.29728686113846309 0 -0.19040335188435051 0.30804398461215998 0 -0.18595514698006549 0.29236096323790012 0 -0.1856272191987664 0.30483033276846078 0 -0.19130551644248531 0.32162952208531997 0 -0.1856272191987664 0.30483033276846078 0 -0.17484486148816419 0.29728686113846309 0 -0.1679152812389918 0.31499214503199269 0 -0.18231746204768201 0.32119443961216299 0 -0.1663585249269823 0.30000801574395758 0 -0.19130551644248531 0.32162952208531997 0 -0.17484486148816419 0.29728686113846309 0 -0.18231746204768201 0.32119443961216299 0 -0.1663585249269823 0.30000801574395758 0 -0.18231746204768201 0.32119443961216299 0 -0.17484486148816419 0.29728686113846309 0 -0.1663585249269823 0.30000801574395758 0 -0.18595514698006549 0.29236096323790012 0 -0.1856272191987664 0.30483033276846078 0 -0.17484486148816419 0.29728686113846309 0 -0.15545226985178029 0.31535656434548642 0 -0.16160025389916349 0.30765039886189438 0 -0.15595194934532139 0.29889011414862721 0 -0.1679152812389918 0.31499214503199269 0 -0.1663585249269823 0.30000801574395758 0 -0.16160025389916349 0.30765039886189438 0 -0.1663585249269823 0.30000801574395758 0 -0.16160025389916349 0.30765039886189438 0 -0.15595194934532139 0.29889011414862721 0 -0.17484486148816419 0.29728686113846309 0 -0.1663585249269823 0.30000801574395758 0 -0.1588184774341804 0.29018691586365808 0 -0.1583842065338433 0.27294420019160659 0 -0.17390880033028511 0.28018310354506049 0 -0.17484486148816419 0.29728686113846309 0 -0.1583842065338433 0.27294420019160659 0 -0.17484486148816419 0.29728686113846309 0 -0.1583842065338433 0.27294420019160659 0 -0.17484486148816419 0.29728686113846309 0 -0.1588184774341804 0.29018691586365808 0 -0.1663585249269823 0.30000801574395758 0 -0.1588184774341804 0.29018691586365808 0 -0.15595194934532139 0.29889011414862721 0 -0.1588184774341804 0.29018691586365808 0 -0.150055461508218 0.28265696218645447 0 -0.15142551726432951 0.29025973575652048 0 -0.1583842065338433 0.27294420019160659 0 -0.1588184774341804 0.29018691586365808 0 -0.150055461508218 0.28265696218645447 0 -0.1588184774341804 0.29018691586365808 0 -0.15142551726432951 0.29025973575652048 0 -0.15595194934532139 0.29889011414862721 0 -0.15142551726432951 0.29025973575652048 0 -0.141604783799506 0.28903233170930059 0 -0.15595194934532139 0.29889011414862721 0 -0.150055461508218 0.28265696218645447 0 -0.15142551726432951 0.29025973575652048 0 -0.141604783799506 0.28903233170930059 0 -0.15545226985178029 0.31535656434548642 0 -0.141604783799506 0.28903233170930059 0 -0.15595194934532139 0.29889011414862721 0 -0.15545226985178029 0.31535656434548642 0 -0.14224349019613489 0.29500506241449548 0 -0.141604783799506 0.28903233170930059 0 -0.15545226985178029 0.31535656434548642 0 -0.141604783799506 0.28903233170930059 0 -0.1382715025484135 0.31461125521349631 0 -0.15545226985178029 0.31535656434548642 0 -0.14224349019613489 0.29500506241449548 0 -0.1382715025484135 0.31461125521349631 0 -0.14224349019613489 0.29500506241449548 0 -0.12872666223844931 0.30306132065797048 0 -0.14224349019613489 0.29500506241449548 0 -0.1264356189925237 0.27089503881186239 0 -0.14224349019613489 0.29500506241449548 0 -0.141604783799506 0.28903233170930059 0 -0.1264356189925237 0.27089503881186239 0 -0.14224349019613489 0.29500506241449548 0 -0.1264356189925237 0.27089503881186239 0 -0.12395595780829589 0.28833036888648089 0 -0.14224349019613489 0.29500506241449548 0 -0.12872666223844931 0.30306132065797048 0 -0.12395595780829589 0.28833036888648089 0 -0.1264356189925237 0.27089503881186239 0 -0.13385783557315201 0.25938027012280479 0 -0.14218693584816849 0.27141473107376041 0 -0.141604783799506 0.28903233170930059 0 -0.1264356189925237 0.27089503881186239 0 -0.14218693584816849 0.27141473107376041 0 -0.13385783557315201 0.25938027012280479 0 -0.14218693584816849 0.27141473107376041 0 -0.14192355157952219 0.2486015392447499 0 -0.13385783557315201 0.25938027012280479 0 -0.1347077000188201 0.24689541273740151 0 -0.1106277477889139 0.24678501520922819 0 -0.13385783557315201 0.25938027012280479 0 -0.1347077000188201 0.24689541273740151 0 -0.14192355157952219 0.2486015392447499 0 -0.1583842065338433 0.27294420019160659 0 -0.14192355157952219 0.2486015392447499 0 -0.1583842065338433 0.27294420019160659 0 -0.15444919076106531 0.25155912296188709 0 -0.14192355157952219 0.2486015392447499 0 -0.1583842065338433 0.27294420019160659 0 -0.14218693584816849 0.27141473107376041 0 -0.14192355157952219 0.2486015392447499 0 -0.150055461508218 0.28265696218645447 0 -0.141604783799506 0.28903233170930059 0 -0.14218693584816849 0.27141473107376041 0 -0.1583842065338433 0.27294420019160659 0 -0.150055461508218 0.28265696218645447 0 -0.14218693584816849 0.27141473107376041 0 -0.104937733528944 0.2740622297679482 0 -0.10157612087118841 0.25963397772998148 0 -0.079670283847859985 0.27024342199155171 0 -0.10157612087118841 0.25963397772998148 0 -0.1106277477889139 0.24678501520922819 0 -0.093491897390123674 0.2467064537773303 0 -0.10157612087118841 0.25963397772998148 0 -0.087021421969718765 0.25620572220021193 0 -0.093491897390123674 0.2467064537773303 0 -0.1264356189925237 0.27089503881186239 0 -0.13385783557315201 0.25938027012280479 0 -0.1106277477889139 0.24678501520922819 0 -0.1264356189925237 0.27089503881186239 0 -0.10157612087118841 0.25963397772998148 0 -0.1106277477889139 0.24678501520922819 0 -0.1264356189925237 0.27089503881186239 0 -0.1106277477889139 0.24678501520922819 0 -0.1264356189925237 0.27089503881186239 0 -0.104937733528944 0.2740622297679482 0 -0.12395595780829589 0.28833036888648089 0 -0.1264356189925237 0.27089503881186239 0 -0.104937733528944 0.2740622297679482 0 -0.10157612087118841 0.25963397772998148 0 -0.104937733528944 0.2740622297679482 0 -0.12395595780829589 0.28833036888648089 0 -0.1122297518660952 0.29989644015045303 0 -0.12872666223844931 0.30306132065797048 0 -0.1122297518660952 0.29989644015045303 0 -0.11952177020324629 0.32573065053295791 0 -0.12872666223844931 0.30306132065797048 0 -0.12395595780829589 0.28833036888648089 0 -0.1122297518660952 0.29989644015045303 0 -0.1122297518660952 0.29989644015045303 0 -0.082984520704386874 0.2938589516376674 0 -0.086298757560913777 0.31747448128378319 0 -0.104937733528944 0.2740622297679482 0 -0.1122297518660952 0.29989644015045303 0 -0.082984520704386874 0.2938589516376674 0 -0.104937733528944 0.2740622297679482 0 -0.1122297518660952 0.29989644015045303 0 -0.082984520704386874 0.2938589516376674 0 -0.079670283847859985 0.27024342199155171 0 -0.082984520704386874 0.2938589516376674 0 -0.070175074938513993 0.30901669165771012 0 -0.086298757560913777 0.31747448128378319 0 -0.082984520704386874 0.2938589516376674 0 -0.086298757560913777 0.31747448128378319 0 -0.082984520704386874 0.2938589516376674 0 -0.070175074938513993 0.30901669165771012 0 -0.068094479257392856 0.28907701439755301 0 -0.070175074938513993 0.30901669165771012 0 -0.068094479257392856 0.28907701439755301 0 -0.050843616475146881 0.29907153632700972 0 -0.082984520704386874 0.2938589516376674 0 -0.068094479257392856 0.28907701439755301 0 -0.079670283847859985 0.27024342199155171 0 -0.079670283847859985 0.27024342199155171 0 -0.067167344873252266 0.25484313831082389 0 -0.061414657023617591 0.27232198898172738 0 -0.068094479257392856 0.28907701439755301 0 -0.079670283847859985 0.27024342199155171 0 -0.061414657023617591 0.27232198898172738 0 -0.104937733528944 0.2740622297679482 0 -0.082984520704386874 0.2938589516376674 0 -0.079670283847859985 0.27024342199155171 0 -0.10157612087118841 0.25963397772998148 0 -0.079670283847859985 0.27024342199155171 0 -0.087021421969718765 0.25620572220021193 0 -0.079670283847859985 0.27024342199155171 0 -0.087021421969718765 0.25620572220021193 0 -0.076356046991333443 0.24662789234543581 0 -0.079670283847859985 0.27024342199155171 0 -0.067167344873252266 0.25484313831082389 0 -0.076356046991333443 0.24662789234543581 0 -0.079670283847859985 0.27024342199155171 0 -0.076356046991333443 0.24662789234543581 0 -0.067167344873252266 0.25484313831082389 0 -0.052947560502698852 0.25601565193185349 0 -0.059040536731242182 0.2445611908442486 0 -0.052947560502698852 0.25601565193185349 0 -0.061414657023617591 0.27232198898172738 0 -0.048800171747751538 0.26852063793904563 0 -0.067167344873252266 0.25484313831082389 0 -0.052947560502698852 0.25601565193185349 0 -0.061414657023617591 0.27232198898172738 0 -0.052947560502698852 0.25601565193185349 0 -0.048800171747751538 0.26852063793904563 0 -0.041150814241186752 0.25477643144334111 0 -0.052947560502698852 0.25601565193185349 0 -0.041150814241186752 0.25477643144334111 0 -0.047894545500613457 0.24573323634415969 0 -0.061414657023617591 0.27232198898172738 0 -0.048800171747751538 0.26852063793904563 0 -0.050843616475146881 0.29907153632700972 0 -0.048800171747751538 0.26852063793904563 0 -0.035948826370604002 0.2714220911132344 0 -0.050843616475146881 0.29907153632700972 0 -0.035948826370604002 0.2714220911132344 0 -0.041150814241186752 0.25477643144334111 0 -0.023083964412665799 0.24905358459497809 0 -0.048800171747751538 0.26852063793904563 0 -0.035948826370604002 0.2714220911132344 0 -0.041150814241186752 0.25477643144334111 0 -0.035948826370604002 0.2714220911132344 0 -0.015544435449369291 0.26872216520271902 0 -0.023083964412665799 0.24905358459497809 0 -0.035948826370604002 0.2714220911132344 0 -0.023083964412665799 0.24905358459497809 0 -0.035948826370604002 0.2714220911132344 0 -0.015544435449369291 0.26872216520271902 0 -0.02431538359791988 0.28811371973589628 0 -0.015544435449369291 0.26872216520271902 0 0.0034616411636725661 0.26074981971621108 0 0.002212849279305274 0.277155903144778 0 -0.015544435449369291 0.26872216520271902 0 -0.02431538359791988 0.28811371973589628 0 0.002212849279305274 0.277155903144778 0 -0.015544435449369291 0.26872216520271902 0 -0.0081350856210093137 0.24991087677565479 0 0.0034616411636725661 0.26074981971621108 0 -0.015544435449369291 0.26872216520271902 0 -0.0081350856210093137 0.24991087677565479 0 -0.023083964412665799 0.24905358459497809 0 -0.012470586165766561 0.29707223842349312 0 -0.010664161142735031 0.31123486221017738 0 0.00036423795276429178 0.30144215294331478 0 -0.02431538359791988 0.28811371973589628 0 0.002212849279305274 0.277155903144778 0 -0.012470586165766561 0.29707223842349312 0 0.00036423795276429178 0.30144215294331478 0 0.002212849279305274 0.277155903144778 0 -0.012470586165766561 0.29707223842349312 0 -0.02431538359791988 0.28811371973589628 0 0.002212849279305274 0.277155903144778 0 -0.012470586165766561 0.29707223842349312 0 -0.02431538359791988 0.28811371973589628 0 -0.02995047332024512 0.30741455408329932 0 -0.012470586165766561 0.29707223842349312 0 -0.010664161142735031 0.31123486221017738 0 -0.02995047332024512 0.30741455408329932 0 -0.02431538359791988 0.28811371973589628 0 -0.02995047332024512 0.30741455408329932 0 -0.050843616475146881 0.29907153632700972 0 -0.02995047332024512 0.30741455408329932 0 -0.050843616475146881 0.29907153632700972 0 -0.053397463886790543 0.32189529008097117 0 -0.02431538359791988 0.28811371973589628 0 -0.050843616475146881 0.29907153632700972 0 -0.035948826370604002 0.2714220911132344 0 -0.02431538359791988 0.28811371973589628 0 -0.050843616475146881 0.29907153632700972 0 -0.068094479257392856 0.28907701439755301 0 -0.061414657023617591 0.27232198898172738 0 -0.050843616475146881 0.29907153632700972 0 -0.070175074938513993 0.30901669165771012 0 -0.050843616475146881 0.29907153632700972 0 -0.053397463886790543 0.32189529008097117 0 -0.053397463886790543 0.32189529008097117 0 -0.043747454086026469 0.34273571193055458 0 -0.066947344168473616 0.34382208323864921 0 -0.053397463886790543 0.32189529008097117 0 -0.043747454086026469 0.34273571193055458 0 -0.027205807614380729 0.326985287070366 0 -0.043747454086026469 0.34273571193055458 0 -0.027205807614380729 0.326985287070366 0 -0.02995047332024512 0.30741455408329932 0 -0.053397463886790543 0.32189529008097117 0 -0.027205807614380729 0.326985287070366 0 -0.010664161142735031 0.31123486221017738 0 -0.02995047332024512 0.30741455408329932 0 -0.027205807614380729 0.326985287070366 0 -0.010664161142735031 0.31123486221017738 0 -0.027205807614380729 0.326985287070366 0 -0.043747454086026469 0.34273571193055458 0 -0.027205807614380729 0.326985287070366 0 -0.020653588815527129 0.34335348120168702 0 -0.027205807614380729 0.326985287070366 0 -0.020653588815527129 0.34335348120168702 0 -0.0014843733737743511 0.32572840274185172 0 -0.0014843733737743511 0.32572840274185172 0 -0.003332984700312994 0.35001465254038849 0 -0.020653588815527129 0.34335348120168702 0 -0.0014843733737743511 0.32572840274185172 0 -0.003332984700312994 0.35001465254038849 0 -0.0014843733737743511 0.32572840274185172 0 0.00036423795276429178 0.30144215294331478 0 -0.010664161142735031 0.31123486221017738 0 -0.027205807614380729 0.326985287070366 0 -0.0014843733737743511 0.32572840274185172 0 -0.010664161142735031 0.31123486221017738 0 -0.0014843733737743511 0.32572840274185172 0 0.00036423795276429178 0.30144215294331478 0 -0.0051815960268516356 0.37430090233892538 0 -0.003332984700312994 0.35001465254038849 0 -0.0051815960268516356 0.37430090233892538 0 -0.003332984700312994 0.35001465254038849 0 -0.025472141570543689 0.35886229209925979 0 -0.020653588815527129 0.34335348120168702 0 -0.003332984700312994 0.35001465254038849 0 -0.025472141570543689 0.35886229209925979 0 -0.043747454086026469 0.34273571193055458 0 -0.020653588815527129 0.34335348120168702 0 -0.025472141570543689 0.35886229209925979 0 -0.0051815960268516356 0.37430090233892538 0 -0.025472141570543689 0.35886229209925979 0 -0.031506270765530857 0.37479998926299252 0 -0.025472141570543689 0.35886229209925979 0 -0.031506270765530857 0.37479998926299252 0 -0.043500940069006573 0.36131859847448039 0 -0.031506270765530857 0.37479998926299252 0 -0.043500940069006573 0.36131859847448039 0 -0.047220202399852293 0.3765902372529879 0 -0.043747454086026469 0.34273571193055458 0 -0.025472141570543689 0.35886229209925979 0 -0.043500940069006573 0.36131859847448039 0 -0.043747454086026469 0.34273571193055458 0 -0.060289100557672143 0.35848613679074331 0 -0.043747454086026469 0.34273571193055458 0 -0.043500940069006573 0.36131859847448039 0 -0.060289100557672143 0.35848613679074331 0 -0.043747454086026469 0.34273571193055458 0 -0.060289100557672143 0.35848613679074331 0 -0.066947344168473616 0.34382208323864921 0 -0.043500940069006573 0.36131859847448039 0 -0.060289100557672143 0.35848613679074331 0 -0.051669273530516119 0.36738855712690982 0 -0.043500940069006573 0.36131859847448039 0 -0.051669273530516119 0.36738855712690982 0 -0.047220202399852293 0.3765902372529879 0 -0.051669273530516119 0.36738855712690982 0 -0.057978650893609027 0.37319562103814308 0 -0.047220202399852293 0.3765902372529879 0 -0.060289100557672143 0.35848613679074331 0 -0.051669273530516119 0.36738855712690982 0 -0.057978650893609027 0.37319562103814308 0 -0.060289100557672143 0.35848613679074331 0 -0.057978650893609027 0.37319562103814308 0 -0.076830747029317026 0.37423656165093261 0 -0.060289100557672143 0.35848613679074331 0 -0.076830747029317026 0.37423656165093261 0 -0.075836472220713685 0.35812458695261151 0 -0.060289100557672143 0.35848613679074331 0 -0.076830747029317026 0.37423656165093261 0 -0.057978650893609027 0.37319562103814308 0 -0.076830747029317026 0.37423656165093261 0 -0.076830747029317026 0.37423656165093261 0 -0.082385130149855074 0.36392302783189578 0 -0.091664994850208736 0.3656914668402686 0 -0.076830747029317026 0.37423656165093261 0 -0.091664994850208736 0.3656914668402686 0 -0.1054682769534319 0.37581781647445101 0 -0.082385130149855074 0.36392302783189578 0 -0.091664994850208736 0.3656914668402686 0 -0.086674084161905418 0.34940413815378801 0 -0.076830747029317026 0.37423656165093261 0 -0.082385130149855074 0.36392302783189578 0 -0.075836472220713685 0.35812458695261151 0 -0.082385130149855074 0.36392302783189578 0 -0.086674084161905418 0.34940413815378801 0 -0.075836472220713685 0.35812458695261151 0 -0.086674084161905418 0.34940413815378801 0 -0.075836472220713685 0.35812458695261151 0 -0.066947344168473616 0.34382208323864921 0 -0.060289100557672143 0.35848613679074331 0 -0.075836472220713685 0.35812458695261151 0 -0.066947344168473616 0.34382208323864921 0 -0.053397463886790543 0.32189529008097117 0 -0.066947344168473616 0.34382208323864921 0 -0.078579027506606738 0.32985944074027201 0 -0.086674084161905418 0.34940413815378801 0 -0.066947344168473616 0.34382208323864921 0 -0.078579027506606738 0.32985944074027201 0 -0.070175074938513993 0.30901669165771012 0 -0.053397463886790543 0.32189529008097117 0 -0.078579027506606738 0.32985944074027201 0 -0.070175074938513993 0.30901669165771012 0 -0.086298757560913777 0.31747448128378319 0 -0.078579027506606738 0.32985944074027201 0 -0.086298757560913777 0.31747448128378319 0 -0.078579027506606738 0.32985944074027201 0 -0.1003963301043389 0.33171869254763869 0 -0.086674084161905418 0.34940413815378801 0 -0.078579027506606738 0.32985944074027201 0 -0.1003963301043389 0.33171869254763869 0 -0.1003963301043389 0.33171869254763869 0 -0.11952177020324629 0.32573065053295791 0 -0.1050898741355881 0.34998793757742791 0 -0.086674084161905418 0.34940413815378801 0 -0.1003963301043389 0.33171869254763869 0 -0.1050898741355881 0.34998793757742791 0 -0.1122297518660952 0.29989644015045303 0 -0.1003963301043389 0.33171869254763869 0 -0.11952177020324629 0.32573065053295791 0 -0.1122297518660952 0.29989644015045303 0 -0.086298757560913777 0.31747448128378319 0 -0.1003963301043389 0.33171869254763869 0 -0.1122297518660952 0.29989644015045303 0 -0.11952177020324629 0.32573065053295791 0 -0.12681378854039749 0.3515648609154628 0 -0.11952177020324629 0.32573065053295791 0 -0.12681378854039749 0.3515648609154628 0 -0.11952177020324629 0.32573065053295791 0 -0.1050898741355881 0.34998793757742791 0 -0.12681378854039749 0.3515648609154628 0 -0.1050898741355881 0.34998793757742791 0 -0.1054682769534319 0.37581781647445101 0 -0.13410580687754689 0.37739907129796813 0 -0.12681378854039749 0.3515648609154628 0 -0.1054682769534319 0.37581781647445101 0 -0.091664994850208736 0.3656914668402686 0 -0.1050898741355881 0.34998793757742791 0 -0.1054682769534319 0.37581781647445101 0 -0.091664994850208736 0.3656914668402686 0 -0.086674084161905418 0.34940413815378801 0 -0.1050898741355881 0.34998793757742791 0 -0.1009493495363212 0.39729000192336578 0 -0.1054862713500138 0.41401146401962557 0 -0.086064248366626891 0.40153772176407931 0 -0.1009493495363212 0.39729000192336578 0 -0.1185131256585881 0.39649428645488988 0 -0.1054862713500138 0.41401146401962557 0 -0.1009493495363212 0.39729000192336578 0 -0.1054682769534319 0.37581781647445101 0 -0.088604378208725743 0.38788305589914868 0 -0.1009493495363212 0.39729000192336578 0 -0.1054682769534319 0.37581781647445101 0 -0.1185131256585881 0.39649428645488988 0 -0.13410580687754689 0.37739907129796813 0 -0.1054682769534319 0.37581781647445101 0 -0.1185131256585881 0.39649428645488988 0 -0.13410580687754689 0.37739907129796813 0 -0.1054682769534319 0.37581781647445101 0 -0.12531605249103381 0.41526160724939642 0 -0.1185131256585881 0.39649428645488988 0 -0.1054862713500138 0.41401146401962557 0 -0.12531605249103381 0.41526160724939642 0 -0.1054862713500138 0.41401146401962557 0 -0.12927579944994311 0.42929022474158463 0 -0.1054862713500138 0.41401146401962557 0 -0.12927579944994311 0.42929022474158463 0 -0.12531605249103381 0.41526160724939642 0 -0.1054862713500138 0.41401146401962557 0 -0.12927579944994311 0.42929022474158463 0 -0.11066638155259199 0.42951852402802321 0 -0.1127313574931984 0.44408844283865861 0 -0.12927579944994311 0.42929022474158463 0 -0.11066638155259199 0.42951852402802321 0 -0.1054862713500138 0.41401146401962557 0 -0.11066638155259199 0.42951852402802321 0 -0.095172097917212622 0.43068396451222302 0 -0.1127313574931984 0.44408844283865861 0 -0.11066638155259199 0.42951852402802321 0 -0.095172097917212622 0.43068396451222302 0 -0.1054862713500138 0.41401146401962557 0 -0.1054862713500138 0.41401146401962557 0 -0.086064248366626891 0.40153772176407931 0 -0.095172097917212622 0.43068396451222302 0 -0.1054862713500138 0.41401146401962557 0 -0.087887952435686589 0.41290200047640208 0 -0.1054862713500138 0.41401146401962557 0 -0.087887952435686589 0.41290200047640208 0 -0.087887952435686589 0.41290200047640208 0 -0.070289633521359474 0.41179253693317769 0 -0.086064248366626891 0.40153772176407931 0 -0.1054862713500138 0.41401146401962557 0 -0.087887952435686589 0.41290200047640208 0 -0.086064248366626891 0.40153772176407931 0 -0.087887952435686589 0.41290200047640208 0 -0.078834334824507329 0.42357992175263343 0 -0.070289633521359474 0.41179253693317769 0 -0.087887952435686589 0.41290200047640208 0 -0.070289633521359474 0.41179253693317769 0 -0.095172097917212622 0.43068396451222302 0 -0.078834334824507329 0.42357992175263343 0 -0.077527022321718972 0.43746445173196907 0 -0.095172097917212622 0.43068396451222302 0 -0.087887952435686589 0.41290200047640208 0 -0.078834334824507329 0.42357992175263343 0 -0.077527022321718972 0.43746445173196907 0 -0.064968610725441855 0.42771868228970528 0 -0.054256040154927319 0.44539137339935342 0 -0.078834334824507329 0.42357992175263343 0 -0.077527022321718972 0.43746445173196907 0 -0.064968610725441855 0.42771868228970528 0 -0.078834334824507329 0.42357992175263343 0 -0.064968610725441855 0.42771868228970528 0 -0.070289633521359474 0.41179253693317769 0 -0.064968610725441855 0.42771868228970528 0 -0.070289633521359474 0.41179253693317769 0 -0.055033732174384439 0.41089374214696522 0 -0.086064248366626891 0.40153772176407931 0 -0.066642225383239578 0.38906397950853361 0 -0.086064248366626891 0.40153772176407931 0 -0.080043636380944388 0.38959034425579392 0 -0.066642225383239578 0.38906397950853361 0 -0.070289633521359474 0.41179253693317769 0 -0.086064248366626891 0.40153772176407931 0 -0.066642225383239578 0.38906397950853361 0 -0.070289633521359474 0.41179253693317769 0 -0.066642225383239578 0.38906397950853361 0 -0.055033732174384439 0.41089374214696522 0 -0.086064248366626891 0.40153772176407931 0 -0.088604378208725743 0.38788305589914868 0 -0.080043636380944388 0.38959034425579392 0 -0.1009493495363212 0.39729000192336578 0 -0.086064248366626891 0.40153772176407931 0 -0.088604378208725743 0.38788305589914868 0 -0.076830747029317026 0.37423656165093261 0 -0.1054682769534319 0.37581781647445101 0 -0.079746944575477402 0.37701327135797252 0 -0.1054682769534319 0.37581781647445101 0 -0.088604378208725743 0.38788305589914868 0 -0.079746944575477402 0.37701327135797252 0 -0.076830747029317026 0.37423656165093261 0 -0.1054682769534319 0.37581781647445101 0 -0.088604378208725743 0.38788305589914868 0 -0.080043636380944388 0.38959034425579392 0 -0.078662477662816851 0.38354178518754428 0 -0.088604378208725743 0.38788305589914868 0 -0.078662477662816851 0.38354178518754428 0 -0.079746944575477402 0.37701327135797252 0 -0.076830747029317026 0.37423656165093261 0 -0.079746944575477402 0.37701327135797252 0 -0.057978650893609027 0.37319562103814308 0 -0.076830747029317026 0.37423656165093261 0 -0.072625840479219592 0.38166747322411848 0 -0.057978650893609027 0.37319562103814308 0 -0.072625840479219592 0.38166747322411848 0 -0.066642225383239578 0.38906397950853361 0 -0.076830747029317026 0.37423656165093261 0 -0.079746944575477402 0.37701327135797252 0 -0.072625840479219592 0.38166747322411848 0 -0.078662477662816851 0.38354178518754428 0 -0.079746944575477402 0.37701327135797252 0 -0.072625840479219592 0.38166747322411848 0 -0.080043636380944388 0.38959034425579392 0 -0.078662477662816851 0.38354178518754428 0 -0.072625840479219592 0.38166747322411848 0 -0.080043636380944388 0.38959034425579392 0 -0.072625840479219592 0.38166747322411848 0 -0.066642225383239578 0.38906397950853361 0 -0.066642225383239578 0.38906397950853361 0 -0.047220202399852293 0.3765902372529879 0 -0.047651501105199112 0.39674512328306488 0 -0.066642225383239578 0.38906397950853361 0 -0.047220202399852293 0.3765902372529879 0 -0.057978650893609027 0.37319562103814308 0 -0.066642225383239578 0.38906397950853361 0 -0.047220202399852293 0.3765902372529879 0 -0.066642225383239578 0.38906397950853361 0 -0.047651501105199112 0.39674512328306488 0 -0.055033732174384439 0.41089374214696522 0 -0.047651501105199112 0.39674512328306488 0 -0.033926058127493247 0.40739160185757389 0 -0.055033732174384439 0.41089374214696522 0 -0.037690461323747912 0.38791948580653318 0 -0.022723373195506411 0.38861203163735658 0 -0.033926058127493247 0.40739160185757389 0 -0.047651501105199112 0.39674512328306488 0 -0.037690461323747912 0.38791948580653318 0 -0.033926058127493247 0.40739160185757389 0 -0.047220202399852293 0.3765902372529879 0 -0.047651501105199112 0.39674512328306488 0 -0.037690461323747912 0.38791948580653318 0 -0.031506270765530857 0.37479998926299252 0 -0.047220202399852293 0.3765902372529879 0 -0.037690461323747912 0.38791948580653318 0 -0.0051815960268516356 0.37430090233892538 0 -0.031506270765530857 0.37479998926299252 0 -0.022723373195506411 0.38861203163735658 0 -0.031506270765530857 0.37479998926299252 0 -0.037690461323747912 0.38791948580653318 0 -0.022723373195506411 0.38861203163735658 0 -0.022723373195506411 0.38861203163735658 0 -0.0055798505185554476 0.4000832150621087 0 -0.033926058127493247 0.40739160185757389 0 -0.0051815960268516356 0.37430090233892538 0 -0.022723373195506411 0.38861203163735658 0 -0.0055798505185554476 0.4000832150621087 0 -0.01555439945337561 0.42433733306730859 0 0.00047683463884113508 0.45272828699369888 0 0.0049752124986141783 0.42288239185733778 0 -0.0055798505185554476 0.4000832150621087 0 -0.01555439945337561 0.42433733306730859 0 0.0049752124986141783 0.42288239185733778 0 -0.0055798505185554476 0.4000832150621087 0 -0.01555439945337561 0.42433733306730859 0 -0.033926058127493247 0.40739160185757389 0 -0.01555439945337561 0.42433733306730859 0 -0.035227505004757353 0.42741278670266297 0 -0.033926058127493247 0.40739160185757389 0 -0.01555439945337561 0.42433733306730859 0 -0.035227505004757353 0.42741278670266297 0 -0.026077952058779781 0.44186149742335168 0 -0.035227505004757353 0.42741278670266297 0 -0.051079596933574743 0.42565569230518419 0 -0.054256040154927319 0.44539137339935342 0 -0.035227505004757353 0.42741278670266297 0 -0.033926058127493247 0.40739160185757389 0 -0.051079596933574743 0.42565569230518419 0 -0.033926058127493247 0.40739160185757389 0 -0.055033732174384439 0.41089374214696522 0 -0.051079596933574743 0.42565569230518419 0 -0.064968610725441855 0.42771868228970528 0 -0.055033732174384439 0.41089374214696522 0 -0.051079596933574743 0.42565569230518419 0 -0.064968610725441855 0.42771868228970528 0 -0.051079596933574743 0.42565569230518419 0 -0.054256040154927319 0.44539137339935342 0 -0.054256040154927319 0.44539137339935342 0 -0.047855126812418582 0.471070858230562 0 -0.068411167001485737 0.46821899322089511 0 -0.054256040154927319 0.44539137339935342 0 -0.036881304566987037 0.4574644495460895 0 -0.047855126812418582 0.471070858230562 0 -0.036881304566987037 0.4574644495460895 0 -0.019336099241822519 0.47153406913109092 0 -0.047855126812418582 0.471070858230562 0 -0.054256040154927319 0.44539137339935342 0 -0.036881304566987037 0.4574644495460895 0 -0.026077952058779781 0.44186149742335168 0 -0.035227505004757353 0.42741278670266297 0 -0.054256040154927319 0.44539137339935342 0 -0.026077952058779781 0.44186149742335168 0 -0.036881304566987037 0.4574644495460895 0 -0.026077952058779781 0.44186149742335168 0 -0.019336099241822519 0.47153406913109092 0 -0.026077952058779781 0.44186149742335168 0 -0.019336099241822519 0.47153406913109092 0 0.00047683463884113508 0.45272828699369888 0 -0.003182305789168071 0.47636009384663658 0 -0.019336099241822519 0.47153406913109092 0 0.00047683463884113508 0.45272828699369888 0 -0.019336099241822519 0.47153406913109092 0 0.00047683463884113508 0.45272828699369888 0 -0.003182305789168071 0.47636009384663658 0 0.00047683463884113508 0.45272828699369888 0 -0.01555439945337561 0.42433733306730859 0 -0.026077952058779781 0.44186149742335168 0 0.00047683463884113508 0.45272828699369888 0 -0.0067883501701718864 0.49999999999999939 0 -0.003182305789168071 0.47636009384663658 0 0.001843699062638591 0.49999999999999989 0 -0.01525393803909522 0.48673313924230299 0 -0.0067883501701718864 0.49999999999999939 0 -0.003182305789168071 0.47636009384663658 0 -0.0067883501701718864 0.49999999999999939 0 -0.003182305789168071 0.47636009384663658 0 -0.01525393803909522 0.48673313924230299 0 -0.0067883501701718864 0.49999999999999939 0 -0.022370050704763979 0.49267715892080449 0 -0.01525393803909522 0.48673313924230299 0 -0.003182305789168071 0.47636009384663658 0 -0.019336099241822519 0.47153406913109092 0 -0.01525393803909522 0.48673313924230299 0 -0.019336099241822519 0.47153406913109092 0 -0.030840834542657739 0.48890671457290852 0 -0.019336099241822519 0.47153406913109092 0 -0.030840834542657739 0.48890671457290852 0 -0.039149033122485799 0.49033985126848351 0 -0.019336099241822519 0.47153406913109092 0 -0.039149033122485799 0.49033985126848351 0 -0.0067883501701718864 0.49999999999999939 0 -0.022370050704763979 0.49267715892080449 0 -0.028057442720244349 0.5 0 -0.01525393803909522 0.48673313924230299 0 -0.030840834542657739 0.48890671457290852 0 -0.022370050704763979 0.49267715892080449 0 -0.030840834542657739 0.48890671457290852 0 -0.022370050704763979 0.49267715892080449 0 -0.028057442720244349 0.5 0 -0.030840834542657739 0.48890671457290852 0 -0.028057442720244349 0.5 0 -0.039149033122485799 0.49033985126848351 0 -0.028057442720244349 0.5 0 -0.039149033122485799 0.49033985126848351 0 -0.049326535270316808 0.50000000000000044 0 -0.030840834542657739 0.48890671457290852 0 -0.039149033122485799 0.49033985126848351 0 -0.039149033122485799 0.49033985126848351 0 -0.049326535270316808 0.50000000000000044 0 -0.019336099241822519 0.47153406913109092 0 -0.039149033122485799 0.49033985126848351 0 -0.047855126812418582 0.471070858230562 0 -0.047855126812418582 0.471070858230562 0 -0.067150002681039128 0.49516992563424239 0 -0.068411167001485737 0.46821899322089511 0 -0.039149033122485799 0.49033985126848351 0 -0.049326535270316808 0.50000000000000044 0 -0.067150002681039128 0.49516992563424239 0 -0.039149033122485799 0.49033985126848351 0 -0.047855126812418582 0.471070858230562 0 -0.067150002681039128 0.49516992563424239 0 -0.039149033122485799 0.49033985126848351 0 -0.067150002681039128 0.49516992563424239 0 -0.049326535270316808 0.50000000000000044 0 -0.07223875375495481 0.5 0 -0.067150002681039128 0.49516992563424239 0 -0.067150002681039128 0.49516992563424239 0 -0.088762388217281316 0.47418446340670989 0 -0.095150972239592665 0.50000000000000044 0 -0.067150002681039128 0.49516992563424239 0 -0.095150972239592665 0.50000000000000044 0 -0.07223875375495481 0.5 0 -0.067150002681039128 0.49516992563424239 0 -0.095150972239592665 0.50000000000000044 0 -0.067150002681039128 0.49516992563424239 0 -0.088762388217281316 0.47418446340670989 0 -0.068411167001485737 0.46821899322089511 0 -0.054256040154927319 0.44539137339935342 0 -0.077301786599373049 0.45338469836168588 0 -0.068411167001485737 0.46821899322089511 0 -0.077527022321718972 0.43746445173196907 0 -0.054256040154927319 0.44539137339935342 0 -0.077301786599373049 0.45338469836168588 0 -0.095172097917212622 0.43068396451222302 0 -0.077527022321718972 0.43746445173196907 0 -0.093877070617882502 0.45462177580804009 0 -0.077527022321718972 0.43746445173196907 0 -0.077301786599373049 0.45338469836168588 0 -0.093877070617882502 0.45462177580804009 0 -0.088762388217281316 0.47418446340670989 0 -0.077301786599373049 0.45338469836168588 0 -0.068411167001485737 0.46821899322089511 0 -0.088762388217281316 0.47418446340670989 0 -0.077301786599373049 0.45338469836168588 0 -0.093877070617882502 0.45462177580804009 0 -0.093877070617882502 0.45462177580804009 0 -0.1127313574931984 0.44408844283865861 0 -0.109456177530226 0.46391223269636339 0 -0.088762388217281316 0.47418446340670989 0 -0.093877070617882502 0.45462177580804009 0 -0.109456177530226 0.46391223269636339 0 -0.095172097917212622 0.43068396451222302 0 -0.093877070617882502 0.45462177580804009 0 -0.1127313574931984 0.44408844283865861 0 -0.12586151078380181 0.45797273389188708 0 -0.1325221618618912 0.44629436581552218 0 -0.1127313574931984 0.44408844283865861 0 -0.1325221618618912 0.44629436581552218 0 -0.12927579944994311 0.42929022474158463 0 -0.1127313574931984 0.44408844283865861 0 -0.12586151078380181 0.45797273389188708 0 -0.109456177530226 0.46391223269636339 0 -0.1248073326255514 0.47607895861677529 0 -0.12586151078380181 0.45797273389188708 0 -0.1127313574931984 0.44408844283865861 0 -0.109456177530226 0.46391223269636339 0 -0.109456177530226 0.46391223269636339 0 -0.1248073326255514 0.47607895861677529 0 -0.10877132987058161 0.48250535246923482 0 -0.1248073326255514 0.47607895861677529 0 -0.1243920964022588 0.5 0 -0.10877132987058161 0.48250535246923482 0 -0.1243920964022588 0.5 0 -0.095150972239592665 0.50000000000000044 0 -0.10877132987058161 0.48250535246923482 0 -0.088762388217281316 0.47418446340670989 0 -0.095150972239592665 0.50000000000000044 0 -0.10877132987058161 0.48250535246923482 0 -0.088762388217281316 0.47418446340670989 0 -0.109456177530226 0.46391223269636339 0 -0.10877132987058161 0.48250535246923482 0 -0.15731275991729121 0.074372287493102818 0 -0.17183932378059499 0.1000864482500534 0 -0.15731275991729121 0.074372287493102818 0 -0.17643588583223591 0.079911060649644206 0 -0.17183932378059499 0.1000864482500534 0 -0.15731275991729121 0.074372287493102818 0 -0.17183932378059499 0.1000864482500534 0 -0.14477191940608261 0.091442058316117014 0 -0.15731275991729121 0.074372287493102818 0 -0.1696913458097993 0.057523367031253159 0 -0.15818939614580721 0.05971422100369228 0 -0.15731275991729121 0.074372287493102818 0 -0.1696913458097993 0.057523367031253159 0 -0.15731275991729121 0.074372287493102818 0 -0.16897821418414041 0.069971060288988585 0 -0.1696913458097993 0.057523367031253159 0 -0.15731275991729121 0.074372287493102818 0 -0.16897821418414041 0.069971060288988585 0 -0.17643588583223591 0.079911060649644206 0 -0.16897821418414041 0.069971060288988585 0 -0.18054061141352371 0.071229585523558167 0 -0.17643588583223591 0.079911060649644206 0 -0.16897821418414041 0.069971060288988585 0 -0.1696913458097993 0.057523367031253159 0 -0.17712551349020131 0.060533097681961169 0 -0.16897821418414041 0.069971060288988585 0 -0.18054061141352371 0.071229585523558167 0 -0.17712551349020131 0.060533097681961169 0 -0.18054061141352371 0.071229585523558167 0 -0.17712551349020131 0.060533097681961169 0 -0.19049206264362301 0.068810059209448604 0 -0.18054061141352371 0.071229585523558167 0 -0.1872514930496483 0.077089368912047651 0 -0.17643588583223591 0.079911060649644206 0 -0.18054061141352371 0.071229585523558167 0 -0.1872514930496483 0.077089368912047651 0 -0.19049206264362301 0.068810059209448604 0 -0.1872514930496483 0.077089368912047651 0 -0.17643588583223591 0.079911060649644206 0 -0.1879892553666587 0.087083467569649256 0 -0.17643588583223591 0.079911060649644206 0 -0.17183932378059499 0.1000864482500534 0 -0.1879892553666587 0.087083467569649256 0 -0.17183932378059499 0.1000864482500534 0 -0.1879892553666587 0.087083467569649256 0 -0.19791978767599211 0.099263325956345128 0 -0.17213763364505419 0.11981929089222861 0 -0.17183932378059499 0.1000864482500534 0 -0.1863658876438998 0.12580060900700371 0 -0.17183932378059499 0.1000864482500534 0 -0.19503992535978421 0.1201139803047523 0 -0.1863658876438998 0.12580060900700371 0 -0.17183932378059499 0.1000864482500534 0 -0.1863658876438998 0.12580060900700371 0 -0.17213763364505419 0.11981929089222861 0 -0.15970385500148701 0.10955871709626119 0 -0.17183932378059499 0.1000864482500534 0 -0.17213763364505419 0.11981929089222861 0 -0.1608763647927888 0.123357804513993 0 -0.16881446095795569 0.1311100921203617 0 -0.17213763364505419 0.11981929089222861 0 -0.15970385500148701 0.10955871709626119 0 -0.1608763647927888 0.123357804513993 0 -0.15970385500148701 0.10955871709626119 0 -0.17183932378059499 0.1000864482500534 0 -0.14477191940608261 0.091442058316117014 0 -0.15970385500148701 0.10955871709626119 0 -0.14753426891294941 0.1149173281819548 0 -0.14477191940608261 0.091442058316117014 0 -0.14753426891294941 0.1149173281819548 0 -0.1322310788948737 0.10851182913913091 0 -0.14477191940608261 0.091442058316117014 0 -0.1608763647927888 0.123357804513993 0 -0.14753426891294941 0.1149173281819548 0 -0.1513717942645664 0.1277160804897535 0 -0.15970385500148701 0.10955871709626119 0 -0.1608763647927888 0.123357804513993 0 -0.14753426891294941 0.1149173281819548 0 -0.14753426891294941 0.1149173281819548 0 -0.1513717942645664 0.1277160804897535 0 -0.13600959645393479 0.12885956729421141 0 -0.13600959645393479 0.12885956729421141 0 -0.11991659767633039 0.1123067296238078 0 -0.14753426891294941 0.1149173281819548 0 -0.1322310788948737 0.10851182913913091 0 -0.13600959645393479 0.12885956729421141 0 -0.1322310788948737 0.10851182913913091 0 -0.13600959645393479 0.12885956729421141 0 -0.11991659767633039 0.1123067296238078 0 -0.1322310788948737 0.10851182913913091 0 -0.14477191940608261 0.091442058316117014 0 -0.1322310788948737 0.10851182913913091 0 -0.14477191940608261 0.091442058316117014 0 -0.1230437022506831 0.097685150226556466 0 -0.1322310788948737 0.10851182913913091 0 -0.1230437022506831 0.097685150226556466 0 -0.11991659767633039 0.1123067296238078 0 -0.12642852363205551 0.083548666724364229 0 -0.14477191940608261 0.091442058316117014 0 -0.13613806645749249 0.070895983772519169 0 -0.12642852363205551 0.083548666724364229 0 -0.14477191940608261 0.091442058316117014 0 -0.1230437022506831 0.097685150226556466 0 -0.15731275991729121 0.074372287493102818 0 -0.14477191940608261 0.091442058316117014 0 -0.13613806645749249 0.070895983772519169 0 -0.15731275991729121 0.074372287493102818 0 -0.14477191940608261 0.091442058316117014 0 -0.15731275991729121 0.074372287493102818 0 -0.14702991144884889 0.056170128947902152 0 -0.15818939614580721 0.05971422100369228 0 -0.15731275991729121 0.074372287493102818 0 -0.14702991144884889 0.056170128947902152 0 -0.15731275991729121 0.074372287493102818 0 -0.13613806645749249 0.070895983772519169 0 -0.14702991144884889 0.056170128947902152 0 -0.13613806645749249 0.070895983772519169 0 -0.12702635663295581 0.054791870409709113 0 -0.11804968207354739 0.068161575164440588 0 -0.12642852363205551 0.083548666724364229 0 -0.13613806645749249 0.070895983772519169 0 -0.11804968207354739 0.068161575164440588 0 -0.13613806645749249 0.070895983772519169 0 -0.12702635663295581 0.054791870409709113 0 -0.14702991144884889 0.056170128947902152 0 -0.12702635663295581 0.054791870409709113 0 -0.1392095044703989 0.046679478464465372 0 -0.14702991144884889 0.056170128947902152 0 -0.142257240723897 0.034765515411120683 0 -0.12556371390992521 0.021500773221646109 0 -0.1238646014883993 0.03758829514287533 0 -0.1392095044703989 0.046679478464465372 0 -0.142257240723897 0.034765515411120683 0 -0.1238646014883993 0.03758829514287533 0 -0.12702635663295581 0.054791870409709113 0 -0.1392095044703989 0.046679478464465372 0 -0.1238646014883993 0.03758829514287533 0 -0.1392095044703989 0.046679478464465372 0 -0.142257240723897 0.034765515411120683 0 -0.1589507675378688 0.048030257600595247 0 -0.142257240723897 0.034765515411120683 0 -0.1589507675378688 0.048030257600595247 0 -0.142257240723897 0.034765515411120683 0 -0.1589507675378688 0.048030257600595247 0 -0.16299732453352481 0.038498906967889858 0 -0.142257240723897 0.034765515411120683 0 -0.16123220752162001 0.02601487536934545 0 -0.16299732453352481 0.038498906967889858 0 -0.1392095044703989 0.046679478464465372 0 -0.14702991144884889 0.056170128947902152 0 -0.1589507675378688 0.048030257600595247 0 -0.14702991144884889 0.056170128947902152 0 -0.15818939614580721 0.05971422100369228 0 -0.1589507675378688 0.048030257600595247 0 -0.14642400940646269 -0.001701145536478056 0 -0.13403602875563489 -0.0080065778185182575 0 -0.13822935966189301 0.010454227054453209 0 -0.115226511802166 -0.0051064212604388631 0 -0.13822935966189301 0.010454227054453209 0 -0.115226511802166 -0.0051064212604388631 0 -0.13822935966189301 0.010454227054453209 0 -0.12556371390992521 0.021500773221646109 0 -0.142257240723897 0.034765515411120683 0 -0.13822935966189301 0.010454227054453209 0 -0.12556371390992521 0.021500773221646109 0 -0.142257240723897 0.034765515411120683 0 -0.12556371390992521 0.021500773221646109 0 -0.13822935966189301 0.010454227054453209 0 -0.16123220752162001 0.02601487536934545 0 -0.142257240723897 0.034765515411120683 0 -0.13822935966189301 0.010454227054453209 0 -0.16123220752162001 0.02601487536934545 0 -0.13822935966189301 0.010454227054453209 0 -0.15088549648074301 0.0087296160464347822 0 -0.16123220752162001 0.02601487536934545 0 -0.14642400940646269 -0.001701145536478056 0 -0.1570037181854573 -0.0050714379004052857 0 -0.15088549648074301 0.0087296160464347822 0 -0.14642400940646269 -0.001701145536478056 0 -0.13822935966189301 0.010454227054453209 0 -0.15088549648074301 0.0087296160464347822 0 -0.16831881494547959 -0.00265338945297307 0 -0.15088549648074301 0.0087296160464347822 0 -0.16831881494547959 -0.00265338945297307 0 -0.15088549648074301 0.0087296160464347822 0 -0.16212353454230541 0.0071684152688532114 0 -0.1570037181854573 -0.0050714379004052857 0 -0.16831881494547959 -0.00265338945297307 0 -0.15088549648074301 0.0087296160464347822 0 -0.16212353454230541 0.0071684152688532114 0 -0.17105347945947849 0.01239728851256771 0 -0.16123220752162001 0.02601487536934545 0 -0.15088549648074301 0.0087296160464347822 0 -0.16212353454230541 0.0071684152688532114 0 -0.16123220752162001 0.02601487536934545 0 -0.16831881494547959 -0.00265338945297307 0 -0.16804789522504451 0.0050878444874636686 0 -0.1723716625347016 0.0053967370139699801 0 -0.16831881494547959 -0.00265338945297307 0 -0.16804789522504451 0.0050878444874636686 0 -0.16212353454230541 0.0071684152688532114 0 -0.16804789522504451 0.0050878444874636686 0 -0.17105347945947849 0.01239728851256771 0 -0.1723716625347016 0.0053967370139699801 0 -0.16804789522504451 0.0050878444874636686 0 -0.16212353454230541 0.0071684152688532114 0 -0.17105347945947849 0.01239728851256771 0 -0.17105347945947849 0.01239728851256771 0 -0.16123220752162001 0.02601487536934545 0 -0.1749251249507861 0.02105454284854795 0 -0.16123220752162001 0.02601487536934545 0 -0.17585397996936619 0.029182480263835901 0 -0.1749251249507861 0.02105454284854795 0 -0.17585397996936619 0.029182480263835901 0 -0.18209973109842059 0.02495865005188844 0 -0.1749251249507861 0.02105454284854795 0 -0.17585397996936619 0.029182480263835901 0 -0.1821273590620254 0.029856813476862729 0 -0.18348281606190711 0.034660230011723123 0 -0.17585397996936619 0.029182480263835901 0 -0.1821273590620254 0.029856813476862729 0 -0.18209973109842059 0.02495865005188844 0 -0.18707290911840779 0.030625893580003481 0 -0.18209973109842059 0.02495865005188844 0 -0.1915172687064825 0.025058144016687298 0 -0.1821273590620254 0.029856813476862729 0 -0.18707290911840779 0.030625893580003481 0 -0.18209973109842059 0.02495865005188844 0 -0.18209973109842059 0.02495865005188844 0 -0.1867118203953613 0.01811939422339414 0 -0.1800057195203133 0.01508064252374498 0 -0.18209973109842059 0.02495865005188844 0 -0.1867118203953613 0.01811939422339414 0 -0.1915172687064825 0.025058144016687298 0 -0.17105347945947849 0.01239728851256771 0 -0.1749251249507861 0.02105454284854795 0 -0.1800057195203133 0.01508064252374498 0 -0.18209973109842059 0.02495865005188844 0 -0.1749251249507861 0.02105454284854795 0 -0.1800057195203133 0.01508064252374498 0 -0.17105347945947849 0.01239728851256771 0 -0.1792608288335738 0.0063403605158862744 0 -0.1723716625347016 0.0053967370139699801 0 -0.17105347945947849 0.01239728851256771 0 -0.1800057195203133 0.01508064252374498 0 -0.1792608288335738 0.0063403605158862744 0 -0.1867118203953613 0.01811939422339414 0 -0.1800057195203133 0.01508064252374498 0 -0.18624191959321501 0.0085090857568374777 0 -0.1800057195203133 0.01508064252374498 0 -0.18624191959321501 0.0085090857568374777 0 -0.1792608288335738 0.0063403605158862744 0 -0.17765982974905589 -0.001048551291354075 0 -0.1888529714461713 -0.00014391918048344571 0 -0.1792608288335738 0.0063403605158862744 0 -0.1888529714461713 -0.00014391918048344571 0 -0.18624191959321501 0.0085090857568374777 0 -0.1792608288335738 0.0063403605158862744 0 -0.16831881494547959 -0.00265338945297307 0 -0.17765982974905589 -0.001048551291354075 0 -0.1723716625347016 0.0053967370139699801 0 -0.17765982974905589 -0.001048551291354075 0 -0.1792608288335738 0.0063403605158862744 0 -0.1723716625347016 0.0053967370139699801 0 -0.16482895930386671 0.052202167307117298 0 -0.1696913458097993 0.057523367031253159 0 -0.17084299278666129 0.045397842778490197 0 -0.16482895930386671 0.052202167307117298 0 -0.1589507675378688 0.048030257600595247 0 -0.17084299278666129 0.045397842778490197 0 -0.16482895930386671 0.052202167307117298 0 -0.1696913458097993 0.057523367031253159 0 -0.15818939614580721 0.05971422100369228 0 -0.16482895930386671 0.052202167307117298 0 -0.15818939614580721 0.05971422100369228 0 -0.1589507675378688 0.048030257600595247 0 -0.16123220752162001 0.02601487536934545 0 -0.18233147447045631 0.040287815602440949 0 -0.16123220752162001 0.02601487536934545 0 -0.16299732453352481 0.038498906967889858 0 -0.18233147447045631 0.040287815602440949 0 -0.1589507675378688 0.048030257600595247 0 -0.16299732453352481 0.038498906967889858 0 -0.17084299278666129 0.045397842778490197 0 -0.16299732453352481 0.038498906967889858 0 -0.17084299278666129 0.045397842778490197 0 -0.18233147447045631 0.040287815602440949 0 -0.16123220752162001 0.02601487536934545 0 -0.17585397996936619 0.029182480263835901 0 -0.18233147447045631 0.040287815602440949 0 -0.17585397996936619 0.029182480263835901 0 -0.18348281606190711 0.034660230011723123 0 -0.18423505538134691 0.04157552368423767 0 -0.17585397996936619 0.029182480263835901 0 -0.18233147447045631 0.040287815602440949 0 -0.18423505538134691 0.04157552368423767 0 -0.18348281606190711 0.034660230011723123 0 -0.18610089902361021 0.038698840745927457 0 -0.18423505538134691 0.04157552368423767 0 -0.18348281606190711 0.034660230011723123 0 -0.18610089902361021 0.038698840745927457 0 -0.18836392567633181 0.036760833230795549 0 -0.18707290911840779 0.030625893580003481 0 -0.18348281606190711 0.034660230011723123 0 -0.18836392567633181 0.036760833230795549 0 -0.1821273590620254 0.029856813476862729 0 -0.18707290911840779 0.030625893580003481 0 -0.18348281606190711 0.034660230011723123 0 -0.1828348619368311 0.043728326118744339 0 -0.18233147447045631 0.040287815602440949 0 -0.18050565871725699 0.047401036210995083 0 -0.1828348619368311 0.043728326118744339 0 -0.18452880194641341 0.045262298010341297 0 -0.18050565871725699 0.047401036210995083 0 -0.18233147447045631 0.040287815602440949 0 -0.18423505538134691 0.04157552368423767 0 -0.1828348619368311 0.043728326118744339 0 -0.18233147447045631 0.040287815602440949 0 -0.18423505538134691 0.04157552368423767 0 -0.18610089902361021 0.038698840745927457 0 -0.18423505538134691 0.04157552368423767 0 -0.18832179897485479 0.041798776056953528 0 -0.18423505538134691 0.04157552368423767 0 -0.18452880194641341 0.045262298010341297 0 -0.18832179897485479 0.041798776056953528 0 -0.18452880194641341 0.045262298010341297 0 -0.18812790412000899 0.048031854632264587 0 -0.18832179897485479 0.041798776056953528 0 -0.1828348619368311 0.043728326118744339 0 -0.18423505538134691 0.04157552368423767 0 -0.18452880194641341 0.045262298010341297 0 -0.1696913458097993 0.057523367031253159 0 -0.18233147447045631 0.040287815602440949 0 -0.18050565871725699 0.047401036210995083 0 -0.18452880194641341 0.045262298010341297 0 -0.1839546761711934 0.049315146150966722 0 -0.18812790412000899 0.048031854632264587 0 -0.1839546761711934 0.049315146150966722 0 -0.18586485913076661 0.053679978060218327 0 -0.18812790412000899 0.048031854632264587 0 -0.1696913458097993 0.057523367031253159 0 -0.17084299278666129 0.045397842778490197 0 -0.18233147447045631 0.040287815602440949 0 -0.1696913458097993 0.057523367031253159 0 -0.18233147447045631 0.040287815602440949 0 -0.1839546761711934 0.049315146150966722 0 -0.18586485913076661 0.053679978060218327 0 -0.18117283199680781 0.051927667987748283 0 -0.18586485913076661 0.053679978060218327 0 -0.18117283199680781 0.051927667987748283 0 -0.18048564394735611 0.055193267744562673 0 -0.18117283199680781 0.051927667987748283 0 -0.18050565871725699 0.047401036210995083 0 -0.17777937117164891 0.054632327248322912 0 -0.18117283199680781 0.051927667987748283 0 -0.17777937117164891 0.054632327248322912 0 -0.18048564394735611 0.055193267744562673 0 -0.1839546761711934 0.049315146150966722 0 -0.18117283199680781 0.051927667987748283 0 -0.18050565871725699 0.047401036210995083 0 -0.18452880194641341 0.045262298010341297 0 -0.1839546761711934 0.049315146150966722 0 -0.18050565871725699 0.047401036210995083 0 -0.1696913458097993 0.057523367031253159 0 -0.18050565871725699 0.047401036210995083 0 -0.17777937117164891 0.054632327248322912 0 -0.1696913458097993 0.057523367031253159 0 -0.17777937117164891 0.054632327248322912 0 -0.17712551349020131 0.060533097681961169 0 -0.17777937117164891 0.054632327248322912 0 -0.17712551349020131 0.060533097681961169 0 -0.18048564394735611 0.055193267744562673 0 -0.18586485913076661 0.053679978060218327 0 -0.17712551349020131 0.060533097681961169 0 -0.18048564394735611 0.055193267744562673 0 -0.17712551349020131 0.060533097681961169 0 -0.20367951230840939 0.057562017259531043 0 -0.19049206264362301 0.068810059209448604 0 -0.18586485913076661 0.053679978060218327 0 -0.17712551349020131 0.060533097681961169 0 -0.20367951230840939 0.057562017259531043 0 -0.18586485913076661 0.053679978060218327 0 -0.1924173274006275 0.051230688086006157 0 -0.20367951230840939 0.057562017259531043 0 -0.17712551349020131 0.060533097681961169 0 -0.20367951230840939 0.057562017259531043 0 -0.1924173274006275 0.051230688086006157 0 -0.1955897786808326 0.04538917525933945 0 -0.20367951230840939 0.057562017259531043 0 -0.1924173274006275 0.051230688086006157 0 -0.18812790412000899 0.048031854632264587 0 -0.1955897786808326 0.04538917525933945 0 -0.18586485913076661 0.053679978060218327 0 -0.1924173274006275 0.051230688086006157 0 -0.18812790412000899 0.048031854632264587 0 -0.18812790412000899 0.048031854632264587 0 -0.18832179897485479 0.041798776056953528 0 -0.1955897786808326 0.04538917525933945 0 -0.18832179897485479 0.041798776056953528 0 -0.1944728747172749 0.036709877084512052 0 -0.1955897786808326 0.04538917525933945 0 -0.1955897786808326 0.04538917525933945 0 -0.2065192545638202 0.037001838436768998 0 -0.20367951230840939 0.057562017259531043 0 -0.18610089902361021 0.038698840745927457 0 -0.18832179897485479 0.041798776056953528 0 -0.18836392567633181 0.036760833230795549 0 -0.18707290911840779 0.030625893580003481 0 -0.18836392567633181 0.036760833230795549 0 -0.1944728747172749 0.036709877084512052 0 -0.18832179897485479 0.041798776056953528 0 -0.18836392567633181 0.036760833230795549 0 -0.1944728747172749 0.036709877084512052 0 -0.1944728747172749 0.036709877084512052 0 -0.2065192545638202 0.037001838436768998 0 -0.19914798048491031 0.02499816635629442 0 -0.1944728747172749 0.036709877084512052 0 -0.1955897786808326 0.04538917525933945 0 -0.2065192545638202 0.037001838436768998 0 -0.2065192545638202 0.037001838436768998 0 -0.21237457700132689 0.056589141699139478 0 -0.2269030451965342 0.038329569224807319 0 -0.2065192545638202 0.037001838436768998 0 -0.21237457700132689 0.056589141699139478 0 -0.20367951230840939 0.057562017259531043 0 -0.2065192545638202 0.037001838436768998 0 -0.20367951230840939 0.057562017259531043 0 -0.21237457700132689 0.056589141699139478 0 -0.2082070651755335 0.061826926109596267 0 -0.2218586514247988 0.063662095346079875 0 -0.21237457700132689 0.056589141699139478 0 -0.20367951230840939 0.057562017259531043 0 -0.2082070651755335 0.061826926109596267 0 -0.21237457700132689 0.056589141699139478 0 -0.20367951230840939 0.057562017259531043 0 -0.21237457700132689 0.056589141699139478 0 -0.2082070651755335 0.061826926109596267 0 -0.1963294581927692 0.0044518951397891421 0 -0.2093589968192324 0.016441659614007158 0 -0.20357769398676401 0.00034007957464262973 0 -0.1954936733531995 -0.003228201738071426 0 -0.1963294581927692 0.0044518951397891421 0 -0.20357769398676401 0.00034007957464262973 0 -0.1888529714461713 -0.00014391918048344571 0 -0.18624191959321501 0.0085090857568374777 0 -0.1963294581927692 0.0044518951397891421 0 -0.1888529714461713 -0.00014391918048344571 0 -0.1954936733531995 -0.003228201738071426 0 -0.1963294581927692 0.0044518951397891421 0 -0.1867118203953613 0.01811939422339414 0 -0.18624191959321501 0.0085090857568374777 0 -0.19493020648030479 0.01625021912939412 0 -0.18624191959321501 0.0085090857568374777 0 -0.1963294581927692 0.0044518951397891421 0 -0.19493020648030479 0.01625021912939412 0 -0.1963294581927692 0.0044518951397891421 0 -0.19493020648030479 0.01625021912939412 0 -0.2093589968192324 0.016441659614007158 0 -0.19493020648030479 0.01625021912939412 0 -0.19914798048491031 0.02499816635629442 0 -0.2093589968192324 0.016441659614007158 0 -0.1867118203953613 0.01811939422339414 0 -0.19493020648030479 0.01625021912939412 0 -0.1915172687064825 0.025058144016687298 0 -0.19493020648030479 0.01625021912939412 0 -0.1915172687064825 0.025058144016687298 0 -0.19914798048491031 0.02499816635629442 0 -0.1944728747172749 0.036709877084512052 0 -0.1915172687064825 0.025058144016687298 0 -0.19914798048491031 0.02499816635629442 0 -0.18707290911840779 0.030625893580003481 0 -0.1944728747172749 0.036709877084512052 0 -0.1915172687064825 0.025058144016687298 0 -0.2065192545638202 0.037001838436768998 0 -0.19914798048491031 0.02499816635629442 0 -0.2093589968192324 0.016441659614007158 0 -0.2065192545638202 0.037001838436768998 0 -0.2093589968192324 0.016441659614007158 0 -0.2065192545638202 0.037001838436768998 0 -0.2093589968192324 0.016441659614007158 0 -0.223399550060214 0.023162674439533591 0 -0.21219873907464229 -0.0041185192087549623 0 -0.2093589968192324 0.016441659614007158 0 -0.20357769398676401 0.00034007957464262973 0 -0.21219873907464229 -0.0041185192087549623 0 -0.2093589968192324 0.016441659614007158 0 -0.2268151262331938 0.0079757387708624707 0 -0.21219873907464229 -0.0041185192087549623 0 -0.2093589968192324 0.016441659614007158 0 -0.23398509219838731 -0.003613805613181829 0 -0.22257372977858761 -0.0021406666127273418 0 -0.2268151262331938 0.0079757387708624707 0 -0.23398509219838731 -0.003613805613181829 0 -0.2268151262331938 0.0079757387708624707 0 -0.23821660886132071 0.0082338086275271245 0 -0.21219873907464229 -0.0041185192087549623 0 -0.22257372977858761 -0.0021406666127273418 0 -0.2268151262331938 0.0079757387708624707 0 -0.21219873907464229 -0.0041185192087549623 0 -0.2268151262331938 0.0079757387708624707 0 -0.2268151262331938 0.0079757387708624707 0 -0.24143151339174609 0.020069996750478949 0 -0.24143151339174609 0.020069996750478949 0 -0.2269030451965342 0.038329569224807319 0 -0.2093589968192324 0.016441659614007158 0 -0.2268151262331938 0.0079757387708624707 0 -0.223399550060214 0.023162674439533591 0 -0.2268151262331938 0.0079757387708624707 0 -0.223399550060214 0.023162674439533591 0 -0.24143151339174609 0.020069996750478949 0 -0.223399550060214 0.023162674439533591 0 -0.24143151339174609 0.020069996750478949 0 -0.2269030451965342 0.038329569224807319 0 -0.2597052711129415 0.035190528092441047 0 -0.24143151339174609 0.020069996750478949 0 -0.2429824530272118 0.036545740743802048 0 -0.25063470362195589 0.0085033046019488169 0 -0.25582068447716549 0.021865121567430239 0 -0.24143151339174609 0.020069996750478949 0 -0.23398509219838731 -0.003613805613181829 0 -0.25063470362195589 0.0085033046019488169 0 -0.23398509219838731 -0.003613805613181829 0 -0.25063470362195589 0.0085033046019488169 0 -0.23821660886132071 0.0082338086275271245 0 -0.2268151262331938 0.0079757387708624707 0 -0.24143151339174609 0.020069996750478949 0 -0.23821660886132071 0.0082338086275271245 0 -0.25063470362195589 0.0085033046019488169 0 -0.24143151339174609 0.020069996750478949 0 -0.25063470362195589 0.0085033046019488169 0 -0.24143151339174609 0.020069996750478949 0 -0.23821660886132071 0.0082338086275271245 0 -0.21237457700132689 0.056589141699139478 0 -0.24185560046368451 0.053290561615520669 0 -0.21237457700132689 0.056589141699139478 0 -0.2269030451965342 0.038329569224807319 0 -0.21237457700132689 0.056589141699139478 0 -0.24185560046368451 0.053290561615520669 0 -0.2218586514247988 0.063662095346079875 0 -0.21237457700132689 0.056589141699139478 0 -0.2269030451965342 0.038329569224807319 0 -0.24185560046368451 0.053290561615520669 0 -0.2065192545638202 0.037001838436768998 0 -0.223399550060214 0.023162674439533591 0 -0.2269030451965342 0.038329569224807319 0 -0.24143151339174609 0.020069996750478949 0 -0.2269030451965342 0.038329569224807319 0 -0.2429824530272118 0.036545740743802048 0 -0.2269030451965342 0.038329569224807319 0 -0.2429824530272118 0.036545740743802048 0 -0.24185560046368451 0.053290561615520669 0 -0.2597052711129415 0.035190528092441047 0 -0.2429824530272118 0.036545740743802048 0 -0.24185560046368451 0.053290561615520669 0 -0.25943529823522399 0.059019700450983613 0 -0.24185560046368451 0.053290561615520669 0 -0.24770149933459509 0.067117001175783092 0 -0.24185560046368451 0.053290561615520669 0 -0.24770149933459509 0.067117001175783092 0 -0.23108532794807021 0.071384512207877573 0 -0.24770149933459509 0.067117001175783092 0 -0.2436608082664318 0.080445035613856797 0 -0.23108532794807021 0.071384512207877573 0 -0.2548639998140993 0.091924317762235891 0 -0.2436608082664318 0.080445035613856797 0 -0.23773834545446429 0.094138799356788927 0 -0.2436608082664318 0.080445035613856797 0 -0.22917922254403639 0.082914644265530302 0 -0.23108532794807021 0.071384512207877573 0 -0.2436608082664318 0.080445035613856797 0 -0.22917922254403639 0.082914644265530302 0 -0.23773834545446429 0.094138799356788927 0 -0.22917922254403639 0.082914644265530302 0 -0.21764094451583721 0.093385539050863706 0 -0.23773834545446429 0.094138799356788927 0 -0.22917922254403639 0.082914644265530302 0 -0.2157706865353787 0.075219335098264506 0 -0.21764094451583721 0.093385539050863706 0 -0.24185560046368451 0.053290561615520669 0 -0.23108532794807021 0.071384512207877573 0 -0.2218586514247988 0.063662095346079875 0 -0.22917922254403639 0.082914644265530302 0 -0.23108532794807021 0.071384512207877573 0 -0.2157706865353787 0.075219335098264506 0 -0.23108532794807021 0.071384512207877573 0 -0.2218586514247988 0.063662095346079875 0 -0.2157706865353787 0.075219335098264506 0 -0.2082070651755335 0.061826926109596267 0 -0.2218586514247988 0.063662095346079875 0 -0.2157706865353787 0.075219335098264506 0 -0.2082070651755335 0.061826926109596267 0 -0.2157706865353787 0.075219335098264506 0 -0.20079964999220001 0.078412671607937967 0 -0.20367951230840939 0.057562017259531043 0 -0.2082070651755335 0.061826926109596267 0 -0.20079964999220001 0.078412671607937967 0 -0.21764094451583721 0.093385539050863706 0 -0.20079964999220001 0.078412671607937967 0 -0.19791978767599211 0.099263325956345128 0 -0.2157706865353787 0.075219335098264506 0 -0.21764094451583721 0.093385539050863706 0 -0.20079964999220001 0.078412671607937967 0 -0.20079964999220001 0.078412671607937967 0 -0.19791978767599211 0.099263325956345128 0 -0.20079964999220001 0.078412671607937967 0 -0.1879892553666587 0.087083467569649256 0 -0.19791978767599211 0.099263325956345128 0 -0.1872514930496483 0.077089368912047651 0 -0.20079964999220001 0.078412671607937967 0 -0.1879892553666587 0.087083467569649256 0 -0.20367951230840939 0.057562017259531043 0 -0.20079964999220001 0.078412671607937967 0 -0.1872514930496483 0.077089368912047651 0 -0.20079964999220001 0.078412671607937967 0 -0.19049206264362301 0.068810059209448604 0 -0.20367951230840939 0.057562017259531043 0 -0.20079964999220001 0.078412671607937967 0 -0.19049206264362301 0.068810059209448604 0 -0.19503992535978421 0.1201139803047523 0 -0.19791978767599211 0.099263325956345128 0 -0.21321919374407419 0.1138031531354266 0 -0.19503992535978421 0.1201139803047523 0 -0.19791978767599211 0.099263325956345128 0 -0.17183932378059499 0.1000864482500534 0 -0.19503992535978421 0.1201139803047523 0 -0.19791978767599211 0.099263325956345128 0 -0.21764094451583721 0.093385539050863706 0 -0.19791978767599211 0.099263325956345128 0 -0.21321919374407419 0.1138031531354266 0 -0.19503992535978421 0.1201139803047523 0 -0.21321919374407419 0.1138031531354266 0 -0.20622636221751131 0.1254579640344537 0 -0.21321919374407419 0.1138031531354266 0 -0.20622636221751131 0.1254579640344537 0 -0.21645778210918759 0.12551751538212899 0 -0.21321919374407419 0.1138031531354266 0 -0.23014033791959351 0.1237003322551843 0 -0.23155072093114759 0.10841997474038879 0 -0.21321919374407419 0.1138031531354266 0 -0.23014033791959351 0.1237003322551843 0 -0.21645778210918759 0.12551751538212899 0 -0.21764094451583721 0.093385539050863706 0 -0.23155072093114759 0.10841997474038879 0 -0.23773834545446429 0.094138799356788927 0 -0.21764094451583721 0.093385539050863706 0 -0.21321919374407419 0.1138031531354266 0 -0.23155072093114759 0.10841997474038879 0 -0.23155072093114759 0.10841997474038879 0 -0.24704274383992669 0.10260709758313501 0 -0.24820560511999909 0.11670035018604551 0 -0.2548639998140993 0.091924317762235891 0 -0.23773834545446429 0.094138799356788927 0 -0.24704274383992669 0.10260709758313501 0 -0.23155072093114759 0.10841997474038879 0 -0.23773834545446429 0.094138799356788927 0 -0.24704274383992669 0.10260709758313501 0 -0.23014033791959351 0.1237003322551843 0 -0.23155072093114759 0.10841997474038879 0 -0.24820560511999909 0.11670035018604551 0 -0.23014033791959351 0.1237003322551843 0 -0.24820560511999909 0.11670035018604551 0 -0.24702096395296941 0.13680256244353869 0 -0.23014033791959351 0.1237003322551843 0 -0.24702096395296941 0.13680256244353869 0 -0.22454897615181679 0.1435852647793732 0 -0.23014033791959351 0.1237003322551843 0 -0.22454897615181679 0.1435852647793732 0 -0.21645778210918759 0.12551751538212899 0 -0.24702096395296941 0.13680256244353869 0 -0.22454897615181679 0.1435852647793732 0 -0.24214244087031661 0.16195742131273111 0 -0.25608151350697361 0.18018137179612431 0 -0.24214244087031661 0.16195742131273111 0 -0.23506578367054129 0.18488541554450119 0 -0.24214244087031661 0.16195742131273111 0 -0.23506578367054129 0.18488541554450119 0 -0.22395940801917569 0.1691248429295627 0 -0.23506578367054129 0.18488541554450119 0 -0.21806266385575801 0.18131556522143269 0 -0.22306182606506211 0.19312143816771141 0 -0.23506578367054129 0.18488541554450119 0 -0.22395940801917569 0.1691248429295627 0 -0.21806266385575801 0.18131556522143269 0 -0.22454897615181679 0.1435852647793732 0 -0.24214244087031661 0.16195742131273111 0 -0.22395940801917569 0.1691248429295627 0 -0.22454897615181679 0.1435852647793732 0 -0.22395940801917569 0.1691248429295627 0 -0.21276839398636549 0.1568613294116111 0 -0.22395940801917569 0.1691248429295627 0 -0.21276839398636549 0.1568613294116111 0 -0.21028555792365211 0.17138116639290221 0 -0.21276839398636549 0.1568613294116111 0 -0.21028555792365211 0.17138116639290221 0 -0.2003537947036943 0.15942570944658549 0 -0.21028555792365211 0.17138116639290221 0 -0.21806266385575801 0.18131556522143269 0 -0.20857325708675589 0.1873474827821503 0 -0.21028555792365211 0.17138116639290221 0 -0.20857325708675589 0.1873474827821503 0 -0.19812662007966589 0.17745797420725129 0 -0.21806266385575801 0.18131556522143269 0 -0.20857325708675589 0.1873474827821503 0 -0.22306182606506211 0.19312143816771141 0 -0.22395940801917569 0.1691248429295627 0 -0.21028555792365211 0.17138116639290221 0 -0.21806266385575801 0.18131556522143269 0 -0.19812662007966589 0.17745797420725129 0 -0.198452606424841 0.19764406680299129 0 -0.18245381394098251 0.18314936233388721 0 -0.20857325708675589 0.1873474827821503 0 -0.19812662007966589 0.17745797420725129 0 -0.198452606424841 0.19764406680299129 0 -0.19812662007966589 0.17745797420725129 0 -0.1889888354577027 0.16700083402441199 0 -0.18245381394098251 0.18314936233388721 0 -0.19812662007966589 0.17745797420725129 0 -0.2003537947036943 0.15942570944658549 0 -0.1889888354577027 0.16700083402441199 0 -0.21028555792365211 0.17138116639290221 0 -0.19812662007966589 0.17745797420725129 0 -0.2003537947036943 0.15942570944658549 0 -0.2003537947036943 0.15942570944658549 0 -0.1889888354577027 0.16700083402441199 0 -0.18949746045936119 0.15633066601134471 0 -0.18949746045936119 0.15633066601134471 0 -0.19359671738855619 0.14691616191336629 0 -0.1830772756687061 0.14947265486732839 0 -0.2003537947036943 0.15942570944658549 0 -0.18949746045936119 0.15633066601134471 0 -0.19359671738855619 0.14691616191336629 0 -0.2003537947036943 0.15942570944658549 0 -0.19359671738855619 0.14691616191336629 0 -0.20585133142261769 0.14640331491800351 0 -0.19359671738855619 0.14691616191336629 0 -0.19703961231517839 0.13298458346886299 0 -0.20585133142261769 0.14640331491800351 0 -0.19359671738855619 0.14691616191336629 0 -0.18585114692626251 0.13860670032637071 0 -0.1830772756687061 0.14947265486732839 0 -0.19359671738855619 0.14691616191336629 0 -0.19703961231517839 0.13298458346886299 0 -0.18585114692626251 0.13860670032637071 0 -0.19703961231517839 0.13298458346886299 0 -0.1863658876438998 0.12580060900700371 0 -0.18585114692626251 0.13860670032637071 0 -0.19503992535978421 0.1201139803047523 0 -0.19703961231517839 0.13298458346886299 0 -0.1863658876438998 0.12580060900700371 0 -0.19503992535978421 0.1201139803047523 0 -0.19703961231517839 0.13298458346886299 0 -0.20622636221751131 0.1254579640344537 0 -0.19703961231517839 0.13298458346886299 0 -0.2093752975593324 0.1348705878810976 0 -0.20585133142261769 0.14640331491800351 0 -0.22454897615181679 0.1435852647793732 0 -0.2093752975593324 0.1348705878810976 0 -0.21645778210918759 0.12551751538212899 0 -0.19703961231517839 0.13298458346886299 0 -0.2093752975593324 0.1348705878810976 0 -0.20622636221751131 0.1254579640344537 0 -0.2093752975593324 0.1348705878810976 0 -0.20622636221751131 0.1254579640344537 0 -0.21645778210918759 0.12551751538212899 0 -0.22454897615181679 0.1435852647793732 0 -0.2093752975593324 0.1348705878810976 0 -0.20585133142261769 0.14640331491800351 0 -0.22454897615181679 0.1435852647793732 0 -0.21276839398636549 0.1568613294116111 0 -0.20585133142261769 0.14640331491800351 0 -0.21276839398636549 0.1568613294116111 0 -0.2003537947036943 0.15942570944658549 0 -0.20585133142261769 0.14640331491800351 0 -0.23542205803977931 0.26058075231148192 0 -0.22246037984147479 0.24532269043558419 0 -0.24155900053292409 0.23669791689546971 0 -0.22246037984147479 0.24532269043558419 0 -0.24155900053292409 0.23669791689546971 0 -0.22800519972080999 0.22441834408378461 0 -0.23542205803977931 0.26058075231148192 0 -0.24155900053292409 0.23669791689546971 0 -0.25868150502251502 0.25221069028746462 0 -0.23542205803977931 0.26058075231148192 0 -0.24155900053292409 0.23669791689546971 0 -0.24155900053292409 0.23669791689546971 0 -0.24882025701995009 0.20843964434579729 0 -0.24155900053292409 0.23669791689546971 0 -0.22800519972080999 0.22441834408378461 0 -0.23506783132535991 0.21450338720711071 0 -0.24155900053292409 0.23669791689546971 0 -0.23506783132535991 0.21450338720711071 0 -0.24882025701995009 0.20843964434579729 0 -0.24155900053292409 0.23669791689546971 0 -0.22800519972080999 0.22441834408378461 0 -0.22246037984147479 0.24532269043558419 0 -0.22800519972080999 0.22441834408378461 0 -0.21217274354796001 0.23145279210134909 0 -0.22800519972080999 0.22441834408378461 0 -0.2233784434652803 0.20627386651550739 0 -0.2144513989086993 0.2121387712720956 0 -0.22800519972080999 0.22441834408378461 0 -0.2233784434652803 0.20627386651550739 0 -0.23506783132535991 0.21450338720711071 0 -0.22800519972080999 0.22441834408378461 0 -0.2144513989086993 0.2121387712720956 0 -0.2233784434652803 0.20627386651550739 0 -0.2144513989086993 0.2121387712720956 0 -0.2233784434652803 0.20627386651550739 0 -0.23506783132535991 0.21450338720711071 0 -0.23307882830923879 0.20144475035612561 0 -0.23506783132535991 0.21450338720711071 0 -0.24882025701995009 0.20843964434579729 0 -0.23307882830923879 0.20144475035612561 0 -0.23506578367054129 0.18488541554450119 0 -0.24882025701995009 0.20843964434579729 0 -0.23307882830923879 0.20144475035612561 0 -0.25608151350697361 0.18018137179612431 0 -0.23506578367054129 0.18488541554450119 0 -0.24882025701995009 0.20843964434579729 0 -0.23506578367054129 0.18488541554450119 0 -0.23307882830923879 0.20144475035612561 0 -0.22306182606506211 0.19312143816771141 0 -0.2233784434652803 0.20627386651550739 0 -0.22306182606506211 0.19312143816771141 0 -0.21203301189013221 0.1987312790632936 0 -0.2233784434652803 0.20627386651550739 0 -0.23307882830923879 0.20144475035612561 0 -0.22306182606506211 0.19312143816771141 0 -0.21203301189013221 0.1987312790632936 0 -0.198452606424841 0.19764406680299129 0 -0.2144513989086993 0.2121387712720956 0 -0.20857325708675589 0.1873474827821503 0 -0.22306182606506211 0.19312143816771141 0 -0.21203301189013221 0.1987312790632936 0 -0.20857325708675589 0.1873474827821503 0 -0.21203301189013221 0.1987312790632936 0 -0.198452606424841 0.19764406680299129 0 -0.198452606424841 0.19764406680299129 0 -0.18245381394098251 0.18314936233388721 0 -0.20003011311290589 0.21197969590069221 0 -0.194450662859488 0.22527888850202621 0 -0.18432367256007551 0.21277843223067419 0 -0.198452606424841 0.19764406680299129 0 -0.20003011311290589 0.21197969590069221 0 -0.18432367256007551 0.21277843223067419 0 -0.20003011311290589 0.21197969590069221 0 -0.2144513989086993 0.2121387712720956 0 -0.194450662859488 0.22527888850202621 0 -0.2144513989086993 0.2121387712720956 0 -0.194450662859488 0.22527888850202621 0 -0.198452606424841 0.19764406680299129 0 -0.2144513989086993 0.2121387712720956 0 -0.198452606424841 0.19764406680299129 0 -0.20003011311290589 0.21197969590069221 0 -0.2144513989086993 0.2121387712720956 0 -0.2233784434652803 0.20627386651550739 0 -0.21203301189013221 0.1987312790632936 0 -0.2144513989086993 0.2121387712720956 0 -0.22800519972080999 0.22441834408378461 0 -0.2144513989086993 0.2121387712720956 0 -0.21217274354796001 0.23145279210134909 0 -0.2144513989086993 0.2121387712720956 0 -0.21217274354796001 0.23145279210134909 0 -0.194450662859488 0.22527888850202621 0 -0.2014960764093281 0.25010526621325518 0 -0.21217274354796001 0.23145279210134909 0 -0.194450662859488 0.22527888850202621 0 -0.2014960764093281 0.25010526621325518 0 -0.194450662859488 0.22527888850202621 0 -0.18601518914558959 0.2478148674771414 0 -0.2014960764093281 0.25010526621325518 0 -0.22246037984147479 0.24532269043558419 0 -0.21217274354796001 0.23145279210134909 0 -0.15444919076106531 0.25155912296188709 0 -0.1744499268102766 0.23841900573195671 0 -0.15444919076106531 0.25155912296188709 0 -0.15878765224872629 0.2470058102655758 0 -0.1744499268102766 0.23841900573195671 0 -0.17279903986257189 0.25969803152923548 0 -0.15444919076106531 0.25155912296188709 0 -0.1744499268102766 0.23841900573195671 0 -0.15878765224872629 0.2470058102655758 0 -0.159240765687472 0.23862615984992461 0 -0.1744499268102766 0.23841900573195671 0 -0.15878765224872629 0.2470058102655758 0 -0.159240765687472 0.23862615984992461 0 -0.15271020934695681 0.2416742588788508 0 -0.159240765687472 0.23862615984992461 0 -0.16245553784478661 0.23236503980717771 0 -0.15381350884951189 0.23235206216390139 0 -0.159240765687472 0.23862615984992461 0 -0.1744499268102766 0.23841900573195671 0 -0.16245553784478661 0.23236503980717771 0 -0.17279903986257189 0.25969803152923548 0 -0.18601518914558959 0.2478148674771414 0 -0.1744499268102766 0.23841900573195671 0 -0.194450662859488 0.22527888850202621 0 -0.18601518914558959 0.2478148674771414 0 -0.1744499268102766 0.23841900573195671 0 -0.194450662859488 0.22527888850202621 0 -0.1732504521465624 0.22452639646595091 0 -0.18432367256007551 0.21277843223067419 0 -0.194450662859488 0.22527888850202621 0 -0.1744499268102766 0.23841900573195671 0 -0.194450662859488 0.22527888850202621 0 -0.1744499268102766 0.23841900573195671 0 -0.1732504521465624 0.22452639646595091 0 -0.1732504521465624 0.22452639646595091 0 -0.16245553784478661 0.23236503980717771 0 -0.15704759916298069 0.2233701616892973 0 -0.1732504521465624 0.22452639646595091 0 -0.15704759916298069 0.2233701616892973 0 -0.16677531364176701 0.21494685083457349 0 -0.1744499268102766 0.23841900573195671 0 -0.1732504521465624 0.22452639646595091 0 -0.16245553784478661 0.23236503980717771 0 -0.16245553784478661 0.23236503980717771 0 -0.15704759916298069 0.2233701616892973 0 -0.15381350884951189 0.23235206216390139 0 -0.16677531364176701 0.21494685083457349 0 -0.1750294000048962 0.19923947738007189 0 -0.16224179633344241 0.20242525623145541 0 -0.15704759916298069 0.2233701616892973 0 -0.16677531364176701 0.21494685083457349 0 -0.15574272208282841 0.21053463499594621 0 -0.16677531364176701 0.21494685083457349 0 -0.16224179633344241 0.20242525623145541 0 -0.15574272208282841 0.21053463499594621 0 -0.16224179633344241 0.20242525623145541 0 -0.15325607965056659 0.19890119097432599 0 -0.15574272208282841 0.21053463499594621 0 -0.16677531364176701 0.21494685083457349 0 -0.18432367256007551 0.21277843223067419 0 -0.1750294000048962 0.19923947738007189 0 -0.198452606424841 0.19764406680299129 0 -0.18432367256007551 0.21277843223067419 0 -0.1750294000048962 0.19923947738007189 0 -0.1732504521465624 0.22452639646595091 0 -0.16677531364176701 0.21494685083457349 0 -0.18432367256007551 0.21277843223067419 0 -0.198452606424841 0.19764406680299129 0 -0.1750294000048962 0.19923947738007189 0 -0.18245381394098251 0.18314936233388721 0 -0.1750294000048962 0.19923947738007189 0 -0.172520931722633 0.18805154844867689 0 -0.18245381394098251 0.18314936233388721 0 -0.1750294000048962 0.19923947738007189 0 -0.172520931722633 0.18805154844867689 0 -0.16215877264782269 0.19057938451634829 0 -0.1750294000048962 0.19923947738007189 0 -0.16224179633344241 0.20242525623145541 0 -0.16215877264782269 0.19057938451634829 0 -0.16224179633344241 0.20242525623145541 0 -0.16215877264782269 0.19057938451634829 0 -0.15325607965056659 0.19890119097432599 0 -0.16215877264782269 0.19057938451634829 0 -0.1506679678356663 0.1895913066263554 0 -0.15325607965056659 0.19890119097432599 0 -0.1506679678356663 0.1895913066263554 0 -0.15325607965056659 0.19890119097432599 0 -0.1434759029640692 0.19709455395591249 0 -0.15325607965056659 0.19890119097432599 0 -0.1434759029640692 0.19709455395591249 0 -0.14667761775374349 0.20641915564632579 0 -0.1506679678356663 0.1895913066263554 0 -0.1434759029640692 0.19709455395591249 0 -0.13991634602076941 0.1841686369316653 0 -0.13132583227588951 0.1984809430765514 0 -0.13991634602076941 0.1841686369316653 0 -0.1211366920473007 0.1872624732447262 0 -0.1434759029640692 0.19709455395591249 0 -0.13132583227588951 0.1984809430765514 0 -0.13991634602076941 0.1841686369316653 0 -0.1434759029640692 0.19709455395591249 0 -0.13132583227588951 0.1984809430765514 0 -0.1382587917475285 0.20756120723582189 0 -0.13132583227588951 0.1984809430765514 0 -0.1382587917475285 0.20756120723582189 0 -0.12960785772464989 0.21202562691329069 0 -0.13132583227588951 0.1984809430765514 0 -0.12960785772464989 0.21202562691329069 0 -0.1197734775314844 0.2059099039070999 0 -0.12960785772464989 0.21202562691329069 0 -0.13707330109192159 0.21778665368076741 0 -0.13026641761056301 0.22284687588537819 0 -0.12960785772464989 0.21202562691329069 0 -0.13026641761056301 0.22284687588537819 0 -0.12094932609051259 0.21956817769412521 0 -0.1382587917475285 0.20756120723582189 0 -0.12960785772464989 0.21202562691329069 0 -0.13707330109192159 0.21778665368076741 0 -0.1382587917475285 0.20756120723582189 0 -0.13707330109192159 0.21778665368076741 0 -0.14298995782234361 0.21253930531138859 0 -0.14298995782234361 0.21253930531138859 0 -0.14667761775374349 0.20641915564632579 0 -0.1484579259544701 0.2171451945996993 0 -0.13707330109192159 0.21778665368076741 0 -0.14298995782234361 0.21253930531138859 0 -0.1429992866676135 0.22165757697541649 0 -0.14298995782234361 0.21253930531138859 0 -0.1484579259544701 0.2171451945996993 0 -0.1429992866676135 0.22165757697541649 0 -0.1434759029640692 0.19709455395591249 0 -0.1382587917475285 0.20756120723582189 0 -0.14667761775374349 0.20641915564632579 0 -0.1382587917475285 0.20756120723582189 0 -0.14298995782234361 0.21253930531138859 0 -0.14667761775374349 0.20641915564632579 0 -0.15325607965056659 0.19890119097432599 0 -0.14667761775374349 0.20641915564632579 0 -0.15574272208282841 0.21053463499594621 0 -0.14667761775374349 0.20641915564632579 0 -0.15574272208282841 0.21053463499594621 0 -0.1484579259544701 0.2171451945996993 0 -0.15704759916298069 0.2233701616892973 0 -0.15574272208282841 0.21053463499594621 0 -0.1484579259544701 0.2171451945996993 0 -0.15704759916298069 0.2233701616892973 0 -0.1484579259544701 0.2171451945996993 0 -0.14741223911667131 0.22663799204843349 0 -0.15381350884951189 0.23235206216390139 0 -0.14741223911667131 0.22663799204843349 0 -0.14579537912113449 0.2338606549080581 0 -0.15704759916298069 0.2233701616892973 0 -0.15381350884951189 0.23235206216390139 0 -0.14741223911667131 0.22663799204843349 0 -0.14741223911667131 0.22663799204843349 0 -0.14579537912113449 0.2338606549080581 0 -0.13907303086360509 0.2279989064890966 0 -0.14579537912113449 0.2338606549080581 0 -0.13907303086360509 0.2279989064890966 0 -0.13931672118259031 0.23680181014177079 0 -0.14741223911667131 0.22663799204843349 0 -0.1429992866676135 0.22165757697541649 0 -0.13907303086360509 0.2279989064890966 0 -0.1484579259544701 0.2171451945996993 0 -0.14741223911667131 0.22663799204843349 0 -0.1429992866676135 0.22165757697541649 0 -0.13707330109192159 0.21778665368076741 0 -0.1429992866676135 0.22165757697541649 0 -0.13907303086360509 0.2279989064890966 0 -0.13707330109192159 0.21778665368076741 0 -0.13026641761056301 0.22284687588537819 0 -0.13907303086360509 0.2279989064890966 0 -0.13026641761056301 0.22284687588537819 0 -0.124132018573652 0.22861587605246689 0 -0.12094932609051259 0.21956817769412521 0 -0.13026641761056301 0.22284687588537819 0 -0.13107593648901969 0.2316533499101549 0 -0.124132018573652 0.22861587605246689 0 -0.13107593648901969 0.2316533499101549 0 -0.124028689380959 0.23833612661434761 0 -0.124132018573652 0.22861587605246689 0 -0.13026641761056301 0.22284687588537819 0 -0.13107593648901969 0.2316533499101549 0 -0.13907303086360509 0.2279989064890966 0 -0.13107593648901969 0.2316533499101549 0 -0.13907303086360509 0.2279989064890966 0 -0.13931672118259031 0.23680181014177079 0 -0.13931672118259031 0.23680181014177079 0 -0.13241252442818641 0.23916558504921759 0 -0.14431852528561309 0.24204877415706921 0 -0.13107593648901969 0.2316533499101549 0 -0.13931672118259031 0.23680181014177079 0 -0.13241252442818641 0.23916558504921759 0 -0.13241252442818641 0.23916558504921759 0 -0.1347077000188201 0.24689541273740151 0 -0.124028689380959 0.23833612661434761 0 -0.13107593648901969 0.2316533499101549 0 -0.13241252442818641 0.23916558504921759 0 -0.124028689380959 0.23833612661434761 0 -0.13241252442818641 0.23916558504921759 0 -0.1347077000188201 0.24689541273740151 0 -0.14431852528561309 0.24204877415706921 0 -0.15878765224872629 0.2470058102655758 0 -0.1347077000188201 0.24689541273740151 0 -0.15878765224872629 0.2470058102655758 0 -0.1347077000188201 0.24689541273740151 0 -0.14431852528561309 0.24204877415706921 0 -0.15444919076106531 0.25155912296188709 0 -0.15878765224872629 0.2470058102655758 0 -0.14192355157952219 0.2486015392447499 0 -0.15878765224872629 0.2470058102655758 0 -0.1347077000188201 0.24689541273740151 0 -0.14192355157952219 0.2486015392447499 0 -0.14431852528561309 0.24204877415706921 0 -0.14615095797915439 0.23913226892832509 0 -0.15271020934695681 0.2416742588788508 0 -0.13931672118259031 0.23680181014177079 0 -0.14431852528561309 0.24204877415706921 0 -0.14615095797915439 0.23913226892832509 0 -0.14579537912113449 0.2338606549080581 0 -0.13931672118259031 0.23680181014177079 0 -0.14615095797915439 0.23913226892832509 0 -0.14579537912113449 0.2338606549080581 0 -0.14615095797915439 0.23913226892832509 0 -0.1514023725153294 0.2383232833108116 0 -0.159240765687472 0.23862615984992461 0 -0.15381350884951189 0.23235206216390139 0 -0.1514023725153294 0.2383232833108116 0 -0.15381350884951189 0.23235206216390139 0 -0.14579537912113449 0.2338606549080581 0 -0.1514023725153294 0.2383232833108116 0 -0.159240765687472 0.23862615984992461 0 -0.1514023725153294 0.2383232833108116 0 -0.15271020934695681 0.2416742588788508 0 -0.14615095797915439 0.23913226892832509 0 -0.1514023725153294 0.2383232833108116 0 -0.15271020934695681 0.2416742588788508 0 -0.15878765224872629 0.2470058102655758 0 -0.14431852528561309 0.24204877415706921 0 -0.15271020934695681 0.2416742588788508 0 -0.17195418989529079 0.16583123606680991 0 -0.15210259523153929 0.1454124049646148 0 -0.16383974940183541 0.1538789094319172 0 -0.17195418989529079 0.16583123606680991 0 -0.15210259523153929 0.1454124049646148 0 -0.16505496204527259 0.1475376801790477 0 -0.1641998331939877 0.14332067036414969 0 -0.1676519417619268 0.14419465514041499 0 -0.16505496204527259 0.1475376801790477 0 -0.1676519417619268 0.14419465514041499 0 -0.16961071938399139 0.14783452928187471 0 -0.1641998331939877 0.14332067036414969 0 -0.1676519417619268 0.14419465514041499 0 -0.16833364057845049 0.1388700467588736 0 -0.1676519417619268 0.14419465514041499 0 -0.16833364057845049 0.1388700467588736 0 -0.1732981305196212 0.143524530192991 0 -0.1676519417619268 0.14419465514041499 0 -0.16961071938399139 0.14783452928187471 0 -0.1732981305196212 0.143524530192991 0 -0.16961071938399139 0.14783452928187471 0 -0.17028126314199241 0.15186240368708079 0 -0.17497790484533321 0.14883144102547341 0 -0.16961071938399139 0.14783452928187471 0 -0.17028126314199241 0.15186240368708079 0 -0.1664001139898022 0.15105646546624019 0 -0.16860652651072211 0.1543524283687831 0 -0.17485622389057801 0.15512390537745549 0 -0.17001822847273021 0.1582394522507603 0 -0.17028126314199241 0.15186240368708079 0 -0.16860652651072211 0.1543524283687831 0 -0.17485622389057801 0.15512390537745549 0 -0.17028126314199241 0.15186240368708079 0 -0.16860652651072211 0.1543524283687831 0 -0.1664001139898022 0.15105646546624019 0 -0.16860652651072211 0.1543524283687831 0 -0.1664001139898022 0.15105646546624019 0 -0.16383974940183541 0.1538789094319172 0 -0.16860652651072211 0.1543524283687831 0 -0.16383974940183541 0.1538789094319172 0 -0.17001822847273021 0.1582394522507603 0 -0.16505496204527259 0.1475376801790477 0 -0.16961071938399139 0.14783452928187471 0 -0.1664001139898022 0.15105646546624019 0 -0.1664001139898022 0.15105646546624019 0 -0.1630740104693493 0.14967972732178789 0 -0.16383974940183541 0.1538789094319172 0 -0.16505496204527259 0.1475376801790477 0 -0.1664001139898022 0.15105646546624019 0 -0.1630740104693493 0.14967972732178789 0 -0.16104485904804761 0.1597240653693103 0 -0.15210259523153929 0.1454124049646148 0 -0.15587185310623711 0.15484657849664499 0 -0.1630740104693493 0.14967972732178789 0 -0.16383974940183541 0.1538789094319172 0 -0.158801591995201 0.14868400678471641 0 -0.16383974940183541 0.1538789094319172 0 -0.158801591995201 0.14868400678471641 0 -0.15210259523153929 0.1454124049646148 0 -0.158801591995201 0.14868400678471641 0 -0.15665742651490949 0.14608830052238789 0 -0.1541020660270791 0.14590279360135669 0 -0.158801591995201 0.14868400678471641 0 -0.15665742651490949 0.14608830052238789 0 -0.15857725056048841 0.1456896129896337 0 -0.15857725056048841 0.1456896129896337 0 -0.1615055137230669 0.14691314895057281 0 -0.16025841526916659 0.14268787716124359 0 -0.15665742651490949 0.14608830052238789 0 -0.15857725056048841 0.1456896129896337 0 -0.15715470807342391 0.14307442036242329 0 -0.158801591995201 0.14868400678471641 0 -0.15857725056048841 0.1456896129896337 0 -0.1615055137230669 0.14691314895057281 0 -0.16505496204527259 0.1475376801790477 0 -0.1641998331939877 0.14332067036414969 0 -0.1615055137230669 0.14691314895057281 0 -0.1630740104693493 0.14967972732178789 0 -0.158801591995201 0.14868400678471641 0 -0.1615055137230669 0.14691314895057281 0 -0.16505496204527259 0.1475376801790477 0 -0.1630740104693493 0.14967972732178789 0 -0.1615055137230669 0.14691314895057281 0 -0.1641998331939877 0.14332067036414969 0 -0.16025841526916659 0.14268787716124359 0 -0.1627078591808854 0.13792104746543599 0 -0.1641998331939877 0.14332067036414969 0 -0.1615055137230669 0.14691314895057281 0 -0.16025841526916659 0.14268787716124359 0 -0.16025841526916659 0.14268787716124359 0 -0.15715470807342391 0.14307442036242329 0 -0.1575132283869545 0.13923247074941961 0 -0.15857725056048841 0.1456896129896337 0 -0.16025841526916659 0.14268787716124359 0 -0.15715470807342391 0.14307442036242329 0 -0.15665742651490949 0.14608830052238789 0 -0.15715470807342391 0.14307442036242329 0 -0.1552880668798749 0.14390230846390539 0 -0.1627078591808854 0.13792104746543599 0 -0.1589672541781102 0.13271615793205779 0 -0.16881446095795569 0.1311100921203617 0 -0.1575132283869545 0.13923247074941961 0 -0.1627078591808854 0.13792104746543599 0 -0.1589672541781102 0.13271615793205779 0 -0.16025841526916659 0.14268787716124359 0 -0.1575132283869545 0.13923247074941961 0 -0.1627078591808854 0.13792104746543599 0 -0.1608763647927888 0.123357804513993 0 -0.1589672541781102 0.13271615793205779 0 -0.1513717942645664 0.1277160804897535 0 -0.1608763647927888 0.123357804513993 0 -0.1589672541781102 0.13271615793205779 0 -0.16881446095795569 0.1311100921203617 0 -0.16881446095795569 0.1311100921203617 0 -0.16833364057845049 0.1388700467588736 0 -0.17641102016478749 0.13688723022490931 0 -0.1641998331939877 0.14332067036414969 0 -0.1627078591808854 0.13792104746543599 0 -0.16833364057845049 0.1388700467588736 0 -0.1627078591808854 0.13792104746543599 0 -0.16881446095795569 0.1311100921203617 0 -0.16833364057845049 0.1388700467588736 0 -0.16833364057845049 0.1388700467588736 0 -0.17641102016478749 0.13688723022490931 0 -0.1732981305196212 0.143524530192991 0 -0.17213763364505419 0.11981929089222861 0 -0.16881446095795569 0.1311100921203617 0 -0.17806095162993801 0.1297372899189522 0 -0.16881446095795569 0.1311100921203617 0 -0.17641102016478749 0.13688723022490931 0 -0.17806095162993801 0.1297372899189522 0 -0.17213763364505419 0.11981929089222861 0 -0.17806095162993801 0.1297372899189522 0 -0.1863658876438998 0.12580060900700371 0 -0.17806095162993801 0.1297372899189522 0 -0.1863658876438998 0.12580060900700371 0 -0.18585114692626251 0.13860670032637071 0 -0.17641102016478749 0.13688723022490931 0 -0.17806095162993801 0.1297372899189522 0 -0.18585114692626251 0.13860670032637071 0 -0.17641102016478749 0.13688723022490931 0 -0.18585114692626251 0.13860670032637071 0 -0.1787230956249421 0.1434645113274145 0 -0.18585114692626251 0.13860670032637071 0 -0.1787230956249421 0.1434645113274145 0 -0.1830772756687061 0.14947265486732839 0 -0.1787230956249421 0.1434645113274145 0 -0.17497790484533321 0.14883144102547341 0 -0.1830772756687061 0.14947265486732839 0 -0.17641102016478749 0.13688723022490931 0 -0.1787230956249421 0.1434645113274145 0 -0.1732981305196212 0.143524530192991 0 -0.16961071938399139 0.14783452928187471 0 -0.1732981305196212 0.143524530192991 0 -0.17497790484533321 0.14883144102547341 0 -0.1787230956249421 0.1434645113274145 0 -0.1732981305196212 0.143524530192991 0 -0.17497790484533321 0.14883144102547341 0 -0.17485622389057801 0.15512390537745549 0 -0.17497790484533321 0.14883144102547341 0 -0.1830772756687061 0.14947265486732839 0 -0.17028126314199241 0.15186240368708079 0 -0.17485622389057801 0.15512390537745549 0 -0.17497790484533321 0.14883144102547341 0 -0.17485622389057801 0.15512390537745549 0 -0.1830772756687061 0.14947265486732839 0 -0.1814706790781471 0.15883796980503109 0 -0.18949746045936119 0.15633066601134471 0 -0.1830772756687061 0.14947265486732839 0 -0.1814706790781471 0.15883796980503109 0 -0.1889888354577027 0.16700083402441199 0 -0.18949746045936119 0.15633066601134471 0 -0.1814706790781471 0.15883796980503109 0 -0.18048169121398511 0.16635908641129951 0 -0.17195418989529079 0.16583123606680991 0 -0.18245381394098251 0.18314936233388721 0 -0.1889888354577027 0.16700083402441199 0 -0.1814706790781471 0.15883796980503109 0 -0.18048169121398511 0.16635908641129951 0 -0.18048169121398511 0.16635908641129951 0 -0.17195418989529079 0.16583123606680991 0 -0.1757562025101462 0.16087832998227131 0 -0.17195418989529079 0.16583123606680991 0 -0.1757562025101462 0.16087832998227131 0 -0.17001822847273021 0.1582394522507603 0 -0.17485622389057801 0.15512390537745549 0 -0.1757562025101462 0.16087832998227131 0 -0.17001822847273021 0.1582394522507603 0 -0.17485622389057801 0.15512390537745549 0 -0.1814706790781471 0.15883796980503109 0 -0.1757562025101462 0.16087832998227131 0 -0.1814706790781471 0.15883796980503109 0 -0.18048169121398511 0.16635908641129951 0 -0.1757562025101462 0.16087832998227131 0 -0.17195418989529079 0.16583123606680991 0 -0.18245381394098251 0.18314936233388721 0 -0.16645502145712401 0.16865465786478301 0 -0.18245381394098251 0.18314936233388721 0 -0.16645502145712401 0.16865465786478301 0 -0.172520931722633 0.18805154844867689 0 -0.18245381394098251 0.18314936233388721 0 -0.16652040717095709 0.18021468847543809 0 -0.1889888354577027 0.16700083402441199 0 -0.18048169121398511 0.16635908641129951 0 -0.18245381394098251 0.18314936233388721 0 -0.18245381394098251 0.18314936233388721 0 -0.16652040717095709 0.18021468847543809 0 -0.16645502145712401 0.16865465786478301 0 -0.172520931722633 0.18805154844867689 0 -0.16215877264782269 0.19057938451634829 0 -0.16652040717095709 0.18021468847543809 0 -0.16652040717095709 0.18021468847543809 0 -0.16122790800108011 0.1734559637273779 0 -0.16645502145712401 0.16865465786478301 0 -0.16652040717095709 0.18021468847543809 0 -0.16122790800108011 0.1734559637273779 0 -0.15453273789510361 0.17721276675352499 0 -0.16122790800108011 0.1734559637273779 0 -0.15740346548113579 0.16774174181576559 0 -0.15453273789510361 0.17721276675352499 0 -0.16215877264782269 0.19057938451634829 0 -0.16652040717095709 0.18021468847543809 0 -0.15453273789510361 0.17721276675352499 0 -0.17195418989529079 0.16583123606680991 0 -0.16104485904804761 0.1597240653693103 0 -0.15210259523153929 0.1454124049646148 0 -0.16383974940183541 0.1538789094319172 0 -0.17195418989529079 0.16583123606680991 0 -0.17001822847273021 0.1582394522507603 0 -0.17195418989529079 0.16583123606680991 0 -0.16645502145712401 0.16865465786478301 0 -0.16104485904804761 0.1597240653693103 0 -0.16122790800108011 0.1734559637273779 0 -0.16645502145712401 0.16865465786478301 0 -0.15740346548113579 0.16774174181576559 0 -0.16645502145712401 0.16865465786478301 0 -0.16220864760216269 0.16470556394218491 0 -0.16104485904804761 0.1597240653693103 0 -0.16645502145712401 0.16865465786478301 0 -0.15740346548113579 0.16774174181576559 0 -0.16220864760216269 0.16470556394218491 0 -0.15740346548113579 0.16774174181576559 0 -0.16220864760216269 0.16470556394218491 0 -0.15767684699593171 0.1588939508808245 0 -0.16220864760216269 0.16470556394218491 0 -0.16104485904804761 0.1597240653693103 0 -0.15767684699593171 0.1588939508808245 0 -0.16104485904804761 0.1597240653693103 0 -0.15767684699593171 0.1588939508808245 0 -0.15587185310623711 0.15484657849664499 0 -0.14769711287716031 0.1670774729771759 0 -0.1479591478176529 0.15662407315451279 0 -0.12741635218654279 0.16006247109126531 0 -0.15767684699593171 0.1588939508808245 0 -0.14769711287716031 0.1670774729771759 0 -0.1479591478176529 0.15662407315451279 0 -0.15767684699593171 0.1588939508808245 0 -0.1479591478176529 0.15662407315451279 0 -0.15587185310623711 0.15484657849664499 0 -0.15740346548113579 0.16774174181576559 0 -0.15767684699593171 0.1588939508808245 0 -0.14769711287716031 0.1670774729771759 0 -0.15740346548113579 0.16774174181576559 0 -0.14769711287716031 0.1670774729771759 0 -0.15453273789510361 0.17721276675352499 0 -0.14769711287716031 0.1670774729771759 0 -0.15453273789510361 0.17721276675352499 0 -0.13991634602076941 0.1841686369316653 0 -0.16215877264782269 0.19057938451634829 0 -0.1506679678356663 0.1895913066263554 0 -0.15453273789510361 0.17721276675352499 0 -0.1506679678356663 0.1895913066263554 0 -0.15453273789510361 0.17721276675352499 0 -0.13991634602076941 0.1841686369316653 0 -0.13991634602076941 0.1841686369316653 0 -0.12741635218654279 0.16006247109126531 0 -0.1211366920473007 0.1872624732447262 0 -0.14769711287716031 0.1670774729771759 0 -0.13991634602076941 0.1841686369316653 0 -0.12741635218654279 0.16006247109126531 0 -0.12741635218654279 0.16006247109126531 0 -0.13205759994040361 0.14295316672697031 0 -0.1192250418525399 0.14579103507296221 0 -0.12741635218654279 0.16006247109126531 0 -0.15210259523153929 0.1454124049646148 0 -0.12741635218654279 0.16006247109126531 0 -0.13205759994040361 0.14295316672697031 0 -0.15210259523153929 0.1454124049646148 0 -0.1479591478176529 0.15662407315451279 0 -0.12741635218654279 0.16006247109126531 0 -0.15210259523153929 0.1454124049646148 0 -0.15210259523153929 0.1454124049646148 0 -0.15399235241927561 0.14168621451060509 0 -0.15192484736891659 0.13641280114070889 0 -0.15210259523153929 0.1454124049646148 0 -0.15399235241927561 0.14168621451060509 0 -0.1552880668798749 0.14390230846390539 0 -0.15715470807342391 0.14307442036242329 0 -0.15399235241927561 0.14168621451060509 0 -0.1552880668798749 0.14390230846390539 0 -0.15715470807342391 0.14307442036242329 0 -0.1575132283869545 0.13923247074941961 0 -0.15399235241927561 0.14168621451060509 0 -0.158801591995201 0.14868400678471641 0 -0.15210259523153929 0.1454124049646148 0 -0.1541020660270791 0.14590279360135669 0 -0.15210259523153929 0.1454124049646148 0 -0.1552880668798749 0.14390230846390539 0 -0.1541020660270791 0.14590279360135669 0 -0.15665742651490949 0.14608830052238789 0 -0.1552880668798749 0.14390230846390539 0 -0.1541020660270791 0.14590279360135669 0 -0.1479591478176529 0.15662407315451279 0 -0.15210259523153929 0.1454124049646148 0 -0.15587185310623711 0.15484657849664499 0 -0.15210259523153929 0.1454124049646148 0 -0.15192484736891659 0.13641280114070889 0 -0.13600959645393479 0.12885956729421141 0 -0.1513717942645664 0.1277160804897535 0 -0.15192484736891659 0.13641280114070889 0 -0.13600959645393479 0.12885956729421141 0 -0.15210259523153929 0.1454124049646148 0 -0.13600959645393479 0.12885956729421141 0 -0.1589672541781102 0.13271615793205779 0 -0.1513717942645664 0.1277160804897535 0 -0.15192484736891659 0.13641280114070889 0 -0.1575132283869545 0.13923247074941961 0 -0.1589672541781102 0.13271615793205779 0 -0.15192484736891659 0.13641280114070889 0 -0.1575132283869545 0.13923247074941961 0 -0.15399235241927561 0.14168621451060509 0 -0.15192484736891659 0.13641280114070889 0 -0.13205759994040361 0.14295316672697031 0 -0.13600959645393479 0.12885956729421141 0 -0.1189920962718964 0.13082578519450799 0 -0.13205759994040361 0.14295316672697031 0 -0.15210259523153929 0.1454124049646148 0 -0.13600959645393479 0.12885956729421141 0 -0.10320549582964141 0.13854096634737481 0 -0.1192250418525399 0.14579103507296221 0 -0.1027301091415463 0.17471253721791591 0 -0.10320549582964141 0.13854096634737481 0 -0.1027301091415463 0.17471253721791591 0 -0.086061508253495927 0.14854081270864461 0 -0.1189920962718964 0.13082578519450799 0 -0.10320549582964141 0.13854096634737481 0 -0.1192250418525399 0.14579103507296221 0 -0.13205759994040361 0.14295316672697031 0 -0.1189920962718964 0.13082578519450799 0 -0.1192250418525399 0.14579103507296221 0 -0.1189920962718964 0.13082578519450799 0 -0.10320549582964141 0.13854096634737481 0 -0.1035382458785282 0.1165032461017215 0 -0.12741635218654279 0.16006247109126531 0 -0.1027301091415463 0.17471253721791591 0 -0.12741635218654279 0.16006247109126531 0 -0.1192250418525399 0.14579103507296221 0 -0.1027301091415463 0.17471253721791591 0 -0.1211366920473007 0.1872624732447262 0 -0.1027301091415463 0.17471253721791591 0 -0.1068384438914969 0.20032541226578601 0 -0.12741635218654279 0.16006247109126531 0 -0.1211366920473007 0.1872624732447262 0 -0.1027301091415463 0.17471253721791591 0 -0.08467268365293415 0.16980336921894321 0 -0.076371252963387759 0.1600837007357804 0 -0.086061508253495927 0.14854081270864461 0 -0.1027301091415463 0.17471253721791591 0 -0.08467268365293415 0.16980336921894321 0 -0.086061508253495927 0.14854081270864461 0 -0.08467268365293415 0.16980336921894321 0 -0.073536413784416665 0.1754776074715669 0 -0.076371252963387759 0.1600837007357804 0 -0.1027301091415463 0.17471253721791591 0 -0.078043866096549799 0.1893626033445665 0 -0.1027301091415463 0.17471253721791591 0 -0.08467268365293415 0.16980336921894321 0 -0.078043866096549799 0.1893626033445665 0 -0.08467268365293415 0.16980336921894321 0 -0.073536413784416665 0.1754776074715669 0 -0.078043866096549799 0.1893626033445665 0 -0.073536413784416665 0.1754776074715669 0 -0.078043866096549799 0.1893626033445665 0 -0.068161494636255857 0.18823777043943249 0 -0.073536413784416665 0.1754776074715669 0 -0.062537360771086042 0.17519035841882971 0 -0.068161494636255857 0.18823777043943249 0 -0.062537360771086042 0.17519035841882971 0 -0.068161494636255857 0.18823777043943249 0 -0.057659871775605977 0.18342746490139869 0 -0.073536413784416665 0.1754776074715669 0 -0.076371252963387759 0.1600837007357804 0 -0.06607403795687114 0.16492928497656831 0 -0.073536413784416665 0.1754776074715669 0 -0.062537360771086042 0.17519035841882971 0 -0.06607403795687114 0.16492928497656831 0 -0.076371252963387759 0.1600837007357804 0 -0.06607403795687114 0.16492928497656831 0 -0.065141509047357882 0.15386155853510969 0 -0.065141509047357882 0.15386155853510969 0 -0.074327005155166853 0.1500176073078851 0 -0.069733750356425872 0.13758435725200599 0 -0.069733750356425872 0.13758435725200599 0 -0.086061508253495927 0.14854081270864461 0 -0.082757718582173512 0.1168993330227758 0 -0.065141509047357882 0.15386155853510969 0 -0.069733750356425872 0.13758435725200599 0 -0.059611360384144919 0.1453789267007754 0 -0.10320549582964141 0.13854096634737481 0 -0.086061508253495927 0.14854081270864461 0 -0.082757718582173512 0.1168993330227758 0 -0.074327005155166853 0.1500176073078851 0 -0.069733750356425872 0.13758435725200599 0 -0.086061508253495927 0.14854081270864461 0 -0.076371252963387759 0.1600837007357804 0 -0.065141509047357882 0.15386155853510969 0 -0.074327005155166853 0.1500176073078851 0 -0.076371252963387759 0.1600837007357804 0 -0.074327005155166853 0.1500176073078851 0 -0.086061508253495927 0.14854081270864461 0 -0.1106277477889139 0.24678501520922819 0 -0.093491897390123674 0.2467064537773303 0 -0.1106277477889139 0.24678501520922819 0 -0.1000420281167865 0.23063977035883421 0 -0.093491897390123674 0.2467064537773303 0 -0.1106277477889139 0.24678501520922819 0 -0.1000420281167865 0.23063977035883421 0 -0.1106277477889139 0.24678501520922819 0 -0.1143397232972056 0.23067485015832881 0 -0.1000420281167865 0.23063977035883421 0 -0.1106277477889139 0.24678501520922819 0 -0.124028689380959 0.23833612661434761 0 -0.1143397232972056 0.23067485015832881 0 -0.1347077000188201 0.24689541273740151 0 -0.1106277477889139 0.24678501520922819 0 -0.1347077000188201 0.24689541273740151 0 -0.1106277477889139 0.24678501520922819 0 -0.124028689380959 0.23833612661434761 0 -0.124028689380959 0.23833612661434761 0 -0.1143397232972056 0.23067485015832881 0 -0.124132018573652 0.22861587605246689 0 -0.1143397232972056 0.23067485015832881 0 -0.124132018573652 0.22861587605246689 0 -0.12094932609051259 0.21956817769412521 0 -0.1143397232972056 0.23067485015832881 0 -0.12094932609051259 0.21956817769412521 0 -0.1082751871608881 0.2172714902344676 0 -0.1143397232972056 0.23067485015832881 0 -0.1000420281167865 0.23063977035883421 0 -0.1082751871608881 0.2172714902344676 0 -0.1000420281167865 0.23063977035883421 0 -0.1082751871608881 0.2172714902344676 0 -0.089456308444660709 0.2144945255084392 0 -0.1000420281167865 0.23063977035883421 0 -0.089456308444660709 0.2144945255084392 0 -0.1068384438914969 0.20032541226578601 0 -0.091430174285633256 0.19844102576089781 0 -0.089456308444660709 0.2144945255084392 0 -0.1082751871608881 0.2172714902344676 0 -0.1068384438914969 0.20032541226578601 0 -0.089456308444660709 0.2144945255084392 0 -0.1082751871608881 0.2172714902344676 0 -0.1197734775314844 0.2059099039070999 0 -0.1068384438914969 0.20032541226578601 0 -0.12094932609051259 0.21956817769412521 0 -0.1082751871608881 0.2172714902344676 0 -0.1197734775314844 0.2059099039070999 0 -0.12960785772464989 0.21202562691329069 0 -0.12094932609051259 0.21956817769412521 0 -0.1197734775314844 0.2059099039070999 0 -0.1211366920473007 0.1872624732447262 0 -0.1197734775314844 0.2059099039070999 0 -0.1068384438914969 0.20032541226578601 0 -0.13132583227588951 0.1984809430765514 0 -0.1211366920473007 0.1872624732447262 0 -0.1197734775314844 0.2059099039070999 0 -0.1027301091415463 0.17471253721791591 0 -0.1068384438914969 0.20032541226578601 0 -0.091430174285633256 0.19844102576089781 0 -0.1027301091415463 0.17471253721791591 0 -0.091430174285633256 0.19844102576089781 0 -0.078043866096549799 0.1893626033445665 0 -0.091430174285633256 0.19844102576089781 0 -0.079870122855378825 0.20159375128915399 0 -0.078043866096549799 0.1893626033445665 0 -0.068161494636255857 0.18823777043943249 0 -0.072258770813794476 0.21743283139243419 0 -0.079870122855378825 0.20159375128915399 0 -0.078043866096549799 0.1893626033445665 0 -0.068161494636255857 0.18823777043943249 0 -0.079870122855378825 0.20159375128915399 0 -0.068161494636255857 0.18823777043943249 0 -0.072258770813794476 0.21743283139243419 0 -0.072258770813794476 0.21743283139243419 0 -0.059129890456640632 0.2228467364289751 0 -0.060249456966021707 0.2057833661733213 0 -0.068161494636255857 0.18823777043943249 0 -0.072258770813794476 0.21743283139243419 0 -0.060249456966021707 0.2057833661733213 0 -0.091430174285633256 0.19844102576089781 0 -0.079870122855378825 0.20159375128915399 0 -0.089456308444660709 0.2144945255084392 0 -0.079870122855378825 0.20159375128915399 0 -0.072258770813794476 0.21743283139243419 0 -0.089456308444660709 0.2144945255084392 0 -0.1000420281167865 0.23063977035883421 0 -0.089456308444660709 0.2144945255084392 0 -0.083540230946786836 0.23053093557931589 0 -0.072258770813794476 0.21743283139243419 0 -0.089456308444660709 0.2144945255084392 0 -0.083540230946786836 0.23053093557931589 0 -0.1000420281167865 0.23063977035883421 0 -0.083540230946786836 0.23053093557931589 0 -0.085837213352811026 0.2403310795618965 0 -0.072258770813794476 0.21743283139243419 0 -0.068075106799526802 0.2323510240716207 0 -0.076356046991333443 0.24662789234543581 0 -0.072258770813794476 0.21743283139243419 0 -0.083540230946786836 0.23053093557931589 0 -0.076356046991333443 0.24662789234543581 0 -0.072258770813794476 0.21743283139243419 0 -0.076356046991333443 0.24662789234543581 0 -0.072258770813794476 0.21743283139243419 0 -0.068075106799526802 0.2323510240716207 0 -0.059129890456640632 0.2228467364289751 0 -0.068075106799526802 0.2323510240716207 0 -0.06113095573195592 0.2348286106527441 0 -0.059129890456640632 0.2228467364289751 0 -0.068075106799526802 0.2323510240716207 0 -0.067893543015909122 0.24052453871490909 0 -0.076356046991333443 0.24662789234543581 0 -0.067893543015909122 0.24052453871490909 0 -0.059040536731242182 0.2445611908442486 0 -0.06113095573195592 0.2348286106527441 0 -0.068075106799526802 0.2323510240716207 0 -0.067893543015909122 0.24052453871490909 0 -0.06113095573195592 0.2348286106527441 0 -0.067167344873252266 0.25484313831082389 0 -0.067058178105022251 0.2471705482411852 0 -0.073875332344404021 0.24661651920139591 0 -0.067167344873252266 0.25484313831082389 0 -0.067058178105022251 0.2471705482411852 0 -0.059040536731242182 0.2445611908442486 0 -0.067893543015909122 0.24052453871490909 0 -0.067058178105022251 0.2471705482411852 0 -0.059040536731242182 0.2445611908442486 0 -0.067893543015909122 0.24052453871490909 0 -0.067058178105022251 0.2471705482411852 0 -0.071295775114167209 0.24523487462573151 0 -0.067167344873252266 0.25484313831082389 0 -0.073875332344404021 0.24661651920139591 0 -0.076356046991333443 0.24662789234543581 0 -0.073875332344404021 0.24661651920139591 0 -0.071295775114167209 0.24523487462573151 0 -0.076356046991333443 0.24662789234543581 0 -0.067058178105022251 0.2471705482411852 0 -0.073875332344404021 0.24661651920139591 0 -0.071295775114167209 0.24523487462573151 0 -0.067893543015909122 0.24052453871490909 0 -0.071295775114167209 0.24523487462573151 0 -0.076356046991333443 0.24662789234543581 0 -0.073875332344404021 0.24661651920139591 0 -0.076356046991333443 0.24662789234543581 0 -0.076356046991333443 0.24662789234543581 0 -0.085837213352811026 0.2403310795618965 0 -0.093491897390123674 0.2467064537773303 0 -0.087021421969718765 0.25620572220021193 0 -0.076356046991333443 0.24662789234543581 0 -0.093491897390123674 0.2467064537773303 0 -0.1000420281167865 0.23063977035883421 0 -0.085837213352811026 0.2403310795618965 0 -0.093491897390123674 0.2467064537773303 0 -0.076356046991333443 0.24662789234543581 0 -0.093491897390123674 0.2467064537773303 0 -0.083540230946786836 0.23053093557931589 0 -0.076356046991333443 0.24662789234543581 0 -0.085837213352811026 0.2403310795618965 0 -0.041150814241186752 0.25477643144334111 0 -0.038758482221406078 0.23881245898223949 0 -0.047894545500613457 0.24573323634415969 0 -0.041150814241186752 0.25477643144334111 0 -0.038758482221406078 0.23881245898223949 0 -0.023083964412665799 0.24905358459497809 0 -0.038758482221406078 0.23881245898223949 0 -0.047894545500613457 0.24573323634415969 0 -0.051515701656460869 0.23385956320396711 0 -0.052947560502698852 0.25601565193185349 0 -0.047894545500613457 0.24573323634415969 0 -0.059040536731242182 0.2445611908442486 0 -0.059040536731242182 0.2445611908442486 0 -0.06113095573195592 0.2348286106527441 0 -0.051515701656460869 0.23385956320396711 0 -0.047894545500613457 0.24573323634415969 0 -0.059040536731242182 0.2445611908442486 0 -0.051515701656460869 0.23385956320396711 0 -0.051515701656460869 0.23385956320396711 0 -0.059129890456640632 0.2228467364289751 0 -0.041152542030765203 0.22095473935119439 0 -0.06113095573195592 0.2348286106527441 0 -0.051515701656460869 0.23385956320396711 0 -0.059129890456640632 0.2228467364289751 0 -0.038758482221406078 0.23881245898223949 0 -0.051515701656460869 0.23385956320396711 0 -0.041152542030765203 0.22095473935119439 0 -0.038758482221406078 0.23881245898223949 0 -0.041152542030765203 0.22095473935119439 0 -0.027753325486744428 0.22849719895579659 0 -0.041152542030765203 0.22095473935119439 0 -0.037969560271568302 0.20790692989763221 0 -0.024678416150528969 0.20958259833304249 0 -0.037969560271568302 0.20790692989763221 0 -0.037590066304429508 0.19564262472463981 0 -0.024678416150528969 0.20958259833304249 0 -0.037969560271568302 0.20790692989763221 0 -0.049347527747421169 0.20712510310303769 0 -0.037590066304429508 0.19564262472463981 0 -0.041152542030765203 0.22095473935119439 0 -0.037969560271568302 0.20790692989763221 0 -0.049347527747421169 0.20712510310303769 0 -0.059129890456640632 0.2228467364289751 0 -0.041152542030765203 0.22095473935119439 0 -0.049347527747421169 0.20712510310303769 0 -0.059129890456640632 0.2228467364289751 0 -0.060249456966021707 0.2057833661733213 0 -0.049347527747421169 0.20712510310303769 0 -0.068161494636255857 0.18823777043943249 0 -0.060249456966021707 0.2057833661733213 0 -0.052349601175996407 0.19327438950272721 0 -0.068161494636255857 0.18823777043943249 0 -0.052349601175996407 0.19327438950272721 0 -0.057659871775605977 0.18342746490139869 0 -0.060249456966021707 0.2057833661733213 0 -0.049347527747421169 0.20712510310303769 0 -0.052349601175996407 0.19327438950272721 0 -0.052349601175996407 0.19327438950272721 0 -0.037590066304429508 0.19564262472463981 0 -0.042378997851206128 0.1867897209407442 0 -0.049347527747421169 0.20712510310303769 0 -0.052349601175996407 0.19327438950272721 0 -0.037590066304429508 0.19564262472463981 0 -0.037590066304429508 0.19564262472463981 0 -0.042378997851206128 0.1867897209407442 0 -0.033773783915334837 0.18639642803869261 0 -0.037590066304429508 0.19564262472463981 0 -0.021252610283017299 0.19288279367469899 0 -0.024678416150528969 0.20958259833304249 0 -0.037590066304429508 0.19564262472463981 0 -0.021252610283017299 0.19288279367469899 0 -0.033773783915334837 0.18639642803869261 0 -0.021252610283017299 0.19288279367469899 0 -0.0059827897947596883 0.18397516726743521 0 0.0026397162563400359 0.20432707912609091 0 -0.021252610283017299 0.19288279367469899 0 -0.024678416150528969 0.20958259833304249 0 0.0026397162563400359 0.20432707912609091 0 -0.024678416150528969 0.20958259833304249 0 -0.01021910245472752 0.22668507807672181 0 0.0026397162563400359 0.20432707912609091 0 -0.01021910245472752 0.22668507807672181 0 0.0026397162563400359 0.20432707912609091 0 -0.024678416150528969 0.20958259833304249 0 -0.01021910245472752 0.22668507807672181 0 -0.024678416150528969 0.20958259833304249 0 -0.027753325486744428 0.22849719895579659 0 -0.01021910245472752 0.22668507807672181 0 -0.041152542030765203 0.22095473935119439 0 -0.024678416150528969 0.20958259833304249 0 -0.027753325486744428 0.22849719895579659 0 -0.01021910245472752 0.22668507807672181 0 0.0057590733420714788 0.23056715720690699 0 0.0026397162563400359 0.20432707912609091 0 -0.01021910245472752 0.22668507807672181 0 0.0047104330480430192 0.24434373628764439 0 -0.01021910245472752 0.22668507807672181 0 -0.0081350856210093137 0.24991087677565479 0 -0.023083964412665799 0.24905358459497809 0 -0.01021910245472752 0.22668507807672181 0 -0.0081350856210093137 0.24991087677565479 0 0.0047104330480430192 0.24434373628764439 0 -0.01021910245472752 0.22668507807672181 0 -0.023083964412665799 0.24905358459497809 0 -0.027753325486744428 0.22849719895579659 0 -0.01021910245472752 0.22668507807672181 0 -0.023083964412665799 0.24905358459497809 0 -0.038758482221406078 0.23881245898223949 0 -0.027753325486744428 0.22849719895579659 0 -0.023083964412665799 0.24905358459497809 0 -0.045612096963095532 0.1410200042760987 0 -0.038850273950405689 0.1552136311167506 0 -0.025747212644470292 0.1402638772215139 0 -0.045612096963095532 0.1410200042760987 0 -0.038850273950405689 0.1552136311167506 0 -0.050567678835093853 0.1461471540016121 0 -0.045612096963095532 0.1410200042760987 0 -0.038850273950405689 0.1552136311167506 0 -0.038850273950405689 0.1552136311167506 0 -0.050567678835093853 0.1461471540016121 0 -0.048104258933316588 0.1582510780673074 0 -0.045612096963095532 0.1410200042760987 0 -0.025747212644470292 0.1402638772215139 0 -0.025667369748640999 0.1203847680305245 0 -0.045612096963095532 0.1410200042760987 0 -0.025667369748640999 0.1203847680305245 0 -0.045612096963095532 0.1410200042760987 0 -0.025667369748640999 0.1203847680305245 0 -0.041001005827551097 0.1194486309587148 0 -0.045612096963095532 0.1410200042760987 0 -0.057542976950052553 0.1350357602507487 0 -0.056334641906461327 0.11851249388690679 0 -0.045612096963095532 0.1410200042760987 0 -0.056334641906461327 0.11851249388690679 0 -0.045612096963095532 0.1410200042760987 0 -0.041001005827551097 0.1194486309587148 0 -0.056334641906461327 0.11851249388690679 0 -0.069733750356425872 0.13758435725200599 0 -0.057542976950052553 0.1350357602507487 0 -0.056334641906461327 0.11851249388690679 0 -0.069733750356425872 0.13758435725200599 0 -0.057542976950052553 0.1350357602507487 0 -0.059611360384144919 0.1453789267007754 0 -0.057542976950052553 0.1350357602507487 0 -0.059611360384144919 0.1453789267007754 0 -0.050567678835093853 0.1461471540016121 0 -0.045612096963095532 0.1410200042760987 0 -0.057542976950052553 0.1350357602507487 0 -0.050567678835093853 0.1461471540016121 0 -0.045612096963095532 0.1410200042760987 0 -0.050567678835093853 0.1461471540016121 0 -0.050567678835093853 0.1461471540016121 0 -0.055070886731794437 0.15426580346440069 0 -0.048104258933316588 0.1582510780673074 0 -0.059611360384144919 0.1453789267007754 0 -0.050567678835093853 0.1461471540016121 0 -0.055070886731794437 0.15426580346440069 0 -0.065141509047357882 0.15386155853510969 0 -0.059611360384144919 0.1453789267007754 0 -0.055070886731794437 0.15426580346440069 0 -0.06607403795687114 0.16492928497656831 0 -0.065141509047357882 0.15386155853510969 0 -0.055885398584643357 0.16402947929505579 0 -0.065141509047357882 0.15386155853510969 0 -0.055070886731794437 0.15426580346440069 0 -0.055885398584643357 0.16402947929505579 0 -0.062537360771086042 0.17519035841882971 0 -0.06607403795687114 0.16492928497656831 0 -0.055885398584643357 0.16402947929505579 0 -0.062537360771086042 0.17519035841882971 0 -0.055885398584643357 0.16402947929505579 0 -0.052819352411401593 0.1725226882361135 0 -0.055885398584643357 0.16402947929505579 0 -0.052819352411401593 0.1725226882361135 0 -0.044984159268764111 0.16849027369742731 0 -0.055885398584643357 0.16402947929505579 0 -0.048104258933316588 0.1582510780673074 0 -0.044984159268764111 0.16849027369742731 0 -0.055070886731794437 0.15426580346440069 0 -0.055885398584643357 0.16402947929505579 0 -0.048104258933316588 0.1582510780673074 0 -0.062537360771086042 0.17519035841882971 0 -0.057659871775605977 0.18342746490139869 0 -0.052819352411401593 0.1725226882361135 0 -0.052819352411401593 0.1725226882361135 0 -0.049101096832830267 0.18078392242197311 0 -0.044984159268764111 0.16849027369742731 0 -0.057659871775605977 0.18342746490139869 0 -0.052819352411401593 0.1725226882361135 0 -0.049101096832830267 0.18078392242197311 0 -0.052349601175996407 0.19327438950272721 0 -0.057659871775605977 0.18342746490139869 0 -0.049101096832830267 0.18078392242197311 0 -0.052349601175996407 0.19327438950272721 0 -0.049101096832830267 0.18078392242197311 0 -0.042378997851206128 0.1867897209407442 0 -0.049101096832830267 0.18078392242197311 0 -0.042378997851206128 0.1867897209407442 0 -0.038703332044585988 0.17834641796303899 0 -0.049101096832830267 0.18078392242197311 0 -0.038703332044585988 0.17834641796303899 0 -0.044984159268764111 0.16849027369742731 0 -0.038703332044585988 0.17834641796303899 0 -0.044984159268764111 0.16849027369742731 0 -0.032088450937710691 0.1694072579574 0 -0.038703332044585988 0.17834641796303899 0 -0.032088450937710691 0.1694072579574 0 -0.028755358602008441 0.17856817186401611 0 -0.038703332044585988 0.17834641796303899 0 -0.033773783915334837 0.18639642803869261 0 -0.028755358602008441 0.17856817186401611 0 -0.042378997851206128 0.1867897209407442 0 -0.038703332044585988 0.17834641796303899 0 -0.033773783915334837 0.18639642803869261 0 -0.038850273950405689 0.1552136311167506 0 -0.032088450937710691 0.1694072579574 0 -0.023114598623133281 0.1543548629989096 0 -0.038850273950405689 0.1552136311167506 0 -0.048104258933316588 0.1582510780673074 0 -0.044984159268764111 0.16849027369742731 0 -0.038850273950405689 0.1552136311167506 0 -0.044984159268764111 0.16849027369742731 0 -0.032088450937710691 0.1694072579574 0 -0.038850273950405689 0.1552136311167506 0 -0.032088450937710691 0.1694072579574 0 -0.028755358602008441 0.17856817186401611 0 -0.0098340279299935079 0.16251163155348819 0 -0.032088450937710691 0.1694072579574 0 -0.0098340279299935079 0.16251163155348819 0 -0.023114598623133281 0.1543548629989096 0 -0.032088450937710691 0.1694072579574 0 -0.028755358602008441 0.17856817186401611 0 -0.0098340279299935079 0.16251163155348819 0 -0.021252610283017299 0.19288279367469899 0 -0.028755358602008441 0.17856817186401611 0 -0.0059827897947596883 0.18397516726743521 0 -0.021252610283017299 0.19288279367469899 0 -0.033773783915334837 0.18639642803869261 0 -0.028755358602008441 0.17856817186401611 0 -0.0059827897947596883 0.18397516726743521 0 -0.0098340279299935079 0.16251163155348819 0 0.0064140399400634991 0.17187453546341061 0 -0.028755358602008441 0.17856817186401611 0 -0.0059827897947596883 0.18397516726743521 0 -0.0098340279299935079 0.16251163155348819 0 -0.0098340279299935079 0.16251163155348819 0 -0.023114598623133281 0.1543548629989096 0 -0.0089672342481278491 0.14055140880244879 0 -0.0098340279299935079 0.16251163155348819 0 -0.0089672342481278491 0.14055140880244879 0 0.0090873027420214393 0.14645509124296019 0 -0.0098340279299935079 0.16251163155348819 0 0.0090873027420214393 0.14645509124296019 0 -0.038850273950405689 0.1552136311167506 0 -0.023114598623133281 0.1543548629989096 0 -0.025747212644470292 0.1402638772215139 0 -0.023114598623133281 0.1543548629989096 0 -0.025747212644470292 0.1402638772215139 0 -0.0089672342481278491 0.14055140880244879 0 -0.016188446332509269 0.13002903461729759 0 -0.025747212644470292 0.1402638772215139 0 -0.0089672342481278491 0.14055140880244879 0 -0.016188446332509269 0.13002903461729759 0 -0.025747212644470292 0.1402638772215139 0 -0.025667369748640999 0.1203847680305245 0 -0.016188446332509269 0.13002903461729759 0 -0.0089672342481278491 0.14055140880244879 0 -0.0052415253905461166 0.12163179059113149 0 -0.0089672342481278491 0.14055140880244879 0 -0.0052415253905461166 0.12163179059113149 0 0.0066881668316375459 0.13229067637307751 0 -0.0052415253905461166 0.12163179059113149 0 -0.01441654746586132 0.10874442954578289 0 -0.025667369748640999 0.1203847680305245 0 -0.0052415253905461166 0.12163179059113149 0 -0.025667369748640999 0.1203847680305245 0 -0.0052415253905461166 0.12163179059113149 0 -0.00274610422824852 0.1072392265062172 0 -0.01441654746586132 0.10874442954578289 0 -0.0052415253905461166 0.12163179059113149 0 -0.00274610422824852 0.1072392265062172 0 0.0053094181837881954 0.1134040955970603 0 -0.00274610422824852 0.1072392265062172 0 -0.0031657251830889601 0.097104091061034126 0 -0.01441654746586132 0.10874442954578289 0 -0.00274610422824852 0.1072392265062172 0 -0.0031657251830889601 0.097104091061034126 0 0.001273276525327501 0.10171964493391771 0 -0.0031657251830889601 0.097104091061034126 0 -0.01203794676536629 0.096413436395145144 0 -0.0031657251830889601 0.097104091061034126 0 -0.01203794676536629 0.096413436395145144 0 0.001797739413780962 0.091968785701809164 0 -0.0031657251830889601 0.097104091061034126 0 0.001797739413780962 0.091968785701809164 0 -0.0031657251830889601 0.097104091061034126 0 -0.01203794676536629 0.096413436395145144 0 -0.01441654746586132 0.10874442954578289 0 -0.0031657251830889601 0.097104091061034126 0 -0.01441654746586132 0.10874442954578289 0 -0.01203794676536629 0.096413436395145144 0 -0.01441654746586132 0.10874442954578289 0 -0.021514459433171821 0.1009888735629428 0 -0.021514459433171821 0.1009888735629428 0 -0.024271525188864961 0.086770036958248836 0 -0.033261617613728318 0.1024682532390121 0 -0.01441654746586132 0.10874442954578289 0 -0.021514459433171821 0.1009888735629428 0 -0.026321244867684761 0.1104483175605069 0 -0.01203794676536629 0.096413436395145144 0 -0.021514459433171821 0.1009888735629428 0 -0.024271525188864961 0.086770036958248836 0 -0.021514459433171821 0.1009888735629428 0 -0.026321244867684761 0.1104483175605069 0 -0.033261617613728318 0.1024682532390121 0 -0.016188446332509269 0.13002903461729759 0 -0.0052415253905461166 0.12163179059113149 0 -0.025667369748640999 0.1203847680305245 0 -0.026321244867684761 0.1104483175605069 0 -0.025667369748640999 0.1203847680305245 0 -0.041001005827551097 0.1194486309587148 0 -0.01441654746586132 0.10874442954578289 0 -0.025667369748640999 0.1203847680305245 0 -0.01441654746586132 0.10874442954578289 0 -0.026321244867684761 0.1104483175605069 0 -0.025667369748640999 0.1203847680305245 0 -0.0086161109195977068 0.079554539018240389 0 -8.5143006804686786e-05 0.061208392659180981 0 0.00329811403693285 0.090416466410962043 0 -0.0086161109195977068 0.079554539018240389 0 -0.023819739853032561 0.067409013361000969 0 -8.5143006804686786e-05 0.061208392659180981 0 -0.024271525188864961 0.086770036958248836 0 0.001797739413780962 0.091968785701809164 0 -0.0086161109195977068 0.079554539018240389 0 -0.024271525188864961 0.086770036958248836 0 0.001797739413780962 0.091968785701809164 0 -0.01203794676536629 0.096413436395145144 0 -0.024271525188864961 0.086770036958248836 0 0.001797739413780962 0.091968785701809164 0 -0.0086161109195977068 0.079554539018240389 0 0.00329811403693285 0.090416466410962043 0 0.001797739413780962 0.091968785701809164 0 -0.0086161109195977068 0.079554539018240389 0 -0.024271525188864961 0.086770036958248836 0 -0.023819739853032561 0.067409013361000969 0 -0.023819739853032561 0.067409013361000969 0 -0.050340789791510403 0.081571288214685955 0 -0.041162531138555593 0.059574030428706751 0 -0.024271525188864961 0.086770036958248836 0 -0.039465048103795038 0.09343281925542915 0 -0.050340789791510403 0.081571288214685955 0 -0.039465048103795038 0.09343281925542915 0 -0.050340789791510403 0.081571288214685955 0 -0.047800732745788457 0.10477787768743831 0 -0.024271525188864961 0.086770036958248836 0 -0.050340789791510403 0.081571288214685955 0 -0.024271525188864961 0.086770036958248836 0 -0.023819739853032561 0.067409013361000969 0 -0.050340789791510403 0.081571288214685955 0 -0.050340789791510403 0.081571288214685955 0 -0.061695163073909043 0.061867325122852562 0 -0.041162531138555593 0.059574030428706751 0 -0.026321244867684761 0.1104483175605069 0 -0.041001005827551097 0.1194486309587148 0 -0.033261617613728318 0.1024682532390121 0 -0.025667369748640999 0.1203847680305245 0 -0.041001005827551097 0.1194486309587148 0 -0.024271525188864961 0.086770036958248836 0 -0.039465048103795038 0.09343281925542915 0 -0.033261617613728318 0.1024682532390121 0 -0.041001005827551097 0.1194486309587148 0 -0.033261617613728318 0.1024682532390121 0 -0.047800732745788457 0.10477787768743831 0 -0.039465048103795038 0.09343281925542915 0 -0.033261617613728318 0.1024682532390121 0 -0.047800732745788457 0.10477787768743831 0 -0.056334641906461327 0.11851249388690679 0 -0.066372348150309957 0.097442516679016628 0 -0.047800732745788457 0.10477787768743831 0 -0.056334641906461327 0.11851249388690679 0 -0.066372348150309957 0.097442516679016628 0 -0.050340789791510403 0.081571288214685955 0 -0.047800732745788457 0.10477787768743831 0 -0.066372348150309957 0.097442516679016628 0 -0.041001005827551097 0.1194486309587148 0 -0.047800732745788457 0.10477787768743831 0 -0.056334641906461327 0.11851249388690679 0 -0.041001005827551097 0.1194486309587148 0 -0.056334641906461327 0.11851249388690679 0 -0.056334641906461327 0.11851249388690679 0 -0.082757718582173512 0.1168993330227758 0 -0.056334641906461327 0.11851249388690679 0 -0.082757718582173512 0.1168993330227758 0 -0.066372348150309957 0.097442516679016628 0 -0.069733750356425872 0.13758435725200599 0 -0.056334641906461327 0.11851249388690679 0 -0.082757718582173512 0.1168993330227758 0 -0.082757718582173512 0.1168993330227758 0 -0.084352003722106661 0.093965940319708424 0 -0.10382359889872619 0.095753891953404238 0 -0.082757718582173512 0.1168993330227758 0 -0.084352003722106661 0.093965940319708424 0 -0.066372348150309957 0.097442516679016628 0 -0.084352003722106661 0.093965940319708424 0 -0.066372348150309957 0.097442516679016628 0 -0.07641005439415631 0.076372539471125489 0 -0.050340789791510403 0.081571288214685955 0 -0.066372348150309957 0.097442516679016628 0 -0.07641005439415631 0.076372539471125489 0 -0.066372348150309957 0.097442516679016628 0 -0.07641005439415631 0.076372539471125489 0 -0.050340789791510403 0.081571288214685955 0 -0.07641005439415631 0.076372539471125489 0 -0.050340789791510403 0.081571288214685955 0 -0.07641005439415631 0.076372539471125489 0 -0.061695163073909043 0.061867325122852562 0 -0.08222779500926243 0.064160619816998707 0 -0.061695163073909043 0.061867325122852562 0 -0.07641005439415631 0.076372539471125489 0 -0.08222779500926243 0.064160619816998707 0 -0.061695163073909043 0.061867325122852562 0 -0.07641005439415631 0.076372539471125489 0 -0.1001387385414049 0.066161097490719481 0 -0.1032320587833485 0.071023678897434134 0 -0.08222779500926243 0.064160619816998707 0 -0.1001387385414049 0.066161097490719481 0 -0.093030724806825615 0.058719958376155748 0 -0.07641005439415631 0.076372539471125489 0 -0.1032320587833485 0.071023678897434134 0 -0.07641005439415631 0.076372539471125489 0 -0.08222779500926243 0.064160619816998707 0 -0.1001387385414049 0.066161097490719481 0 -0.08222779500926243 0.064160619816998707 0 -0.1001387385414049 0.066161097490719481 0 -0.07641005439415631 0.076372539471125489 0 -0.09239629858516353 0.083361420472218173 0 -0.1032320587833485 0.071023678897434134 0 -0.07641005439415631 0.076372539471125489 0 -0.08222779500926243 0.064160619816998707 0 -0.084352003722106661 0.093965940319708424 0 -0.09239629858516353 0.083361420472218173 0 -0.10382359889872619 0.095753891953404238 0 -0.084352003722106661 0.093965940319708424 0 -0.07641005439415631 0.076372539471125489 0 -0.09239629858516353 0.083361420472218173 0 -0.09239629858516353 0.083361420472218173 0 -0.1030511609047489 0.083356643164334193 0 -0.10382359889872619 0.095753891953404238 0 -0.09239629858516353 0.083361420472218173 0 -0.1030511609047489 0.083356643164334193 0 -0.1032320587833485 0.071023678897434134 0 -0.1030511609047489 0.083356643164334193 0 -0.1032320587833485 0.071023678897434134 0 -0.11275268735175729 0.083287581334280297 0 -0.1030511609047489 0.083356643164334193 0 -0.11275268735175729 0.083287581334280297 0 -0.10382359889872619 0.095753891953404238 0 -0.1001387385414049 0.066161097490719481 0 -0.11804968207354739 0.068161575164440588 0 -0.1001387385414049 0.066161097490719481 0 -0.1032320587833485 0.071023678897434134 0 -0.11804968207354739 0.068161575164440588 0 -0.1001387385414049 0.066161097490719481 0 -0.11804968207354739 0.068161575164440588 0 -0.1101821190581169 0.059809275698444193 0 -0.1032320587833485 0.071023678897434134 0 -0.11804968207354739 0.068161575164440588 0 -0.11275268735175729 0.083287581334280297 0 -0.11275268735175729 0.083287581334280297 0 -0.1230437022506831 0.097685150226556466 0 -0.10382359889872619 0.095753891953404238 0 -0.12642852363205551 0.083548666724364229 0 -0.11804968207354739 0.068161575164440588 0 -0.11275268735175729 0.083287581334280297 0 -0.12642852363205551 0.083548666724364229 0 -0.11275268735175729 0.083287581334280297 0 -0.1230437022506831 0.097685150226556466 0 -0.1230437022506831 0.097685150226556466 0 -0.11991659767633039 0.1123067296238078 0 -0.10382359889872619 0.095753891953404238 0 -0.11991659767633039 0.1123067296238078 0 -0.10382359889872619 0.095753891953404238 0 -0.13600959645393479 0.12885956729421141 0 -0.1189920962718964 0.13082578519450799 0 -0.11991659767633039 0.1123067296238078 0 -0.1189920962718964 0.13082578519450799 0 -0.11991659767633039 0.1123067296238078 0 -0.1035382458785282 0.1165032461017215 0 -0.10320549582964141 0.13854096634737481 0 -0.082757718582173512 0.1168993330227758 0 -0.1035382458785282 0.1165032461017215 0 -0.082757718582173512 0.1168993330227758 0 -0.1035382458785282 0.1165032461017215 0 -0.10382359889872619 0.095753891953404238 0 -0.11991659767633039 0.1123067296238078 0 -0.1035382458785282 0.1165032461017215 0 -0.10382359889872619 0.095753891953404238 0 -0.099989389733723497 0.026877560627114151 0 -0.1088701870959535 0.0082360310321715341 0 -0.099989389733723497 0.026877560627114151 0 -0.1088701870959535 0.0082360310321715341 0 -0.087993256786936341 0.01315518079684065 0 -0.099989389733723497 0.026877560627114151 0 -0.1088701870959535 0.0082360310321715341 0 -0.11215599938679691 0.021237551406610971 0 -0.099989389733723497 0.026877560627114151 0 -0.11215599938679691 0.021237551406610971 0 -0.1094138204351862 0.035767576623130543 0 -0.095495773167924874 -0.002391330978720841 0 -0.1088701870959535 0.0082360310321715341 0 -0.087993256786936341 0.01315518079684065 0 -0.095495773167924874 -0.002391330978720841 0 -0.1088701870959535 0.0082360310321715341 0 -0.12556371390992521 0.021500773221646109 0 -0.1088701870959535 0.0082360310321715341 0 -0.115226511802166 -0.0051064212604388631 0 -0.12556371390992521 0.021500773221646109 0 -0.1088701870959535 0.0082360310321715341 0 -0.115226511802166 -0.0051064212604388631 0 -0.1088701870959535 0.0082360310321715341 0 -0.12556371390992521 0.021500773221646109 0 -0.11215599938679691 0.021237551406610971 0 -0.1238646014883993 0.03758829514287533 0 -0.12556371390992521 0.021500773221646109 0 -0.1088701870959535 0.0082360310321715341 0 -0.11215599938679691 0.021237551406610971 0 -0.11215599938679691 0.021237551406610971 0 -0.1238646014883993 0.03758829514287533 0 -0.1094138204351862 0.035767576623130543 0 -0.1238646014883993 0.03758829514287533 0 -0.1094138204351862 0.035767576623130543 0 -0.1107801369177908 0.048432834893066677 0 -0.12702635663295581 0.054791870409709113 0 -0.1238646014883993 0.03758829514287533 0 -0.1107801369177908 0.048432834893066677 0 -0.12702635663295581 0.054791870409709113 0 -0.1107801369177908 0.048432834893066677 0 -0.1101821190581169 0.059809275698444193 0 -0.12702635663295581 0.054791870409709113 0 -0.11804968207354739 0.068161575164440588 0 -0.1101821190581169 0.059809275698444193 0 -0.1107801369177908 0.048432834893066677 0 -0.1007813635575724 0.056096292962617353 0 -0.091108592371493421 0.04551909022205667 0 -0.1001387385414049 0.066161097490719481 0 -0.1101821190581169 0.059809275698444193 0 -0.1007813635575724 0.056096292962617353 0 -0.1107801369177908 0.048432834893066677 0 -0.1101821190581169 0.059809275698444193 0 -0.1007813635575724 0.056096292962617353 0 -0.1007813635575724 0.056096292962617353 0 -0.091108592371493421 0.04551909022205667 0 -0.093030724806825615 0.058719958376155748 0 -0.1001387385414049 0.066161097490719481 0 -0.1007813635575724 0.056096292962617353 0 -0.093030724806825615 0.058719958376155748 0 -0.099989389733723497 0.026877560627114151 0 -0.1094138204351862 0.035767576623130543 0 -0.091108592371493421 0.04551909022205667 0 -0.1094138204351862 0.035767576623130543 0 -0.1107801369177908 0.048432834893066677 0 -0.091108592371493421 0.04551909022205667 0 -0.099989389733723497 0.026877560627114151 0 -0.091108592371493421 0.04551909022205667 0 -0.082858186337085693 0.031257801086905408 0 -0.091108592371493421 0.04551909022205667 0 -0.077958960750340298 0.050690789218515463 0 -0.099989389733723497 0.026877560627114151 0 -0.082858186337085693 0.031257801086905408 0 -0.091108592371493421 0.04551909022205667 0 -0.08222779500926243 0.064160619816998707 0 -0.091108592371493421 0.04551909022205667 0 -0.077958960750340298 0.050690789218515463 0 -0.08222779500926243 0.064160619816998707 0 -0.091108592371493421 0.04551909022205667 0 -0.08222779500926243 0.064160619816998707 0 -0.091108592371493421 0.04551909022205667 0 -0.093030724806825615 0.058719958376155748 0 -0.08222779500926243 0.064160619816998707 0 -0.077958960750340298 0.050690789218515463 0 -0.061695163073909043 0.061867325122852562 0 -0.077958960750340298 0.050690789218515463 0 -0.067502651022139787 0.040342816095144597 0 -0.061695163073909043 0.061867325122852562 0 -0.082858186337085693 0.031257801086905408 0 -0.077958960750340298 0.050690789218515463 0 -0.067502651022139787 0.040342816095144597 0 -0.082858186337085693 0.031257801086905408 0 -0.087993256786936341 0.01315518079684065 0 -0.062243706443253242 0.017595874285774239 0 -0.082858186337085693 0.031257801086905408 0 -0.067502651022139787 0.040342816095144597 0 -0.062243706443253242 0.017595874285774239 0 -0.099989389733723497 0.026877560627114151 0 -0.082858186337085693 0.031257801086905408 0 -0.087993256786936341 0.01315518079684065 0 -0.095495773167924874 -0.002391330978720841 0 -0.077201372329570958 -0.0024362297925788201 0 -0.087993256786936341 0.01315518079684065 0 -0.077201372329570958 -0.0024362297925788201 0 -0.059369039005888302 -0.0082183496493909575 0 -0.062243706443253242 0.017595874285774239 0 -0.077201372329570958 -0.0024362297925788201 0 -0.087993256786936341 0.01315518079684065 0 -0.062243706443253242 0.017595874285774239 0 -0.062243706443253242 0.017595874285774239 0 -0.047537007436028289 0.041743523030955701 0 -0.030164011560363281 0.02298670488601097 0 -0.039022989881712662 -0.0049071365371671782 0 -0.062243706443253242 0.017595874285774239 0 -0.030164011560363281 0.02298670488601097 0 -0.059369039005888302 -0.0082183496493909575 0 -0.039022989881712662 -0.0049071365371671782 0 -0.062243706443253242 0.017595874285774239 0 -0.061695163073909043 0.061867325122852562 0 -0.047537007436028289 0.041743523030955701 0 -0.041162531138555593 0.059574030428706751 0 -0.061695163073909043 0.061867325122852562 0 -0.041162531138555593 0.059574030428706751 0 -0.067502651022139787 0.040342816095144597 0 -0.061695163073909043 0.061867325122852562 0 -0.047537007436028289 0.041743523030955701 0 -0.067502651022139787 0.040342816095144597 0 -0.062243706443253242 0.017595874285774239 0 -0.047537007436028289 0.041743523030955701 0 -0.047537007436028289 0.041743523030955701 0 -0.022453981377948861 0.04809438736724507 0 -0.030164011560363281 0.02298670488601097 0 -0.047537007436028289 0.041743523030955701 0 -0.041162531138555593 0.059574030428706751 0 -0.022453981377948861 0.04809438736724507 0 -0.023819739853032561 0.067409013361000969 0 -0.041162531138555593 0.059574030428706751 0 -0.022453981377948861 0.04809438736724507 0 -0.022453981377948861 0.04809438736724507 0 -0.003468400050540256 0.032000318907399967 0 -0.030164011560363281 0.02298670488601097 0 -0.003468400050540256 0.032000318907399967 0 -8.5143006804686786e-05 0.061208392659180981 0 -0.023819739853032561 0.067409013361000969 0 -0.022453981377948861 0.04809438736724507 0 -8.5143006804686786e-05 0.061208392659180981 0 -0.022453981377948861 0.04809438736724507 0 -0.003468400050540256 0.032000318907399967 0 -8.5143006804686786e-05 0.061208392659180981 0 -0.039022989881712662 -0.0049071365371671782 0 -0.030164011560363281 0.02298670488601097 0 -0.0068516570942758421 0.0027922451556188291 0 -0.003468400050540256 0.032000318907399967 0 -0.0068516570942758421 0.0027922451556188291 0 -0.003468400050540256 0.032000318907399967 0 -0.030164011560363281 0.02298670488601097 0 -0.0068516570942758421 0.0027922451556188291 0 -0.003468400050540256 0.032000318907399967 0 -0.0068516570942758421 0.0027922451556188291 0 0.01319485230499441 0.0059030625363524917 0 -0.003468400050540256 0.032000318907399967 0 0.01319485230499441 0.0059030625363524917 0 0.016847249476750339 0.02683525465933884 0 0.029180592828666928 0.016421964731584669 0 0.016847249476750339 0.02683525465933884 0 0.03088547676881646 0.035680352469289307 0 0.01319485230499441 0.0059030625363524917 0 0.029180592828666928 0.016421964731584669 0 0.016847249476750339 0.02683525465933884 0 0.01319485230499441 0.0059030625363524917 0 0.029180592828666928 0.016421964731584669 0 0.028370925747964029 -0.01043531018307757 0 -8.5143006804686786e-05 0.061208392659180981 0 0.014443725531814181 0.044170574652067758 0 0.021531957966100849 0.056295759120334243 0 -0.003468400050540256 0.032000318907399967 0 -8.5143006804686786e-05 0.061208392659180981 0 0.014443725531814181 0.044170574652067758 0 -0.003468400050540256 0.032000318907399967 0 0.016847249476750339 0.02683525465933884 0 0.014443725531814181 0.044170574652067758 0 0.016847249476750339 0.02683525465933884 0 0.014443725531814181 0.044170574652067758 0 0.03088547676881646 0.035680352469289307 0 0.03088547676881646 0.035680352469289307 0 0.025339955222177309 0.047202596362075307 0 0.034498660621977748 0.05266369920660996 0 0.014443725531814181 0.044170574652067758 0 0.03088547676881646 0.035680352469289307 0 0.025339955222177309 0.047202596362075307 0 0.021531957966100849 0.056295759120334243 0 0.037161999614144091 0.055380174785353897 0 0.034498660621977748 0.05266369920660996 0 0.021531957966100849 0.056295759120334243 0 0.037161999614144091 0.055380174785353897 0 0.020230056825538922 0.072898320598158484 0 0.014443725531814181 0.044170574652067758 0 0.025339955222177309 0.047202596362075307 0 0.021531957966100849 0.056295759120334243 0 0.025339955222177309 0.047202596362075307 0 0.021531957966100849 0.056295759120334243 0 0.034498660621977748 0.05266369920660996 0 0.037161999614144091 0.055380174785353897 0 0.034498660621977748 0.05266369920660996 0 0.057568621947691967 0.034267052088855027 0 0.037161999614144091 0.055380174785353897 0 0.034498660621977748 0.05266369920660996 0 0.03088547676881646 0.035680352469289307 0 0.034498660621977748 0.05266369920660996 0 0.057568621947691967 0.034267052088855027 0 0.037161999614144091 0.055380174785353897 0 0.057568621947691967 0.034267052088855027 0 0.037161999614144091 0.055380174785353897 0 0.067156756084856634 0.055420894209015442 0 0.057718443718854373 0.07634674290178195 0 0.037161999614144091 0.055380174785353897 0 0.057568621947691967 0.034267052088855027 0 0.067156756084856634 0.055420894209015442 0 0.029180592828666928 0.016421964731584669 0 0.046106769888590513 0.0048247085024532808 0 0.044353914649115068 0.021265909450282301 0 0.029180592828666928 0.016421964731584669 0 0.046106769888590513 0.0048247085024532808 0 0.028370925747964029 -0.01043531018307757 0 0.029180592828666928 0.016421964731584669 0 0.03088547676881646 0.035680352469289307 0 0.044353914649115068 0.021265909450282301 0 0.03088547676881646 0.035680352469289307 0 0.057568621947691967 0.034267052088855027 0 0.044353914649115068 0.021265909450282301 0 0.057568621947691967 0.034267052088855027 0 0.044353914649115068 0.021265909450282301 0 0.05802811181180946 0.015135469459229211 0 0.046106769888590513 0.0048247085024532808 0 0.044353914649115068 0.021265909450282301 0 0.05802811181180946 0.015135469459229211 0 0.046106769888590513 0.0048247085024532808 0 0.05802811181180946 0.015135469459229211 0 0.063125973231280358 0.001453631966744697 0 0.077975244281238254 0.013153929392354579 0 0.072723641444661119 -0.01192755863648455 0 0.063125973231280358 0.001453631966744697 0 0.077975244281238254 0.013153929392354579 0 0.072723641444661119 -0.01192755863648455 0 0.077975244281238254 0.013153929392354579 0 0.082073047877995534 0.0089142551968755535 0 0.072723641444661119 -0.01192755863648455 0 0.05802811181180946 0.015135469459229211 0 0.063125973231280358 0.001453631966744697 0 0.077975244281238254 0.013153929392354579 0 0.077975244281238254 0.013153929392354579 0 0.082073047877995534 0.0089142551968755535 0 0.077975244281238254 0.013153929392354579 0 0.082073047877995534 0.0089142551968755535 0 0.085850283000258973 0.016665271420139759 0 0.082073047877995534 0.0089142551968755535 0 0.08998535334344826 0.0098542920280498235 0 0.085850283000258973 0.016665271420139759 0 0.082073047877995534 0.0089142551968755535 0 0.08998535334344826 0.0098542920280498235 0 0.089482141183063579 -0.00222485800946197 0 0.08998535334344826 0.0098542920280498235 0 0.1005315655444492 0.0094229986521299543 0 0.089482141183063579 -0.00222485800946197 0 0.077975244281238254 0.013153929392354579 0 0.082970159139027291 0.037009483802942958 0 0.092390655411831002 0.022934275282512611 0 0.085850283000258973 0.016665271420139759 0 0.082970159139027291 0.037009483802942958 0 0.077975244281238254 0.013153929392354579 0 0.085850283000258973 0.016665271420139759 0 0.082970159139027291 0.037009483802942958 0 0.08998535334344826 0.0098542920280498235 0 0.092390655411831002 0.022934275282512611 0 0.085850283000258973 0.016665271420139759 0 0.057568621947691967 0.034267052088855027 0 0.077975244281238254 0.013153929392354579 0 0.057568621947691967 0.034267052088855027 0 0.077975244281238254 0.013153929392354579 0 0.082970159139027291 0.037009483802942958 0 0.057568621947691967 0.034267052088855027 0 0.05802811181180946 0.015135469459229211 0 0.077975244281238254 0.013153929392354579 0 0.057568621947691967 0.034267052088855027 0 0.067156756084856634 0.055420894209015442 0 0.082970159139027291 0.037009483802942958 0 0.067156756084856634 0.055420894209015442 0 0.087965073996817494 0.060865038213530988 0 0.082970159139027291 0.037009483802942958 0 0.087965073996817494 0.060865038213530988 0 0.082970159139027291 0.037009483802942958 0 0.087965073996817494 0.060865038213530988 0 0.082970159139027291 0.037009483802942958 0 0.095250895104143501 0.039268289727542767 0 0.092390655411831002 0.022934275282512611 0 0.082970159139027291 0.037009483802942958 0 0.095250895104143501 0.039268289727542767 0 0.095250895104143501 0.039268289727542767 0 0.1061063326437085 0.037796101975932188 0 0.100113398355634 0.050207287427470229 0 0.1061063326437085 0.037796101975932188 0 0.100113398355634 0.050207287427470229 0 0.1079163156554707 0.048216208177246367 0 0.095250895104143501 0.039268289727542767 0 0.1061063326437085 0.037796101975932188 0 0.1038635128050425 0.025586317614937279 0 0.087965073996817494 0.060865038213530988 0 0.095250895104143501 0.039268289727542767 0 0.100113398355634 0.050207287427470229 0 0.09857491024414837 0.060523492312285383 0 0.100113398355634 0.050207287427470229 0 0.1058076904359798 0.055275098904465081 0 0.087965073996817494 0.060865038213530988 0 0.09857491024414837 0.060523492312285383 0 0.100113398355634 0.050207287427470229 0 0.1079163156554707 0.048216208177246367 0 0.1058076904359798 0.055275098904465081 0 0.1117846305660833 0.059121691708999537 0 0.100113398355634 0.050207287427470229 0 0.1079163156554707 0.048216208177246367 0 0.1058076904359798 0.055275098904465081 0 0.09857491024414837 0.060523492312285383 0 0.1058076904359798 0.055275098904465081 0 0.1117846305660833 0.059121691708999537 0 0.1117846305660833 0.059121691708999537 0 0.1148144466382832 0.042092015775208373 0 0.12708844901733349 0.041679671555085028 0 0.1117846305660833 0.059121691708999537 0 0.12708844901733349 0.041679671555085028 0 0.1117846305660833 0.059121691708999537 0 0.12708844901733349 0.041679671555085028 0 0.1317454706604205 0.061200671637872857 0 0.1079163156554707 0.048216208177246367 0 0.1117846305660833 0.059121691708999537 0 0.1148144466382832 0.042092015775208373 0 0.1061063326437085 0.037796101975932188 0 0.1148144466382832 0.042092015775208373 0 0.1180435865568913 0.02799331262304567 0 0.1061063326437085 0.037796101975932188 0 0.1079163156554707 0.048216208177246367 0 0.1148144466382832 0.042092015775208373 0 0.1148144466382832 0.042092015775208373 0 0.1180435865568913 0.02799331262304567 0 0.12708844901733349 0.041679671555085028 0 0.1180435865568913 0.02799331262304567 0 0.1116512756222313 0.015598246575156219 0 0.1251384334453122 0.010641070539801151 0 0.1180435865568913 0.02799331262304567 0 0.1116512756222313 0.015598246575156219 0 0.1038635128050425 0.025586317614937279 0 0.1135259716724486 0.0012846859507877251 0 0.1251384334453122 0.010641070539801151 0 0.12833812541961651 -0.0066011368827682427 0 0.1135259716724486 0.0012846859507877251 0 0.1116512756222313 0.015598246575156219 0 0.1251384334453122 0.010641070539801151 0 0.1135259716724486 0.0012846859507877251 0 0.1116512756222313 0.015598246575156219 0 0.1005315655444492 0.0094229986521299543 0 0.1135259716724486 0.0012846859507877251 0 0.1005315655444492 0.0094229986521299543 0 0.1021397783948045 -0.0076133218604165437 0 0.08998535334344826 0.0098542920280498235 0 0.092390655411831002 0.022934275282512611 0 0.1005315655444492 0.0094229986521299543 0 0.092390655411831002 0.022934275282512611 0 0.1005315655444492 0.0094229986521299543 0 0.1038635128050425 0.025586317614937279 0 0.1116512756222313 0.015598246575156219 0 0.1005315655444492 0.0094229986521299543 0 0.1038635128050425 0.025586317614937279 0 0.092390655411831002 0.022934275282512611 0 0.095250895104143501 0.039268289727542767 0 0.1038635128050425 0.025586317614937279 0 0.1061063326437085 0.037796101975932188 0 0.1180435865568913 0.02799331262304567 0 0.1038635128050425 0.025586317614937279 0 0.106570967405294 0.1056465015556199 0 0.08478210661950511 0.1039503560945995 0 0.090348289740856513 0.1096275907840233 0 0.106570967405294 0.1056465015556199 0 0.08478210661950511 0.1039503560945995 0 0.106570967405294 0.1056465015556199 0 0.096538525061073313 0.093725240809611379 0 0.08478210661950511 0.1039503560945995 0 0.106570967405294 0.1056465015556199 0 0.12007222937858419 0.083232169362821615 0 0.096538525061073313 0.093725240809611379 0 0.094325352423658415 0.11368400030784551 0 0.1111743441148136 0.1137807353264655 0 0.090348289740856513 0.1096275907840233 0 0.1111743441148136 0.1137807353264655 0 0.090348289740856513 0.1096275907840233 0 0.106570967405294 0.1056465015556199 0 0.1111743441148136 0.1137807353264655 0 0.090348289740856513 0.1096275907840233 0 0.094325352423658415 0.11368400030784551 0 0.099784850275144235 0.12052278998170531 0 0.1111743441148136 0.1137807353264655 0 0.099784850275144235 0.12052278998170531 0 0.092483574130176383 0.12566409972693179 0 0.1025070629470624 0.12825237695177311 0 0.099784850275144235 0.12052278998170531 0 0.093735325674836542 0.11927342575861299 0 0.092483574130176383 0.12566409972693179 0 0.094325352423658415 0.11368400030784551 0 0.099784850275144235 0.12052278998170531 0 0.093735325674836542 0.11927342575861299 0 0.099784850275144235 0.12052278998170531 0 0.108310300612111 0.1232453544110018 0 0.1025070629470624 0.12825237695177311 0 0.099784850275144235 0.12052278998170531 0 0.108310300612111 0.1232453544110018 0 0.1111743441148136 0.1137807353264655 0 0.1111743441148136 0.1137807353264655 0 0.13200039848876971 0.117933879868912 0 0.1111743441148136 0.1137807353264655 0 0.1283598281910823 0.1073426470166446 0 0.13200039848876971 0.117933879868912 0 0.1111743441148136 0.1137807353264655 0 0.1179614552688692 0.1242046279655936 0 0.13200039848876971 0.117933879868912 0 0.108310300612111 0.1232453544110018 0 0.1111743441148136 0.1137807353264655 0 0.1179614552688692 0.1242046279655936 0 0.106570967405294 0.1056465015556199 0 0.1111743441148136 0.1137807353264655 0 0.1283598281910823 0.1073426470166446 0 0.106570967405294 0.1056465015556199 0 0.1283598281910823 0.1073426470166446 0 0.12007222937858419 0.083232169362821615 0 0.1283598281910823 0.1073426470166446 0 0.106570967405294 0.1056465015556199 0 0.12007222937858419 0.083232169362821615 0 0.1283598281910823 0.1073426470166446 0 0.1117846305660833 0.059121691708999537 0 0.12007222937858419 0.083232169362821615 0 0.1317454706604205 0.061200671637872857 0 0.1117846305660833 0.059121691708999537 0 0.12007222937858419 0.083232169362821615 0 0.1117846305660833 0.059121691708999537 0 0.095029759194825258 0.078217501363603184 0 0.1117846305660833 0.059121691708999537 0 0.12007222937858419 0.083232169362821615 0 0.095029759194825258 0.078217501363603184 0 0.087965073996817494 0.060865038213530988 0 0.09857491024414837 0.060523492312285383 0 0.095029759194825258 0.078217501363603184 0 0.09857491024414837 0.060523492312285383 0 0.1117846305660833 0.059121691708999537 0 0.095029759194825258 0.078217501363603184 0 0.12007222937858419 0.083232169362821615 0 0.095029759194825258 0.078217501363603184 0 0.096538525061073313 0.093725240809611379 0 0.095029759194825258 0.078217501363603184 0 0.096538525061073313 0.093725240809611379 0 0.07827488782356759 0.097313311018207199 0 0.095029759194825258 0.078217501363603184 0 0.07827488782356759 0.097313311018207199 0 0.095029759194825258 0.078217501363603184 0 0.077228984163784278 0.07363269754122774 0 0.07827488782356759 0.097313311018207199 0 0.087965073996817494 0.060865038213530988 0 0.095029759194825258 0.078217501363603184 0 0.077228984163784278 0.07363269754122774 0 0.067156756084856634 0.055420894209015442 0 0.077228984163784278 0.07363269754122774 0 0.057718443718854373 0.07634674290178195 0 0.067156756084856634 0.055420894209015442 0 0.087965073996817494 0.060865038213530988 0 0.077228984163784278 0.07363269754122774 0 0.068883045076456872 0.095712743157958358 0 0.07827488782356759 0.097313311018207199 0 0.057718443718854373 0.07634674290178195 0 0.07827488782356759 0.097313311018207199 0 0.057718443718854373 0.07634674290178195 0 0.077228984163784278 0.07363269754122774 0 0.07827488782356759 0.097313311018207199 0 0.057718443718854373 0.07634674290178195 0 0.077801056791709927 0.10340691896426669 0 0.075494265839906469 0.10666539222303439 0 0.061327281019820198 0.1021245242454126 0 0.075494265839906469 0.10666539222303439 0 0.061327281019820198 0.1021245242454126 0 0.059690206444081087 0.103513737000705 0 0.075494265839906469 0.10666539222303439 0 0.059131948834595417 0.1144373695334138 0 0.059690206444081087 0.103513737000705 0 0.077801056791709927 0.10340691896426669 0 0.061327281019820198 0.1021245242454126 0 0.075494265839906469 0.10666539222303439 0 0.059690206444081087 0.103513737000705 0 0.074471720929365562 0.1016478445092233 0 0.077801056791709927 0.10340691896426669 0 0.061327281019820198 0.1021245242454126 0 0.068883045076456872 0.095712743157958358 0 0.074471720929365562 0.1016478445092233 0 0.061327281019820198 0.1021245242454126 0 0.068883045076456872 0.095712743157958358 0 0.061327281019820198 0.1021245242454126 0 0.077801056791709927 0.10340691896426669 0 0.075494265839906469 0.10666539222303439 0 0.068883045076456872 0.095712743157958358 0 0.074471720929365562 0.1016478445092233 0 0.07827488782356759 0.097313311018207199 0 0.074471720929365562 0.1016478445092233 0 0.07827488782356759 0.097313311018207199 0 0.074471720929365562 0.1016478445092233 0 0.07827488782356759 0.097313311018207199 0 0.08478210661950511 0.1039503560945995 0 0.096538525061073313 0.093725240809611379 0 0.07827488782356759 0.097313311018207199 0 0.08478210661950511 0.1039503560945995 0 0.07827488782356759 0.097313311018207199 0 0.08478210661950511 0.1039503560945995 0 0.075494265839906469 0.10666539222303439 0 0.090348289740856513 0.1096275907840233 0 0.075494265839906469 0.10666539222303439 0 0.08478210661950511 0.1039503560945995 0 0.090348289740856513 0.1096275907840233 0 0.077801056791709927 0.10340691896426669 0 0.08478210661950511 0.1039503560945995 0 0.077801056791709927 0.10340691896426669 0 0.075494265839906469 0.10666539222303439 0 0.08478210661950511 0.1039503560945995 0 0.074471720929365562 0.1016478445092233 0 0.077801056791709927 0.10340691896426669 0 0.08478210661950511 0.1039503560945995 0 0.08478210661950511 0.1039503560945995 0 0.090348289740856513 0.1096275907840233 0 0.075494265839906469 0.10666539222303439 0 0.086730102311220886 0.1173547606677144 0 0.08009942240432899 0.12646209510448511 0 0.086730102311220886 0.1173547606677144 0 0.093735325674836542 0.11927342575861299 0 0.092483574130176383 0.12566409972693179 0 0.086730102311220886 0.1173547606677144 0 0.092483574130176383 0.12566409972693179 0 0.08009942240432899 0.12646209510448511 0 0.094325352423658415 0.11368400030784551 0 0.086730102311220886 0.1173547606677144 0 0.090348289740856513 0.1096275907840233 0 0.094325352423658415 0.11368400030784551 0 0.086730102311220886 0.1173547606677144 0 0.093735325674836542 0.11927342575861299 0 0.094325352423658415 0.11368400030784551 0 0.090348289740856513 0.1096275907840233 0 0.075494265839906469 0.10666539222303439 0 0.086730102311220886 0.1173547606677144 0 0.090348289740856513 0.1096275907840233 0 0.075494265839906469 0.10666539222303439 0 0.057493903125336573 0.13061420494334469 0 0.075494265839906469 0.10666539222303439 0 0.057493903125336573 0.13061420494334469 0 0.08009942240432899 0.12646209510448511 0 0.075494265839906469 0.10666539222303439 0 0.059131948834595417 0.1144373695334138 0 0.057493903125336573 0.13061420494334469 0 0.059131948834595417 0.1144373695334138 0 0.059690206444081087 0.103513737000705 0 0.043849419929058192 0.116956143966568 0 0.059131948834595417 0.1144373695334138 0 0.043849419929058192 0.116956143966568 0 0.057493903125336573 0.13061420494334469 0 0.059690206444081087 0.103513737000705 0 0.043849419929058192 0.116956143966568 0 0.061327281019820198 0.1021245242454126 0 0.059690206444081087 0.103513737000705 0 0.047215291979896018 0.1010259819034599 0 0.059690206444081087 0.103513737000705 0 0.047215291979896018 0.1010259819034599 0 0.043849419929058192 0.116956143966568 0 0.061327281019820198 0.1021245242454126 0 0.059690206444081087 0.103513737000705 0 0.068883045076456872 0.095712743157958358 0 0.061327281019820198 0.1021245242454126 0 0.055557740400081879 0.091068024922834945 0 0.061327281019820198 0.1021245242454126 0 0.047215291979896018 0.1010259819034599 0 0.055557740400081879 0.091068024922834945 0 0.061327281019820198 0.1021245242454126 0 0.047215291979896018 0.1010259819034599 0 0.059690206444081087 0.103513737000705 0 0.047215291979896018 0.1010259819034599 0 0.047215291979896018 0.1010259819034599 0 0.025676958171776659 0.099349338618351657 0 0.047215291979896018 0.1010259819034599 0 0.0253664724111668 0.096668876898289055 0 0.047215291979896018 0.1010259819034599 0 0.032060737905102367 0.1114913211112242 0 0.025676958171776659 0.099349338618351657 0 0.047215291979896018 0.1010259819034599 0 0.0253664724111668 0.096668876898289055 0 0.025676958171776659 0.099349338618351657 0 0.043849419929058192 0.116956143966568 0 0.02800863341403655 0.13039855093243241 0 0.047215291979896018 0.1010259819034599 0 0.032060737905102367 0.1114913211112242 0 0.043849419929058192 0.116956143966568 0 0.032060737905102367 0.1114913211112242 0 0.043849419929058192 0.116956143966568 0 0.02800863341403655 0.13039855093243241 0 0.037161999614144091 0.055380174785353897 0 0.057718443718854373 0.07634674290178195 0 0.057718443718854373 0.07634674290178195 0 0.055557740400081879 0.091068024922834945 0 0.039424153098891093 0.083135558664185524 0 0.068883045076456872 0.095712743157958358 0 0.057718443718854373 0.07634674290178195 0 0.055557740400081879 0.091068024922834945 0 0.047215291979896018 0.1010259819034599 0 0.055557740400081879 0.091068024922834945 0 0.039424153098891093 0.083135558664185524 0 0.047215291979896018 0.1010259819034599 0 0.039424153098891093 0.083135558664185524 0 0.0253664724111668 0.096668876898289055 0 0.037161999614144091 0.055380174785353897 0 0.039424153098891093 0.083135558664185524 0 0.020230056825538922 0.072898320598158484 0 0.037161999614144091 0.055380174785353897 0 0.057718443718854373 0.07634674290178195 0 0.039424153098891093 0.083135558664185524 0 0.037161999614144091 0.055380174785353897 0 0.020230056825538922 0.072898320598158484 0 0.039424153098891093 0.083135558664185524 0 0.020230056825538922 0.072898320598158484 0 0.0253664724111668 0.096668876898289055 0 0.020230056825538922 0.072898320598158484 0 0.00329811403693285 0.090416466410962043 0 0.0253664724111668 0.096668876898289055 0 0.020230056825538922 0.072898320598158484 0 0.00329811403693285 0.090416466410962043 0 0.0035176528424364071 0.092311771893123201 0 0.00329811403693285 0.090416466410962043 0 0.0253664724111668 0.096668876898289055 0 0.0035176528424364071 0.092311771893123201 0 0.001797739413780962 0.091968785701809164 0 0.0035176528424364071 0.092311771893123201 0 0.00329811403693285 0.090416466410962043 0 0.00329811403693285 0.090416466410962043 0 0.001797739413780962 0.091968785701809164 0 0.0035176528424364071 0.092311771893123201 0 0.00329811403693285 0.090416466410962043 0 0.001797739413780962 0.091968785701809164 0 -8.5143006804686786e-05 0.061208392659180981 0 0.00329811403693285 0.090416466410962043 0 -8.5143006804686786e-05 0.061208392659180981 0 0.020230056825538922 0.072898320598158484 0 0.00329811403693285 0.090416466410962043 0 -8.5143006804686786e-05 0.061208392659180981 0 0.021531957966100849 0.056295759120334243 0 0.020230056825538922 0.072898320598158484 0 0.032060737905102367 0.1114913211112242 0 0.018158746684195669 0.1096741985056023 0 0.02800863341403655 0.13039855093243241 0 0.018158746684195669 0.1096741985056023 0 0.015184318967548681 0.122878813151741 0 0.02800863341403655 0.13039855093243241 0 0.018158746684195669 0.1096741985056023 0 0.02800863341403655 0.13039855093243241 0 0.0253664724111668 0.096668876898289055 0 0.025676958171776659 0.099349338618351657 0 0.0041386243636575351 0.097672695333241077 0 0.032060737905102367 0.1114913211112242 0 0.018158746684195669 0.1096741985056023 0 0.025676958171776659 0.099349338618351657 0 0.018158746684195669 0.1096741985056023 0 0.025676958171776659 0.099349338618351657 0 0.01023722251295585 0.1044470899705594 0 0.0035176528424364071 0.092311771893123201 0 0.0253664724111668 0.096668876898289055 0 0.0041386243636575351 0.097672695333241077 0 0.0035176528424364071 0.092311771893123201 0 0.0253664724111668 0.096668876898289055 0 0.018158746684195669 0.1096741985056023 0 0.01023722251295585 0.1044470899705594 0 0.0053094181837881954 0.1134040955970603 0 0.025676958171776659 0.099349338618351657 0 0.0041386243636575351 0.097672695333241077 0 0.025676958171776659 0.099349338618351657 0 0.01023722251295585 0.1044470899705594 0 0.0041386243636575351 0.097672695333241077 0 0.01023722251295585 0.1044470899705594 0 0.0041386243636575351 0.097672695333241077 0 0.0044144950397284827 0.1000543207753459 0 0.0041386243636575351 0.097672695333241077 0 0.0044144950397284827 0.1000543207753459 0 -0.0031657251830889601 0.097104091061034126 0 0.0041386243636575351 0.097672695333241077 0 0.001273276525327501 0.10171964493391771 0 0.0041386243636575351 0.097672695333241077 0 0.0044144950397284827 0.1000543207753459 0 0.001273276525327501 0.10171964493391771 0 0.0035176528424364071 0.092311771893123201 0 0.0041386243636575351 0.097672695333241077 0 0.0035176528424364071 0.092311771893123201 0 0.001797739413780962 0.091968785701809164 0 0.0041386243636575351 0.097672695333241077 0 -0.0031657251830889601 0.097104091061034126 0 0.001797739413780962 0.091968785701809164 0 0.0041386243636575351 0.097672695333241077 0 -0.0031657251830889601 0.097104091061034126 0 0.0041386243636575351 0.097672695333241077 0 -0.00274610422824852 0.1072392265062172 0 0.0037250926345886088 0.1065278909937549 0 0.0053094181837881954 0.1134040955970603 0 0.01023722251295585 0.1044470899705594 0 0.0037250926345886088 0.1065278909937549 0 0.0053094181837881954 0.1134040955970603 0 0.01023722251295585 0.1044470899705594 0 0.0044144950397284827 0.1000543207753459 0 0.0037250926345886088 0.1065278909937549 0 -0.00274610422824852 0.1072392265062172 0 0.001273276525327501 0.10171964493391771 0 0.0037250926345886088 0.1065278909937549 0 0.0044144950397284827 0.1000543207753459 0 0.001273276525327501 0.10171964493391771 0 0.0037250926345886088 0.1065278909937549 0 -0.0052415253905461166 0.12163179059113149 0 0.0053094181837881954 0.1134040955970603 0 0.015184318967548681 0.122878813151741 0 -0.0052415253905461166 0.12163179059113149 0 0.015184318967548681 0.122878813151741 0 0.018158746684195669 0.1096741985056023 0 0.0053094181837881954 0.1134040955970603 0 0.015184318967548681 0.122878813151741 0 -0.0089672342481278491 0.14055140880244879 0 0.0066881668316375459 0.13229067637307751 0 0.0090873027420214393 0.14645509124296019 0 0.0066881668316375459 0.13229067637307751 0 0.02800863341403655 0.13039855093243241 0 0.0090873027420214393 0.14645509124296019 0 -0.0052415253905461166 0.12163179059113149 0 0.015184318967548681 0.122878813151741 0 0.0066881668316375459 0.13229067637307751 0 0.02800863341403655 0.13039855093243241 0 0.0090873027420214393 0.14645509124296019 0 0.015184318967548681 0.122878813151741 0 0.0066881668316375459 0.13229067637307751 0 0.02800863341403655 0.13039855093243241 0 0.02800863341403655 0.13039855093243241 0 0.024391071462334699 0.14717618073600011 0 0.0090873027420214393 0.14645509124296019 0 0.02800863341403655 0.13039855093243241 0 0.024391071462334699 0.14717618073600011 0 0.039493540410769627 0.15456301766365729 0 0.024391071462334699 0.14717618073600011 0 0.019093383353706261 0.15937907577901431 0 0.039493540410769627 0.15456301766365729 0 0.024391071462334699 0.14717618073600011 0 0.0090873027420214393 0.14645509124296019 0 0.019093383353706261 0.15937907577901431 0 -0.0098340279299935079 0.16251163155348819 0 0.0090873027420214393 0.14645509124296019 0 0.0064140399400634991 0.17187453546341061 0 0.0090873027420214393 0.14645509124296019 0 0.0064140399400634991 0.17187453546341061 0 0.019093383353706261 0.15937907577901431 0 -0.0059827897947596883 0.18397516726743521 0 0.0064140399400634991 0.17187453546341061 0 0.018623916424024899 0.18947890265636591 0 0.02507279070879544 0.17374928848361451 0 0.03738478212959704 0.18386792038812119 0 0.018623916424024899 0.18947890265636591 0 0.0064140399400634991 0.17187453546341061 0 0.02507279070879544 0.17374928848361451 0 0.018623916424024899 0.18947890265636591 0 0.02507279070879544 0.17374928848361451 0 0.019093383353706261 0.15937907577901431 0 0.039493540410769627 0.15456301766365729 0 0.0064140399400634991 0.17187453546341061 0 0.02507279070879544 0.17374928848361451 0 0.019093383353706261 0.15937907577901431 0 0.02507279070879544 0.17374928848361451 0 0.047549426488106887 0.17151275797603799 0 0.039493540410769627 0.15456301766365729 0 0.047549426488106887 0.17151275797603799 0 0.039493540410769627 0.15456301766365729 0 0.02507279070879544 0.17374928848361451 0 0.039493540410769627 0.15456301766365729 0 0.03738478212959704 0.18386792038812119 0 0.047549426488106887 0.17151275797603799 0 0.055605312565446131 0.18846249828841771 0 0.02507279070879544 0.17374928848361451 0 0.03738478212959704 0.18386792038812119 0 0.047549426488106887 0.17151275797603799 0 0.047549426488106887 0.17151275797603799 0 0.055605312565446131 0.18846249828841771 0 0.047549426488106887 0.17151275797603799 0 0.055605312565446131 0.18846249828841771 0 0.064822769456382129 0.17829479209568899 0 0.047549426488106887 0.17151275797603799 0 0.062034135695650999 0.1658418713362719 0 0.064822769456382129 0.17829479209568899 0 0.055605312565446131 0.18846249828841771 0 0.066556899202906569 0.1914614234876526 0 0.064822769456382129 0.17829479209568899 0 0.047549426488106887 0.17151275797603799 0 0.055670873473478183 0.155584761485899 0 0.039493540410769627 0.15456301766365729 0 0.047549426488106887 0.17151275797603799 0 0.062034135695650999 0.1658418713362719 0 0.055670873473478183 0.155584761485899 0 0.062034135695650999 0.1658418713362719 0 0.055670873473478183 0.155584761485899 0 0.068930862852021532 0.1516267430894844 0 0.055670873473478183 0.155584761485899 0 0.057493903125336573 0.13061420494334469 0 0.068930862852021532 0.1516267430894844 0 0.057493903125336573 0.13061420494334469 0 0.039493540410769627 0.15456301766365729 0 0.055670873473478183 0.155584761485899 0 0.057493903125336573 0.13061420494334469 0 0.039493540410769627 0.15456301766365729 0 0.043849419929058192 0.116956143966568 0 0.057493903125336573 0.13061420494334469 0 0.04221137421979991 0.13313297937650079 0 0.02800863341403655 0.13039855093243241 0 0.04221137421979991 0.13313297937650079 0 0.039493540410769627 0.15456301766365729 0 0.043849419929058192 0.116956143966568 0 0.02800863341403655 0.13039855093243241 0 0.04221137421979991 0.13313297937650079 0 0.057493903125336573 0.13061420494334469 0 0.04221137421979991 0.13313297937650079 0 0.039493540410769627 0.15456301766365729 0 0.02800863341403655 0.13039855093243241 0 0.039493540410769627 0.15456301766365729 0 0.029950581030715639 0.2481073239038423 0 0.029924864654389469 0.2376581562346286 0 0.017840670966781009 0.2436996938463524 0 0.029950581030715639 0.2481073239038423 0 0.017840670966781009 0.2436996938463524 0 0.024872130837775772 0.25705220584788441 0 0.029924864654389469 0.2376581562346286 0 0.017840670966781009 0.2436996938463524 0 0.020560430524028381 0.23177590035325241 0 0.017840670966781009 0.2436996938463524 0 0.0047104330480430192 0.24434373628764439 0 0.014667589503732341 0.25612106335659801 0 0.0047104330480430192 0.24434373628764439 0 0.0057590733420714788 0.23056715720690699 0 0.017840670966781009 0.2436996938463524 0 0.0047104330480430192 0.24434373628764439 0 0.0057590733420714788 0.23056715720690699 0 0.017840670966781009 0.2436996938463524 0 0.0057590733420714788 0.23056715720690699 0 0.020560430524028381 0.23177590035325241 0 -0.01021910245472752 0.22668507807672181 0 0.0047104330480430192 0.24434373628764439 0 0.0057590733420714788 0.23056715720690699 0 0.0057590733420714788 0.23056715720690699 0 0.016572319873013591 0.22062382501521319 0 0.020560430524028381 0.23177590035325241 0 0.016572319873013591 0.22062382501521319 0 0.020560430524028381 0.23177590035325241 0 0.028742822002578019 0.2249983213662442 0 0.029924864654389469 0.2376581562346286 0 0.020560430524028381 0.23177590035325241 0 0.028742822002578019 0.2249983213662442 0 0.028742822002578019 0.2249983213662442 0 0.024597834429133492 0.21028129729057901 0 0.040224133806371493 0.2178822866886124 0 0.016572319873013591 0.22062382501521319 0 0.028742822002578019 0.2249983213662442 0 0.024597834429133492 0.21028129729057901 0 0.0057590733420714788 0.23056715720690699 0 0.016572319873013591 0.22062382501521319 0 0.0026397162563400359 0.20432707912609091 0 0.016572319873013591 0.22062382501521319 0 0.024597834429133492 0.21028129729057901 0 0.0026397162563400359 0.20432707912609091 0 0.024597834429133492 0.21028129729057901 0 0.0026397162563400359 0.20432707912609091 0 0.018623916424024899 0.18947890265636591 0 -0.0059827897947596883 0.18397516726743521 0 0.0026397162563400359 0.20432707912609091 0 0.018623916424024899 0.18947890265636591 0 0.024597834429133492 0.21028129729057901 0 0.018623916424024899 0.18947890265636591 0 0.04040961813639711 0.2004179066144493 0 0.03738478212959704 0.18386792038812119 0 0.018623916424024899 0.18947890265636591 0 0.04040961813639711 0.2004179066144493 0 0.03738478212959704 0.18386792038812119 0 0.04040961813639711 0.2004179066144493 0 0.055605312565446131 0.18846249828841771 0 0.04040961813639711 0.2004179066144493 0 0.055605312565446131 0.18846249828841771 0 0.058080058728803542 0.2016300470388919 0 0.055605312565446131 0.18846249828841771 0 0.058080058728803542 0.2016300470388919 0 0.066556899202906569 0.1914614234876526 0 0.04040961813639711 0.2004179066144493 0 0.058080058728803542 0.2016300470388919 0 0.050265517390454477 0.21125856972503981 0 0.050265517390454477 0.21125856972503981 0 0.053722829618888017 0.22753145388290971 0 0.063017878782295311 0.2145182332235426 0 0.058080058728803542 0.2016300470388919 0 0.050265517390454477 0.21125856972503981 0 0.063017878782295311 0.2145182332235426 0 0.024597834429133492 0.21028129729057901 0 0.04040961813639711 0.2004179066144493 0 0.040224133806371493 0.2178822866886124 0 0.04040961813639711 0.2004179066144493 0 0.050265517390454477 0.21125856972503981 0 0.040224133806371493 0.2178822866886124 0 0.028742822002578019 0.2249983213662442 0 0.040224133806371493 0.2178822866886124 0 0.040577348728531748 0.23176846261517989 0 0.029924864654389469 0.2376581562346286 0 0.028742822002578019 0.2249983213662442 0 0.040577348728531748 0.23176846261517989 0 0.040224133806371493 0.2178822866886124 0 0.040577348728531748 0.23176846261517989 0 0.053722829618888017 0.22753145388290971 0 0.050265517390454477 0.21125856972503981 0 0.040224133806371493 0.2178822866886124 0 0.053722829618888017 0.22753145388290971 0 0.053722829618888017 0.22753145388290971 0 0.068425646932164491 0.22684982379948421 0 0.063017878782295311 0.2145182332235426 0 0.053722829618888017 0.22753145388290971 0 0.057838815046041582 0.2397367032345514 0 0.065013776968015385 0.23525687500295589 0 0.053722829618888017 0.22753145388290971 0 0.065013776968015385 0.23525687500295589 0 0.068425646932164491 0.22684982379948421 0 0.040577348728531748 0.23176846261517989 0 0.053722829618888017 0.22753145388290971 0 0.047431468859255303 0.24053412340514219 0 0.053722829618888017 0.22753145388290971 0 0.047431468859255303 0.24053412340514219 0 0.057838815046041582 0.2397367032345514 0 0.057838815046041582 0.2397367032345514 0 0.066326866307389321 0.24470640617662781 0 0.057092252759039272 0.25108552972779657 0 0.047431468859255303 0.24053412340514219 0 0.057838815046041582 0.2397367032345514 0 0.057092252759039272 0.25108552972779657 0 0.047431468859255303 0.24053412340514219 0 0.046253008554446202 0.25279922135016708 0 0.057092252759039272 0.25108552972779657 0 0.047431468859255303 0.24053412340514219 0 0.038848502141455937 0.24456152668562781 0 0.046253008554446202 0.25279922135016708 0 0.040577348728531748 0.23176846261517989 0 0.047431468859255303 0.24053412340514219 0 0.038848502141455937 0.24456152668562781 0 0.029924864654389469 0.2376581562346286 0 0.040577348728531748 0.23176846261517989 0 0.038848502141455937 0.24456152668562781 0 0.029950581030715639 0.2481073239038423 0 0.029924864654389469 0.2376581562346286 0 0.038848502141455937 0.24456152668562781 0 0.029950581030715639 0.2481073239038423 0 0.038848502141455937 0.24456152668562781 0 0.036786616911670331 0.25627306369302277 0 0.086360524529978999 0.2485025584194428 0 0.089296771602476718 0.23873057362372721 0 0.094852753725627806 0.24572433870261751 0 0.081639533579255102 0.2404248940609309 0 0.073268131697128702 0.23851008253549649 0 0.082649192364233667 0.22862743094748969 0 0.089296771602476718 0.23873057362372721 0 0.081639533579255102 0.2404248940609309 0 0.082649192364233667 0.22862743094748969 0 0.086360524529978999 0.2485025584194428 0 0.089296771602476718 0.23873057362372721 0 0.081639533579255102 0.2404248940609309 0 0.086360524529978999 0.2485025584194428 0 0.081639533579255102 0.2404248940609309 0 0.07557142662849553 0.24829346195347779 0 0.081639533579255102 0.2404248940609309 0 0.07557142662849553 0.24829346195347779 0 0.073268131697128702 0.23851008253549649 0 0.07557142662849553 0.24829346195347779 0 0.066326866307389321 0.24470640617662781 0 0.073268131697128702 0.23851008253549649 0 0.07557142662849553 0.24829346195347779 0 0.066326866307389321 0.24470640617662781 0 0.068033754070935329 0.2555745543167991 0 0.057838815046041582 0.2397367032345514 0 0.066326866307389321 0.24470640617662781 0 0.065013776968015385 0.23525687500295589 0 0.066326866307389321 0.24470640617662781 0 0.065013776968015385 0.23525687500295589 0 0.073268131697128702 0.23851008253549649 0 0.073268131697128702 0.23851008253549649 0 0.068425646932164491 0.22684982379948421 0 0.082649192364233667 0.22862743094748969 0 0.065013776968015385 0.23525687500295589 0 0.073268131697128702 0.23851008253549649 0 0.068425646932164491 0.22684982379948421 0 0.068425646932164491 0.22684982379948421 0 0.07472628031504687 0.21691019504496589 0 0.063017878782295311 0.2145182332235426 0 0.068425646932164491 0.22684982379948421 0 0.082649192364233667 0.22862743094748969 0 0.07472628031504687 0.21691019504496589 0 0.082649192364233667 0.22862743094748969 0 0.089387200491762686 0.20834778082403169 0 0.097384985428038917 0.23070509148276319 0 0.089387200491762686 0.20834778082403169 0 0.097384985428038917 0.23070509148276319 0 0.089296771602476718 0.23873057362372721 0 0.082649192364233667 0.22862743094748969 0 0.097384985428038917 0.23070509148276319 0 0.082649192364233667 0.22862743094748969 0 0.089387200491762686 0.20834778082403169 0 0.07472628031504687 0.21691019504496589 0 0.089387200491762686 0.20834778082403169 0 0.07472628031504687 0.21691019504496589 0 0.072625126295321696 0.20366165089424909 0 0.07472628031504687 0.21691019504496589 0 0.063017878782295311 0.2145182332235426 0 0.072625126295321696 0.20366165089424909 0 0.058080058728803542 0.2016300470388919 0 0.063017878782295311 0.2145182332235426 0 0.072625126295321696 0.20366165089424909 0 0.072625126295321696 0.20366165089424909 0 0.066556899202906569 0.1914614234876526 0 0.081389415555486511 0.18599047016530029 0 0.058080058728803542 0.2016300470388919 0 0.072625126295321696 0.20366165089424909 0 0.066556899202906569 0.1914614234876526 0 0.089387200491762686 0.20834778082403169 0 0.092709165946296232 0.19364673201883109 0 0.081389415555486511 0.18599047016530029 0 0.089387200491762686 0.20834778082403169 0 0.081389415555486511 0.18599047016530029 0 0.089387200491762686 0.20834778082403169 0 0.072625126295321696 0.20366165089424909 0 0.081389415555486511 0.18599047016530029 0 0.092709165946296232 0.19364673201883109 0 0.1042381606877356 0.1979208141306816 0 0.1021566362574868 0.21471776065572401 0 0.092709165946296232 0.19364673201883109 0 0.1042381606877356 0.1979208141306816 0 0.1026924195186552 0.18834319193953619 0 0.1042381606877356 0.1979208141306816 0 0.1026924195186552 0.18834319193953619 0 0.1125098214824773 0.1911368439796568 0 0.1125098214824773 0.1911368439796568 0 0.12344583126485061 0.1806676900683172 0 0.12760199292829849 0.197438659870348 0 0.1125098214824773 0.1911368439796568 0 0.113322570175258 0.20281603713916149 0 0.12760199292829849 0.197438659870348 0 0.1042381606877356 0.1979208141306816 0 0.1125098214824773 0.1911368439796568 0 0.113322570175258 0.20281603713916149 0 0.1213554497072436 0.21370356731320389 0 0.1021566362574868 0.21471776065572401 0 0.1217599642827582 0.22767688447583689 0 0.113322570175258 0.20281603713916149 0 0.1213554497072436 0.21370356731320389 0 0.12760199292829849 0.197438659870348 0 0.113322570175258 0.20281603713916149 0 0.1213554497072436 0.21370356731320389 0 0.1021566362574868 0.21471776065572401 0 0.1042381606877356 0.1979208141306816 0 0.113322570175258 0.20281603713916149 0 0.1021566362574868 0.21471776065572401 0 0.089387200491762686 0.20834778082403169 0 0.092709165946296232 0.19364673201883109 0 0.1021566362574868 0.21471776065572401 0 0.089387200491762686 0.20834778082403169 0 0.1021566362574868 0.21471776065572401 0 0.097384985428038917 0.23070509148276319 0 0.092709165946296232 0.19364673201883109 0 0.1021566362574868 0.21471776065572401 0 0.1021566362574868 0.21471776065572401 0 0.097384985428038917 0.23070509148276319 0 0.11160410656867729 0.2357887892926169 0 0.1021566362574868 0.21471776065572401 0 0.11160410656867729 0.2357887892926169 0 0.1021566362574868 0.21471776065572401 0 0.1217599642827582 0.22767688447583689 0 0.11160410656867729 0.2357887892926169 0 0.11160410656867729 0.2357887892926169 0 0.12728875099452669 0.2397021100634332 0 0.1210515768798676 0.25685981792951001 0 0.11160410656867729 0.2357887892926169 0 0.1210515768798676 0.25685981792951001 0 0.11160410656867729 0.2357887892926169 0 0.1210515768798676 0.25685981792951001 0 0.1053827703643152 0.25306240214149478 0 0.1217599642827582 0.22767688447583689 0 0.11160410656867729 0.2357887892926169 0 0.12728875099452669 0.2397021100634332 0 0.097384985428038917 0.23070509148276319 0 0.094852753725627806 0.24572433870261751 0 0.1053827703643152 0.25306240214149478 0 0.097384985428038917 0.23070509148276319 0 0.11160410656867729 0.2357887892926169 0 0.1053827703643152 0.25306240214149478 0 0.097384985428038917 0.23070509148276319 0 0.1053827703643152 0.25306240214149478 0 0.089296771602476718 0.23873057362372721 0 0.097384985428038917 0.23070509148276319 0 0.094852753725627806 0.24572433870261751 0 0.079433659852055222 0.14215965429105709 0 0.079201050318438618 0.15503113060623991 0 0.08920401643730981 0.15225896046921841 0 0.08920401643730981 0.15225896046921841 0 0.090865698775289078 0.1425522519222438 0 0.099674077773854286 0.14517392097542439 0 0.079433659852055222 0.14215965429105709 0 0.08920401643730981 0.15225896046921841 0 0.090865698775289078 0.1425522519222438 0 0.079433659852055222 0.14215965429105709 0 0.090865698775289078 0.1425522519222438 0 0.088216806486661012 0.13466940305484021 0 0.090865698775289078 0.1425522519222438 0 0.088216806486661012 0.13466940305484021 0 0.097251583090170596 0.135921783966234 0 0.079433659852055222 0.14215965429105709 0 0.088216806486661012 0.13466940305484021 0 0.08009942240432899 0.12646209510448511 0 0.088216806486661012 0.13466940305484021 0 0.092483574130176383 0.12566409972693179 0 0.097251583090170596 0.135921783966234 0 0.088216806486661012 0.13466940305484021 0 0.092483574130176383 0.12566409972693179 0 0.08009942240432899 0.12646209510448511 0 0.057493903125336573 0.13061420494334469 0 0.079433659852055222 0.14215965429105709 0 0.08009942240432899 0.12646209510448511 0 0.057493903125336573 0.13061420494334469 0 0.079433659852055222 0.14215965429105709 0 0.068930862852021532 0.1516267430894844 0 0.079433659852055222 0.14215965429105709 0 0.079201050318438618 0.15503113060623991 0 0.068930862852021532 0.1516267430894844 0 0.062034135695650999 0.1658418713362719 0 0.068930862852021532 0.1516267430894844 0 0.073391630619210321 0.1636331595065689 0 0.062034135695650999 0.1658418713362719 0 0.073391630619210321 0.1636331595065689 0 0.064822769456382129 0.17829479209568899 0 0.079201050318438618 0.15503113060623991 0 0.068930862852021532 0.1516267430894844 0 0.073391630619210321 0.1636331595065689 0 0.073391630619210321 0.1636331595065689 0 0.081389415555486511 0.18599047016530029 0 0.073391630619210321 0.1636331595065689 0 0.064822769456382129 0.17829479209568899 0 0.081389415555486511 0.18599047016530029 0 0.066556899202906569 0.1914614234876526 0 0.064822769456382129 0.17829479209568899 0 0.081389415555486511 0.18599047016530029 0 0.092709165946296232 0.19364673201883109 0 0.081389415555486511 0.18599047016530029 0 0.083261695635105742 0.1725757033819382 0 0.073391630619210321 0.1636331595065689 0 0.081389415555486511 0.18599047016530029 0 0.083261695635105742 0.1725757033819382 0 0.092709165946296232 0.19364673201883109 0 0.083261695635105742 0.1725757033819382 0 0.09647476232093273 0.1789015393302518 0 0.092709165946296232 0.19364673201883109 0 0.083261695635105742 0.1725757033819382 0 0.083261695635105742 0.1725757033819382 0 0.093205717920553779 0.16941602681592799 0 0.09647476232093273 0.1789015393302518 0 0.079201050318438618 0.15503113060623991 0 0.08920401643730981 0.15225896046921841 0 0.086434009855971036 0.16247616618522109 0 0.079201050318438618 0.15503113060623991 0 0.073391630619210321 0.1636331595065689 0 0.086434009855971036 0.16247616618522109 0 0.073391630619210321 0.1636331595065689 0 0.083261695635105742 0.1725757033819382 0 0.086434009855971036 0.16247616618522109 0 0.083261695635105742 0.1725757033819382 0 0.093205717920553779 0.16941602681592799 0 0.086434009855971036 0.16247616618522109 0 0.093205717920553779 0.16941602681592799 0 0.086434009855971036 0.16247616618522109 0 0.097016396805192154 0.16219810942710949 0 0.08920401643730981 0.15225896046921841 0 0.086434009855971036 0.16247616618522109 0 0.097016396805192154 0.16219810942710949 0 0.08920401643730981 0.15225896046921841 0 0.097016396805192154 0.16219810942710949 0 0.10408167290871539 0.15458154192880241 0 0.093205717920553779 0.16941602681592799 0 0.097016396805192154 0.16219810942710949 0 0.1028417249855673 0.17092861575511931 0 0.097016396805192154 0.16219810942710949 0 0.1028417249855673 0.17092861575511931 0 0.1096735521078203 0.1627323630259353 0 0.1028417249855673 0.17092861575511931 0 0.1096735521078203 0.1627323630259353 0 0.1141150753963462 0.17145759522494869 0 0.097016396805192154 0.16219810942710949 0 0.1096735521078203 0.1627323630259353 0 0.10408167290871539 0.15458154192880241 0 0.092709165946296232 0.19364673201883109 0 0.1026924195186552 0.18834319193953619 0 0.09647476232093273 0.1789015393302518 0 0.093205717920553779 0.16941602681592799 0 0.1028417249855673 0.17092861575511931 0 0.09647476232093273 0.1789015393302518 0 0.1028417249855673 0.17092861575511931 0 0.10753018715583421 0.18011003023825961 0 0.1141150753963462 0.17145759522494869 0 0.1028417249855673 0.17092861575511931 0 0.09647476232093273 0.1789015393302518 0 0.10753018715583421 0.18011003023825961 0 0.1026924195186552 0.18834319193953619 0 0.09647476232093273 0.1789015393302518 0 0.10753018715583421 0.18011003023825961 0 0.1026924195186552 0.18834319193953619 0 0.1125098214824773 0.1911368439796568 0 0.10753018715583421 0.18011003023825961 0 0.10753018715583421 0.18011003023825961 0 0.12344583126485061 0.1806676900683172 0 0.1141150753963462 0.17145759522494869 0 0.1125098214824773 0.1911368439796568 0 0.10753018715583421 0.18011003023825961 0 0.12344583126485061 0.1806676900683172 0 0.12344583126485061 0.1806676900683172 0 0.1141150753963462 0.17145759522494869 0 0.1257577917873863 0.1645114145336872 0 0.1096735521078203 0.1627323630259353 0 0.1141150753963462 0.17145759522494869 0 0.1257577917873863 0.1645114145336872 0 0.1096735521078203 0.1627323630259353 0 0.1144558362653595 0.15402750084282771 0 0.1257577917873863 0.1645114145336872 0 0.1096735521078203 0.1627323630259353 0 0.1144558362653595 0.15402750084282771 0 0.10408167290871539 0.15458154192880241 0 0.1233783356222015 0.1543455989729747 0 0.1144558362653595 0.15402750084282771 0 0.1257577917873863 0.1645114145336872 0 0.1233783356222015 0.1543455989729747 0 0.1209554537795957 0.14648224962005221 0 0.1144558362653595 0.15402750084282771 0 0.1209554537795957 0.14648224962005221 0 0.1173362700851056 0.13557643438745501 0 0.12976873578421469 0.1403394749679481 0 0.1209554537795957 0.14648224962005221 0 0.1104836450879297 0.14541499233117219 0 0.1173362700851056 0.13557643438745501 0 0.1209554537795957 0.14648224962005221 0 0.1104836450879297 0.14541499233117219 0 0.1144558362653595 0.15402750084282771 0 0.1104836450879297 0.14541499233117219 0 0.1144558362653595 0.15402750084282771 0 0.10408167290871539 0.15458154192880241 0 0.1104836450879297 0.14541499233117219 0 0.099674077773854286 0.14517392097542439 0 0.1063985597149477 0.13664830623247179 0 0.1104836450879297 0.14541499233117219 0 0.10408167290871539 0.15458154192880241 0 0.099674077773854286 0.14517392097542439 0 0.090865698775289078 0.1425522519222438 0 0.099674077773854286 0.14517392097542439 0 0.097251583090170596 0.135921783966234 0 0.08920401643730981 0.15225896046921841 0 0.10408167290871539 0.15458154192880241 0 0.099674077773854286 0.14517392097542439 0 0.092483574130176383 0.12566409972693179 0 0.097251583090170596 0.135921783966234 0 0.1025070629470624 0.12825237695177311 0 0.099674077773854286 0.14517392097542439 0 0.097251583090170596 0.135921783966234 0 0.1063985597149477 0.13664830623247179 0 0.097251583090170596 0.135921783966234 0 0.1063985597149477 0.13664830623247179 0 0.1025070629470624 0.12825237695177311 0 0.1063985597149477 0.13664830623247179 0 0.1025070629470624 0.12825237695177311 0 0.1101237904546655 0.12946624182947161 0 0.108310300612111 0.1232453544110018 0 0.1025070629470624 0.12825237695177311 0 0.1101237904546655 0.12946624182947161 0 0.1179614552688692 0.1242046279655936 0 0.1101237904546655 0.12946624182947161 0 0.1173362700851056 0.13557643438745501 0 0.108310300612111 0.1232453544110018 0 0.1179614552688692 0.1242046279655936 0 0.1101237904546655 0.12946624182947161 0 0.1063985597149477 0.13664830623247179 0 0.1101237904546655 0.12946624182947161 0 0.1173362700851056 0.13557643438745501 0 0.1104836450879297 0.14541499233117219 0 0.1063985597149477 0.13664830623247179 0 0.1173362700851056 0.13557643438745501 0 0.1173362700851056 0.13557643438745501 0 0.1268775252147788 0.13029328736547549 0 0.12976873578421469 0.1403394749679481 0 0.1179614552688692 0.1242046279655936 0 0.1173362700851056 0.13557643438745501 0 0.1268775252147788 0.13029328736547549 0 0.1268775252147788 0.13029328736547549 0 0.13732076644693411 0.13341201963747221 0 0.13200039848876971 0.117933879868912 0 0.1268775252147788 0.13029328736547549 0 0.12976873578421469 0.1403394749679481 0 0.13732076644693411 0.13341201963747221 0 0.13732076644693411 0.13341201963747221 0 0.13200039848876971 0.117933879868912 0 0.13732076644693411 0.13341201963747221 0 0.15211596785541379 0.13709653257141721 0 0.15686687780359401 0.1228927684323264 0 0.13732076644693411 0.13341201963747221 0 0.15211596785541379 0.13709653257141721 0 0.14264113440510501 0.14889015940603001 0 0.14264113440510501 0.14889015940603001 0 0.1587677014804231 0.16073341084737611 0 0.1628775501531857 0.14674302467852501 0 0.14264113440510501 0.14889015940603001 0 0.1628775501531857 0.14674302467852501 0 0.15211596785541379 0.13709653257141721 0 0.14264113440510501 0.14889015940603001 0 0.1628775501531857 0.14674302467852501 0 0.14264113440510501 0.14889015940603001 0 0.13123277952565479 0.15010061461955779 0 0.13699699772075141 0.16164236386941469 0 0.14264113440510501 0.14889015940603001 0 0.13123277952565479 0.15010061461955779 0 0.12976873578421469 0.1403394749679481 0 0.14264113440510501 0.14889015940603001 0 0.13123277952565479 0.15010061461955779 0 0.13732076644693411 0.13341201963747221 0 0.14264113440510501 0.14889015940603001 0 0.12976873578421469 0.1403394749679481 0 0.13732076644693411 0.13341201963747221 0 0.14264113440510501 0.14889015940603001 0 0.1209554537795957 0.14648224962005221 0 0.12976873578421469 0.1403394749679481 0 0.13123277952565479 0.15010061461955779 0 0.1233783356222015 0.1543455989729747 0 0.1209554537795957 0.14648224962005221 0 0.13123277952565479 0.15010061461955779 0 0.1233783356222015 0.1543455989729747 0 0.13123277952565479 0.15010061461955779 0 0.1257577917873863 0.1645114145336872 0 0.13123277952565479 0.15010061461955779 0 0.1257577917873863 0.1645114145336872 0 0.13699699772075141 0.16164236386941469 0 0.1257577917873863 0.1645114145336872 0 0.13699699772075141 0.16164236386941469 0 0.1349445525927013 0.17322179848351121 0 0.12344583126485061 0.1806676900683172 0 0.1349445525927013 0.17322179848351121 0 0.1397438029846122 0.18679218198584319 0 0.12344583126485061 0.1806676900683172 0 0.1257577917873863 0.1645114145336872 0 0.1349445525927013 0.17322179848351121 0 0.15040873029290991 0.1714878323042873 0 0.1581763261807147 0.19408550520254461 0 0.1397438029846122 0.18679218198584319 0 0.15040873029290991 0.1714878323042873 0 0.1581763261807147 0.19408550520254461 0 0.1349445525927013 0.17322179848351121 0 0.1397438029846122 0.18679218198584319 0 0.15040873029290991 0.1714878323042873 0 0.14264113440510501 0.14889015940603001 0 0.15040873029290991 0.1714878323042873 0 0.1587677014804231 0.16073341084737611 0 0.14264113440510501 0.14889015940603001 0 0.15040873029290991 0.1714878323042873 0 0.14264113440510501 0.14889015940603001 0 0.13699699772075141 0.16164236386941469 0 0.15040873029290991 0.1714878323042873 0 0.13699699772075141 0.16164236386941469 0 0.1349445525927013 0.17322179848351121 0 0.15040873029290991 0.1714878323042873 0 0.15040873029290991 0.1714878323042873 0 0.1587677014804231 0.16073341084737611 0 0.16500987846502779 0.17641817741731861 0 0.1587677014804231 0.16073341084737611 0 0.16500987846502779 0.17641817741731861 0 0.17290121408588699 0.16012786043071961 0 0.16500987846502779 0.17641817741731861 0 0.1581763261807147 0.19408550520254461 0 0.17613162465652679 0.19124032547656139 0 0.15040873029290991 0.1714878323042873 0 0.16500987846502779 0.17641817741731861 0 0.1581763261807147 0.19408550520254461 0 0.16500987846502779 0.17641817741731861 0 0.18005228050013899 0.1740809189091313 0 0.17613162465652679 0.19124032547656139 0 0.18005228050013899 0.1740809189091313 0 0.17613162465652679 0.19124032547656139 0 0.18837814410376269 0.18438354807127591 0 0.18005228050013899 0.1740809189091313 0 0.17290121408588699 0.16012786043071961 0 0.1927931716799996 0.15954160114361621 0 0.16500987846502779 0.17641817741731861 0 0.18005228050013899 0.1740809189091313 0 0.17290121408588699 0.16012786043071961 0 0.17290121408588699 0.16012786043071961 0 0.1831139659012665 0.1445958899510196 0 0.1628775501531857 0.14674302467852501 0 0.1831139659012665 0.1445958899510196 0 0.1628775501531857 0.14674302467852501 0 0.17290121408588699 0.16012786043071961 0 0.1831139659012665 0.1445958899510196 0 0.1927931716799996 0.15954160114361621 0 0.1831139659012665 0.1445958899510196 0 0.18173335711841759 0.12785165699574419 0 0.1955203481472064 0.13753692952710669 0 0.1831139659012665 0.1445958899510196 0 0.18173335711841759 0.12785165699574419 0 0.167477008667266 0.13497312740255149 0 0.18173335711841759 0.12785165699574419 0 0.15686687780359401 0.1228927684323264 0 0.18173335711841759 0.12785165699574419 0 0.167477008667266 0.13497312740255149 0 0.15686687780359401 0.1228927684323264 0 0.15211596785541379 0.13709653257141721 0 0.167477008667266 0.13497312740255149 0 0.15686687780359401 0.1228927684323264 0 0.15211596785541379 0.13709653257141721 0 0.167477008667266 0.13497312740255149 0 0.1628775501531857 0.14674302467852501 0 0.1831139659012665 0.1445958899510196 0 0.167477008667266 0.13497312740255149 0 0.1628775501531857 0.14674302467852501 0 0.1587677014804231 0.16073341084737611 0 0.17290121408588699 0.16012786043071961 0 0.1628775501531857 0.14674302467852501 0 0.14986790208921311 0.2465608811087163 0 0.15963636131485129 0.2271667512942839 0 0.14986790208921311 0.2465608811087163 0 0.1423065201132479 0.2356663163809426 0 0.13545973948454279 0.2517103495191198 0 0.14986790208921311 0.2465608811087163 0 0.1423065201132479 0.2356663163809426 0 0.15963636131485129 0.2271667512942839 0 0.14986790208921311 0.2465608811087163 0 0.13545973948454279 0.2517103495191198 0 0.12728875099452669 0.2397021100634332 0 0.1210515768798676 0.25685981792951001 0 0.13545973948454279 0.2517103495191198 0 0.1423065201132479 0.2356663163809426 0 0.12728875099452669 0.2397021100634332 0 0.13545973948454279 0.2517103495191198 0 0.1423065201132479 0.2356663163809426 0 0.12728875099452669 0.2397021100634332 0 0.13473800133115041 0.226959249446235 0 0.1217599642827582 0.22767688447583689 0 0.12728875099452669 0.2397021100634332 0 0.13473800133115041 0.226959249446235 0 0.1213554497072436 0.21370356731320389 0 0.1217599642827582 0.22767688447583689 0 0.13473800133115041 0.226959249446235 0 0.13473800133115041 0.226959249446235 0 0.14599395773239601 0.2207062029458397 0 0.1348858388160204 0.2127703278939419 0 0.14599395773239601 0.2207062029458397 0 0.15559025162989451 0.2109550081633213 0 0.15963636131485129 0.2271667512942839 0 0.1423065201132479 0.2356663163809426 0 0.14599395773239601 0.2207062029458397 0 0.15963636131485129 0.2271667512942839 0 0.1423065201132479 0.2356663163809426 0 0.13473800133115041 0.226959249446235 0 0.14599395773239601 0.2207062029458397 0 0.14599395773239601 0.2207062029458397 0 0.14388538464819839 0.2038516059860512 0 0.15559025162989451 0.2109550081633213 0 0.14599395773239601 0.2207062029458397 0 0.14388538464819839 0.2038516059860512 0 0.1348858388160204 0.2127703278939419 0 0.14388538464819839 0.2038516059860512 0 0.1348858388160204 0.2127703278939419 0 0.12760199292829849 0.197438659870348 0 0.1213554497072436 0.21370356731320389 0 0.1348858388160204 0.2127703278939419 0 0.12760199292829849 0.197438659870348 0 0.1213554497072436 0.21370356731320389 0 0.13473800133115041 0.226959249446235 0 0.1348858388160204 0.2127703278939419 0 0.12344583126485061 0.1806676900683172 0 0.1397438029846122 0.18679218198584319 0 0.12760199292829849 0.197438659870348 0 0.1397438029846122 0.18679218198584319 0 0.14388538464819839 0.2038516059860512 0 0.12760199292829849 0.197438659870348 0 0.1397438029846122 0.18679218198584319 0 0.14388538464819839 0.2038516059860512 0 0.1581763261807147 0.19408550520254461 0 0.14388538464819839 0.2038516059860512 0 0.15559025162989451 0.2109550081633213 0 0.1581763261807147 0.19408550520254461 0 0.1581763261807147 0.19408550520254461 0 0.17613162465652679 0.19124032547656139 0 0.1694048205404971 0.20777262147985559 0 0.17613162465652679 0.19124032547656139 0 0.18125884595496319 0.20514270246277791 0 0.1694048205404971 0.20777262147985559 0 0.17613162465652679 0.19124032547656139 0 0.19089887377176121 0.1960370156323068 0 0.18837814410376269 0.18438354807127591 0 0.17613162465652679 0.19124032547656139 0 0.18125884595496319 0.20514270246277791 0 0.19089887377176121 0.1960370156323068 0 0.18125884595496319 0.20514270246277791 0 0.17441736981552211 0.22111268753211261 0 0.18918908569393 0.21529652998823659 0 0.18125884595496319 0.20514270246277791 0 0.1694048205404971 0.20777262147985559 0 0.17441736981552211 0.22111268753211261 0 0.18125884595496319 0.20514270246277791 0 0.18918908569393 0.21529652998823659 0 0.19089887377176121 0.1960370156323068 0 0.1694048205404971 0.20777262147985559 0 0.15963636131485129 0.2271667512942839 0 0.1694048205404971 0.20777262147985559 0 0.15963636131485129 0.2271667512942839 0 0.17441736981552211 0.22111268753211261 0 0.15559025162989451 0.2109550081633213 0 0.1694048205404971 0.20777262147985559 0 0.15963636131485129 0.2271667512942839 0 0.15559025162989451 0.2109550081633213 0 0.1581763261807147 0.19408550520254461 0 0.1694048205404971 0.20777262147985559 0 0.15963636131485129 0.2271667512942839 0 0.17441736981552211 0.22111268753211261 0 0.17713314011833989 0.23681630188755429 0 0.17441736981552211 0.22111268753211261 0 0.17713314011833989 0.23681630188755429 0 0.18918908569393 0.21529652998823659 0 0.17713314011833989 0.23681630188755429 0 0.2000687730148189 0.24196105661488379 0 0.18521850618650371 0.25173146935434548 0 0.17713314011833989 0.23681630188755429 0 0.17049373635802351 0.25727275644012998 0 0.18521850618650371 0.25173146935434548 0 0.14986790208921311 0.2465608811087163 0 0.15963636131485129 0.2271667512942839 0 0.17713314011833989 0.23681630188755429 0 0.14986790208921311 0.2465608811087163 0 0.17713314011833989 0.23681630188755429 0 0.17049373635802351 0.25727275644012998 0 0.14986790208921311 0.2465608811087163 0 0.17713314011833989 0.23681630188755429 0 0.21572038686500411 0.23964896605359781 0 0.2000687730148189 0.24196105661488379 0 0.213689397320032 0.23003322534144369 0 0.21572038686500411 0.23964896605359781 0 0.2000687730148189 0.24196105661488379 0 0.21310456748087039 0.25108273294350081 0 0.21572038686500411 0.23964896605359781 0 0.21310456748087039 0.25108273294350081 0 0.22739887622895799 0.25124537221514037 0 0.17713314011833989 0.23681630188755429 0 0.2000687730148189 0.24196105661488379 0 0.2043983781474627 0.22707172266638101 0 0.17713314011833989 0.23681630188755429 0 0.2043983781474627 0.22707172266638101 0 0.18918908569393 0.21529652998823659 0 0.17713314011833989 0.23681630188755429 0 0.2043983781474627 0.22707172266638101 0 0.2043983781474627 0.22707172266638101 0 0.21249637401750721 0.22333433421739751 0 0.21051096801847691 0.21218617089453079 0 0.2043983781474627 0.22707172266638101 0 0.213689397320032 0.23003322534144369 0 0.21249637401750721 0.22333433421739751 0 0.2000687730148189 0.24196105661488379 0 0.2043983781474627 0.22707172266638101 0 0.213689397320032 0.23003322534144369 0 0.21572038686500411 0.23964896605359781 0 0.213689397320032 0.23003322534144369 0 0.22138675258405729 0.22404621796723431 0 0.21249637401750721 0.22333433421739751 0 0.21051096801847691 0.21218617089453079 0 0.22138675258405729 0.22404621796723431 0 0.213689397320032 0.23003322534144369 0 0.21249637401750721 0.22333433421739751 0 0.22138675258405729 0.22404621796723431 0 0.21537462893915391 0.19684706371932889 0 0.22138675258405729 0.22404621796723431 0 0.21051096801847691 0.21218617089453079 0 0.21537462893915391 0.19684706371932889 0 0.22138675258405729 0.22404621796723431 0 0.21051096801847691 0.21218617089453079 0 0.2023415528052144 0.2013873488627452 0 0.21537462893915391 0.19684706371932889 0 0.21051096801847691 0.21218617089453079 0 0.18918908569393 0.21529652998823659 0 0.2023415528052144 0.2013873488627452 0 0.18918908569393 0.21529652998823659 0 0.2023415528052144 0.2013873488627452 0 0.19089887377176121 0.1960370156323068 0 0.2043983781474627 0.22707172266638101 0 0.21051096801847691 0.21218617089453079 0 0.18918908569393 0.21529652998823659 0 0.19089887377176121 0.1960370156323068 0 0.18837814410376269 0.18438354807127591 0 0.20021816830133979 0.1868451422188312 0 0.2023415528052144 0.2013873488627452 0 0.19089887377176121 0.1960370156323068 0 0.20021816830133979 0.1868451422188312 0 0.2023415528052144 0.2013873488627452 0 0.21537462893915391 0.19684706371932889 0 0.20021816830133979 0.1868451422188312 0 0.21537462893915391 0.19684706371932889 0 0.23051177570332099 0.1920706856166714 0 0.221178349509184 0.1765207188810759 0 0.21537462893915391 0.19684706371932889 0 0.23051177570332099 0.1920706856166714 0 0.2262969048171703 0.20600153184040601 0 0.23051177570332099 0.1920706856166714 0 0.24643671585814639 0.20133831442246461 0 0.24269273627429999 0.1894556977572516 0 0.24643671585814639 0.20133831442246461 0 0.24269273627429999 0.1894556977572516 0 0.25924029390337539 0.18346852117565179 0 0.23051177570332099 0.1920706856166714 0 0.24643671585814639 0.20133831442246461 0 0.2336331378129177 0.21920810766927759 0 0.24643671585814639 0.20133831442246461 0 0.2336331378129177 0.21920810766927759 0 0.24540406229182629 0.2218635228805253 0 0.24643671585814639 0.20133831442246461 0 0.2336331378129177 0.21920810766927759 0 0.24643671585814639 0.20133831442246461 0 0.24540406229182629 0.2218635228805253 0 0.2563987533174909 0.209592307488531 0 0.23051177570332099 0.1920706856166714 0 0.2262969048171703 0.20600153184040601 0 0.2336331378129177 0.21920810766927759 0 0.21537462893915391 0.19684706371932889 0 0.22417285603832479 0.21152573029906169 0 0.22138675258405729 0.22404621796723431 0 0.23051177570332099 0.1920706856166714 0 0.2336331378129177 0.21920810766927759 0 0.2262969048171703 0.20600153184040601 0 0.22417285603832479 0.21152573029906169 0 0.2336331378129177 0.21920810766927759 0 0.21537462893915391 0.19684706371932889 0 0.2262969048171703 0.20600153184040601 0 0.22417285603832479 0.21152573029906169 0 0.22417285603832479 0.21152573029906169 0 0.22138675258405729 0.22404621796723431 0 0.2336331378129177 0.21920810766927759 0 0.22719404518764089 0.22819506846291629 0 0.2336331378129177 0.21920810766927759 0 0.2309819051526171 0.23963021628555259 0 0.22138675258405729 0.22404621796723431 0 0.22719404518764089 0.22819506846291629 0 0.2309819051526171 0.23963021628555259 0 0.22719404518764089 0.22819506846291629 0 0.2336331378129177 0.21920810766927759 0 0.22138675258405729 0.22404621796723431 0 0.22719404518764089 0.22819506846291629 0 0.2336331378129177 0.21920810766927759 0 0.2336331378129177 0.21920810766927759 0 0.24124131639193169 0.23230273310526939 0 0.23676232325687699 0.24641354654242001 0 0.2336331378129177 0.21920810766927759 0 0.23676232325687699 0.24641354654242001 0 0.2336331378129177 0.21920810766927759 0 0.24540406229182629 0.2218635228805253 0 0.24124131639193169 0.23230273310526939 0 0.24540406229182629 0.2218635228805253 0 0.24124131639193169 0.23230273310526939 0 0.24919991527462301 0.2346560722024468 0 0.24124131639193169 0.23230273310526939 0 0.2440383479973072 0.2414108778045535 0 0.23676232325687699 0.24641354654242001 0 0.24124131639193169 0.23230273310526939 0 0.24919991527462301 0.2346560722024468 0 0.2440383479973072 0.2414108778045535 0 0.24919991527462301 0.2346560722024468 0 0.2440383479973072 0.2414108778045535 0 0.25095851129944508 0.24416416465796389 0 0.2440383479973072 0.2414108778045535 0 0.2463733885494889 0.24903830734341381 0 0.23676232325687699 0.24641354654242001 0 0.2440383479973072 0.2414108778045535 0 0.2463733885494889 0.24903830734341381 0 0.25095851129944508 0.24416416465796389 0 0.2336331378129177 0.21920810766927759 0 0.23676232325687699 0.24641354654242001 0 0.2309819051526171 0.23963021628555259 0 0.2309819051526171 0.23963021628555259 0 0.22739887622895799 0.25124537221514037 0 0.21572038686500411 0.23964896605359781 0 0.22138675258405729 0.22404621796723431 0 0.22739887622895799 0.25124537221514037 0 0.22138675258405729 0.22404621796723431 0 0.2309819051526171 0.23963021628555259 0 0.22739887622895799 0.25124537221514037 0 0.22138675258405729 0.22404621796723431 0 0.22739887622895799 0.25124537221514037 0 0.23676232325687699 0.24641354654242001 0 0.2309819051526171 0.23963021628555259 0 0.22739887622895799 0.25124537221514037 0 0.20335038164934771 0.14244875522351799 0 0.2230573790326503 0.140357793119192 0 0.20335038164934771 0.14244875522351799 0 0.2093625052942506 0.1696479094714235 0 0.20335038164934771 0.14244875522351799 0 0.2107337511477366 0.1535968997696705 0 0.2093625052942506 0.1696479094714235 0 0.20335038164934771 0.14244875522351799 0 0.21440707575786239 0.1447743968099533 0 0.2230573790326503 0.140357793119192 0 0.21074311413622321 0.14666583685141779 0 0.20335038164934771 0.14244875522351799 0 0.2107337511477366 0.1535968997696705 0 0.21074311413622321 0.14666583685141779 0 0.20335038164934771 0.14244875522351799 0 0.21440707575786239 0.1447743968099533 0 0.21074311413622321 0.14666583685141779 0 0.2107337511477366 0.1535968997696705 0 0.21451847308571059 0.14892187580051441 0 0.2107337511477366 0.1535968997696705 0 0.21451847308571059 0.14892187580051441 0 0.21449904577313239 0.153610009878899 0 0.2107337511477366 0.1535968997696705 0 0.21449904577313239 0.153610009878899 0 0.21338697788882979 0.15682063627936429 0 0.21449904577313239 0.153610009878899 0 0.21338697788882979 0.15682063627936429 0 0.21635589903978569 0.15743703548622781 0 0.21449904577313239 0.153610009878899 0 0.21748952675957869 0.15434722930426831 0 0.21635589903978569 0.15743703548622781 0 0.21449904577313239 0.153610009878899 0 0.21748952675957869 0.15434722930426831 0 0.2179884176074256 0.15128036230936359 0 0.21748952675957869 0.15434722930426831 0 0.2179884176074256 0.15128036230936359 0 0.22039888312608261 0.15471440214308191 0 0.21451847308571059 0.14892187580051441 0 0.21449904577313239 0.153610009878899 0 0.2179884176074256 0.15128036230936359 0 0.21451847308571059 0.14892187580051441 0 0.2179884176074256 0.15128036230936359 0 0.21940457386787421 0.14693739010002821 0 0.21451847308571059 0.14892187580051441 0 0.21440707575786239 0.1447743968099533 0 0.21940457386787421 0.14693739010002821 0 0.21074311413622321 0.14666583685141779 0 0.21451847308571059 0.14892187580051441 0 0.21440707575786239 0.1447743968099533 0 0.20335038164934771 0.14244875522351799 0 0.20659983643324109 0.13281054555916211 0 0.2230573790326503 0.140357793119192 0 0.20659983643324109 0.13281054555916211 0 0.22003496421738139 0.124853733280417 0 0.207283072205345 0.1234418321583677 0 0.20659983643324109 0.13281054555916211 0 0.207283072205345 0.1234418321583677 0 0.19615135440128459 0.1226895889091259 0 0.20335038164934771 0.14244875522351799 0 0.20659983643324109 0.13281054555916211 0 0.20280419963375931 0.13997779990608969 0 0.18173335711841759 0.12785165699574419 0 0.20659983643324109 0.13281054555916211 0 0.19615135440128459 0.1226895889091259 0 0.20335038164934771 0.14244875522351799 0 0.20280419963375931 0.13997779990608969 0 0.1955203481472064 0.13753692952710669 0 0.18173335711841759 0.12785165699574419 0 0.20659983643324109 0.13281054555916211 0 0.20659983643324109 0.13281054555916211 0 0.20280419963375931 0.13997779990608969 0 0.1955203481472064 0.13753692952710669 0 0.18173335711841759 0.12785165699574419 0 0.20659983643324109 0.13281054555916211 0 0.1955203481472064 0.13753692952710669 0 0.1831139659012665 0.1445958899510196 0 0.20335038164934771 0.14244875522351799 0 0.1831139659012665 0.1445958899510196 0 0.20335038164934771 0.14244875522351799 0 0.1927931716799996 0.15954160114361621 0 0.1831139659012665 0.1445958899510196 0 0.20335038164934771 0.14244875522351799 0 0.1955203481472064 0.13753692952710669 0 0.20335038164934771 0.14244875522351799 0 0.20280419963375931 0.13997779990608969 0 0.20335038164934771 0.14244875522351799 0 0.1927931716799996 0.15954160114361621 0 0.2093625052942506 0.1696479094714235 0 0.1927931716799996 0.15954160114361621 0 0.19458977328904689 0.17371433811954859 0 0.2093625052942506 0.1696479094714235 0 0.18005228050013899 0.1740809189091313 0 0.1927931716799996 0.15954160114361621 0 0.19458977328904689 0.17371433811954859 0 0.19458977328904689 0.17371433811954859 0 0.20021816830133979 0.1868451422188312 0 0.2093625052942506 0.1696479094714235 0 0.18837814410376269 0.18438354807127591 0 0.19458977328904689 0.17371433811954859 0 0.20021816830133979 0.1868451422188312 0 0.18005228050013899 0.1740809189091313 0 0.18837814410376269 0.18438354807127591 0 0.19458977328904689 0.17371433811954859 0 0.21537462893915391 0.19684706371932889 0 0.20021816830133979 0.1868451422188312 0 0.2093625052942506 0.1696479094714235 0 0.21537462893915391 0.19684706371932889 0 0.2093625052942506 0.1696479094714235 0 0.221178349509184 0.1765207188810759 0 0.21537462893915391 0.19684706371932889 0 0.2093625052942506 0.1696479094714235 0 0.2093625052942506 0.1696479094714235 0 0.2184020739533532 0.1702581382817589 0 0.221178349509184 0.1765207188810759 0 0.2107337511477366 0.1535968997696705 0 0.2093625052942506 0.1696479094714235 0 0.21195921559466441 0.16263859998265981 0 0.2093625052942506 0.1696479094714235 0 0.2184020739533532 0.1702581382817589 0 0.21195921559466441 0.16263859998265981 0 0.2184020739533532 0.1702581382817589 0 0.21195921559466441 0.16263859998265981 0 0.21918187648968951 0.1611528438187253 0 0.21195921559466441 0.16263859998265981 0 0.21635589903978569 0.15743703548622781 0 0.21918187648968951 0.1611528438187253 0 0.2107337511477366 0.1535968997696705 0 0.21195921559466441 0.16263859998265981 0 0.21338697788882979 0.15682063627936429 0 0.21195921559466441 0.16263859998265981 0 0.21338697788882979 0.15682063627936429 0 0.21635589903978569 0.15743703548622781 0 0.21635589903978569 0.15743703548622781 0 0.2196131062533189 0.15746364806632829 0 0.21918187648968951 0.1611528438187253 0 0.21748952675957869 0.15434722930426831 0 0.21635589903978569 0.15743703548622781 0 0.2196131062533189 0.15746364806632829 0 0.2196131062533189 0.15746364806632829 0 0.2224475153783089 0.15848976435644321 0 0.21918187648968951 0.1611528438187253 0 0.2196131062533189 0.15746364806632829 0 0.2224475153783089 0.15848976435644321 0 0.22039888312608261 0.15471440214308191 0 0.2224475153783089 0.15848976435644321 0 0.22618273546943601 0.1575953443844347 0 0.22396244244636571 0.1542249575126283 0 0.2224475153783089 0.15848976435644321 0 0.22618273546943601 0.1575953443844347 0 0.22540575422360221 0.16051508912766041 0 0.2249737670798429 0.16340224962795011 0 0.22739041359372089 0.1649332635640656 0 0.22716905952776301 0.16300879004893731 0 0.2249737670798429 0.16340224962795011 0 0.22540575422360221 0.16051508912766041 0 0.22716905952776301 0.16300879004893731 0 0.2224475153783089 0.15848976435644321 0 0.22540575422360221 0.16051508912766041 0 0.22284817921982741 0.1620145814423323 0 0.2249737670798429 0.16340224962795011 0 0.22540575422360221 0.16051508912766041 0 0.22284817921982741 0.1620145814423323 0 0.2249737670798429 0.16340224962795011 0 0.22284817921982741 0.1620145814423323 0 0.22228691926280339 0.16443901316079479 0 0.22284817921982741 0.1620145814423323 0 0.21918187648968951 0.1611528438187253 0 0.22228691926280339 0.16443901316079479 0 0.2224475153783089 0.15848976435644321 0 0.22284817921982741 0.1620145814423323 0 0.21918187648968951 0.1611528438187253 0 0.2184020739533532 0.1702581382817589 0 0.21918187648968951 0.1611528438187253 0 0.22228691926280339 0.16443901316079479 0 0.2184020739533532 0.1702581382817589 0 0.22739041359372089 0.1649332635640656 0 0.221178349509184 0.1765207188810759 0 0.2184020739533532 0.1702581382817589 0 0.22228691926280339 0.16443901316079479 0 0.22739041359372089 0.1649332635640656 0 0.2249737670798429 0.16340224962795011 0 0.22228691926280339 0.16443901316079479 0 0.22739041359372089 0.1649332635640656 0 0.22739041359372089 0.1649332635640656 0 0.23300884829540189 0.15808048486172879 0 0.24076411335819131 0.15615529339954329 0 0.23300884829540189 0.15808048486172879 0 0.22942208770411779 0.15954246461310451 0 0.2294064453905568 0.1546057782494186 0 0.22618273546943601 0.1575953443844347 0 0.22540575422360221 0.16051508912766041 0 0.22942208770411779 0.15954246461310451 0 0.22618273546943601 0.1575953443844347 0 0.22942208770411779 0.15954246461310451 0 0.2294064453905568 0.1546057782494186 0 0.22739041359372089 0.1649332635640656 0 0.22942208770411779 0.15954246461310451 0 0.22716905952776301 0.16300879004893731 0 0.22739041359372089 0.1649332635640656 0 0.23300884829540189 0.15808048486172879 0 0.22942208770411779 0.15954246461310451 0 0.22540575422360221 0.16051508912766041 0 0.22942208770411779 0.15954246461310451 0 0.22716905952776301 0.16300879004893731 0 0.22739041359372089 0.1649332635640656 0 0.22716905952776301 0.16300879004893731 0 0.23051177570332099 0.1920706856166714 0 0.22739041359372089 0.1649332635640656 0 0.221178349509184 0.1765207188810759 0 0.23051177570332099 0.1920706856166714 0 0.22739041359372089 0.1649332635640656 0 0.24247804913049081 0.17915079694492789 0 0.23051177570332099 0.1920706856166714 0 0.22739041359372089 0.1649332635640656 0 0.24269273627429999 0.1894556977572516 0 0.24247804913049081 0.17915079694492789 0 0.25924029390337539 0.18346852117565179 0 0.23051177570332099 0.1920706856166714 0 0.24269273627429999 0.1894556977572516 0 0.24247804913049081 0.17915079694492789 0 0.22739041359372089 0.1649332635640656 0 0.25598526272878458 0.15581985813964519 0 0.25142757826099521 0.16979423355062589 0 0.22739041359372089 0.1649332635640656 0 0.24247804913049081 0.17915079694492789 0 0.25142757826099521 0.16979423355062589 0 0.22739041359372089 0.1649332635640656 0 0.25598526272878458 0.15581985813964519 0 0.22739041359372089 0.1649332635640656 0 0.24076411335819131 0.15615529339954329 0 0.25598526272878458 0.15581985813964519 0 0.2447639709830893 0.14352008692224369 0 0.24076411335819131 0.15615529339954329 0 0.25598526272878458 0.15581985813964519 0 0.2447639709830893 0.14352008692224369 0 0.23632519860832751 0.14801189513689589 0 0.23681235967453601 0.14126887763266319 0 0.23632519860832751 0.14801189513689589 0 0.24076411335819131 0.15615529339954329 0 0.23411982015564939 0.15331232890520499 0 0.2447639709830893 0.14352008692224369 0 0.23632519860832751 0.14801189513689589 0 0.24076411335819131 0.15615529339954329 0 0.23300884829540189 0.15808048486172879 0 0.24076411335819131 0.15615529339954329 0 0.23411982015564939 0.15331232890520499 0 0.23411982015564939 0.15331232890520499 0 0.2294064453905568 0.1546057782494186 0 0.23122493931022209 0.15001649905489359 0 0.23300884829540189 0.15808048486172879 0 0.23411982015564939 0.15331232890520499 0 0.2294064453905568 0.1546057782494186 0 0.2294064453905568 0.1546057782494186 0 0.22661959717431121 0.15006354076981729 0 0.22396244244636571 0.1542249575126283 0 0.2294064453905568 0.1546057782494186 0 0.22661959717431121 0.15006354076981729 0 0.23122493931022209 0.15001649905489359 0 0.23632519860832751 0.14801189513689589 0 0.23411982015564939 0.15331232890520499 0 0.23122493931022209 0.15001649905489359 0 0.23632519860832751 0.14801189513689589 0 0.23122493931022209 0.15001649905489359 0 0.22991452359117109 0.14470556456604131 0 0.23632519860832751 0.14801189513689589 0 0.23681235967453601 0.14126887763266319 0 0.22991452359117109 0.14470556456604131 0 0.22991452359117109 0.14470556456604131 0 0.2230573790326503 0.140357793119192 0 0.2314663157480647 0.13776943412257989 0 0.23681235967453601 0.14126887763266319 0 0.22991452359117109 0.14470556456604131 0 0.2314663157480647 0.13776943412257989 0 0.22661959717431121 0.15006354076981729 0 0.22991452359117109 0.14470556456604131 0 0.22421230896143721 0.14654471622248 0 0.22661959717431121 0.15006354076981729 0 0.23122493931022209 0.15001649905489359 0 0.22991452359117109 0.14470556456604131 0 0.21440707575786239 0.1447743968099533 0 0.21940457386787421 0.14693739010002821 0 0.2230573790326503 0.140357793119192 0 0.22991452359117109 0.14470556456604131 0 0.22421230896143721 0.14654471622248 0 0.2230573790326503 0.140357793119192 0 0.22421230896143721 0.14654471622248 0 0.21940457386787421 0.14693739010002821 0 0.22206547114117881 0.15065929255732119 0 0.22421230896143721 0.14654471622248 0 0.21940457386787421 0.14693739010002821 0 0.2230573790326503 0.140357793119192 0 0.2179884176074256 0.15128036230936359 0 0.22206547114117881 0.15065929255732119 0 0.22039888312608261 0.15471440214308191 0 0.2179884176074256 0.15128036230936359 0 0.21940457386787421 0.14693739010002821 0 0.22206547114117881 0.15065929255732119 0 0.2224475153783089 0.15848976435644321 0 0.22039888312608261 0.15471440214308191 0 0.22396244244636571 0.1542249575126283 0 0.22206547114117881 0.15065929255732119 0 0.22039888312608261 0.15471440214308191 0 0.22396244244636571 0.1542249575126283 0 0.21748952675957869 0.15434722930426831 0 0.2196131062533189 0.15746364806632829 0 0.22039888312608261 0.15471440214308191 0 0.22618273546943601 0.1575953443844347 0 0.2294064453905568 0.1546057782494186 0 0.22396244244636571 0.1542249575126283 0 0.22661959717431121 0.15006354076981729 0 0.22421230896143721 0.14654471622248 0 0.22206547114117881 0.15065929255732119 0 0.22661959717431121 0.15006354076981729 0 0.22206547114117881 0.15065929255732119 0 0.22396244244636571 0.1542249575126283 0 0.20659983643324109 0.13281054555916211 0 0.2314663157480647 0.13776943412257989 0 0.22003496421738139 0.124853733280417 0 0.20659983643324109 0.13281054555916211 0 0.2230573790326503 0.140357793119192 0 0.2314663157480647 0.13776943412257989 0 0.20659983643324109 0.13281054555916211 0 0.2314663157480647 0.13776943412257989 0 0.2314663157480647 0.13776943412257989 0 0.23272792767544659 0.12663554355925291 0 0.22003496421738139 0.124853733280417 0 0.23272792767544659 0.12663554355925291 0 0.241487082537198 0.12770907924936159 0 0.2398975872905626 0.1352466506155395 0 0.2314663157480647 0.13776943412257989 0 0.23272792767544659 0.12663554355925291 0 0.2398975872905626 0.1352466506155395 0 0.2447639709830893 0.14352008692224369 0 0.23681235967453601 0.14126887763266319 0 0.2398975872905626 0.1352466506155395 0 0.23681235967453601 0.14126887763266319 0 0.2314663157480647 0.13776943412257989 0 0.2398975872905626 0.1352466506155395 0 0.2447639709830893 0.14352008692224369 0 0.2398975872905626 0.1352466506155395 0 0.24839548149688639 0.1350597881438366 0 0.2447639709830893 0.14352008692224369 0 0.24839548149688639 0.1350597881438366 0 0.2550421399890076 0.14276758108538659 0 0.241487082537198 0.12770907924936159 0 0.2398975872905626 0.1352466506155395 0 0.24839548149688639 0.1350597881438366 0 0.241487082537198 0.12770907924936159 0 0.24839548149688639 0.1350597881438366 0 0.25175638400313383 0.12610528964351431 0 0.24109634526414769 0.097076131968194423 0 0.23234156896227001 0.1154370655074726 0 0.25833700415506688 0.1174606701301795 0 0.23234156896227001 0.1154370655074726 0 0.25833700415506688 0.1174606701301795 0 0.23234156896227001 0.1154370655074726 0 0.25833700415506688 0.1174606701301795 0 0.25175638400313383 0.12610528964351431 0 0.241487082537198 0.12770907924936159 0 0.23234156896227001 0.1154370655074726 0 0.25175638400313383 0.12610528964351431 0 0.23272792767544659 0.12663554355925291 0 0.241487082537198 0.12770907924936159 0 0.23234156896227001 0.1154370655074726 0 0.22025321148020749 0.096241808512982308 0 0.23234156896227001 0.1154370655074726 0 0.20634613376947311 0.1134134608847658 0 0.24109634526414769 0.097076131968194423 0 0.22025321148020749 0.096241808512982308 0 0.23234156896227001 0.1154370655074726 0 0.23234156896227001 0.1154370655074726 0 0.22003496421738139 0.124853733280417 0 0.20634613376947311 0.1134134608847658 0 0.23234156896227001 0.1154370655074726 0 0.20634613376947311 0.1134134608847658 0 0.23272792767544659 0.12663554355925291 0 0.23234156896227001 0.1154370655074726 0 0.22003496421738139 0.124853733280417 0 0.22003496421738139 0.124853733280417 0 0.207283072205345 0.1234418321583677 0 0.20634613376947311 0.1134134608847658 0 0.207283072205345 0.1234418321583677 0 0.20634613376947311 0.1134134608847658 0 0.19615135440128459 0.1226895889091259 0 0.22025321148020749 0.096241808512982308 0 0.20634613376947311 0.1134134608847658 0 0.19337886402344651 0.08327144039118993 0 0.20634613376947311 0.1134134608847658 0 0.19337886402344651 0.08327144039118993 0 0.1803506985766761 0.1113898562620589 0 0.20634613376947311 0.1134134608847658 0 0.19615135440128459 0.1226895889091259 0 0.1803506985766761 0.1113898562620589 0 0.20634613376947311 0.1134134608847658 0 0.1803506985766761 0.1113898562620589 0 0.19337886402344651 0.08327144039118993 0 0.22546754203523461 0.07465992126743301 0 0.20490758250652741 0.056103228003619693 0 0.22025321148020749 0.096241808512982308 0 0.19337886402344651 0.08327144039118993 0 0.22546754203523461 0.07465992126743301 0 0.19337886402344651 0.08327144039118993 0 0.20490758250652741 0.056103228003619693 0 0.18322242559264901 0.053993032572509432 0 0.24109634526414769 0.097076131968194423 0 0.22025321148020749 0.096241808512982308 0 0.22546754203523461 0.07465992126743301 0 0.24109634526414769 0.097076131968194423 0 0.22546754203523461 0.07465992126743301 0 0.25571581673653421 0.082932545351010509 0 0.22546754203523461 0.07465992126743301 0 0.2488077657281941 0.062220657992294072 0 0.25571581673653421 0.082932545351010509 0 0.2488077657281941 0.062220657992294072 0 0.24554085141178869 0.04339145424653499 0 0.2260850469971252 0.047818717600100653 0 0.24554085141178869 0.04339145424653499 0 0.23762708062597629 0.025290352907342151 0 0.26232332916984907 0.032969070735920862 0 0.24554085141178869 0.04339145424653499 0 0.2260850469971252 0.047818717600100653 0 0.23762708062597629 0.025290352907342151 0 0.2260850469971252 0.047818717600100653 0 0.23762708062597629 0.025290352907342151 0 0.2072470115013714 0.03112443857057046 0 0.22546754203523461 0.07465992126743301 0 0.2260850469971252 0.047818717600100653 0 0.20490758250652741 0.056103228003619693 0 0.22546754203523461 0.07465992126743301 0 0.2488077657281941 0.062220657992294072 0 0.2260850469971252 0.047818717600100653 0 0.24166181837664269 0.0013377863527376729 0 0.23762708062597629 0.025290352907342151 0 0.24166181837664269 0.0013377863527376729 0 0.23762708062597629 0.025290352907342151 0 0.25485252174856282 0.01758872835932318 0 0.23762708062597629 0.025290352907342151 0 0.21998656467952221 0.01369584293395368 0 0.2072470115013714 0.03112443857057046 0 0.24166181837664269 0.0013377863527376729 0 0.21998656467952221 0.01369584293395368 0 0.22294722486068319 -0.003713435505300284 0 0.24166181837664269 0.0013377863527376729 0 0.23762708062597629 0.025290352907342151 0 0.21998656467952221 0.01369584293395368 0 0.21998656467952221 0.01369584293395368 0 0.2032719831534191 0.00013528078763766491 0 0.22294722486068319 -0.003713435505300284 0 0.21998656467952221 0.01369584293395368 0 0.2032719831534191 0.00013528078763766491 0 0.2072470115013714 0.03112443857057046 0 0.2072470115013714 0.03112443857057046 0 0.19077179240853831 0.038823743346194893 0 0.18677764753032411 0.019514369099177 0 0.2032719831534191 0.00013528078763766491 0 0.2072470115013714 0.03112443857057046 0 0.18677764753032411 0.019514369099177 0 0.2032719831534191 0.00013528078763766491 0 0.18677764753032411 0.019514369099177 0 0.18091424726896541 -5.1894559648335583e-05 0 0.2260850469971252 0.047818717600100653 0 0.2072470115013714 0.03112443857057046 0 0.20490758250652741 0.056103228003619693 0 0.2072470115013714 0.03112443857057046 0 0.20490758250652741 0.056103228003619693 0 0.19077179240853831 0.038823743346194893 0 0.20490758250652741 0.056103228003619693 0 0.19077179240853831 0.038823743346194893 0 0.18322242559264901 0.053993032572509432 0 0.19077179240853831 0.038823743346194893 0 0.18322242559264901 0.053993032572509432 0 0.17170429491181949 0.033383648485097867 0 0.17170429491181949 0.033383648485097867 0 0.15018518006850129 0.02697145993597717 0 0.15523046604028939 0.050172488149482983 0 0.18322242559264901 0.053993032572509432 0 0.17170429491181949 0.033383648485097867 0 0.15523046604028939 0.050172488149482983 0 0.15523046604028939 0.050172488149482983 0 0.1509353414567739 0.067074865509005002 0 0.16961449719361019 0.068502823006521343 0 0.18322242559264901 0.053993032572509432 0 0.15523046604028939 0.050172488149482983 0 0.16961449719361019 0.068502823006521343 0 0.18677764753032411 0.019514369099177 0 0.16449796328977209 0.015258139656462709 0 0.18091424726896541 -5.1894559648335583e-05 0 0.19077179240853831 0.038823743346194893 0 0.17170429491181949 0.033383648485097867 0 0.18677764753032411 0.019514369099177 0 0.17170429491181949 0.033383648485097867 0 0.18677764753032411 0.019514369099177 0 0.16449796328977209 0.015258139656462709 0 0.17170429491181949 0.033383648485097867 0 0.16449796328977209 0.015258139656462709 0 0.15018518006850129 0.02697145993597717 0 0.16449796328977209 0.015258139656462709 0 0.1459417225209636 0.0038304568003534201 0 0.16311415995912609 -0.00057207636211294524 0 0.16449796328977209 0.015258139656462709 0 0.18091424726896541 -5.1894559648335583e-05 0 0.16311415995912609 -0.00057207636211294524 0 0.16449796328977209 0.015258139656462709 0 0.1459417225209636 0.0038304568003534201 0 0.15018518006850129 0.02697145993597717 0 0.1459417225209636 0.0038304568003534201 0 0.15018518006850129 0.02697145993597717 0 0.13664818463082959 0.01750435496938102 0 0.1180435865568913 0.02799331262304567 0 0.13664818463082959 0.01750435496938102 0 0.12708844901733349 0.041679671555085028 0 0.1180435865568913 0.02799331262304567 0 0.13664818463082959 0.01750435496938102 0 0.1251384334453122 0.010641070539801151 0 0.15018518006850129 0.02697145993597717 0 0.13664818463082959 0.01750435496938102 0 0.12708844901733349 0.041679671555085028 0 0.1459417225209636 0.0038304568003534201 0 0.1251384334453122 0.010641070539801151 0 0.12833812541961651 -0.0066011368827682427 0 0.1459417225209636 0.0038304568003534201 0 0.13664818463082959 0.01750435496938102 0 0.1251384334453122 0.010641070539801151 0 0.15523046604028939 0.050172488149482983 0 0.1317454706604205 0.061200671637872857 0 0.1509353414567739 0.067074865509005002 0 0.15018518006850129 0.02697145993597717 0 0.15523046604028939 0.050172488149482983 0 0.12708844901733349 0.041679671555085028 0 0.15523046604028939 0.050172488149482983 0 0.12708844901733349 0.041679671555085028 0 0.1317454706604205 0.061200671637872857 0 0.12007222937858419 0.083232169362821615 0 0.1317454706604205 0.061200671637872857 0 0.14179558698760539 0.086036482262685982 0 0.1317454706604205 0.061200671637872857 0 0.1509353414567739 0.067074865509005002 0 0.14179558698760539 0.086036482262685982 0 0.1509353414567739 0.067074865509005002 0 0.14179558698760539 0.086036482262685982 0 0.1653053888548924 0.088002288410419363 0 0.12007222937858419 0.083232169362821615 0 0.14179558698760539 0.086036482262685982 0 0.1283598281910823 0.1073426470166446 0 0.1283598281910823 0.1073426470166446 0 0.13200039848876971 0.117933879868912 0 0.1543552633838792 0.109366251639352 0 0.1179614552688692 0.1242046279655936 0 0.1268775252147788 0.13029328736547549 0 0.13200039848876971 0.117933879868912 0 0.1283598281910823 0.1073426470166446 0 0.13200039848876971 0.117933879868912 0 0.13732076644693411 0.13341201963747221 0 0.13200039848876971 0.117933879868912 0 0.15686687780359401 0.1228927684323264 0 0.13200039848876971 0.117933879868912 0 0.1543552633838792 0.109366251639352 0 0.15686687780359401 0.1228927684323264 0 0.13200039848876971 0.117933879868912 0 0.15686687780359401 0.1228927684323264 0 0.14179558698760539 0.086036482262685982 0 0.1283598281910823 0.1073426470166446 0 0.1543552633838792 0.109366251639352 0 0.14179558698760539 0.086036482262685982 0 0.1543552633838792 0.109366251639352 0 0.1653053888548924 0.088002288410419363 0 0.1283598281910823 0.1073426470166446 0 0.1543552633838792 0.109366251639352 0 0.1543552633838792 0.109366251639352 0 0.1803506985766761 0.1113898562620589 0 0.1653053888548924 0.088002288410419363 0 0.1543552633838792 0.109366251639352 0 0.15686687780359401 0.1228927684323264 0 0.1803506985766761 0.1113898562620589 0 0.1543552633838792 0.109366251639352 0 0.1803506985766761 0.1113898562620589 0 0.18173335711841759 0.12785165699574419 0 0.15686687780359401 0.1228927684323264 0 0.1803506985766761 0.1113898562620589 0 0.18173335711841759 0.12785165699574419 0 0.19615135440128459 0.1226895889091259 0 0.1803506985766761 0.1113898562620589 0 0.19337886402344651 0.08327144039118993 0 0.1803506985766761 0.1113898562620589 0 0.1653053888548924 0.088002288410419363 0 0.19337886402344651 0.08327144039118993 0 0.16961449719361019 0.068502823006521343 0 0.1653053888548924 0.088002288410419363 0 0.19337886402344651 0.08327144039118993 0 0.18322242559264901 0.053993032572509432 0 0.16961449719361019 0.068502823006521343 0 0.1509353414567739 0.067074865509005002 0 0.16961449719361019 0.068502823006521343 0 0.1653053888548924 0.088002288410419363 0 0.1009205135643696 0.47298715958095972 0 0.1038217985546324 0.5 0 0.1222622412711864 0.4755845255466612 0 0.1009205135643696 0.47298715958095972 0 0.1038217985546324 0.5 0 0.084173059205329387 0.48229870478930198 0 0.1038217985546324 0.5 0 0.1222622412711864 0.4755845255466612 0 0.13102394004140999 0.5 0 0.1222622412711864 0.4755845255466612 0 0.1107765526988288 0.45390763914135879 0 0.12536459222705171 0.4583953366830199 0 0.1009205135643696 0.47298715958095972 0 0.1222622412711864 0.4755845255466612 0 0.1107765526988288 0.45390763914135879 0 0.1107765526988288 0.45390763914135879 0 0.104070249188028 0.43868585432136531 0 0.1170740328704841 0.43168847647933262 0 0.1107765526988288 0.45390763914135879 0 0.12833955995714269 0.44449741783037278 0 0.12536459222705171 0.4583953366830199 0 0.1107765526988288 0.45390763914135879 0 0.1170740328704841 0.43168847647933262 0 0.12833955995714269 0.44449741783037278 0 0.1107765526988288 0.45390763914135879 0 0.104070249188028 0.43868585432136531 0 0.093235533195142412 0.44697454991407748 0 0.104070249188028 0.43868585432136531 0 0.093235533195142412 0.44697454991407748 0 0.095311284795220358 0.42822764758977538 0 0.1009205135643696 0.47298715958095972 0 0.1107765526988288 0.45390763914135879 0 0.093235533195142412 0.44697454991407748 0 0.1009205135643696 0.47298715958095972 0 0.081049438335003221 0.46254344527131991 0 0.093235533195142412 0.44697454991407748 0 0.081049438335003221 0.46254344527131991 0 0.093235533195142412 0.44697454991407748 0 0.075654260563456879 0.44366163050878982 0 0.093235533195142412 0.44697454991407748 0 0.075654260563456879 0.44366163050878982 0 0.083780275774876636 0.43443331280328362 0 0.075654260563456879 0.44366163050878982 0 0.064140502066806479 0.44082675497417889 0 0.072955813083814644 0.43226724150704982 0 0.075654260563456879 0.44366163050878982 0 0.064140502066806479 0.44082675497417889 0 0.066239743706221377 0.45544285763033932 0 0.081049438335003221 0.46254344527131991 0 0.066239743706221377 0.45544285763033932 0 0.062875923636355094 0.47494541131862661 0 0.081049438335003221 0.46254344527131991 0 0.075654260563456879 0.44366163050878982 0 0.066239743706221377 0.45544285763033932 0 0.081049438335003221 0.46254344527131991 0 0.062875923636355094 0.47494541131862661 0 0.084173059205329387 0.48229870478930198 0 0.1009205135643696 0.47298715958095972 0 0.081049438335003221 0.46254344527131991 0 0.084173059205329387 0.48229870478930198 0 0.1038217985546324 0.5 0 0.084173059205329387 0.48229870478930198 0 0.076619657067854785 0.5 0 0.062875923636355094 0.47494541131862661 0 0.076619657067854785 0.5 0 0.049417515581077258 0.5 0 0.062875923636355094 0.47494541131862661 0 0.084173059205329387 0.48229870478930198 0 0.076619657067854785 0.5 0 0.062875923636355094 0.47494541131862661 0 0.049417515581077258 0.5 0 0.034982636558192851 0.47465209815796161 0 0.049417515581077258 0.5 0 0.034982636558192851 0.47465209815796161 0 0.02221537409429979 0.49999999999999972 0 0.034982636558192851 0.47465209815796161 0 0.02221537409429979 0.49999999999999972 0 0.034982636558192851 0.47465209815796161 0 0.02221537409429979 0.49999999999999972 0 0.017116582092687221 0.48308669952869598 0 0.017116582092687221 0.48308669952869598 0 0.011754693472499141 0.468023520786439 0 0.032389465122735918 0.46617339905739219 0 0.017116582092687221 0.48308669952869598 0 0.032389465122735918 0.46617339905739219 0 0.034982636558192851 0.47465209815796161 0 0.017116582092687221 0.48308669952869598 0 0.032389465122735918 0.46617339905739219 0 -0.003182305789168071 0.47636009384663658 0 0.017116582092687221 0.48308669952869598 0 0.011754693472499141 0.468023520786439 0 0.017116582092687221 0.48308669952869598 0 0.001843699062638591 0.49999999999999989 0 0.02221537409429979 0.49999999999999972 0 0.017116582092687221 0.48308669952869598 0 0.001843699062638591 0.49999999999999989 0 -0.003182305789168071 0.47636009384663658 0 0.017116582092687221 0.48308669952869598 0 0.001843699062638591 0.49999999999999989 0 0.00047683463884113508 0.45272828699369888 0 0.018427116030408919 0.45548037788137952 0 0.0161291478209689 0.44069331288412389 0 0.00047683463884113508 0.45272828699369888 0 0.0049752124986141783 0.42288239185733778 0 0.00047683463884113508 0.45272828699369888 0 0.0161291478209689 0.44069331288412389 0 0.0049752124986141783 0.42288239185733778 0 0.00047683463884113508 0.45272828699369888 0 0.011754693472499141 0.468023520786439 0 0.018427116030408919 0.45548037788137952 0 -0.003182305789168071 0.47636009384663658 0 0.00047683463884113508 0.45272828699369888 0 0.011754693472499141 0.468023520786439 0 0.018427116030408919 0.45548037788137952 0 0.031896437687212981 0.44630035204428919 0 0.032389465122735918 0.46617339905739219 0 0.011754693472499141 0.468023520786439 0 0.018427116030408919 0.45548037788137952 0 0.032389465122735918 0.46617339905739219 0 0.018427116030408919 0.45548037788137952 0 0.0161291478209689 0.44069331288412389 0 0.031896437687212981 0.44630035204428919 0 0.031896437687212981 0.44630035204428919 0 0.047662348152784598 0.44926009858608829 0 0.046395700618917103 0.42155923654978328 0 0.034982636558192851 0.47465209815796161 0 0.047662348152784598 0.44926009858608829 0 0.032389465122735918 0.46617339905739219 0 0.047662348152784598 0.44926009858608829 0 0.031896437687212981 0.44630035204428919 0 0.032389465122735918 0.46617339905739219 0 0.047662348152784598 0.44926009858608829 0 0.034982636558192851 0.47465209815796161 0 0.032389465122735918 0.46617339905739219 0 0.047662348152784598 0.44926009858608829 0 0.062875923636355094 0.47494541131862661 0 0.034982636558192851 0.47465209815796161 0 0.047662348152784598 0.44926009858608829 0 0.066239743706221377 0.45544285763033932 0 0.062875923636355094 0.47494541131862661 0 0.047662348152784598 0.44926009858608829 0 0.064140502066806479 0.44082675497417889 0 0.047662348152784598 0.44926009858608829 0 0.059811281034162618 0.42535773730123078 0 0.064140502066806479 0.44082675497417889 0 0.066239743706221377 0.45544285763033932 0 0.047662348152784598 0.44926009858608829 0 0.047662348152784598 0.44926009858608829 0 0.059811281034162618 0.42535773730123078 0 0.047662348152784598 0.44926009858608829 0 0.059811281034162618 0.42535773730123078 0 0.046395700618917103 0.42155923654978328 0 0.046395700618917103 0.42155923654978328 0 0.060894963550621212 0.39681812105527747 0 0.046395700618917103 0.42155923654978328 0 0.044227855002816521 0.40301675048869162 0 0.060894963550621212 0.39681812105527747 0 0.059811281034162618 0.42535773730123078 0 0.046395700618917103 0.42155923654978328 0 0.060894963550621212 0.39681812105527747 0 0.033312888333792347 0.41175735830131521 0 0.046395700618917103 0.42155923654978328 0 0.024453322468518869 0.4249887245968107 0 0.033312888333792347 0.41175735830131521 0 0.046395700618917103 0.42155923654978328 0 0.044227855002816521 0.40301675048869162 0 0.031896437687212981 0.44630035204428919 0 0.046395700618917103 0.42155923654978328 0 0.024453322468518869 0.4249887245968107 0 0.031896437687212981 0.44630035204428919 0 0.046395700618917103 0.42155923654978328 0 0.0161291478209689 0.44069331288412389 0 0.031896437687212981 0.44630035204428919 0 0.024453322468518869 0.4249887245968107 0 0.033312888333792347 0.41175735830131521 0 0.024453322468518869 0.4249887245968107 0 0.01721253718633094 0.40540581122710079 0 -0.0055798505185554476 0.4000832150621087 0 0.0049752124986141783 0.42288239185733778 0 0.01721253718633094 0.40540581122710079 0 0.024453322468518869 0.4249887245968107 0 0.0049752124986141783 0.42288239185733778 0 0.01721253718633094 0.40540581122710079 0 0.0161291478209689 0.44069331288412389 0 0.024453322468518869 0.4249887245968107 0 0.0049752124986141783 0.42288239185733778 0 -0.0051815960268516356 0.37430090233892538 0 -0.0055798505185554476 0.4000832150621087 0 0.01758703207148345 0.37844613436829111 0 -0.0055798505185554476 0.4000832150621087 0 0.01721253718633094 0.40540581122710079 0 0.01758703207148345 0.37844613436829111 0 0.01721253718633094 0.40540581122710079 0 0.01758703207148345 0.37844613436829111 0 0.032849609635163222 0.39354201642729331 0 0.033312888333792347 0.41175735830131521 0 0.01721253718633094 0.40540581122710079 0 0.032849609635163222 0.39354201642729331 0 0.01758703207148345 0.37844613436829111 0 0.032849609635163222 0.39354201642729331 0 0.034537764407549722 0.36990844982259158 0 0.032849609635163222 0.39354201642729331 0 0.047316082696481937 0.39026390186766807 0 0.034537764407549722 0.36990844982259158 0 0.050643598740736262 0.37555773202690468 0 0.047316082696481937 0.39026390186766807 0 0.034537764407549722 0.36990844982259158 0 0.033312888333792347 0.41175735830131521 0 0.032849609635163222 0.39354201642729331 0 0.044227855002816521 0.40301675048869162 0 0.032849609635163222 0.39354201642729331 0 0.044227855002816521 0.40301675048869162 0 0.047316082696481937 0.39026390186766807 0 0.044227855002816521 0.40301675048869162 0 0.060894963550621212 0.39681812105527747 0 0.047316082696481937 0.39026390186766807 0 0.060894963550621212 0.39681812105527747 0 0.050643598740736262 0.37555773202690468 0 0.047316082696481937 0.39026390186766807 0 0.060894963550621212 0.39681812105527747 0 0.050643598740736262 0.37555773202690468 0 0.075394226482325327 0.37207700556077172 0 0.073023974534375313 0.38694280604360831 0 0.083934045058315629 0.37746481927184578 0 0.071872663046239155 0.40141127828653828 0 0.060894963550621212 0.39681812105527747 0 0.075394226482325327 0.37207700556077172 0 0.060894963550621212 0.39681812105527747 0 0.073023974534375313 0.38694280604360831 0 0.075394226482325327 0.37207700556077172 0 0.083934045058315629 0.37746481927184578 0 0.071872663046239155 0.40141127828653828 0 0.073023974534375313 0.38694280604360831 0 0.083934045058315629 0.37746481927184578 0 0.075394226482325327 0.37207700556077172 0 0.083934045058315629 0.37746481927184578 0 0.091350173051996039 0.38399572196421822 0 0.084411422865307978 0.39438761855064491 0 0.091350173051996039 0.38399572196421822 0 0.084411422865307978 0.39438761855064491 0 0.095015844128286064 0.39312890248415189 0 0.083934045058315629 0.37746481927184578 0 0.091350173051996039 0.38399572196421822 0 0.095210418323807527 0.3723289611747973 0 0.083934045058315629 0.37746481927184578 0 0.084411422865307978 0.39438761855064491 0 0.071872663046239155 0.40141127828653828 0 0.08808764937776975 0.40529555776357662 0 0.084411422865307978 0.39438761855064491 0 0.095015844128286064 0.39312890248415189 0 0.08808764937776975 0.40529555776357662 0 0.084411422865307978 0.39438761855064491 0 0.080220079768223151 0.40299068626292261 0 0.084411422865307978 0.39438761855064491 0 0.080220079768223151 0.40299068626292261 0 0.071872663046239155 0.40141127828653828 0 0.080220079768223151 0.40299068626292261 0 0.071872663046239155 0.40141127828653828 0 0.076508583783575751 0.41086829045093087 0 0.060894963550621212 0.39681812105527747 0 0.073023974534375313 0.38694280604360831 0 0.071872663046239155 0.40141127828653828 0 0.059811281034162618 0.42535773730123078 0 0.071872663046239155 0.40141127828653828 0 0.076508583783575751 0.41086829045093087 0 0.059811281034162618 0.42535773730123078 0 0.071872663046239155 0.40141127828653828 0 0.059811281034162618 0.42535773730123078 0 0.060894963550621212 0.39681812105527747 0 0.071872663046239155 0.40141127828653828 0 0.059811281034162618 0.42535773730123078 0 0.076508583783575751 0.41086829045093087 0 0.081744487236748889 0.42103549449672523 0 0.059811281034162618 0.42535773730123078 0 0.072955813083814644 0.43226724150704982 0 0.081744487236748889 0.42103549449672523 0 0.064140502066806479 0.44082675497417889 0 0.059811281034162618 0.42535773730123078 0 0.072955813083814644 0.43226724150704982 0 0.075654260563456879 0.44366163050878982 0 0.072955813083814644 0.43226724150704982 0 0.083780275774876636 0.43443331280328362 0 0.093235533195142412 0.44697454991407748 0 0.083780275774876636 0.43443331280328362 0 0.095311284795220358 0.42822764758977538 0 0.072955813083814644 0.43226724150704982 0 0.083780275774876636 0.43443331280328362 0 0.081744487236748889 0.42103549449672523 0 0.083780275774876636 0.43443331280328362 0 0.081744487236748889 0.42103549449672523 0 0.095311284795220358 0.42822764758977538 0 0.08808764937776975 0.40529555776357662 0 0.076508583783575751 0.41086829045093087 0 0.081744487236748889 0.42103549449672523 0 0.081744487236748889 0.42103549449672523 0 0.099218851555921819 0.41466426410293178 0 0.095311284795220358 0.42822764758977538 0 0.08808764937776975 0.40529555776357662 0 0.081744487236748889 0.42103549449672523 0 0.099218851555921819 0.41466426410293178 0 0.08808764937776975 0.40529555776357662 0 0.080220079768223151 0.40299068626292261 0 0.076508583783575751 0.41086829045093087 0 0.08808764937776975 0.40529555776357662 0 0.099218851555921819 0.41466426410293178 0 0.099629039668926944 0.40205573852072762 0 0.099218851555921819 0.41466426410293178 0 0.10610210570152009 0.42584845932481391 0 0.1132309855314641 0.41550270608610368 0 0.099218851555921819 0.41466426410293178 0 0.10962384629656149 0.40444757091652039 0 0.099629039668926944 0.40205573852072762 0 0.099218851555921819 0.41466426410293178 0 0.1132309855314641 0.41550270608610368 0 0.10962384629656149 0.40444757091652039 0 0.099218851555921819 0.41466426410293178 0 0.095311284795220358 0.42822764758977538 0 0.10610210570152009 0.42584845932481391 0 0.104070249188028 0.43868585432136531 0 0.095311284795220358 0.42822764758977538 0 0.10610210570152009 0.42584845932481391 0 0.104070249188028 0.43868585432136531 0 0.10610210570152009 0.42584845932481391 0 0.1170740328704841 0.43168847647933262 0 0.10610210570152009 0.42584845932481391 0 0.1170740328704841 0.43168847647933262 0 0.1132309855314641 0.41550270608610368 0 0.1170740328704841 0.43168847647933262 0 0.1132309855314641 0.41550270608610368 0 0.12781600942087709 0.41555115111893742 0 0.1132309855314641 0.41550270608610368 0 0.1203180836575399 0.39967915207094268 0 0.12781600942087709 0.41555115111893742 0 0.1132309855314641 0.41550270608610368 0 0.1203180836575399 0.39967915207094268 0 0.10962384629656149 0.40444757091652039 0 0.1203180836575399 0.39967915207094268 0 0.10962384629656149 0.40444757091652039 0 0.1081452628360957 0.39036486412474092 0 0.1203180836575399 0.39967915207094268 0 0.1194340488193734 0.38033472956039038 0 0.1081452628360957 0.39036486412474092 0 0.1203180836575399 0.39967915207094268 0 0.1194340488193734 0.38033472956039038 0 0.132607518400917 0.38963698308052819 0 0.1194340488193734 0.38033472956039038 0 0.1079184596821729 0.37883658009036397 0 0.1112744079860843 0.3691213524211262 0 0.1194340488193734 0.38033472956039038 0 0.1081452628360957 0.39036486412474092 0 0.1079184596821729 0.37883658009036397 0 0.1081452628360957 0.39036486412474092 0 0.1079184596821729 0.37883658009036397 0 0.098471516969620018 0.38267391398100309 0 0.1079184596821729 0.37883658009036397 0 0.098471516969620018 0.38267391398100309 0 0.10226706179969119 0.3716880403645596 0 0.091350173051996039 0.38399572196421822 0 0.098471516969620018 0.38267391398100309 0 0.095210418323807527 0.3723289611747973 0 0.098471516969620018 0.38267391398100309 0 0.095210418323807527 0.3723289611747973 0 0.10226706179969119 0.3716880403645596 0 0.091350173051996039 0.38399572196421822 0 0.098471516969620018 0.38267391398100309 0 0.095015844128286064 0.39312890248415189 0 0.1081452628360957 0.39036486412474092 0 0.098471516969620018 0.38267391398100309 0 0.095015844128286064 0.39312890248415189 0 0.1081452628360957 0.39036486412474092 0 0.095015844128286064 0.39312890248415189 0 0.099629039668926944 0.40205573852072762 0 0.08808764937776975 0.40529555776357662 0 0.095015844128286064 0.39312890248415189 0 0.099629039668926944 0.40205573852072762 0 0.10962384629656149 0.40444757091652039 0 0.1081452628360957 0.39036486412474092 0 0.099629039668926944 0.40205573852072762 0 0.1067069279302868 0.35506259267247903 0 0.0959954270703922 0.35351836025715327 0 0.1029171348964797 0.36353603943324009 0 0.1067069279302868 0.35506259267247903 0 0.0959954270703922 0.35351836025715327 0 0.1094193264042196 0.34494822505736128 0 0.0959954270703922 0.35351836025715327 0 0.095210418323807527 0.3723289611747973 0 0.1029171348964797 0.36353603943324009 0 0.095210418323807527 0.3723289611747973 0 0.10226706179969119 0.3716880403645596 0 0.1029171348964797 0.36353603943324009 0 0.1079184596821729 0.37883658009036397 0 0.10226706179969119 0.3716880403645596 0 0.1112744079860843 0.3691213524211262 0 0.10226706179969119 0.3716880403645596 0 0.1029171348964797 0.36353603943324009 0 0.1112744079860843 0.3691213524211262 0 0.1029171348964797 0.36353603943324009 0 0.110227476501504 0.36044581950636922 0 0.1112744079860843 0.3691213524211262 0 0.1067069279302868 0.35506259267247903 0 0.1029171348964797 0.36353603943324009 0 0.110227476501504 0.36044581950636922 0 0.110227476501504 0.36044581950636922 0 0.1112744079860843 0.3691213524211262 0 0.1215512558684622 0.36595836608706361 0 0.110227476501504 0.36044581950636922 0 0.1215512558684622 0.36595836608706361 0 0.1149752747788384 0.35286451910827082 0 0.1194340488193734 0.38033472956039038 0 0.1112744079860843 0.3691213524211262 0 0.1215512558684622 0.36595836608706361 0 0.1194340488193734 0.38033472956039038 0 0.1215512558684622 0.36595836608706361 0 0.13138772087626019 0.37812614026938463 0 0.1215512558684622 0.36595836608706361 0 0.1241504179284315 0.35288496313607332 0 0.1149752747788384 0.35286451910827082 0 0.1067069279302868 0.35506259267247903 0 0.110227476501504 0.36044581950636922 0 0.1149752747788384 0.35286451910827082 0 0.1149752747788384 0.35286451910827082 0 0.1094193264042196 0.34494822505736128 0 0.1192260085831327 0.34424622079357797 0 0.1067069279302868 0.35506259267247903 0 0.1149752747788384 0.35286451910827082 0 0.1094193264042196 0.34494822505736128 0 0.1241504179284315 0.35288496313607332 0 0.1192260085831327 0.34424622079357797 0 0.13027273949695431 0.34277953616422518 0 0.1241504179284315 0.35288496313607332 0 0.1149752747788384 0.35286451910827082 0 0.1192260085831327 0.34424622079357797 0 0.1192260085831327 0.34424622079357797 0 0.12281848077957019 0.33421532983287111 0 0.13027273949695431 0.34277953616422518 0 0.1192260085831327 0.34424622079357797 0 0.12281848077957019 0.33421532983287111 0 0.1152137342713358 0.33643874012351282 0 0.12281848077957019 0.33421532983287111 0 0.11668536271178009 0.33028281831843442 0 0.1206524267137455 0.32090530207489321 0 0.12281848077957019 0.33421532983287111 0 0.11668536271178009 0.33028281831843442 0 0.1152137342713358 0.33643874012351282 0 0.11668536271178009 0.33028281831843442 0 0.1152137342713358 0.33643874012351282 0 0.1080568090824688 0.32957190124246072 0 0.1094193264042196 0.34494822505736128 0 0.1192260085831327 0.34424622079357797 0 0.1152137342713358 0.33643874012351282 0 0.1094193264042196 0.34494822505736128 0 0.1152137342713358 0.33643874012351282 0 0.1080568090824688 0.32957190124246072 0 0.1080568090824688 0.32957190124246072 0 0.1201181910945453 0.30562544222776822 0 0.10439275234573341 0.32259477457176028 0 0.1080568090824688 0.32957190124246072 0 0.1201181910945453 0.30562544222776822 0 0.1206524267137455 0.32090530207489321 0 0.1080568090824688 0.32957190124246072 0 0.1201181910945453 0.30562544222776822 0 0.11668536271178009 0.33028281831843442 0 0.1206524267137455 0.32090530207489321 0 0.1080568090824688 0.32957190124246072 0 0.0959954270703922 0.35351836025715327 0 0.1080568090824688 0.32957190124246072 0 0.0959954270703922 0.35351836025715327 0 0.1094193264042196 0.34494822505736128 0 0.1080568090824688 0.32957190124246072 0 0.0959954270703922 0.35351836025715327 0 0.1080568090824688 0.32957190124246072 0 0.089893489414029346 0.34733589006626597 0 0.10439275234573341 0.32259477457176028 0 0.1080568090824688 0.32957190124246072 0 0.089893489414029346 0.34733589006626597 0 0.10439275234573341 0.32259477457176028 0 0.089893489414029346 0.34733589006626597 0 0.10439275234573341 0.32259477457176028 0 0.080011728817876521 0.33076598424446962 0 0.089893489414029346 0.34733589006626597 0 0.10439275234573341 0.32259477457176028 0 0.080011728817876521 0.33076598424446962 0 0.09469579385644665 0.30837011035325201 0 0.080011728817876521 0.33076598424446962 0 0.09469579385644665 0.30837011035325201 0 0.080011728817876521 0.33076598424446962 0 0.07400237475310649 0.31682274978181368 0 0.09469579385644665 0.30837011035325201 0 0.07400237475310649 0.31682274978181368 0 0.058392487265603393 0.33260293500896432 0 0.061385903023675713 0.3111132757397706 0 0.080011728817876521 0.33076598424446962 0 0.07400237475310649 0.31682274978181368 0 0.058392487265603393 0.33260293500896432 0 0.080011728817876521 0.33076598424446962 0 0.065327663779306419 0.35316185813568712 0 0.058392487265603393 0.33260293500896432 0 0.080011728817876521 0.33076598424446962 0 0.065327663779306419 0.35316185813568712 0 0.065327663779306419 0.35316185813568712 0 0.089893489414029346 0.34733589006626597 0 0.075394226482325327 0.37207700556077172 0 0.080011728817876521 0.33076598424446962 0 0.065327663779306419 0.35316185813568712 0 0.089893489414029346 0.34733589006626597 0 0.0959954270703922 0.35351836025715327 0 0.089893489414029346 0.34733589006626597 0 0.086386124370889106 0.3629399127014995 0 0.083934045058315629 0.37746481927184578 0 0.0959954270703922 0.35351836025715327 0 0.086386124370889106 0.3629399127014995 0 0.089893489414029346 0.34733589006626597 0 0.086386124370889106 0.3629399127014995 0 0.075394226482325327 0.37207700556077172 0 0.083934045058315629 0.37746481927184578 0 0.0959954270703922 0.35351836025715327 0 0.095210418323807527 0.3723289611747973 0 0.089893489414029346 0.34733589006626597 0 0.075394226482325327 0.37207700556077172 0 0.083934045058315629 0.37746481927184578 0 0.0959954270703922 0.35351836025715327 0 0.083934045058315629 0.37746481927184578 0 0.086386124370889106 0.3629399127014995 0 0.075394226482325327 0.37207700556077172 0 0.050643598740736262 0.37555773202690468 0 0.065327663779306419 0.35316185813568712 0 0.075394226482325327 0.37207700556077172 0 0.050643598740736262 0.37555773202690468 0 0.065327663779306419 0.35316185813568712 0 0.065327663779306419 0.35316185813568712 0 0.046338461517867469 0.34811832903025958 0 0.058392487265603393 0.33260293500896432 0 0.050643598740736262 0.37555773202690468 0 0.065327663779306419 0.35316185813568712 0 0.046338461517867469 0.34811832903025958 0 0.046338461517867469 0.34811832903025958 0 0.034537764407549722 0.36990844982259158 0 0.027681489309580091 0.3542782297098428 0 0.046338461517867469 0.34811832903025958 0 0.027681489309580091 0.3542782297098428 0 0.032504183121373383 0.34060619681923349 0 0.050643598740736262 0.37555773202690468 0 0.046338461517867469 0.34811832903025958 0 0.034537764407549722 0.36990844982259158 0 0.01758703207148345 0.37844613436829111 0 0.034537764407549722 0.36990844982259158 0 0.027681489309580091 0.3542782297098428 0 0.01758703207148345 0.37844613436829111 0 0.027681489309580091 0.3542782297098428 0 0.0109541530027346 0.36102179076328661 0 0.027681489309580091 0.3542782297098428 0 0.0109541530027346 0.36102179076328661 0 0.018025396820769469 0.3353167662935097 0 -0.003332984700312994 0.35001465254038849 0 0.0109541530027346 0.36102179076328661 0 0.018025396820769469 0.3353167662935097 0 -0.0051815960268516356 0.37430090233892538 0 -0.003332984700312994 0.35001465254038849 0 0.0109541530027346 0.36102179076328661 0 -0.0051815960268516356 0.37430090233892538 0 0.01758703207148345 0.37844613436829111 0 0.0109541530027346 0.36102179076328661 0 -0.0014843733737743511 0.32572840274185172 0 0.010955774388731 0.31446183623738988 0 0.00036423795276429178 0.30144215294331478 0 -0.0014843733737743511 0.32572840274185172 0 0.010955774388731 0.31446183623738988 0 0.018025396820769469 0.3353167662935097 0 -0.0014843733737743511 0.32572840274185172 0 -0.003332984700312994 0.35001465254038849 0 0.018025396820769469 0.3353167662935097 0 0.018025396820769469 0.3353167662935097 0 0.037971384837276467 0.32471146224332192 0 0.032504183121373383 0.34060619681923349 0 0.027681489309580091 0.3542782297098428 0 0.018025396820769469 0.3353167662935097 0 0.032504183121373383 0.34060619681923349 0 0.018025396820769469 0.3353167662935097 0 0.024697930538224468 0.31896895516055662 0 0.037971384837276467 0.32471146224332192 0 0.010955774388731 0.31446183623738988 0 0.018025396820769469 0.3353167662935097 0 0.024697930538224468 0.31896895516055662 0 0.037971384837276467 0.32471146224332192 0 0.051273151418518098 0.32065792808263249 0 0.042163851938215272 0.30834743352380489 0 0.024697930538224468 0.31896895516055662 0 0.037971384837276467 0.32471146224332192 0 0.042163851938215272 0.30834743352380489 0 0.046338461517867469 0.34811832903025958 0 0.037971384837276467 0.32471146224332192 0 0.032504183121373383 0.34060619681923349 0 0.046338461517867469 0.34811832903025958 0 0.037971384837276467 0.32471146224332192 0 0.058392487265603393 0.33260293500896432 0 0.037971384837276467 0.32471146224332192 0 0.058392487265603393 0.33260293500896432 0 0.051273151418518098 0.32065792808263249 0 0.058392487265603393 0.33260293500896432 0 0.051273151418518098 0.32065792808263249 0 0.061385903023675713 0.3111132757397706 0 0.051273151418518098 0.32065792808263249 0 0.061385903023675713 0.3111132757397706 0 0.042163851938215272 0.30834743352380489 0 0.061385903023675713 0.3111132757397706 0 0.05825631246569439 0.29574782756524992 0 0.042163851938215272 0.30834743352380489 0 0.059641169554753598 0.28249773422085389 0 0.05825631246569439 0.29574782756524992 0 0.03930755845352147 0.28526522460202453 0 0.05825631246569439 0.29574782756524992 0 0.03930755845352147 0.28526522460202453 0 0.042163851938215272 0.30834743352380489 0 0.03930755845352147 0.28526522460202453 0 0.042163851938215272 0.30834743352380489 0 0.024675975213576468 0.30343853375617791 0 0.010955774388731 0.31446183623738988 0 0.024675975213576468 0.30343853375617791 0 0.013060702623161981 0.29791374741379523 0 0.024697930538224468 0.31896895516055662 0 0.042163851938215272 0.30834743352380489 0 0.024675975213576468 0.30343853375617791 0 0.010955774388731 0.31446183623738988 0 0.024697930538224468 0.31896895516055662 0 0.024675975213576468 0.30343853375617791 0 0.03930755845352147 0.28526522460202453 0 0.024675975213576468 0.30343853375617791 0 0.020776366305796819 0.28633435986846539 0 0.024675975213576468 0.30343853375617791 0 0.020776366305796819 0.28633435986846539 0 0.013060702623161981 0.29791374741379523 0 0.013060702623161981 0.29791374741379523 0 0.00036423795276429178 0.30144215294331478 0 0.002212849279305274 0.277155903144778 0 0.00036423795276429178 0.30144215294331478 0 0.002212849279305274 0.277155903144778 0 0.020776366305796819 0.28633435986846539 0 0.013060702623161981 0.29791374741379523 0 0.002212849279305274 0.277155903144778 0 0.010955774388731 0.31446183623738988 0 0.013060702623161981 0.29791374741379523 0 0.00036423795276429178 0.30144215294331478 0 0.0034616411636725661 0.26074981971621108 0 0.014667589503732341 0.25612106335659801 0 0.024624745959421459 0.2678983904255518 0 -0.0081350856210093137 0.24991087677565479 0 0.0047104330480430192 0.24434373628764439 0 0.0034616411636725661 0.26074981971621108 0 0.0047104330480430192 0.24434373628764439 0 0.0034616411636725661 0.26074981971621108 0 0.014667589503732341 0.25612106335659801 0 0.0047104330480430192 0.24434373628764439 0 0.0034616411636725661 0.26074981971621108 0 0.0047104330480430192 0.24434373628764439 0 0.014667589503732341 0.25612106335659801 0 0.002212849279305274 0.277155903144778 0 0.024624745959421459 0.2678983904255518 0 0.0034616411636725661 0.26074981971621108 0 0.002212849279305274 0.277155903144778 0 0.024624745959421459 0.2678983904255518 0 0.0034616411636725661 0.26074981971621108 0 0.002212849279305274 0.277155903144778 0 0.03930755845352147 0.28526522460202453 0 0.020776366305796819 0.28633435986846539 0 0.024624745959421459 0.2678983904255518 0 0.020776366305796819 0.28633435986846539 0 0.002212849279305274 0.277155903144778 0 0.024624745959421459 0.2678983904255518 0 0.024624745959421459 0.2678983904255518 0 0.030999765588735941 0.2652651092648316 0 0.030999765588735941 0.2652651092648316 0 0.024872130837775772 0.25705220584788441 0 0.036786616911670331 0.25627306369302277 0 0.024624745959421459 0.2678983904255518 0 0.030999765588735941 0.2652651092648316 0 0.024872130837775772 0.25705220584788441 0 0.014667589503732341 0.25612106335659801 0 0.024624745959421459 0.2678983904255518 0 0.024872130837775772 0.25705220584788441 0 0.014667589503732341 0.25612106335659801 0 0.024624745959421459 0.2678983904255518 0 0.017840670966781009 0.2436996938463524 0 0.014667589503732341 0.25612106335659801 0 0.024872130837775772 0.25705220584788441 0 0.029950581030715639 0.2481073239038423 0 0.024872130837775772 0.25705220584788441 0 0.036786616911670331 0.25627306369302277 0 0.030999765588735941 0.2652651092648316 0 0.036786616911670331 0.25627306369302277 0 0.04389421186275224 0.2642622204577002 0 0.038848502141455937 0.24456152668562781 0 0.036786616911670331 0.25627306369302277 0 0.046253008554446202 0.25279922135016708 0 0.036786616911670331 0.25627306369302277 0 0.04389421186275224 0.2642622204577002 0 0.046253008554446202 0.25279922135016708 0 0.03930755845352147 0.28526522460202453 0 0.024624745959421459 0.2678983904255518 0 0.03930755845352147 0.28526522460202453 0 0.04389421186275224 0.2642622204577002 0 0.054877953582361687 0.27085991086474759 0 0.03930755845352147 0.28526522460202453 0 0.030999765588735941 0.2652651092648316 0 0.04389421186275224 0.2642622204577002 0 0.03930755845352147 0.28526522460202453 0 0.024624745959421459 0.2678983904255518 0 0.030999765588735941 0.2652651092648316 0 0.059641169554753598 0.28249773422085389 0 0.03930755845352147 0.28526522460202453 0 0.054877953582361687 0.27085991086474759 0 0.059641169554753598 0.28249773422085389 0 0.054877953582361687 0.27085991086474759 0 0.070700642268031313 0.26981610231864478 0 0.046253008554446202 0.25279922135016708 0 0.052949995767003169 0.26046421592884139 0 0.057092252759039272 0.25108552972779657 0 0.04389421186275224 0.2642622204577002 0 0.054877953582361687 0.27085991086474759 0 0.052949995767003169 0.26046421592884139 0 0.04389421186275224 0.2642622204577002 0 0.046253008554446202 0.25279922135016708 0 0.052949995767003169 0.26046421592884139 0 0.054877953582361687 0.27085991086474759 0 0.052949995767003169 0.26046421592884139 0 0.062632552076416451 0.26331419724379529 0 0.052949995767003169 0.26046421592884139 0 0.057092252759039272 0.25108552972779657 0 0.062632552076416451 0.26331419724379529 0 0.057092252759039272 0.25108552972779657 0 0.068033754070935329 0.2555745543167991 0 0.062632552076416451 0.26331419724379529 0 0.066326866307389321 0.24470640617662781 0 0.057092252759039272 0.25108552972779657 0 0.068033754070935329 0.2555745543167991 0 0.068033754070935329 0.2555745543167991 0 0.062632552076416451 0.26331419724379529 0 0.070700642268031313 0.26981610231864478 0 0.068033754070935329 0.2555745543167991 0 0.079366440873915284 0.25806624014832952 0 0.070700642268031313 0.26981610231864478 0 0.07557142662849553 0.24829346195347779 0 0.068033754070935329 0.2555745543167991 0 0.079366440873915284 0.25806624014832952 0 0.079366440873915284 0.25806624014832952 0 0.086740055642115663 0.26777586441494422 0 0.070700642268031313 0.26981610231864478 0 0.086360524529978999 0.2485025584194428 0 0.07557142662849553 0.24829346195347779 0 0.079366440873915284 0.25806624014832952 0 0.079366440873915284 0.25806624014832952 0 0.086740055642115663 0.26777586441494422 0 0.094303187779195191 0.25765188129921868 0 0.086740055642115663 0.26777586441494422 0 0.094303187779195191 0.25765188129921868 0 0.099528373688008043 0.26807199084889632 0 0.086360524529978999 0.2485025584194428 0 0.079366440873915284 0.25806624014832952 0 0.094303187779195191 0.25765188129921868 0 0.086360524529978999 0.2485025584194428 0 0.094852753725627806 0.24572433870261751 0 0.094303187779195191 0.25765188129921868 0 0.086740055642115663 0.26777586441494422 0 0.081334427900592213 0.27732356983162909 0 0.070700642268031313 0.26981610231864478 0 0.09245721677702759 0.2751944031100404 0 0.081334427900592213 0.27732356983162909 0 0.090446906112113784 0.28634611630582962 0 0.09245721677702759 0.2751944031100404 0 0.086740055642115663 0.26777586441494422 0 0.099528373688008043 0.26807199084889632 0 0.09245721677702759 0.2751944031100404 0 0.086740055642115663 0.26777586441494422 0 0.081334427900592213 0.27732356983162909 0 0.054877953582361687 0.27085991086474759 0 0.062632552076416451 0.26331419724379529 0 0.070700642268031313 0.26981610231864478 0 0.081334427900592213 0.27732356983162909 0 0.070700642268031313 0.26981610231864478 0 0.071513431022070112 0.28600185374243381 0 0.059641169554753598 0.28249773422085389 0 0.070700642268031313 0.26981610231864478 0 0.071513431022070112 0.28600185374243381 0 0.05825631246569439 0.29574782756524992 0 0.071513431022070112 0.28600185374243381 0 0.07552596080193022 0.30126144356261209 0 0.059641169554753598 0.28249773422085389 0 0.05825631246569439 0.29574782756524992 0 0.071513431022070112 0.28600185374243381 0 0.061385903023675713 0.3111132757397706 0 0.05825631246569439 0.29574782756524992 0 0.07552596080193022 0.30126144356261209 0 0.07400237475310649 0.31682274978181368 0 0.061385903023675713 0.3111132757397706 0 0.07552596080193022 0.30126144356261209 0 0.07400237475310649 0.31682274978181368 0 0.07552596080193022 0.30126144356261209 0 0.09469579385644665 0.30837011035325201 0 0.07552596080193022 0.30126144356261209 0 0.090446906112113784 0.28634611630582962 0 0.09469579385644665 0.30837011035325201 0 0.081334427900592213 0.27732356983162909 0 0.071513431022070112 0.28600185374243381 0 0.090446906112113784 0.28634611630582962 0 0.071513431022070112 0.28600185374243381 0 0.07552596080193022 0.30126144356261209 0 0.090446906112113784 0.28634611630582962 0 0.090446906112113784 0.28634611630582962 0 0.10937985889501679 0.28597423646203429 0 0.1014699276298404 0.27685039854934512 0 0.090446906112113784 0.28634611630582962 0 0.09469579385644665 0.30837011035325201 0 0.10937985889501679 0.28597423646203429 0 0.09469579385644665 0.30837011035325201 0 0.1201181910945453 0.30562544222776822 0 0.10937985889501679 0.28597423646203429 0 0.10439275234573341 0.32259477457176028 0 0.09469579385644665 0.30837011035325201 0 0.1201181910945453 0.30562544222776822 0 0.09469579385644665 0.30837011035325201 0 0.10937985889501679 0.28597423646203429 0 0.1201181910945453 0.30562544222776822 0 0.10937985889501679 0.28597423646203429 0 0.13217957310661721 0.28167898321307322 0 0.10937985889501679 0.28597423646203429 0 0.1240639239335867 0.26357836257081663 0 0.13217957310661721 0.28167898321307322 0 0.10937985889501679 0.28597423646203429 0 0.11000449685210011 0.26945709482080937 0 0.1240639239335867 0.26357836257081663 0 0.10937985889501679 0.28597423646203429 0 0.1240639239335867 0.26357836257081663 0 0.1240639239335867 0.26357836257081663 0 0.1210515768798676 0.25685981792951001 0 0.11376754648977989 0.25946312588926052 0 0.1210515768798676 0.25685981792951001 0 0.11376754648977989 0.25946312588926052 0 0.1053827703643152 0.25306240214149478 0 0.1240639239335867 0.26357836257081663 0 0.12551314183994361 0.26136804128809271 0 0.1240639239335867 0.26357836257081663 0 0.1210515768798676 0.25685981792951001 0 0.12551314183994361 0.26136804128809271 0 0.1240639239335867 0.26357836257081663 0 0.1210515768798676 0.25685981792951001 0 0.1210515768798676 0.25685981792951001 0 0.11376754648977989 0.25946312588926052 0 0.11000449685210011 0.26945709482080937 0 0.1240639239335867 0.26357836257081663 0 0.11376754648977989 0.25946312588926052 0 0.11000449685210011 0.26945709482080937 0 0.11376754648977989 0.25946312588926052 0 0.104939865998466 0.26166892053878288 0 0.11376754648977989 0.25946312588926052 0 0.104939865998466 0.26166892053878288 0 0.1053827703643152 0.25306240214149478 0 0.094852753725627806 0.24572433870261751 0 0.1053827703643152 0.25306240214149478 0 0.094303187779195191 0.25765188129921868 0 0.104939865998466 0.26166892053878288 0 0.1053827703643152 0.25306240214149478 0 0.094303187779195191 0.25765188129921868 0 0.104939865998466 0.26166892053878288 0 0.094303187779195191 0.25765188129921868 0 0.099528373688008043 0.26807199084889632 0 0.09245721677702759 0.2751944031100404 0 0.099528373688008043 0.26807199084889632 0 0.1014699276298404 0.27685039854934512 0 0.10937985889501679 0.28597423646203429 0 0.11000449685210011 0.26945709482080937 0 0.1014699276298404 0.27685039854934512 0 0.09245721677702759 0.2751944031100404 0 0.090446906112113784 0.28634611630582962 0 0.1014699276298404 0.27685039854934512 0 0.11000449685210011 0.26945709482080937 0 0.099528373688008043 0.26807199084889632 0 0.1014699276298404 0.27685039854934512 0 0.11000449685210011 0.26945709482080937 0 0.104939865998466 0.26166892053878288 0 0.099528373688008043 0.26807199084889632 0 0.14102373759791359 0.26411993216089402 0 0.15595231961225739 0.28264602412857132 0 0.15707569442787489 0.26649738666877199 0 0.14102373759791359 0.26411993216089402 0 0.13217957310661721 0.28167898321307322 0 0.15595231961225739 0.28264602412857132 0 0.14986790208921311 0.2465608811087163 0 0.14102373759791359 0.26411993216089402 0 0.14986790208921311 0.2465608811087163 0 0.14102373759791359 0.26411993216089402 0 0.15707569442787489 0.26649738666877199 0 0.14986790208921311 0.2465608811087163 0 0.14102373759791359 0.26411993216089402 0 0.13545973948454279 0.2517103495191198 0 0.14102373759791359 0.26411993216089402 0 0.13545973948454279 0.2517103495191198 0 0.13164802319252 0.26449113375039962 0 0.1210515768798676 0.25685981792951001 0 0.13545973948454279 0.2517103495191198 0 0.1210515768798676 0.25685981792951001 0 0.13545973948454279 0.2517103495191198 0 0.12551314183994361 0.26136804128809271 0 0.13545973948454279 0.2517103495191198 0 0.13164802319252 0.26449113375039962 0 0.12551314183994361 0.26136804128809271 0 0.1240639239335867 0.26357836257081663 0 0.13164802319252 0.26449113375039962 0 0.12551314183994361 0.26136804128809271 0 0.1240639239335867 0.26357836257081663 0 0.13217957310661721 0.28167898321307322 0 0.14102373759791359 0.26411993216089402 0 0.13164802319252 0.26449113375039962 0 0.13217957310661721 0.28167898321307322 0 0.14102373759791359 0.26411993216089402 0 0.13217957310661721 0.28167898321307322 0 0.1240639239335867 0.26357836257081663 0 0.13164802319252 0.26449113375039962 0 0.13217957310661721 0.28167898321307322 0 0.1201181910945453 0.30562544222776822 0 0.13217957310661721 0.28167898321307322 0 0.13217957310661721 0.28167898321307322 0 0.1420535312831788 0.30370122288621071 0 0.1201181910945453 0.30562544222776822 0 0.13217957310661721 0.28167898321307322 0 0.1420535312831788 0.30370122288621071 0 0.1201181910945453 0.30562544222776822 0 0.1420535312831788 0.30370122288621071 0 0.1351614505925828 0.32566452384973299 0 0.1420535312831788 0.30370122288621071 0 0.15595231961225739 0.28264602412857132 0 0.16250351331840179 0.30814994869833129 0 0.13217957310661721 0.28167898321307322 0 0.1420535312831788 0.30370122288621071 0 0.15595231961225739 0.28264602412857132 0 0.15595231961225739 0.28264602412857132 0 0.16250351331840179 0.30814994869833129 0 0.17347963367310909 0.29382621204626419 0 0.15595231961225739 0.28264602412857132 0 0.17347963367310909 0.29382621204626419 0 0.1753864458549779 0.27645783023871168 0 0.18531889412298269 0.31050112106205541 0 0.17347963367310909 0.29382621204626419 0 0.19046725945361229 0.291312221783327 0 0.16250351331840179 0.30814994869833129 0 0.18531889412298269 0.31050112106205541 0 0.17347963367310909 0.29382621204626419 0 0.17347963367310909 0.29382621204626419 0 0.1753864458549779 0.27645783023871168 0 0.19046725945361229 0.291312221783327 0 0.1753864458549779 0.27645783023871168 0 0.18679868608293279 0.26487965394004931 0 0.19634956189794839 0.2758115078886193 0 0.1753864458549779 0.27645783023871168 0 0.17049373635802351 0.25727275644012998 0 0.18679868608293279 0.26487965394004931 0 0.1753864458549779 0.27645783023871168 0 0.19634956189794839 0.2758115078886193 0 0.19046725945361229 0.291312221783327 0 0.15595231961225739 0.28264602412857132 0 0.1753864458549779 0.27645783023871168 0 0.15707569442787489 0.26649738666877199 0 0.1753864458549779 0.27645783023871168 0 0.15707569442787489 0.26649738666877199 0 0.17049373635802351 0.25727275644012998 0 0.14986790208921311 0.2465608811087163 0 0.15707569442787489 0.26649738666877199 0 0.17049373635802351 0.25727275644012998 0 0.17049373635802351 0.25727275644012998 0 0.18521850618650371 0.25173146935434548 0 0.18679868608293279 0.26487965394004931 0 0.18521850618650371 0.25173146935434548 0 0.18679868608293279 0.26487965394004931 0 0.20172025561686341 0.26025521207164748 0 0.2000687730148189 0.24196105661488379 0 0.18521850618650371 0.25173146935434548 0 0.20172025561686341 0.26025521207164748 0 0.18679868608293279 0.26487965394004931 0 0.20172025561686341 0.26025521207164748 0 0.19634956189794839 0.2758115078886193 0 0.20172025561686341 0.26025521207164748 0 0.19634956189794839 0.2758115078886193 0 0.2081466275429151 0.27210386396197173 0 0.2081466275429151 0.27210386396197173 0 0.21470741028614049 0.26255060739066233 0 0.219087184727697 0.27818950101861789 0 0.2081466275429151 0.27210386396197173 0 0.219087184727697 0.27818950101861789 0 0.20496522536972231 0.28451014489492638 0 0.19634956189794839 0.2758115078886193 0 0.2081466275429151 0.27210386396197173 0 0.20496522536972231 0.28451014489492638 0 0.2000687730148189 0.24196105661488379 0 0.20172025561686341 0.26025521207164748 0 0.21310456748087039 0.25108273294350081 0 0.20172025561686341 0.26025521207164748 0 0.2081466275429151 0.27210386396197173 0 0.21470741028614049 0.26255060739066233 0 0.20172025561686341 0.26025521207164748 0 0.21470741028614049 0.26255060739066233 0 0.21310456748087039 0.25108273294350081 0 0.21470741028614049 0.26255060739066233 0 0.21310456748087039 0.25108273294350081 0 0.22739887622895799 0.25124537221514037 0 0.22739887622895799 0.25124537221514037 0 0.23342222365109119 0.27849530340411938 0 0.21470741028614049 0.26255060739066233 0 0.22739887622895799 0.25124537221514037 0 0.219087184727697 0.27818950101861789 0 0.22739887622895799 0.25124537221514037 0 0.219087184727697 0.27818950101861789 0 0.22739887622895799 0.25124537221514037 0 0.219087184727697 0.27818950101861789 0 0.23342222365109119 0.27849530340411938 0 0.22739887622895799 0.25124537221514037 0 0.23342222365109119 0.27849530340411938 0 0.23989150870083589 0.27361898541556229 0 0.23342222365109119 0.27849530340411938 0 0.23989150870083589 0.27361898541556229 0 0.24834459753847341 0.27747630004818957 0 0.23989150870083589 0.27361898541556229 0 0.248890656855665 0.26892970052113729 0 0.24617535777933569 0.25927982981489511 0 0.23989150870083589 0.27361898541556229 0 0.24834459753847341 0.27747630004818957 0 0.248890656855665 0.26892970052113729 0 0.23676232325687699 0.24641354654242001 0 0.23989150870083589 0.27361898541556229 0 0.23676232325687699 0.24641354654242001 0 0.22739887622895799 0.25124537221514037 0 0.23989150870083589 0.27361898541556229 0 0.248890656855665 0.26892970052113729 0 0.24617535777933569 0.25927982981489511 0 0.25467197645528578 0.26294339178177872 0 0.23676232325687699 0.24641354654242001 0 0.23989150870083589 0.27361898541556229 0 0.24617535777933569 0.25927982981489511 0 0.2463733885494889 0.24903830734341381 0 0.24617535777933569 0.25927982981489511 0 0.25317499598307841 0.25303006526473892 0 0.2463733885494889 0.24903830734341381 0 0.23676232325687699 0.24641354654242001 0 0.24617535777933569 0.25927982981489511 0 0.23342222365109119 0.27849530340411938 0 0.2394455710732217 0.30574523459309888 0 0.24857437057136419 0.28983050235134378 0 0.23342222365109119 0.27849530340411938 0 0.2394455710732217 0.30574523459309888 0 0.23342222365109119 0.27849530340411938 0 0.24834459753847341 0.27747630004818957 0 0.24857437057136419 0.28983050235134378 0 0.23342222365109119 0.27849530340411938 0 0.2394455710732217 0.30574523459309888 0 0.22591116927489929 0.29444622155454803 0 0.219087184727697 0.27818950101861789 0 0.23342222365109119 0.27849530340411938 0 0.22591116927489929 0.29444622155454803 0 0.2394455710732217 0.30574523459309888 0 0.22591116927489929 0.29444622155454803 0 0.2107754932264389 0.30513362982209619 0 0.219087184727697 0.27818950101861789 0 0.2107754932264389 0.30513362982209619 0 0.20496522536972231 0.28451014489492638 0 0.219087184727697 0.27818950101861789 0 0.22591116927489929 0.29444622155454803 0 0.2107754932264389 0.30513362982209619 0 0.219087184727697 0.27818950101861789 0 0.2107754932264389 0.30513362982209619 0 0.2107754932264389 0.30513362982209619 0 0.20496522536972231 0.28451014489492638 0 0.19046725945361229 0.291312221783327 0 0.19634956189794839 0.2758115078886193 0 0.20496522536972231 0.28451014489492638 0 0.19046725945361229 0.291312221783327 0 0.18531889412298269 0.31050112106205541 0 0.2107754932264389 0.30513362982209619 0 0.19046725945361229 0.291312221783327 0 0.18531889412298269 0.31050112106205541 0 0.2107754932264389 0.30513362982209619 0 0.20246380172518069 0.33207775862557459 0 0.18531889412298269 0.31050112106205541 0 0.20246380172518069 0.33207775862557459 0 0.1791355323800557 0.33213350302247219 0 0.20246380172518069 0.33207775862557459 0 0.19415211022392259 0.35902188742905311 0 0.1791355323800557 0.33213350302247219 0 0.20246380172518069 0.33207775862557459 0 0.2239931418498709 0.33095429160597117 0 0.21332169202206211 0.35628352922444562 0 0.2107754932264389 0.30513362982209619 0 0.20246380172518069 0.33207775862557459 0 0.2107754932264389 0.30513362982209619 0 0.20246380172518069 0.33207775862557459 0 0.2239931418498709 0.33095429160597117 0 0.2394455710732217 0.30574523459309888 0 0.2107754932264389 0.30513362982209619 0 0.2239931418498709 0.33095429160597117 0 0.2239931418498709 0.33095429160597117 0 0.2454689184953523 0.33299516578207861 0 0.23248337455696941 0.35349043158853349 0 0.2394455710732217 0.30574523459309888 0 0.2239931418498709 0.33095429160597117 0 0.2454689184953523 0.33299516578207861 0 0.2394455710732217 0.30574523459309888 0 0.2454689184953523 0.33299516578207861 0 0.2394455710732217 0.30574523459309888 0 0.2454689184953523 0.33299516578207861 0 0.25864653808041699 0.31952650183570891 0 0.2370211774675805 0.37132690479369718 0 0.24297227537151611 0.35971761932143348 0 0.25394230299404891 0.36481273975362088 0 0.2370211774675805 0.37132690479369718 0 0.24297227537151611 0.35971761932143348 0 0.23248337455696941 0.35349043158853349 0 0.24297227537151611 0.35971761932143348 0 0.24844224646746579 0.34924040114988247 0 0.23248337455696941 0.35349043158853349 0 0.24297227537151611 0.35971761932143348 0 0.24844224646746579 0.34924040114988247 0 0.25394230299404891 0.36481273975362088 0 0.2454689184953523 0.33299516578207861 0 0.24844224646746579 0.34924040114988247 0 0.23248337455696941 0.35349043158853349 0 0.2239931418498709 0.33095429160597117 0 0.23248337455696941 0.35349043158853349 0 0.21332169202206211 0.35628352922444562 0 0.23248337455696941 0.35349043158853349 0 0.2201698489240832 0.37439634841466579 0 0.21332169202206211 0.35628352922444562 0 0.2370211774675805 0.37132690479369718 0 0.23248337455696941 0.35349043158853349 0 0.2201698489240832 0.37439634841466579 0 0.2201698489240832 0.37439634841466579 0 0.21332169202206211 0.35628352922444562 0 0.20007308810842411 0.37560243791244191 0 0.20246380172518069 0.33207775862557459 0 0.21332169202206211 0.35628352922444562 0 0.19415211022392259 0.35902188742905311 0 0.20246380172518069 0.33207775862557459 0 0.19415211022392259 0.35902188742905311 0 0.21332169202206211 0.35628352922444562 0 0.19415211022392259 0.35902188742905311 0 0.20007308810842411 0.37560243791244191 0 0.19415211022392259 0.35902188742905311 0 0.18584041872266441 0.38596601623253157 0 0.19415211022392259 0.35902188742905311 0 0.18584041872266441 0.38596601623253157 0 0.20007308810842411 0.37560243791244191 0 0.19415211022392259 0.35902188742905311 0 0.17167540581287261 0.36976794190561918 0 0.17669112401328971 0.35216725864740689 0 0.19415211022392259 0.35902188742905311 0 0.17167540581287261 0.36976794190561918 0 0.18584041872266441 0.38596601623253157 0 0.17167540581287261 0.36976794190561918 0 0.15132804857243529 0.36056894371592002 0 0.15422463119154151 0.37669985912889631 0 0.17167540581287261 0.36976794190561918 0 0.16180144763630799 0.34774570223248302 0 0.17167540581287261 0.36976794190561918 0 0.16180144763630799 0.34774570223248302 0 0.15132804857243529 0.36056894371592002 0 0.17167540581287261 0.36976794190561918 0 0.16180144763630799 0.34774570223248302 0 0.17669112401328971 0.35216725864740689 0 0.16180144763630799 0.34774570223248302 0 0.17669112401328971 0.35216725864740689 0 0.1791355323800557 0.33213350302247219 0 0.19415211022392259 0.35902188742905311 0 0.17669112401328971 0.35216725864740689 0 0.1791355323800557 0.33213350302247219 0 0.16250351331840179 0.30814994869833129 0 0.18531889412298269 0.31050112106205541 0 0.1791355323800557 0.33213350302247219 0 0.16250351331840179 0.30814994869833129 0 0.1791355323800557 0.33213350302247219 0 0.15192748945974341 0.32572346255934692 0 0.16180144763630799 0.34774570223248302 0 0.1791355323800557 0.33213350302247219 0 0.15192748945974341 0.32572346255934692 0 0.16180144763630799 0.34774570223248302 0 0.15192748945974341 0.32572346255934692 0 0.14482558642214061 0.34347303330335471 0 0.15192748945974341 0.32572346255934692 0 0.1351614505925828 0.32566452384973299 0 0.16180144763630799 0.34774570223248302 0 0.14482558642214061 0.34347303330335471 0 0.15192748945974341 0.32572346255934692 0 0.1420535312831788 0.30370122288621071 0 0.15192748945974341 0.32572346255934692 0 0.1351614505925828 0.32566452384973299 0 0.1420535312831788 0.30370122288621071 0 0.15192748945974341 0.32572346255934692 0 0.1420535312831788 0.30370122288621071 0 0.16250351331840179 0.30814994869833129 0 0.15192748945974341 0.32572346255934692 0 0.1206524267137455 0.32090530207489321 0 0.1201181910945453 0.30562544222776822 0 0.1351614505925828 0.32566452384973299 0 0.12281848077957019 0.33421532983287111 0 0.1206524267137455 0.32090530207489321 0 0.1351614505925828 0.32566452384973299 0 0.12281848077957019 0.33421532983287111 0 0.1351614505925828 0.32566452384973299 0 0.13027273949695431 0.34277953616422518 0 0.14482558642214061 0.34347303330335471 0 0.1351614505925828 0.32566452384973299 0 0.13027273949695431 0.34277953616422518 0 0.1241504179284315 0.35288496313607332 0 0.13027273949695431 0.34277953616422518 0 0.13545449267586809 0.35619314606974151 0 0.14482558642214061 0.34347303330335471 0 0.13027273949695431 0.34277953616422518 0 0.13545449267586809 0.35619314606974151 0 0.1215512558684622 0.36595836608706361 0 0.1241504179284315 0.35288496313607332 0 0.13545449267586809 0.35619314606974151 0 0.1215512558684622 0.36595836608706361 0 0.139986727695881 0.36953397965542539 0 0.13138772087626019 0.37812614026938463 0 0.1215512558684622 0.36595836608706361 0 0.13545449267586809 0.35619314606974151 0 0.139986727695881 0.36953397965542539 0 0.139986727695881 0.36953397965542539 0 0.15132804857243529 0.36056894371592002 0 0.15422463119154151 0.37669985912889631 0 0.13545449267586809 0.35619314606974151 0 0.139986727695881 0.36953397965542539 0 0.15132804857243529 0.36056894371592002 0 0.16180144763630799 0.34774570223248302 0 0.14482558642214061 0.34347303330335471 0 0.15132804857243529 0.36056894371592002 0 0.14482558642214061 0.34347303330335471 0 0.13545449267586809 0.35619314606974151 0 0.15132804857243529 0.36056894371592002 0 0.1496675682766708 0.39414314697302871 0 0.13418602820775741 0.40313379217244372 0 0.1452569082643346 0.40965943108464969 0 0.1496675682766708 0.39414314697302871 0 0.1452569082643346 0.40965943108464969 0 0.15675359399990599 0.40792212856322552 0 0.1496675682766708 0.39414314697302871 0 0.142136108686611 0.38125635915448158 0 0.132607518400917 0.38963698308052819 0 0.1496675682766708 0.39414314697302871 0 0.15422463119154151 0.37669985912889631 0 0.142136108686611 0.38125635915448158 0 0.139986727695881 0.36953397965542539 0 0.15422463119154151 0.37669985912889631 0 0.142136108686611 0.38125635915448158 0 0.142136108686611 0.38125635915448158 0 0.13138772087626019 0.37812614026938463 0 0.132607518400917 0.38963698308052819 0 0.139986727695881 0.36953397965542539 0 0.142136108686611 0.38125635915448158 0 0.13138772087626019 0.37812614026938463 0 0.1194340488193734 0.38033472956039038 0 0.13138772087626019 0.37812614026938463 0 0.132607518400917 0.38963698308052819 0 0.1203180836575399 0.39967915207094268 0 0.132607518400917 0.38963698308052819 0 0.13418602820775741 0.40313379217244372 0 0.1203180836575399 0.39967915207094268 0 0.13418602820775741 0.40313379217244372 0 0.12781600942087709 0.41555115111893742 0 0.1496675682766708 0.39414314697302871 0 0.132607518400917 0.38963698308052819 0 0.13418602820775741 0.40313379217244372 0 0.12781600942087709 0.41555115111893742 0 0.14037239770940571 0.42130305985621719 0 0.1452569082643346 0.40965943108464969 0 0.13418602820775741 0.40313379217244372 0 0.12781600942087709 0.41555115111893742 0 0.1452569082643346 0.40965943108464969 0 0.1170740328704841 0.43168847647933262 0 0.12781600942087709 0.41555115111893742 0 0.1313409392121638 0.42960361563218502 0 0.1170740328704841 0.43168847647933262 0 0.1313409392121638 0.42960361563218502 0 0.12833955995714269 0.44449741783037278 0 0.12781600942087709 0.41555115111893742 0 0.14037239770940571 0.42130305985621719 0 0.1313409392121638 0.42960361563218502 0 0.14037239770940571 0.42130305985621719 0 0.1313409392121638 0.42960361563218502 0 0.14390344196443899 0.43563871235113338 0 0.1313409392121638 0.42960361563218502 0 0.14390344196443899 0.43563871235113338 0 0.12833955995714269 0.44449741783037278 0 0.14390344196443899 0.43563871235113338 0 0.1573882698205562 0.41923393857451008 0 0.1632230392788353 0.43499734836986642 0 0.14037239770940571 0.42130305985621719 0 0.14390344196443899 0.43563871235113338 0 0.1573882698205562 0.41923393857451008 0 0.14037239770940571 0.42130305985621719 0 0.1452569082643346 0.40965943108464969 0 0.1573882698205562 0.41923393857451008 0 0.1452569082643346 0.40965943108464969 0 0.15675359399990599 0.40792212856322552 0 0.1573882698205562 0.41923393857451008 0 0.15675359399990599 0.40792212856322552 0 0.1573882698205562 0.41923393857451008 0 0.1665889656525085 0.41025926221760323 0 0.1573882698205562 0.41923393857451008 0 0.1665889656525085 0.41025926221760323 0 0.17466736985772541 0.42054209691201611 0 0.1573882698205562 0.41923393857451008 0 0.1632230392788353 0.43499734836986642 0 0.17466736985772541 0.42054209691201611 0 0.17888803403657619 0.43597312645714043 0 0.17466736985772541 0.42054209691201611 0 0.19299760997072349 0.42894310143441361 0 0.1632230392788353 0.43499734836986642 0 0.17888803403657619 0.43597312645714043 0 0.17466736985772541 0.42054209691201611 0 0.17466736985772541 0.42054209691201611 0 0.1771726965224367 0.40471817967881668 0 0.18816447044720691 0.41007433269823379 0 0.1665889656525085 0.41025926221760323 0 0.17466736985772541 0.42054209691201611 0 0.1771726965224367 0.40471817967881668 0 0.17466736985772541 0.42054209691201611 0 0.18816447044720691 0.41007433269823379 0 0.19299760997072349 0.42894310143441361 0 0.18518595693522491 0.3999740157209602 0 0.1771726965224367 0.40471817967881668 0 0.18816447044720691 0.41007433269823379 0 0.18518595693522491 0.3999740157209602 0 0.18154936398943719 0.39179018157875539 0 0.17319551317807119 0.39616689551294121 0 0.18518595693522491 0.3999740157209602 0 0.18154936398943719 0.39179018157875539 0 0.18911912157033101 0.39239441879734588 0 0.18154936398943719 0.39179018157875539 0 0.17319551317807119 0.39616689551294121 0 0.16786316400003301 0.38470188896309793 0 0.18518595693522491 0.3999740157209602 0 0.17319551317807119 0.39616689551294121 0 0.1771726965224367 0.40471817967881668 0 0.1665889656525085 0.41025926221760323 0 0.1771726965224367 0.40471817967881668 0 0.16446589030360859 0.39973566738991811 0 0.1496675682766708 0.39414314697302871 0 0.16446589030360859 0.39973566738991811 0 0.16786316400003301 0.38470188896309793 0 0.17319551317807119 0.39616689551294121 0 0.1771726965224367 0.40471817967881668 0 0.16446589030360859 0.39973566738991811 0 0.17319551317807119 0.39616689551294121 0 0.16446589030360859 0.39973566738991811 0 0.16786316400003301 0.38470188896309793 0 0.1496675682766708 0.39414314697302871 0 0.15675359399990599 0.40792212856322552 0 0.16446589030360859 0.39973566738991811 0 0.15675359399990599 0.40792212856322552 0 0.1665889656525085 0.41025926221760323 0 0.16446589030360859 0.39973566738991811 0 0.1496675682766708 0.39414314697302871 0 0.15422463119154151 0.37669985912889631 0 0.16786316400003301 0.38470188896309793 0 0.17167540581287261 0.36976794190561918 0 0.15422463119154151 0.37669985912889631 0 0.16786316400003301 0.38470188896309793 0 0.17167540581287261 0.36976794190561918 0 0.18154936398943719 0.39179018157875539 0 0.16786316400003301 0.38470188896309793 0 0.17167540581287261 0.36976794190561918 0 0.18154936398943719 0.39179018157875539 0 0.18584041872266441 0.38596601623253157 0 0.17167540581287261 0.36976794190561918 0 0.18154936398943719 0.39179018157875539 0 0.18154936398943719 0.39179018157875539 0 0.18584041872266441 0.38596601623253157 0 0.18911912157033101 0.39239441879734588 0 0.18584041872266441 0.38596601623253157 0 0.19676806134861111 0.38601843132735342 0 0.20007308810842411 0.37560243791244191 0 0.18584041872266441 0.38596601623253157 0 0.19676806134861111 0.38601843132735342 0 0.18911912157033101 0.39239441879734588 0 0.19676806134861111 0.38601843132735342 0 0.20007308810842411 0.37560243791244191 0 0.20878315660213351 0.39090300457762972 0 0.18518595693522491 0.3999740157209602 0 0.1962518068557175 0.3982234491271292 0 0.18816447044720691 0.41007433269823379 0 0.19676806134861111 0.38601843132735342 0 0.18911912157033101 0.39239441879734588 0 0.1962518068557175 0.3982234491271292 0 0.18518595693522491 0.3999740157209602 0 0.18911912157033101 0.39239441879734588 0 0.1962518068557175 0.3982234491271292 0 0.19676806134861111 0.38601843132735342 0 0.1962518068557175 0.3982234491271292 0 0.20878315660213351 0.39090300457762972 0 0.1962518068557175 0.3982234491271292 0 0.21071164734846251 0.40370780489528918 0 0.19929076541172411 0.41147689564886158 0 0.1962518068557175 0.3982234491271292 0 0.21071164734846251 0.40370780489528918 0 0.20878315660213351 0.39090300457762972 0 0.20878315660213351 0.39090300457762972 0 0.22002507237070221 0.3930713538446261 0 0.2236589749022968 0.40392847874407117 0 0.20878315660213351 0.39090300457762972 0 0.2236589749022968 0.40392847874407117 0 0.21071164734846251 0.40370780489528918 0 0.20878315660213351 0.39090300457762972 0 0.2236589749022968 0.40392847874407117 0 0.2201698489240832 0.37439634841466579 0 0.20878315660213351 0.39090300457762972 0 0.22002507237070221 0.3930713538446261 0 0.2201698489240832 0.37439634841466579 0 0.20007308810842411 0.37560243791244191 0 0.20878315660213351 0.39090300457762972 0 0.2370211774675805 0.37132690479369718 0 0.2201698489240832 0.37439634841466579 0 0.2320758216158629 0.38354199333675582 0 0.2201698489240832 0.37439634841466579 0 0.22002507237070221 0.3930713538446261 0 0.2299315049556451 0.39881112754498299 0 0.2201698489240832 0.37439634841466579 0 0.2320758216158629 0.38354199333675582 0 0.2299315049556451 0.39881112754498299 0 0.2201698489240832 0.37439634841466579 0 0.2299315049556451 0.39881112754498299 0 0.22002507237070221 0.3930713538446261 0 0.2236589749022968 0.40392847874407117 0 0.2299315049556451 0.39881112754498299 0 0.2236589749022968 0.40392847874407117 0 0.2299315049556451 0.39881112754498299 0 0.23278840206314511 0.40595648399393641 0 0.2236589749022968 0.40392847874407117 0 0.2299315049556451 0.39881112754498299 0 0.2299315049556451 0.39881112754498299 0 0.23278840206314511 0.40595648399393641 0 0.24393525328276799 0.40528879513673549 0 0.2411807551161439 0.3896335925936788 0 0.25314420297372742 0.39247025927106799 0 0.2299315049556451 0.39881112754498299 0 0.23278840206314511 0.40595648399393641 0 0.2411807551161439 0.3896335925936788 0 0.23278840206314511 0.40595648399393641 0 0.2411807551161439 0.3896335925936788 0 0.2299315049556451 0.39881112754498299 0 0.2411807551161439 0.3896335925936788 0 0.2320758216158629 0.38354199333675582 0 0.2299315049556451 0.39881112754498299 0 0.2411807551161439 0.3896335925936788 0 0.23278840206314511 0.40595648399393641 0 0.24393525328276799 0.40528879513673549 0 0.2411807551161439 0.3896335925936788 0 0.2411807551161439 0.3896335925936788 0 0.25314334787165499 0.37987408759952229 0 0.25314420297372742 0.39247025927106799 0 0.2370211774675805 0.37132690479369718 0 0.2320758216158629 0.38354199333675582 0 0.2411807551161439 0.3896335925936788 0 0.2411807551161439 0.3896335925936788 0 0.25314334787165499 0.37987408759952229 0 0.2411807551161439 0.3896335925936788 0 0.25394230299404891 0.36481273975362088 0 0.2411807551161439 0.3896335925936788 0 0.25314334787165499 0.37987408759952229 0 0.25394230299404891 0.36481273975362088 0 0.2370211774675805 0.37132690479369718 0 0.2411807551161439 0.3896335925936788 0 0.25394230299404891 0.36481273975362088 0 0.23942151337646869 0.42254649158466079 0 0.24474381359656311 0.42239065784400848 0 0.23942151337646869 0.42254649158466079 0 0.23199789028250981 0.43211807393296459 0 0.24548908583661169 0.43772203567191398 0 0.23942151337646869 0.42254649158466079 0 0.24548908583661169 0.43772203567191398 0 0.23942151337646869 0.42254649158466079 0 0.24474381359656311 0.42239065784400848 0 0.24548908583661169 0.43772203567191398 0 0.24393525328276799 0.40528879513673549 0 0.24474381359656311 0.42239065784400848 0 0.25579149269752532 0.40713730078508881 0 0.24393525328276799 0.40528879513673549 0 0.24474381359656311 0.42239065784400848 0 0.23645861860452749 0.41513602544966882 0 0.23278840206314511 0.40595648399393641 0 0.23645861860452749 0.41513602544966882 0 0.23278840206314511 0.40595648399393641 0 0.24393525328276799 0.40528879513673549 0 0.23645861860452749 0.41513602544966882 0 0.24474381359656311 0.42239065784400848 0 0.23645861860452749 0.41513602544966882 0 0.23942151337646869 0.42254649158466079 0 0.24474381359656311 0.42239065784400848 0 0.23645861860452749 0.41513602544966882 0 0.23942151337646869 0.42254649158466079 0 0.23645861860452749 0.41513602544966882 0 0.23645861860452749 0.41513602544966882 0 0.23067329237389439 0.41007031304037472 0 0.22402696435761399 0.42299723469573591 0 0.23067329237389439 0.41007031304037472 0 0.22402696435761399 0.42299723469573591 0 0.23942151337646869 0.42254649158466079 0 0.23645861860452749 0.41513602544966882 0 0.22402696435761399 0.42299723469573591 0 0.2236589749022968 0.40392847874407117 0 0.23278840206314511 0.40595648399393641 0 0.23067329237389439 0.41007031304037472 0 0.23278840206314511 0.40595648399393641 0 0.23645861860452749 0.41513602544966882 0 0.23067329237389439 0.41007031304037472 0 0.23278840206314511 0.40595648399393641 0 0.23067329237389439 0.41007031304037472 0 0.23645861860452749 0.41513602544966882 0 0.23067329237389439 0.41007031304037472 0 0.2236589749022968 0.40392847874407117 0 0.23067329237389439 0.41007031304037472 0 0.23067329237389439 0.41007031304037472 0 0.22134008537753919 0.4128164645734218 0 0.2216025250848595 0.41793685588327201 0 0.2236589749022968 0.40392847874407117 0 0.23067329237389439 0.41007031304037472 0 0.22134008537753919 0.4128164645734218 0 0.23067329237389439 0.41007031304037472 0 0.2216025250848595 0.41793685588327201 0 0.22402696435761399 0.42299723469573591 0 0.2216025250848595 0.41793685588327201 0 0.2202317185629262 0.42310835720375539 0 0.22402696435761399 0.42299723469573591 0 0.2202317185629262 0.42310835720375539 0 0.22402696435761399 0.42299723469573591 0 0.2131799050921698 0.4440944608591133 0 0.22402696435761399 0.42299723469573591 0 0.23199789028250981 0.43211807393296459 0 0.2131799050921698 0.4440944608591133 0 0.2202317185629262 0.42310835720375539 0 0.22402696435761399 0.42299723469573591 0 0.23942151337646869 0.42254649158466079 0 0.22402696435761399 0.42299723469573591 0 0.23199789028250981 0.43211807393296459 0 0.23942151337646869 0.42254649158466079 0 0.22402696435761399 0.42299723469573591 0 0.22402696435761399 0.42299723469573591 0 0.2131799050921698 0.4440944608591133 0 0.2202317185629262 0.42310835720375539 0 0.20590986726505001 0.43136005710934883 0 0.2131799050921698 0.4440944608591133 0 0.2202317185629262 0.42310835720375539 0 0.20590986726505001 0.43136005710934883 0 0.20832829243651019 0.41643579008924247 0 0.21071164734846251 0.40370780489528918 0 0.2236589749022968 0.40392847874407117 0 0.20832829243651019 0.41643579008924247 0 0.2236589749022968 0.40392847874407117 0 0.22134008537753919 0.4128164645734218 0 0.20832829243651019 0.41643579008924247 0 0.2236589749022968 0.40392847874407117 0 0.20832829243651019 0.41643579008924247 0 0.2216025250848595 0.41793685588327201 0 0.2202317185629262 0.42310835720375539 0 0.20832829243651019 0.41643579008924247 0 0.22134008537753919 0.4128164645734218 0 0.2216025250848595 0.41793685588327201 0 0.20832829243651019 0.41643579008924247 0 0.21071164734846251 0.40370780489528918 0 0.20832829243651019 0.41643579008924247 0 0.19929076541172411 0.41147689564886158 0 0.20832829243651019 0.41643579008924247 0 0.19929076541172411 0.41147689564886158 0 0.19299760997072349 0.42894310143441361 0 0.19929076541172411 0.41147689564886158 0 0.18816447044720691 0.41007433269823379 0 0.19299760997072349 0.42894310143441361 0 0.1962518068557175 0.3982234491271292 0 0.19929076541172411 0.41147689564886158 0 0.18816447044720691 0.41007433269823379 0 0.20590986726505001 0.43136005710934883 0 0.19299760997072349 0.42894310143441361 0 0.19196548009154099 0.44520825942104109 0 0.17888803403657619 0.43597312645714043 0 0.19299760997072349 0.42894310143441361 0 0.19196548009154099 0.44520825942104109 0 0.20590986726505001 0.43136005710934883 0 0.20832829243651019 0.41643579008924247 0 0.19299760997072349 0.42894310143441361 0 0.20832829243651019 0.41643579008924247 0 0.19299760997072349 0.42894310143441361 0 0.19196548009154099 0.44520825942104109 0 0.20233284582672731 0.4651916870224917 0 0.2131799050921698 0.4440944608591133 0 0.20233284582672731 0.4651916870224917 0 0.183857337286888 0.47772808772466158 0 0.1795872190045435 0.46153147164868158 0 0.19196548009154099 0.44520825942104109 0 0.20233284582672731 0.4651916870224917 0 0.1795872190045435 0.46153147164868158 0 0.20233284582672731 0.4651916870224917 0 0.21684940292396521 0.46221756045754142 0 0.2131799050921698 0.4440944608591133 0 0.20233284582672731 0.4651916870224917 0 0.2131799050921698 0.4440944608591133 0 0.20590986726505001 0.43136005710934883 0 0.19196548009154099 0.44520825942104109 0 0.2131799050921698 0.4440944608591133 0 0.2131799050921698 0.4440944608591133 0 0.2299556704592508 0.44405770151028068 0 0.22880102882489681 0.45499218030166111 0 0.23199789028250981 0.43211807393296459 0 0.2131799050921698 0.4440944608591133 0 0.2299556704592508 0.44405770151028068 0 0.23199789028250981 0.43211807393296459 0 0.2299556704592508 0.44405770151028068 0 0.23769332233971199 0.44491367700753143 0 0.2299556704592508 0.44405770151028068 0 0.22880102882489681 0.45499218030166111 0 0.23769332233971199 0.44491367700753143 0 0.21684940292396521 0.46221756045754142 0 0.2131799050921698 0.4440944608591133 0 0.22880102882489681 0.45499218030166111 0 0.21684940292396521 0.46221756045754142 0 0.23021453479509721 0.4676923165863256 0 0.22880102882489681 0.45499218030166111 0 0.23021453479509721 0.4676923165863256 0 0.22880102882489681 0.45499218030166111 0 0.24069868756813551 0.45643669354852762 0 0.23021453479509721 0.4676923165863256 0 0.24069868756813551 0.45643669354852762 0 0.24518639840896481 0.46758255004467147 0 0.24069868756813551 0.45643669354852762 0 0.24518639840896481 0.46758255004467147 0 0.25155665829675389 0.45289757975916739 0 0.24069868756813551 0.45643669354852762 0 0.24642746919377581 0.44723693118904873 0 0.25155665829675389 0.45289757975916739 0 0.24642746919377581 0.44723693118904873 0 0.25155665829675389 0.45289757975916739 0 0.24642746919377581 0.44723693118904873 0 0.24548908583661169 0.43772203567191398 0 0.25155665829675389 0.45289757975916739 0 0.24642746919377581 0.44723693118904873 0 0.24548908583661169 0.43772203567191398 0 0.23769332233971199 0.44491367700753143 0 0.24548908583661169 0.43772203567191398 0 0.25155665829675389 0.45289757975916739 0 0.23199789028250981 0.43211807393296459 0 0.24548908583661169 0.43772203567191398 0 0.23769332233971199 0.44491367700753143 0 0.24069868756813551 0.45643669354852762 0 0.24642746919377581 0.44723693118904873 0 0.23769332233971199 0.44491367700753143 0 0.22880102882489681 0.45499218030166111 0 0.24069868756813551 0.45643669354852762 0 0.23769332233971199 0.44491367700753143 0 0.2398325059885206 0.5 0 0.23628034781608789 0.48264598003643883 0 0.25368341011621393 0.4881268551652318 0 0.2487687977550066 0.47804575662544457 0 0.23628034781608789 0.48264598003643883 0 0.25368341011621393 0.4881268551652318 0 0.24518639840896481 0.46758255004467147 0 0.2487687977550066 0.47804575662544457 0 0.23628034781608789 0.48264598003643883 0 0.23021453479509721 0.4676923165863256 0 0.24518639840896481 0.46758255004467147 0 0.23628034781608789 0.48264598003643883 0 0.23021453479509721 0.4676923165863256 0 0.23628034781608789 0.48264598003643883 0 0.2109187140025125 0.47967605904858979 0 0.21684940292396521 0.46221756045754142 0 0.23021453479509721 0.4676923165863256 0 0.2109187140025125 0.47967605904858979 0 0.2398325059885206 0.5 0 0.23628034781608789 0.48264598003643883 0 0.21263036450174291 0.5 0 0.23628034781608789 0.48264598003643883 0 0.21263036450174291 0.5 0 0.2109187140025125 0.47967605904858979 0 0.20233284582672731 0.4651916870224917 0 0.21684940292396521 0.46221756045754142 0 0.2109187140025125 0.47967605904858979 0 0.20233284582672731 0.4651916870224917 0 0.2109187140025125 0.47967605904858979 0 0.183857337286888 0.47772808772466158 0 0.21263036450174291 0.5 0 0.2109187140025125 0.47967605904858979 0 0.18542822301496531 0.5 0 0.2109187140025125 0.47967605904858979 0 0.18542822301496531 0.5 0 0.183857337286888 0.47772808772466158 0 0.15822608152818771 0.5 0 0.183857337286888 0.47772808772466158 0 0.16105229534682841 0.46858260888287467 0 0.18542822301496531 0.5 0 0.15822608152818771 0.5 0 0.183857337286888 0.47772808772466158 0 0.183857337286888 0.47772808772466158 0 0.1795872190045435 0.46153147164868158 0 0.16105229534682841 0.46858260888287467 0 0.17888803403657619 0.43597312645714043 0 0.19196548009154099 0.44520825942104109 0 0.16984175215831609 0.44912481257094022 0 0.19196548009154099 0.44520825942104109 0 0.1795872190045435 0.46153147164868158 0 0.16984175215831609 0.44912481257094022 0 0.1632230392788353 0.43499734836986642 0 0.17888803403657619 0.43597312645714043 0 0.16984175215831609 0.44912481257094022 0 0.1632230392788353 0.43499734836986642 0 0.16984175215831609 0.44912481257094022 0 0.1542567085900021 0.44911316372242882 0 0.1795872190045435 0.46153147164868158 0 0.16984175215831609 0.44912481257094022 0 0.16105229534682841 0.46858260888287467 0 0.16984175215831609 0.44912481257094022 0 0.16105229534682841 0.46858260888287467 0 0.1542567085900021 0.44911316372242882 0 0.16105229534682841 0.46858260888287467 0 0.1542567085900021 0.44911316372242882 0 0.14008001498104899 0.45959176421368703 0 0.14390344196443899 0.43563871235113338 0 0.1632230392788353 0.43499734836986642 0 0.1542567085900021 0.44911316372242882 0 0.14390344196443899 0.43563871235113338 0 0.1542567085900021 0.44911316372242882 0 0.14008001498104899 0.45959176421368703 0 0.14390344196443899 0.43563871235113338 0 0.12833955995714269 0.44449741783037278 0 0.14008001498104899 0.45959176421368703 0 0.1222622412711864 0.4755845255466612 0 0.14008001498104899 0.45959176421368703 0 0.12536459222705171 0.4583953366830199 0 0.12833955995714269 0.44449741783037278 0 0.14008001498104899 0.45959176421368703 0 0.12536459222705171 0.4583953366830199 0 0.15822608152818771 0.5 0 0.16105229534682841 0.46858260888287467 0 0.14327125125816459 0.48294679567054938 0 0.1222622412711864 0.4755845255466612 0 0.14008001498104899 0.45959176421368703 0 0.14327125125816459 0.48294679567054938 0 0.1222622412711864 0.4755845255466612 0 0.13102394004140999 0.5 0 0.14327125125816459 0.48294679567054938 0 0.15822608152818771 0.5 0 0.13102394004140999 0.5 0 0.14327125125816459 0.48294679567054938 0 0.16105229534682841 0.46858260888287467 0 0.14008001498104899 0.45959176421368703 0 0.14327125125816459 0.48294679567054938 0 0.34693622462573331 0.47457225947559301 0 0.35097798675009417 0.5 0 0.33639834718335332 0.48754022779893369 0 0.34693622462573331 0.47457225947559301 0 0.35097798675009417 0.5 0 0.36847450319352298 0.48294934119052801 0 0.35097798675009417 0.5 0 0.36847450319352298 0.48294934119052801 0 0.37934858564410329 0.5 0 0.34693622462573331 0.47457225947559301 0 0.36847450319352298 0.48294934119052801 0 0.36594377947691459 0.46125276186725639 0 0.36847450319352298 0.48294934119052801 0 0.36594377947691459 0.46125276186725639 0 0.38253759726783881 0.47260425120240018 0 0.36594377947691459 0.46125276186725639 0 0.37148615013554831 0.4377505363325237 0 0.35277861264946342 0.44458952830731607 0 0.35277861264946342 0.44458952830731607 0 0.35005887662872331 0.45869061507068659 0 0.33457688976278188 0.4543479106325814 0 0.34693622462573331 0.47457225947559301 0 0.35005887662872331 0.45869061507068659 0 0.33457688976278188 0.4543479106325814 0 0.34693622462573331 0.47457225947559301 0 0.36594377947691459 0.46125276186725639 0 0.35005887662872331 0.45869061507068659 0 0.36594377947691459 0.46125276186725639 0 0.35277861264946342 0.44458952830731607 0 0.35005887662872331 0.45869061507068659 0 0.34693622462573331 0.47457225947559301 0 0.33457688976278188 0.4543479106325814 0 0.32613755602828759 0.47399219310159052 0 0.33457688976278188 0.4543479106325814 0 0.32205256624953071 0.4371961018789553 0 0.33982376669892272 0.43344962717467489 0 0.35277861264946342 0.44458952830731607 0 0.33457688976278188 0.4543479106325814 0 0.33982376669892272 0.43344962717467489 0 0.31238064252100772 0.45781685000880962 0 0.30676952554957959 0.44320933758303488 0 0.32205256624953071 0.4371961018789553 0 0.33457688976278188 0.4543479106325814 0 0.31238064252100772 0.45781685000880962 0 0.32205256624953071 0.4371961018789553 0 0.33457688976278188 0.4543479106325814 0 0.32613755602828759 0.47399219310159052 0 0.31238064252100772 0.45781685000880962 0 0.32613755602828759 0.47399219310159052 0 0.32260738785608489 0.5 0 0.30544408285309971 0.47554066096607961 0 0.32613755602828759 0.47399219310159052 0 0.30544408285309971 0.47554066096607961 0 0.31238064252100772 0.45781685000880962 0 0.34693622462573331 0.47457225947559301 0 0.32613755602828759 0.47399219310159052 0 0.33639834718335332 0.48754022779893369 0 0.32613755602828759 0.47399219310159052 0 0.33639834718335332 0.48754022779893369 0 0.32260738785608489 0.5 0 0.35097798675009417 0.5 0 0.33639834718335332 0.48754022779893369 0 0.32260738785608489 0.5 0 0.32260738785608489 0.5 0 0.29423678896207578 0.49999999999999989 0 0.29460426804739059 0.48537111307203062 0 0.32260738785608489 0.5 0 0.30544408285309971 0.47554066096607961 0 0.29460426804739059 0.48537111307203062 0 0.30544408285309971 0.47554066096607961 0 0.29460426804739059 0.48537111307203062 0 0.29164945770415002 0.46346189461603537 0 0.30544408285309971 0.47554066096607961 0 0.29164945770415002 0.46346189461603537 0 0.28132601859714029 0.47172029164259432 0 0.29460426804739059 0.48537111307203062 0 0.29164945770415002 0.46346189461603537 0 0.28132601859714029 0.47172029164259432 0 0.29460426804739059 0.48537111307203062 0 0.28001007874030182 0.48429919325305582 0 0.29423678896207578 0.49999999999999989 0 0.27572692879270833 0.48947000901023818 0 0.28001007874030182 0.48429919325305582 0 0.29423678896207578 0.49999999999999989 0 0.28001007874030182 0.48429919325305582 0 0.29423678896207578 0.49999999999999989 0 0.29460426804739059 0.48537111307203062 0 0.28001007874030182 0.48429919325305582 0 0.29423678896207578 0.49999999999999989 0 0.26829341106076571 0.4947577027517055 0 0.27572692879270833 0.48947000901023818 0 0.29423678896207578 0.49999999999999989 0 0.26703464747529809 0.5 0 0.26829341106076571 0.4947577027517055 0 0.26829341106076571 0.4947577027517055 0 0.27572692879270833 0.48947000901023818 0 0.2694734906972957 0.48202388128208579 0 0.27572692879270833 0.48947000901023818 0 0.28001007874030182 0.48429919325305582 0 0.2694734906972957 0.48202388128208579 0 0.26829341106076571 0.4947577027517055 0 0.2694734906972957 0.48202388128208579 0 0.25992503467875999 0.4738276412554363 0 0.28132601859714029 0.47172029164259432 0 0.28001007874030182 0.48429919325305582 0 0.26578336851852769 0.46859838650611191 0 0.28001007874030182 0.48429919325305582 0 0.26578336851852769 0.46859838650611191 0 0.28001007874030182 0.48429919325305582 0 0.2694734906972957 0.48202388128208579 0 0.26578336851852769 0.46859838650611191 0 0.26829341106076571 0.4947577027517055 0 0.25992503467875999 0.4738276412554363 0 0.2694734906972957 0.48202388128208579 0 0.25992503467875999 0.4738276412554363 0 0.26578336851852769 0.46859838650611191 0 0.24518639840896481 0.46758255004467147 0 0.2487687977550066 0.47804575662544457 0 0.25992503467875999 0.4738276412554363 0 0.2487687977550066 0.47804575662544457 0 0.25992503467875999 0.4738276412554363 0 0.25368341011621393 0.4881268551652318 0 0.26829341106076571 0.4947577027517055 0 0.25992503467875999 0.4738276412554363 0 0.25368341011621393 0.4881268551652318 0 0.2398325059885206 0.5 0 0.26703464747529809 0.5 0 0.25368341011621393 0.4881268551652318 0 0.26703464747529809 0.5 0 0.26829341106076571 0.4947577027517055 0 0.25368341011621393 0.4881268551652318 0 0.24548908583661169 0.43772203567191398 0 0.25155665829675389 0.45289757975916739 0 0.26129932307588177 0.43688689305499989 0 0.26465928004265521 0.4513334910967815 0 0.25155665829675389 0.45289757975916739 0 0.26129932307588177 0.43688689305499989 0 0.25992503467875999 0.4738276412554363 0 0.25155665829675389 0.45289757975916739 0 0.26578336851852769 0.46859838650611191 0 0.25992503467875999 0.4738276412554363 0 0.25155665829675389 0.45289757975916739 0 0.26465928004265521 0.4513334910967815 0 0.25155665829675389 0.45289757975916739 0 0.26578336851852769 0.46859838650611191 0 0.25155665829675389 0.45289757975916739 0 0.26578336851852769 0.46859838650611191 0 0.24518639840896481 0.46758255004467147 0 0.25992503467875999 0.4738276412554363 0 0.25155665829675389 0.45289757975916739 0 0.27337115484874719 0.46124451058636828 0 0.2778548325552021 0.45138312826598942 0 0.29164945770415002 0.46346189461603537 0 0.26465928004265521 0.4513334910967815 0 0.27337115484874719 0.46124451058636828 0 0.2778548325552021 0.45138312826598942 0 0.26465928004265521 0.4513334910967815 0 0.27337115484874719 0.46124451058636828 0 0.26578336851852769 0.46859838650611191 0 0.28132601859714029 0.47172029164259432 0 0.27337115484874719 0.46124451058636828 0 0.26578336851852769 0.46859838650611191 0 0.27337115484874719 0.46124451058636828 0 0.2778548325552021 0.45138312826598942 0 0.2778548325552021 0.45138312826598942 0 0.26129932307588177 0.43688689305499989 0 0.2778548325552021 0.45138312826598942 0 0.27138415048367148 0.43231125374981461 0 0.26129932307588177 0.43688689305499989 0 0.26465928004265521 0.4513334910967815 0 0.2778548325552021 0.45138312826598942 0 0.26129932307588177 0.43688689305499989 0 0.2778548325552021 0.45138312826598942 0 0.28188359431773818 0.43583288661985292 0 0.27138415048367148 0.43231125374981461 0 0.2778548325552021 0.45138312826598942 0 0.28438478914729909 0.43702116857441198 0 0.2778548325552021 0.45138312826598942 0 0.28438478914729909 0.43702116857441198 0 0.28188359431773818 0.43583288661985292 0 0.2778548325552021 0.45138312826598942 0 0.29340963965345629 0.44858309532973212 0 0.28438478914729909 0.43702116857441198 0 0.29340963965345629 0.44858309532973212 0 0.29564467221206769 0.4362053175869598 0 0.28438478914729909 0.43702116857441198 0 0.28132601859714029 0.47172029164259432 0 0.27337115484874719 0.46124451058636828 0 0.29164945770415002 0.46346189461603537 0 0.2778548325552021 0.45138312826598942 0 0.29340963965345629 0.44858309532973212 0 0.29164945770415002 0.46346189461603537 0 0.2778548325552021 0.45138312826598942 0 0.29164945770415002 0.46346189461603537 0 0.30544408285309971 0.47554066096607961 0 0.29164945770415002 0.46346189461603537 0 0.31238064252100772 0.45781685000880962 0 0.29340963965345629 0.44858309532973212 0 0.29164945770415002 0.46346189461603537 0 0.31238064252100772 0.45781685000880962 0 0.29340963965345629 0.44858309532973212 0 0.31238064252100772 0.45781685000880962 0 0.30676952554957959 0.44320933758303488 0 0.29340963965345629 0.44858309532973212 0 0.30676952554957959 0.44320933758303488 0 0.29564467221206769 0.4362053175869598 0 0.30274466097060793 0.42955377756478552 0 0.29166143749170031 0.42101693811159963 0 0.31292249339663869 0.42039442721689341 0 0.30676952554957959 0.44320933758303488 0 0.30274466097060793 0.42955377756478552 0 0.32205256624953071 0.4371961018789553 0 0.30676952554957959 0.44320933758303488 0 0.30274466097060793 0.42955377756478552 0 0.29564467221206769 0.4362053175869598 0 0.29166143749170031 0.42101693811159963 0 0.30698797266596128 0.39921330460790411 0 0.31311357553422497 0.40977909982734378 0 0.29166143749170031 0.42101693811159963 0 0.31292249339663869 0.42039442721689341 0 0.29166143749170031 0.42101693811159963 0 0.31292249339663869 0.42039442721689341 0 0.31311357553422497 0.40977909982734378 0 0.29166143749170031 0.42101693811159963 0 0.30698797266596128 0.39921330460790411 0 0.29166143749170031 0.42101693811159963 0 0.30017460687967501 0.40229310834745502 0 0.30698797266596128 0.39921330460790411 0 0.29166143749170031 0.42101693811159963 0 0.30017460687967501 0.40229310834745502 0 0.29166143749170031 0.42101693811159963 0 0.28886439023062438 0.41238626499343622 0 0.30017460687967501 0.40229310834745502 0 0.29166143749170031 0.42101693811159963 0 0.29091474573939519 0.42265920888283409 0 0.26820262554413171 0.42170379797780411 0 0.29166143749170031 0.42101693811159963 0 0.28886439023062438 0.41238626499343622 0 0.26820262554413171 0.42170379797780411 0 0.28886439023062438 0.41238626499343622 0 0.29035504567914627 0.40486144828642368 0 0.30017460687967501 0.40229310834745502 0 0.29166143749170031 0.42101693811159963 0 0.29091474573939519 0.42265920888283409 0 0.28886439023062438 0.41238626499343622 0 0.28150470942058409 0.40706846872727681 0 0.29035504567914627 0.40486144828642368 0 0.29091474573939519 0.42265920888283409 0 0.28188359431773818 0.43583288661985292 0 0.27138415048367148 0.43231125374981461 0 0.29564467221206769 0.4362053175869598 0 0.29091474573939519 0.42265920888283409 0 0.28438478914729909 0.43702116857441198 0 0.30274466097060793 0.42955377756478552 0 0.29166143749170031 0.42101693811159963 0 0.29091474573939519 0.42265920888283409 0 0.30274466097060793 0.42955377756478552 0 0.29564467221206769 0.4362053175869598 0 0.29091474573939519 0.42265920888283409 0 0.29091474573939519 0.42265920888283409 0 0.28188359431773818 0.43583288661985292 0 0.29091474573939519 0.42265920888283409 0 0.28438478914729909 0.43702116857441198 0 0.29091474573939519 0.42265920888283409 0 0.28438478914729909 0.43702116857441198 0 0.28188359431773818 0.43583288661985292 0 0.29091474573939519 0.42265920888283409 0 0.27138415048367148 0.43231125374981461 0 0.26820262554413171 0.42170379797780411 0 0.27138415048367148 0.43231125374981461 0 0.26820262554413171 0.42170379797780411 0 0.26129932307588177 0.43688689305499989 0 0.29166143749170031 0.42101693811159963 0 0.26820262554413171 0.42170379797780411 0 0.28886439023062438 0.41238626499343622 0 0.28150470942058409 0.40706846872727681 0 0.26820262554413171 0.42170379797780411 0 0.28150470942058409 0.40706846872727681 0 0.26820262554413171 0.42170379797780411 0 0.26886497567274448 0.40604489845920272 0 0.24474381359656311 0.42239065784400848 0 0.26820262554413171 0.42170379797780411 0 0.25579149269752532 0.40713730078508881 0 0.26820262554413171 0.42170379797780411 0 0.25579149269752532 0.40713730078508881 0 0.26886497567274448 0.40604489845920272 0 0.24474381359656311 0.42239065784400848 0 0.24548908583661169 0.43772203567191398 0 0.26129932307588177 0.43688689305499989 0 0.24474381359656311 0.42239065784400848 0 0.26129932307588177 0.43688689305499989 0 0.24474381359656311 0.42239065784400848 0 0.26820262554413171 0.42170379797780411 0 0.26129932307588177 0.43688689305499989 0 0.24474381359656311 0.42239065784400848 0 0.26820262554413171 0.42170379797780411 0 0.25314334787165499 0.37987408759952229 0 0.26680258397668277 0.38590040179621249 0 0.26510594062716641 0.370114582605366 0 0.25314334787165499 0.37987408759952229 0 0.25314420297372742 0.39247025927106799 0 0.26680258397668277 0.38590040179621249 0 0.24393525328276799 0.40528879513673549 0 0.25579149269752532 0.40713730078508881 0 0.25314420297372742 0.39247025927106799 0 0.25579149269752532 0.40713730078508881 0 0.25314420297372742 0.39247025927106799 0 0.26319947357253448 0.39736294767583991 0 0.25579149269752532 0.40713730078508881 0 0.26319947357253448 0.39736294767583991 0 0.26886497567274448 0.40604489845920272 0 0.25314420297372742 0.39247025927106799 0 0.26319947357253448 0.39736294767583991 0 0.26680258397668277 0.38590040179621249 0 0.26319947357253448 0.39736294767583991 0 0.27611060552686612 0.39704246287421868 0 0.26680258397668277 0.38590040179621249 0 0.26319947357253448 0.39736294767583991 0 0.26886497567274448 0.40604489845920272 0 0.27611060552686612 0.39704246287421868 0 0.28150470942058409 0.40706846872727681 0 0.26886497567274448 0.40604489845920272 0 0.27611060552686612 0.39704246287421868 0 0.26680258397668277 0.38590040179621249 0 0.27616614449348048 0.3777404430444577 0 0.28156106580741602 0.38697947988758208 0 0.26680258397668277 0.38590040179621249 0 0.27616614449348048 0.3777404430444577 0 0.26510594062716641 0.370114582605366 0 0.27611060552686612 0.39704246287421868 0 0.26680258397668277 0.38590040179621249 0 0.28156106580741602 0.38697947988758208 0 0.27616614449348048 0.3777404430444577 0 0.28871039900549988 0.37555917609465361 0 0.28156106580741602 0.38697947988758208 0 0.28871039900549988 0.37555917609465361 0 0.28156106580741602 0.38697947988758208 0 0.29172386023598418 0.38658700998757273 0 0.28156106580741602 0.38697947988758208 0 0.29172386023598418 0.38658700998757273 0 0.28945175988548538 0.39712598278433642 0 0.29172386023598418 0.38658700998757273 0 0.29809422714143258 0.38059881660575418 0 0.29773688022759842 0.38978365905676471 0 0.28871039900549988 0.37555917609465361 0 0.29172386023598418 0.38658700998757273 0 0.29809422714143258 0.38059881660575418 0 0.28871039900549988 0.37555917609465361 0 0.29809422714143258 0.38059881660575418 0 0.30250787851490107 0.37000676135567989 0 0.28150470942058409 0.40706846872727681 0 0.28945175988548538 0.39712598278433642 0 0.29035504567914627 0.40486144828642368 0 0.28150470942058409 0.40706846872727681 0 0.27611060552686612 0.39704246287421868 0 0.28945175988548538 0.39712598278433642 0 0.27611060552686612 0.39704246287421868 0 0.28156106580741602 0.38697947988758208 0 0.28945175988548538 0.39712598278433642 0 0.29172386023598418 0.38658700998757273 0 0.28945175988548538 0.39712598278433642 0 0.29773688022759842 0.38978365905676471 0 0.28945175988548538 0.39712598278433642 0 0.30017460687967501 0.40229310834745502 0 0.29773688022759842 0.38978365905676471 0 0.28945175988548538 0.39712598278433642 0 0.29035504567914627 0.40486144828642368 0 0.30017460687967501 0.40229310834745502 0 0.30017460687967501 0.40229310834745502 0 0.30868777626764982 0.38356927858331052 0 0.30017460687967501 0.40229310834745502 0 0.29773688022759842 0.38978365905676471 0 0.30868777626764982 0.38356927858331052 0 0.30017460687967501 0.40229310834745502 0 0.30698797266596128 0.39921330460790411 0 0.30868777626764982 0.38356927858331052 0 0.29809422714143258 0.38059881660575418 0 0.30868777626764982 0.38356927858331052 0 0.30250787851490107 0.37000676135567989 0 0.29809422714143258 0.38059881660575418 0 0.29773688022759842 0.38978365905676471 0 0.30868777626764982 0.38356927858331052 0 0.30868777626764982 0.38356927858331052 0 0.32192758225719281 0.37742100005194129 0 0.31720094565562462 0.36484544881916592 0 0.30698797266596128 0.39921330460790411 0 0.30868777626764982 0.38356927858331052 0 0.32192758225719281 0.37742100005194129 0 0.32192758225719281 0.37742100005194129 0 0.33409208247187577 0.38958987858534821 0 0.32075152650337829 0.40045662771676782 0 0.30698797266596128 0.39921330460790411 0 0.32192758225719281 0.37742100005194129 0 0.32192758225719281 0.37742100005194129 0 0.33409208247187577 0.38958987858534821 0 0.35204519693651909 0.37479660688236721 0 0.32075152650337829 0.40045662771676782 0 0.3490120360131847 0.39816027277459087 0 0.33409208247187577 0.38958987858534821 0 0.32075152650337829 0.40045662771676782 0 0.3490120360131847 0.39816027277459087 0 0.32075152650337829 0.40045662771676782 0 0.33379662371854357 0.41978324526990968 0 0.3490120360131847 0.39816027277459087 0 0.30698797266596128 0.39921330460790411 0 0.32192758225719281 0.37742100005194129 0 0.32075152650337829 0.40045662771676782 0 0.30698797266596128 0.39921330460790411 0 0.32075152650337829 0.40045662771676782 0 0.31311357553422497 0.40977909982734378 0 0.31292249339663869 0.42039442721689341 0 0.33379662371854357 0.41978324526990968 0 0.32075152650337829 0.40045662771676782 0 0.31311357553422497 0.40977909982734378 0 0.33379662371854357 0.41978324526990968 0 0.31292249339663869 0.42039442721689341 0 0.31311357553422497 0.40977909982734378 0 0.33379662371854357 0.41978324526990968 0 0.30274466097060793 0.42955377756478552 0 0.31292249339663869 0.42039442721689341 0 0.32205256624953071 0.4371961018789553 0 0.31292249339663869 0.42039442721689341 0 0.32205256624953071 0.4371961018789553 0 0.33379662371854357 0.41978324526990968 0 0.32205256624953071 0.4371961018789553 0 0.33982376669892272 0.43344962717467489 0 0.33379662371854357 0.41978324526990968 0 0.33982376669892272 0.43344962717467489 0 0.33379662371854357 0.41978324526990968 0 0.35467075404044851 0.41917206332292622 0 0.33379662371854357 0.41978324526990968 0 0.35467075404044851 0.41917206332292622 0 0.3490120360131847 0.39816027277459087 0 0.35467075404044851 0.41917206332292622 0 0.3737836187820997 0.41560310484036878 0 0.3490120360131847 0.39816027277459087 0 0.33379662371854357 0.41978324526990968 0 0.35467075404044851 0.41917206332292622 0 0.35277861264946342 0.44458952830731607 0 0.33982376669892272 0.43344962717467489 0 0.35467075404044851 0.41917206332292622 0 0.37148615013554831 0.4377505363325237 0 0.35277861264946342 0.44458952830731607 0 0.35467075404044851 0.41917206332292622 0 0.37148615013554831 0.4377505363325237 0 0.35467075404044851 0.41917206332292622 0 0.3737836187820997 0.41560310484036878 0 0.3490120360131847 0.39816027277459087 0 0.37727254552299111 0.39586391783241393 0 0.3737836187820997 0.41560310484036878 0 0.3490120360131847 0.39816027277459087 0 0.37727254552299111 0.39586391783241393 0 0.35204519693651909 0.37479660688236721 0 0.38496469170863962 0.37540764118664621 0 0.37727254552299111 0.39586391783241393 0 0.3490120360131847 0.39816027277459087 0 0.35204519693651909 0.37479660688236721 0 0.37727254552299111 0.39586391783241393 0 0.33409208247187577 0.38958987858534821 0 0.3490120360131847 0.39816027277459087 0 0.35204519693651909 0.37479660688236721 0 0.35204519693651909 0.37479660688236721 0 0.37054653609375249 0.35981595266240718 0 0.38496469170863962 0.37540764118664621 0 0.35180680143965581 0.3338363909400156 0 0.33686719184842417 0.35562869549597848 0 0.35545997663923479 0.35235784866435549 0 0.35180680143965581 0.3338363909400156 0 0.33686719184842417 0.35562869549597848 0 0.35545997663923479 0.35235784866435549 0 0.35204519693651909 0.37479660688236721 0 0.37054653609375249 0.35981595266240718 0 0.35545997663923479 0.35235784866435549 0 0.35204519693651909 0.37479660688236721 0 0.33686719184842417 0.35562869549597848 0 0.35545997663923479 0.35235784866435549 0 0.37054653609375249 0.35981595266240718 0 0.3731482595333136 0.33854705678801322 0 0.3731482595333136 0.33854705678801322 0 0.35180680143965581 0.3338363909400156 0 0.36674641103088729 0.31204408638405262 0 0.35545997663923479 0.35235784866435549 0 0.3731482595333136 0.33854705678801322 0 0.35180680143965581 0.3338363909400156 0 0.35180680143965581 0.3338363909400156 0 0.34796677738875642 0.30144150454424667 0 0.36674641103088729 0.31204408638405262 0 0.3731482595333136 0.33854705678801322 0 0.36674641103088729 0.31204408638405262 0 0.38411701480547061 0.32402888265098978 0 0.35180680143965581 0.3338363909400156 0 0.36674641103088729 0.31204408638405262 0 0.33555011275652341 0.33870873722419431 0 0.32776799125697759 0.32257910583907118 0 0.32108335524537812 0.34525555285162202 0 0.35180680143965581 0.3338363909400156 0 0.33555011275652341 0.33870873722419431 0 0.32776799125697759 0.32257910583907118 0 0.35180680143965581 0.3338363909400156 0 0.32776799125697759 0.32257910583907118 0 0.34796677738875642 0.30144150454424667 0 0.35180680143965581 0.3338363909400156 0 0.33555011275652341 0.33870873722419431 0 0.33686719184842417 0.35562869549597848 0 0.32776799125697759 0.32257910583907118 0 0.32108335524537812 0.34525555285162202 0 0.30478732201858078 0.33510529745878243 0 0.32108335524537812 0.34525555285162202 0 0.31720094565562462 0.36484544881916592 0 0.30432656793613833 0.3546660322725399 0 0.32108335524537812 0.34525555285162202 0 0.33686719184842417 0.35562869549597848 0 0.31720094565562462 0.36484544881916592 0 0.33555011275652341 0.33870873722419431 0 0.32108335524537812 0.34525555285162202 0 0.33686719184842417 0.35562869549597848 0 0.32192758225719281 0.37742100005194129 0 0.35204519693651909 0.37479660688236721 0 0.33686719184842417 0.35562869549597848 0 0.32192758225719281 0.37742100005194129 0 0.33686719184842417 0.35562869549597848 0 0.32192758225719281 0.37742100005194129 0 0.33686719184842417 0.35562869549597848 0 0.31720094565562462 0.36484544881916592 0 0.30868777626764982 0.38356927858331052 0 0.31720094565562462 0.36484544881916592 0 0.30868777626764982 0.38356927858331052 0 0.31720094565562462 0.36484544881916592 0 0.30250787851490107 0.37000676135567989 0 0.31720094565562462 0.36484544881916592 0 0.30250787851490107 0.37000676135567989 0 0.30432656793613833 0.3546660322725399 0 0.30250787851490107 0.37000676135567989 0 0.30432656793613833 0.3546660322725399 0 0.2896828011088074 0.36165139586624112 0 0.30432656793613833 0.3546660322725399 0 0.28867689660433649 0.34817277294698862 0 0.30478732201858078 0.33510529745878243 0 0.32108335524537812 0.34525555285162202 0 0.30432656793613833 0.3546660322725399 0 0.30478732201858078 0.33510529745878243 0 0.28867689660433649 0.34817277294698862 0 0.2896828011088074 0.36165139586624112 0 0.27405037774650221 0.35783944922274907 0 0.30432656793613833 0.3546660322725399 0 0.28867689660433649 0.34817277294698862 0 0.2896828011088074 0.36165139586624112 0 0.28871039900549988 0.37555917609465361 0 0.30250787851490107 0.37000676135567989 0 0.2896828011088074 0.36165139586624112 0 0.28871039900549988 0.37555917609465361 0 0.2896828011088074 0.36165139586624112 0 0.27815081995124152 0.36823109315284891 0 0.27616614449348048 0.3777404430444577 0 0.28871039900549988 0.37555917609465361 0 0.27815081995124152 0.36823109315284891 0 0.2896828011088074 0.36165139586624112 0 0.27815081995124152 0.36823109315284891 0 0.27405037774650221 0.35783944922274907 0 0.27616614449348048 0.3777404430444577 0 0.27815081995124152 0.36823109315284891 0 0.26510594062716641 0.370114582605366 0 0.27815081995124152 0.36823109315284891 0 0.27405037774650221 0.35783944922274907 0 0.26510594062716641 0.370114582605366 0 0.28867689660433649 0.34817277294698862 0 0.27405037774650221 0.35783944922274907 0 0.26670385087195358 0.33999188691356302 0 0.24844224646746579 0.34924040114988247 0 0.25394230299404891 0.36481273975362088 0 0.26670385087195358 0.33999188691356302 0 0.25394230299404891 0.36481273975362088 0 0.26670385087195358 0.33999188691356302 0 0.27405037774650221 0.35783944922274907 0 0.25394230299404891 0.36481273975362088 0 0.26670385087195358 0.33999188691356302 0 0.27405037774650221 0.35783944922274907 0 0.25394230299404891 0.36481273975362088 0 0.26510594062716641 0.370114582605366 0 0.25314334787165499 0.37987408759952229 0 0.25394230299404891 0.36481273975362088 0 0.26510594062716641 0.370114582605366 0 0.25314334787165499 0.37987408759952229 0 0.26510594062716641 0.370114582605366 0 0.2454689184953523 0.33299516578207861 0 0.24844224646746579 0.34924040114988247 0 0.26670385087195358 0.33999188691356302 0 0.2454689184953523 0.33299516578207861 0 0.25864653808041699 0.31952650183570891 0 0.26670385087195358 0.33999188691356302 0 0.26670385087195358 0.33999188691356302 0 0.27946539874985821 0.31517103407350511 0 0.28874241230077019 0.3296350607405712 0 0.25864653808041699 0.31952650183570891 0 0.27946539874985821 0.31517103407350511 0 0.26214895121169918 0.30372918781629871 0 0.26670385087195358 0.33999188691356302 0 0.27946539874985821 0.31517103407350511 0 0.25864653808041699 0.31952650183570891 0 0.26670385087195358 0.33999188691356302 0 0.27946539874985821 0.31517103407350511 0 0.27946539874985821 0.31517103407350511 0 0.28874241230077019 0.3296350607405712 0 0.30407859325912162 0.30973431231001719 0 0.28867689660433649 0.34817277294698862 0 0.28874241230077019 0.3296350607405712 0 0.30478732201858078 0.33510529745878243 0 0.28867689660433649 0.34817277294698862 0 0.26670385087195358 0.33999188691356302 0 0.28874241230077019 0.3296350607405712 0 0.32776799125697759 0.32257910583907118 0 0.30478732201858078 0.33510529745878243 0 0.30407859325912162 0.30973431231001719 0 0.28874241230077019 0.3296350607405712 0 0.30478732201858078 0.33510529745878243 0 0.30407859325912162 0.30973431231001719 0 0.30407859325912162 0.30973431231001719 0 0.31103351558752351 0.28507064964630002 0 0.29222694662776277 0.29035018123344741 0 0.27946539874985821 0.31517103407350511 0 0.29222694662776277 0.29035018123344741 0 0.27946539874985821 0.31517103407350511 0 0.30407859325912162 0.30973431231001719 0 0.29222694662776277 0.29035018123344741 0 0.27946539874985821 0.31517103407350511 0 0.29222694662776277 0.29035018123344741 0 0.26214895121169918 0.30372918781629871 0 0.29222694662776277 0.29035018123344741 0 0.26381659184569239 0.28247918170117042 0 0.26214895121169918 0.30372918781629871 0 0.24857437057136419 0.28983050235134378 0 0.26381659184569239 0.28247918170117042 0 0.26214895121169918 0.30372918781629871 0 0.24834459753847341 0.27747630004818957 0 0.24857437057136419 0.28983050235134378 0 0.26381659184569239 0.28247918170117042 0 0.2394455710732217 0.30574523459309888 0 0.25864653808041699 0.31952650183570891 0 0.26214895121169918 0.30372918781629871 0 0.2394455710732217 0.30574523459309888 0 0.24857437057136419 0.28983050235134378 0 0.26214895121169918 0.30372918781629871 0 0.2617523448072876 0.25504409120019123 0 0.25467197645528578 0.26294339178177872 0 0.26386354405229928 0.26633348345649399 0 0.2617523448072876 0.25504409120019123 0 0.25317499598307841 0.25303006526473892 0 0.25467197645528578 0.26294339178177872 0 0.2617523448072876 0.25504409120019123 0 0.25317499598307841 0.25303006526473892 0 0.25796111332710092 0.24725780601463959 0 0.24617535777933569 0.25927982981489511 0 0.25317499598307841 0.25303006526473892 0 0.25467197645528578 0.26294339178177872 0 0.248890656855665 0.26892970052113729 0 0.25467197645528578 0.26294339178177872 0 0.25547223360619209 0.27150412689580472 0 0.26381659184569239 0.28247918170117042 0 0.25547223360619209 0.27150412689580472 0 0.26386354405229928 0.26633348345649399 0 0.24834459753847341 0.27747630004818957 0 0.248890656855665 0.26892970052113729 0 0.25547223360619209 0.27150412689580472 0 0.24834459753847341 0.27747630004818957 0 0.26381659184569239 0.28247918170117042 0 0.25547223360619209 0.27150412689580472 0 0.25467197645528578 0.26294339178177872 0 0.25547223360619209 0.27150412689580472 0 0.26386354405229928 0.26633348345649399 0 0.29222694662776277 0.29035018123344741 0 0.26381659184569239 0.28247918170117042 0 0.27534326103951789 0.26979992503338451 0 0.26381659184569239 0.28247918170117042 0 0.26386354405229928 0.26633348345649399 0 0.27534326103951789 0.26979992503338451 0 0.27534326103951789 0.26979992503338451 0 0.27212485655982022 0.25623018412663512 0 0.28420227851296459 0.25721377561363551 0 0.26386354405229928 0.26633348345649399 0 0.27534326103951789 0.26979992503338451 0 0.27212485655982022 0.25623018412663512 0 0.2617523448072876 0.25504409120019123 0 0.26386354405229928 0.26633348345649399 0 0.27212485655982022 0.25623018412663512 0 0.2617523448072876 0.25504409120019123 0 0.27212485655982022 0.25623018412663512 0 0.26610025655959169 0.24528589462681341 0 0.27212485655982022 0.25623018412663512 0 0.28420227851296459 0.25721377561363551 0 0.27829409754530371 0.24407401200611681 0 0.27534326103951789 0.26979992503338451 0 0.28420227851296459 0.25721377561363551 0 0.29029711462182278 0.26857563455672828 0 0.29465505435785377 0.25711025669605531 0 0.29029711462182278 0.26857563455672828 0 0.30498849450566762 0.26552932839338939 0 0.28420227851296459 0.25721377561363551 0 0.29465505435785377 0.25711025669605531 0 0.29029711462182278 0.26857563455672828 0 0.29465505435785377 0.25711025669605531 0 0.3028219078173614 0.24724445686387611 0 0.29096547633145292 0.24698808805264719 0 0.28420227851296459 0.25721377561363551 0 0.29465505435785377 0.25711025669605531 0 0.29096547633145292 0.24698808805264719 0 0.29222694662776277 0.29035018123344741 0 0.27534326103951789 0.26979992503338451 0 0.29029711462182278 0.26857563455672828 0 0.29222694662776277 0.29035018123344741 0 0.29029711462182278 0.26857563455672828 0 0.30498849450566762 0.26552932839338939 0 0.29222694662776277 0.29035018123344741 0 0.30498849450566762 0.26552932839338939 0 0.31103351558752351 0.28507064964630002 0 0.29222694662776277 0.29035018123344741 0 0.30498849450566762 0.26552932839338939 0 0.30498849450566762 0.26552932839338939 0 0.31775004238357218 0.24070847555333161 0 0.30498849450566762 0.26552932839338939 0 0.3028219078173614 0.24724445686387611 0 0.31775004238357218 0.24070847555333161 0 0.29465505435785377 0.25711025669605531 0 0.30498849450566762 0.26552932839338939 0 0.3028219078173614 0.24724445686387611 0 0.32638893567112209 0.26767164142021288 0 0.32529326346830101 0.24327549796599279 0 0.33228355612085808 0.25065072999082361 0 0.32638893567112209 0.26767164142021288 0 0.32529326346830101 0.24327549796599279 0 0.31679550400019513 0.25587982274051901 0 0.32638893567112209 0.26767164142021288 0 0.32529326346830101 0.24327549796599279 0 0.30498849450566762 0.26552932839338939 0 0.31679550400019513 0.25587982274051901 0 0.32638893567112209 0.26767164142021288 0 0.30498849450566762 0.26552932839338939 0 0.31679550400019513 0.25587982274051901 0 0.31775004238357218 0.24070847555333161 0 0.33228355612085808 0.25065072999082361 0 0.34030979911781151 0.25659963693408222 0 0.32638893567112209 0.26767164142021288 0 0.33228355612085808 0.25065072999082361 0 0.34030979911781151 0.25659963693408222 0 0.33718771242873852 0.24418368278681021 0 0.34030979911781151 0.25659963693408222 0 0.34047319249657632 0.27620618638063521 0 0.32638893567112209 0.26767164142021288 0 0.34047319249657632 0.27620618638063521 0 0.32638893567112209 0.26767164142021288 0 0.32748460787394318 0.29206778487443302 0 0.31103351558752351 0.28507064964630002 0 0.30498849450566762 0.26552932839338939 0 0.32638893567112209 0.26767164142021288 0 0.32638893567112209 0.26767164142021288 0 0.32748460787394318 0.29206778487443302 0 0.31103351558752351 0.28507064964630002 0 0.32638893567112209 0.26767164142021288 0 0.32748460787394318 0.29206778487443302 0 0.30407859325912162 0.30973431231001719 0 0.31103351558752351 0.28507064964630002 0 0.32748460787394318 0.29206778487443302 0 0.32776799125697759 0.32257910583907118 0 0.30407859325912162 0.30973431231001719 0 0.32748460787394318 0.29206778487443302 0 0.32776799125697759 0.32257910583907118 0 0.32748460787394318 0.29206778487443302 0 0.34796677738875642 0.30144150454424667 0 0.34047319249657632 0.27620618638063521 0 0.32748460787394318 0.29206778487443302 0 0.34796677738875642 0.30144150454424667 0 0.34796677738875642 0.30144150454424667 0 0.36459212215803211 0.29369897062587252 0 0.35748190695003351 0.2799046373493892 0 0.34047319249657632 0.27620618638063521 0 0.34796677738875642 0.30144150454424667 0 0.35748190695003351 0.2799046373493892 0 0.36674641103088729 0.31204408638405262 0 0.36459212215803211 0.29369897062587252 0 0.38168602062211882 0.29025178182808969 0 0.36674641103088729 0.31204408638405262 0 0.38168602062211882 0.29025178182808969 0 0.34796677738875642 0.30144150454424667 0 0.36674641103088729 0.31204408638405262 0 0.36459212215803211 0.29369897062587252 0 0.36459212215803211 0.29369897062587252 0 0.37466383812511422 0.2776611436032555 0 0.38168602062211882 0.29025178182808969 0 0.36459212215803211 0.29369897062587252 0 0.37466383812511422 0.2776611436032555 0 0.35748190695003351 0.2799046373493892 0 0.37466383812511422 0.2776611436032555 0 0.36594749966744411 0.26798770809388589 0 0.38164984913970668 0.26566428645016921 0 0.37466383812511422 0.2776611436032555 0 0.36594749966744411 0.26798770809388589 0 0.35748190695003351 0.2799046373493892 0 0.36594749966744411 0.26798770809388589 0 0.36452136718342693 0.25171609899534492 0 0.35319122855722218 0.26375686596201797 0 0.36594749966744411 0.26798770809388589 0 0.36452136718342693 0.25171609899534492 0 0.38164984913970668 0.26566428645016921 0 0.36452136718342693 0.25171609899534492 0 0.38164984913970668 0.26566428645016921 0 0.34030979911781151 0.25659963693408222 0 0.34047319249657632 0.27620618638063521 0 0.35319122855722218 0.26375686596201797 0 0.36452136718342693 0.25171609899534492 0 0.35319122855722218 0.26375686596201797 0 0.35099919741285179 0.25037355860251248 0 0.34030979911781151 0.25659963693408222 0 0.35099919741285179 0.25037355860251248 0 0.34430668227928118 0.24545844944811859 0 0.34030979911781151 0.25659963693408222 0 0.35319122855722218 0.26375686596201797 0 0.35099919741285179 0.25037355860251248 0 0.34047319249657632 0.27620618638063521 0 0.35319122855722218 0.26375686596201797 0 0.35748190695003351 0.2799046373493892 0 0.36594749966744411 0.26798770809388589 0 0.35319122855722218 0.26375686596201797 0 0.35748190695003351 0.2799046373493892 0 0.39662563021334768 0.26845947727212499 0 0.38168602062211882 0.29025178182808969 0 0.40709031271962692 0.28277294419518939 0 0.39662563021334768 0.26845947727212499 0 0.39933240577301959 0.26451112259787701 0 0.40844370049946122 0.28079876685806632 0 0.39933240577301959 0.26451112259787701 0 0.40844370049946122 0.28079876685806632 0 0.39662563021334768 0.26845947727212499 0 0.39933240577301959 0.26451112259787701 0 0.39662563021334768 0.26845947727212499 0 0.40709031271962692 0.28277294419518939 0 0.40844370049946122 0.28079876685806632 0 0.39662563021334768 0.26845947727212499 0 0.40709031271962692 0.28277294419518939 0 0.39933240577301959 0.26451112259787701 0 0.41171165886391509 0.24645359225314689 0 0.39933240577301959 0.26451112259787701 0 0.39943183210595812 0.24635952553428289 0 0.41171165886391509 0.24645359225314689 0 0.39933240577301959 0.26451112259787701 0 0.39943183210595812 0.24635952553428289 0 0.39063387060276539 0.2489613406303878 0 0.39662563021334768 0.26845947727212499 0 0.39933240577301959 0.26451112259787701 0 0.39063387060276539 0.2489613406303878 0 0.39933240577301959 0.26451112259787701 0 0.39063387060276539 0.2489613406303878 0 0.36452136718342693 0.25171609899534492 0 0.38164984913970668 0.26566428645016921 0 0.38310622285093932 0.24996779441551559 0 0.39662563021334768 0.26845947727212499 0 0.38164984913970668 0.26566428645016921 0 0.38310622285093932 0.24996779441551559 0 0.39662563021334768 0.26845947727212499 0 0.39063387060276539 0.2489613406303878 0 0.38310622285093932 0.24996779441551559 0 0.39662563021334768 0.26845947727212499 0 0.38310622285093932 0.24996779441551559 0 0.37466383812511422 0.2776611436032555 0 0.39662563021334768 0.26845947727212499 0 0.38164984913970668 0.26566428645016921 0 0.37466383812511422 0.2776611436032555 0 0.39662563021334768 0.26845947727212499 0 0.38168602062211882 0.29025178182808969 0 0.39662563021334768 0.26845947727212499 0 0.38168602062211882 0.29025178182808969 0 0.36674641103088729 0.31204408638405262 0 0.38168602062211882 0.29025178182808969 0 0.39140098403731372 0.31035600698165039 0 0.38168602062211882 0.29025178182808969 0 0.40186380882574863 0.29887063676280018 0 0.39140098403731372 0.31035600698165039 0 0.40186380882574863 0.29887063676280018 0 0.39140098403731372 0.31035600698165039 0 0.41158673152377678 0.31388603969081807 0 0.38168602062211882 0.29025178182808969 0 0.40186380882574863 0.29887063676280018 0 0.40709031271962692 0.28277294419518939 0 0.41755499522590689 0.29708641111825318 0 0.42454770282511589 0.28056696058916708 0 0.40844370049946122 0.28079876685806632 0 0.40709031271962692 0.28277294419518939 0 0.41755499522590689 0.29708641111825318 0 0.40844370049946122 0.28079876685806632 0 0.41755499522590689 0.29708641111825318 0 0.40844370049946122 0.28079876685806632 0 0.40186380882574863 0.29887063676280018 0 0.40709031271962692 0.28277294419518939 0 0.41755499522590689 0.29708641111825318 0 0.40709031271962692 0.28277294419518939 0 0.41755499522590689 0.29708641111825318 0 0.40186380882574863 0.29887063676280018 0 0.41755499522590689 0.29708641111825318 0 0.41158673152377678 0.31388603969081807 0 0.41755499522590689 0.29708641111825318 0 0.42576446159899778 0.31176191793319191 0 0.41158673152377678 0.31388603969081807 0 0.41755499522590689 0.29708641111825318 0 0.42576446159899778 0.31176191793319191 0 0.41755499522590689 0.29708641111825318 0 0.43131489015372082 0.29518194607361392 0 0.43971411812731093 0.30608862636456258 0 0.41755499522590689 0.29708641111825318 0 0.43971411812731093 0.30608862636456258 0 0.43512403186460702 0.32111712821332211 0 0.41755499522590689 0.29708641111825318 0 0.42576446159899778 0.31176191793319191 0 0.43512403186460702 0.32111712821332211 0 0.41755499522590689 0.29708641111825318 0 0.43512403186460702 0.32111712821332211 0 0.43131489015372082 0.29518194607361392 0 0.43763216084939988 0.27117602968420512 0 0.43131489015372082 0.29518194607361392 0 0.42454770282511589 0.28056696058916708 0 0.43763216084939988 0.27117602968420512 0 0.43131489015372082 0.29518194607361392 0 0.43763216084939988 0.27117602968420512 0 0.44315219059642919 0.28742267074726152 0 0.41755499522590689 0.29708641111825318 0 0.43131489015372082 0.29518194607361392 0 0.42454770282511589 0.28056696058916708 0 0.42454770282511589 0.28056696058916708 0 0.41900985670382612 0.26674487197745189 0 0.43763216084939988 0.27117602968420512 0 0.42454770282511589 0.28056696058916708 0 0.41900985670382612 0.26674487197745189 0 0.40844370049946122 0.28079876685806632 0 0.39933240577301959 0.26451112259787701 0 0.41900985670382612 0.26674487197745189 0 0.40844370049946122 0.28079876685806632 0 0.41900985670382612 0.26674487197745189 0 0.43036828167397251 0.25583515747578711 0 0.41171165886391509 0.24645359225314689 0 0.39933240577301959 0.26451112259787701 0 0.41900985670382612 0.26674487197745189 0 0.41171165886391509 0.24645359225314689 0 0.41900985670382612 0.26674487197745189 0 0.43036828167397251 0.25583515747578711 0 0.43763216084939988 0.27117602968420512 0 0.43036828167397251 0.25583515747578711 0 0.43763216084939988 0.27117602968420512 0 0.44394943154508121 0.24717011329479671 0 0.44940113696399703 0.27401698841650313 0 0.45792378038272358 0.25722343419473431 0 0.44394943154508121 0.24717011329479671 0 0.43763216084939988 0.27117602968420512 0 0.44940113696399703 0.27401698841650313 0 0.44394943154508121 0.24717011329479671 0 0.43763216084939988 0.27117602968420512 0 0.44394943154508121 0.24717011329479671 0 0.44940113696399703 0.27401698841650313 0 0.44394943154508121 0.24717011329479671 0 0.43763216084939988 0.27117602968420512 0 0.44940113696399703 0.27401698841650313 0 0.44315219059642919 0.28742267074726152 0 0.44940113696399703 0.27401698841650313 0 0.46407025918757422 0.27063865993680392 0 0.45792378038272358 0.25722343419473431 0 0.46407025918757422 0.27063865993680392 0 0.4788214257779902 0.2775531922481651 0 0.4623066891960681 0.28571574811463191 0 0.44940113696399703 0.27401698841650313 0 0.46407025918757422 0.27063865993680392 0 0.4623066891960681 0.28571574811463191 0 0.45792378038272358 0.25722343419473431 0 0.47069668079935312 0.25631091585508992 0 0.46150139341761087 0.23798049347047839 0 0.46407025918757422 0.27063865993680392 0 0.45792378038272358 0.25722343419473431 0 0.47069668079935312 0.25631091585508992 0 0.4788214257779902 0.2775531922481651 0 0.5 0.30254541180892258 0 0.5 0.24047019952709051 0 0.47069668079935312 0.25631091585508992 0 0.4788214257779902 0.2775531922481651 0 0.5 0.24047019952709051 0 0.46407025918757422 0.27063865993680392 0 0.47069668079935312 0.25631091585508992 0 0.4788214257779902 0.2775531922481651 0 0.4788214257779902 0.2775531922481651 0 0.5 0.30254541180892258 0 0.47330201127495741 0.30856180624139767 0 0.4788214257779902 0.2775531922481651 0 0.47330201127495741 0.30856180624139767 0 0.4623066891960681 0.28571574811463191 0 0.47330201127495741 0.30856180624139767 0 0.45485284238291102 0.30086386353820982 0 0.46030454780182511 0.32771073865991651 0 0.47330201127495741 0.30856180624139767 0 0.45485284238291102 0.30086386353820982 0 0.4623066891960681 0.28571574811463191 0 0.44940113696399703 0.27401698841650313 0 0.45485284238291102 0.30086386353820982 0 0.4623066891960681 0.28571574811463191 0 0.44940113696399703 0.27401698841650313 0 0.45485284238291102 0.30086386353820982 0 0.44940113696399703 0.27401698841650313 0 0.45485284238291102 0.30086386353820982 0 0.44315219059642919 0.28742267074726152 0 0.45485284238291102 0.30086386353820982 0 0.44315219059642919 0.28742267074726152 0 0.44225851031509289 0.29738927668091192 0 0.43131489015372082 0.29518194607361392 0 0.44315219059642919 0.28742267074726152 0 0.44225851031509289 0.29738927668091192 0 0.45485284238291102 0.30086386353820982 0 0.43971411812731093 0.30608862636456258 0 0.44550366088963622 0.31684337159720299 0 0.45485284238291102 0.30086386353820982 0 0.44225851031509289 0.29738927668091192 0 0.43971411812731093 0.30608862636456258 0 0.43131489015372082 0.29518194607361392 0 0.44225851031509289 0.29738927668091192 0 0.43971411812731093 0.30608862636456258 0 0.43971411812731093 0.30608862636456258 0 0.44550366088963622 0.31684337159720299 0 0.43512403186460702 0.32111712821332211 0 0.44550366088963622 0.31684337159720299 0 0.44309673818748108 0.32929246668221368 0 0.46030454780182511 0.32771073865991651 0 0.5 0.30254541180892258 0 0.47502570202975181 0.35297233193233168 0 0.5 0.38786319046656398 0 0.44550366088963622 0.31684337159720299 0 0.44309673818748108 0.32929246668221368 0 0.43512403186460702 0.32111712821332211 0 0.44309673818748108 0.32929246668221368 0 0.44888282818061992 0.34606648985617677 0 0.43462456078421191 0.33808421448377529 0 0.44309673818748108 0.32929246668221368 0 0.46030454780182511 0.32771073865991651 0 0.44888282818061992 0.34606648985617677 0 0.46030454780182511 0.32771073865991651 0 0.47502570202975181 0.35297233193233168 0 0.44888282818061992 0.34606648985617677 0 0.45485284238291102 0.30086386353820982 0 0.46030454780182511 0.32771073865991651 0 0.45485284238291102 0.30086386353820982 0 0.44550366088963622 0.31684337159720299 0 0.46030454780182511 0.32771073865991651 0 0.47330201127495741 0.30856180624139767 0 0.46030454780182511 0.32771073865991651 0 0.47502570202975181 0.35297233193233168 0 0.5 0.30254541180892258 0 0.47330201127495741 0.30856180624139767 0 0.47502570202975181 0.35297233193233168 0 0.47502570202975181 0.35297233193233168 0 0.4417157264466815 0.36830278738921129 0 0.46205407405240978 0.38897485300588319 0 0.47502570202975181 0.35297233193233168 0 0.44888282818061992 0.34606648985617677 0 0.4417157264466815 0.36830278738921129 0 0.44888282818061992 0.34606648985617677 0 0.4417157264466815 0.36830278738921129 0 0.43388528450373792 0.35041311470433462 0 0.44888282818061992 0.34606648985617677 0 0.43388528450373792 0.35041311470433462 0 0.43462456078421191 0.33808421448377529 0 0.4417157264466815 0.36830278738921129 0 0.42034428351837172 0.35831720110310361 0 0.41329769387545889 0.37563343850221798 0 0.42034428351837172 0.35831720110310361 0 0.39897944524898138 0.36342851536839432 0 0.41329769387545889 0.37563343850221798 0 0.40814812786046079 0.34869812734313732 0 0.42034428351837172 0.35831720110310361 0 0.39897944524898138 0.36342851536839432 0 0.40814812786046079 0.34869812734313732 0 0.42340346981181187 0.34421665524608791 0 0.41448590393719448 0.33889517542689218 0 0.40814812786046079 0.34869812734313732 0 0.42034428351837172 0.35831720110310361 0 0.42340346981181187 0.34421665524608791 0 0.42034428351837172 0.35831720110310361 0 0.42340346981181187 0.34421665524608791 0 0.43388528450373792 0.35041311470433462 0 0.4417157264466815 0.36830278738921129 0 0.42034428351837172 0.35831720110310361 0 0.43388528450373792 0.35041311470433462 0 0.42340346981181187 0.34421665524608791 0 0.43388528450373792 0.35041311470433462 0 0.43462456078421191 0.33808421448377529 0 0.44309673818748108 0.32929246668221368 0 0.43462456078421191 0.33808421448377529 0 0.43397392797208872 0.3264374247481307 0 0.43462456078421191 0.33808421448377529 0 0.42441020901265808 0.33268783869835111 0 0.43397392797208872 0.3264374247481307 0 0.42340346981181187 0.34421665524608791 0 0.43462456078421191 0.33808421448377529 0 0.42441020901265808 0.33268783869835111 0 0.42576446159899778 0.31176191793319191 0 0.43512403186460702 0.32111712821332211 0 0.43397392797208872 0.3264374247481307 0 0.42576446159899778 0.31176191793319191 0 0.43397392797208872 0.3264374247481307 0 0.44309673818748108 0.32929246668221368 0 0.43512403186460702 0.32111712821332211 0 0.43397392797208872 0.3264374247481307 0 0.42441020901265808 0.33268783869835111 0 0.43397392797208872 0.3264374247481307 0 0.42222734078103202 0.32260571865320509 0 0.42576446159899778 0.31176191793319191 0 0.43397392797208872 0.3264374247481307 0 0.42222734078103202 0.32260571865320509 0 0.42576446159899778 0.31176191793319191 0 0.42222734078103202 0.32260571865320509 0 0.41158673152377678 0.31388603969081807 0 0.42441020901265808 0.33268783869835111 0 0.42222734078103202 0.32260571865320509 0 0.41244372377900179 0.32810707046945242 0 0.42222734078103202 0.32260571865320509 0 0.41244372377900179 0.32810707046945242 0 0.41158673152377678 0.31388603969081807 0 0.41244372377900179 0.32810707046945242 0 0.41158673152377678 0.31388603969081807 0 0.39962629520835491 0.32298022081365058 0 0.41244372377900179 0.32810707046945242 0 0.41448590393719448 0.33889517542689218 0 0.39743310506009899 0.33633928447849792 0 0.40814812786046079 0.34869812734313732 0 0.41448590393719448 0.33889517542689218 0 0.39743310506009899 0.33633928447849792 0 0.42340346981181187 0.34421665524608791 0 0.42441020901265808 0.33268783869835111 0 0.41448590393719448 0.33889517542689218 0 0.42441020901265808 0.33268783869835111 0 0.41244372377900179 0.32810707046945242 0 0.41448590393719448 0.33889517542689218 0 0.41244372377900179 0.32810707046945242 0 0.39743310506009899 0.33633928447849792 0 0.39962629520835491 0.32298022081365058 0 0.39140098403731372 0.31035600698165039 0 0.41158673152377678 0.31388603969081807 0 0.39962629520835491 0.32298022081365058 0 0.39743310506009899 0.33633928447849792 0 0.39962629520835491 0.32298022081365058 0 0.38411701480547061 0.32402888265098978 0 0.39140098403731372 0.31035600698165039 0 0.39962629520835491 0.32298022081365058 0 0.38411701480547061 0.32402888265098978 0 0.36674641103088729 0.31204408638405262 0 0.39140098403731372 0.31035600698165039 0 0.38411701480547061 0.32402888265098978 0 0.3731482595333136 0.33854705678801322 0 0.39743310506009899 0.33633928447849792 0 0.38592797166409532 0.35140695173577402 0 0.3731482595333136 0.33854705678801322 0 0.39743310506009899 0.33633928447849792 0 0.38411701480547061 0.32402888265098978 0 0.37054653609375249 0.35981595266240718 0 0.3731482595333136 0.33854705678801322 0 0.38592797166409532 0.35140695173577402 0 0.37054653609375249 0.35981595266240718 0 0.38592797166409532 0.35140695173577402 0 0.38496469170863962 0.37540764118664621 0 0.38592797166409532 0.35140695173577402 0 0.39897944524898138 0.36342851536839432 0 0.38496469170863962 0.37540764118664621 0 0.39897944524898138 0.36342851536839432 0 0.38496469170863962 0.37540764118664621 0 0.41329769387545889 0.37563343850221798 0 0.40814812786046079 0.34869812734313732 0 0.39743310506009899 0.33633928447849792 0 0.38592797166409532 0.35140695173577402 0 0.40814812786046079 0.34869812734313732 0 0.38592797166409532 0.35140695173577402 0 0.39897944524898138 0.36342851536839432 0 0.40553305503279752 0.39356756289023698 0 0.37727254552299111 0.39586391783241393 0 0.39182555382992867 0.41063810769702142 0 0.40553305503279752 0.39356756289023698 0 0.37727254552299111 0.39586391783241393 0 0.40553305503279752 0.39356756289023698 0 0.38496469170863962 0.37540764118664621 0 0.41329769387545889 0.37563343850221798 0 0.40553305503279752 0.39356756289023698 0 0.38496469170863962 0.37540764118664621 0 0.37727254552299111 0.39586391783241393 0 0.3737836187820997 0.41560310484036878 0 0.39112217598724358 0.43095134377381789 0 0.39182555382992867 0.41063810769702142 0 0.3737836187820997 0.41560310484036878 0 0.37727254552299111 0.39586391783241393 0 0.39182555382992867 0.41063810769702142 0 0.37148615013554831 0.4377505363325237 0 0.3737836187820997 0.41560310484036878 0 0.39112217598724358 0.43095134377381789 0 0.39112217598724358 0.43095134377381789 0 0.39182555382992867 0.41063810769702142 0 0.41141637382451191 0.41720460914826929 0 0.40553305503279752 0.39356756289023698 0 0.39182555382992867 0.41063810769702142 0 0.41141637382451191 0.41720460914826929 0 0.39112217598724358 0.43095134377381789 0 0.41141637382451191 0.41720460914826929 0 0.42109982270255969 0.44694151542873789 0 0.41141637382451191 0.41720460914826929 0 0.43528770773271819 0.42102939026708519 0 0.42109982270255969 0.44694151542873789 0 0.43528770773271819 0.42102939026708519 0 0.42109982270255969 0.44694151542873789 0 0.43528770773271819 0.42102939026708519 0 0.43962940100771541 0.44263422251281292 0 0.42109982270255969 0.44694151542873789 0 0.41141637382451191 0.41720460914826929 0 0.43528770773271819 0.42102939026708519 0 0.43379356454260359 0.39127120794806008 0 0.40553305503279752 0.39356756289023698 0 0.41141637382451191 0.41720460914826929 0 0.43379356454260359 0.39127120794806008 0 0.40553305503279752 0.39356756289023698 0 0.43379356454260359 0.39127120794806008 0 0.40553305503279752 0.39356756289023698 0 0.43379356454260359 0.39127120794806008 0 0.41329769387545889 0.37563343850221798 0 0.4417157264466815 0.36830278738921129 0 0.43379356454260359 0.39127120794806008 0 0.41329769387545889 0.37563343850221798 0 0.4417157264466815 0.36830278738921129 0 0.43379356454260359 0.39127120794806008 0 0.46205407405240978 0.38897485300588319 0 0.43379356454260359 0.39127120794806008 0 0.46205407405240978 0.38897485300588319 0 0.5 0.38786319046656398 0 0.47877585606822781 0.4406232993284882 0 0.48346089778553197 0.46041553288565867 0 0.43379356454260359 0.39127120794806008 0 0.44874594700149489 0.40363644961218398 0 0.46205407405240978 0.38897485300588319 0 0.43528770773271819 0.42102939026708519 0 0.43379356454260359 0.39127120794806008 0 0.44874594700149489 0.40363644961218398 0 0.44874594700149489 0.40363644961218398 0 0.46205407405240978 0.38897485300588319 0 0.4638484416782479 0.41327034722770722 0 0.47502570202975181 0.35297233193233168 0 0.46205407405240978 0.38897485300588319 0 0.5 0.38786319046656398 0 0.46205407405240978 0.38897485300588319 0 0.5 0.38786319046656398 0 0.4638484416782479 0.41327034722770722 0 0.5 0.38786319046656398 0 0.4638484416782479 0.41327034722770722 0 0.47877585606822781 0.4406232993284882 0 0.4638484416782479 0.41327034722770722 0 0.45795337864824381 0.43752248231402557 0 0.47877585606822781 0.4406232993284882 0 0.43528770773271819 0.42102939026708519 0 0.44874594700149489 0.40363644961218398 0 0.4638484416782479 0.41327034722770722 0 0.43528770773271819 0.42102939026708519 0 0.4638484416782479 0.41327034722770722 0 0.45795337864824381 0.43752248231402557 0 0.43528770773271819 0.42102939026708519 0 0.43962940100771541 0.44263422251281292 0 0.45795337864824381 0.43752248231402557 0 0.5 0.38786319046656398 0 0.48346089778553197 0.46041553288565867 0 0.5 0.5 0 0.43962940100771541 0.44263422251281292 0 0.45218231465608699 0.46144310375024838 0 0.45795337864824381 0.43752248231402557 0 0.43962940100771541 0.44263422251281292 0 0.45218231465608699 0.46144310375024838 0 0.43197650500563078 0.4707357494081067 0 0.45218231465608699 0.46144310375024838 0 0.4679320434544737 0.45364076783516699 0 0.466415880077586 0.47460183825639007 0 0.4679320434544737 0.45364076783516699 0 0.45795337864824381 0.43752248231402557 0 0.47877585606822781 0.4406232993284882 0 0.45218231465608699 0.46144310375024838 0 0.4679320434544737 0.45364076783516699 0 0.45795337864824381 0.43752248231402557 0 0.47877585606822781 0.4406232993284882 0 0.48346089778553197 0.46041553288565867 0 0.4679320434544737 0.45364076783516699 0 0.47877585606822781 0.4406232993284882 0 0.48346089778553197 0.46041553288565867 0 0.4679320434544737 0.45364076783516699 0 0.48346089778553197 0.46041553288565867 0 0.466415880077586 0.47460183825639007 0 0.48346089778553197 0.46041553288565867 0 0.5 0.5 0 0.48814593950283602 0.48020776644282909 0 0.49283098122014007 0.49999999999999972 0 0.5 0.5 0 0.48814593950283602 0.48020776644282909 0 0.49283098122014007 0.49999999999999972 0 0.48814593950283602 0.48020776644282909 0 0.48346089778553197 0.46041553288565867 0 0.48814593950283602 0.48020776644282909 0 0.48346089778553197 0.46041553288565867 0 0.48814593950283602 0.48020776644282909 0 0.466415880077586 0.47460183825639007 0 0.49283098122014007 0.49999999999999972 0 0.48814593950283602 0.48020776644282909 0 0.46446038232613091 0.5 0 0.48814593950283602 0.48020776644282909 0 0.46446038232613091 0.5 0 0.466415880077586 0.47460183825639007 0 0.46446038232613091 0.5 0 0.466415880077586 0.47460183825639007 0 0.44968708156325321 0.48323508456852132 0 0.45218231465608699 0.46144310375024838 0 0.466415880077586 0.47460183825639007 0 0.44968708156325321 0.48323508456852132 0 0.45218231465608699 0.46144310375024838 0 0.44968708156325321 0.48323508456852132 0 0.43197650500563078 0.4707357494081067 0 0.44968708156325321 0.48323508456852132 0 0.43608978343212168 0.5 0 0.43197650500563078 0.4707357494081067 0 0.46446038232613091 0.5 0 0.44968708156325321 0.48323508456852132 0 0.43608978343212168 0.5 0 0.43608978343212168 0.5 0 0.42013753695544148 0.48595108915455959 0 0.43197650500563078 0.4707357494081067 0 0.43608978343212168 0.5 0 0.40771918453811251 0.5 0 0.42013753695544148 0.48595108915455959 0 0.40771918453811251 0.5 0 0.42013753695544148 0.48595108915455959 0 0.40691193767240108 0.4728536405903907 0 0.42013753695544148 0.48595108915455959 0 0.40691193767240108 0.4728536405903907 0 0.43197650500563078 0.4707357494081067 0 0.43962940100771541 0.44263422251281292 0 0.43197650500563078 0.4707357494081067 0 0.42109982270255969 0.44694151542873789 0 0.40691193767240108 0.4728536405903907 0 0.43197650500563078 0.4707357494081067 0 0.42109982270255969 0.44694151542873789 0 0.40691193767240108 0.4728536405903907 0 0.42109982270255969 0.44694151542873789 0 0.40691193767240108 0.4728536405903907 0 0.42109982270255969 0.44694151542873789 0 0.38956613759632519 0.45442435631032019 0 0.40691193767240108 0.4728536405903907 0 0.38956613759632519 0.45442435631032019 0 0.38253759726783881 0.47260425120240018 0 0.39112217598724358 0.43095134377381789 0 0.42109982270255969 0.44694151542873789 0 0.38956613759632519 0.45442435631032019 0 0.36594377947691459 0.46125276186725639 0 0.37148615013554831 0.4377505363325237 0 0.38956613759632519 0.45442435631032019 0 0.37148615013554831 0.4377505363325237 0 0.39112217598724358 0.43095134377381789 0 0.38956613759632519 0.45442435631032019 0 0.36594377947691459 0.46125276186725639 0 0.38956613759632519 0.45442435631032019 0 0.38253759726783881 0.47260425120240018 0 0.36847450319352298 0.48294934119052801 0 0.38253759726783881 0.47260425120240018 0 0.38599933528402192 0.48543459974707248 0 0.36847450319352298 0.48294934119052801 0 0.37934858564410329 0.5 0 0.38599933528402192 0.48543459974707248 0 0.37934858564410329 0.5 0 0.38599933528402192 0.48543459974707248 0 0.39272405264224258 0.49876576575204351 0 0.40771918453811251 0.5 0 0.40691193767240108 0.4728536405903907 0 0.39272405264224258 0.49876576575204351 0 0.40691193767240108 0.4728536405903907 0 0.39272405264224258 0.49876576575204351 0 0.40691193767240108 0.4728536405903907 0 0.38599933528402192 0.48543459974707248 0 0.39272405264224258 0.49876576575204351 0 0.40771918453811251 0.5 0 0.37934858564410329 0.5 0 0.39272405264224258 0.49876576575204351 0 0.40691193767240108 0.4728536405903907 0 0.38253759726783881 0.47260425120240018 0 0.38599933528402192 0.48543459974707248 0 0.33695788835912799 0.09102212251397751 0 0.34190261569746999 0.06944605022859246 0 0.34190261569746999 0.06944605022859246 0 0.32423986699142898 0.073809139268864662 0 0.32020580803400661 0.053773867810390667 0 0.33695788835912799 0.09102212251397751 0 0.34190261569746999 0.06944605022859246 0 0.32423986699142898 0.073809139268864662 0 0.32423986699142898 0.073809139268864662 0 0.32020580803400661 0.053773867810390667 0 0.30719775791145409 0.068121939970813492 0 0.32423986699142898 0.073809139268864662 0 0.31493526495508672 0.08668171582054876 0 0.30719775791145409 0.068121939970813492 0 0.33695788835912799 0.09102212251397751 0 0.32423986699142898 0.073809139268864662 0 0.31493526495508672 0.08668171582054876 0 0.33695788835912799 0.09102212251397751 0 0.31493526495508672 0.08668171582054876 0 0.32364288144989972 0.10626500094479541 0 0.31493526495508672 0.08668171582054876 0 0.32364288144989972 0.10626500094479541 0 0.30032258236485188 0.1021508610648056 0 0.32962697244367167 0.1230102102056374 0 0.31032787454065958 0.1215078793756028 0 0.32962697244367167 0.1230102102056374 0 0.31032787454065958 0.1215078793756028 0 0.31878362046859321 0.1282600242851219 0 0.32364288144989972 0.10626500094479541 0 0.32962697244367167 0.1230102102056374 0 0.31032787454065958 0.1215078793756028 0 0.32364288144989972 0.10626500094479541 0 0.31032787454065958 0.1215078793756028 0 0.32962697244367167 0.1230102102056374 0 0.35317858083399778 0.1248435760738186 0 0.32364288144989972 0.10626500094479541 0 0.32962697244367167 0.1230102102056374 0 0.33329243040139328 0.107016166359806 0 0.32962697244367167 0.1230102102056374 0 0.33329243040139328 0.107016166359806 0 0.35317858083399778 0.1248435760738186 0 0.32962697244367167 0.1230102102056374 0 0.33329243040139328 0.107016166359806 0 0.33695788835912799 0.09102212251397751 0 0.33329243040139328 0.107016166359806 0 0.34786373851253721 0.1023427677796323 0 0.33695788835912799 0.09102212251397751 0 0.32364288144989972 0.10626500094479541 0 0.33329243040139328 0.107016166359806 0 0.33695788835912799 0.09102212251397751 0 0.33329243040139328 0.107016166359806 0 0.33695788835912799 0.09102212251397751 0 0.32364288144989972 0.10626500094479541 0 0.34786373851253721 0.1023427677796323 0 0.3650921004637151 0.100732251076075 0 0.3538845275791424 0.088776777852482933 0 0.34786373851253721 0.1023427677796323 0 0.35317858083399778 0.1248435760738186 0 0.3650921004637151 0.100732251076075 0 0.33695788835912799 0.09102212251397751 0 0.34786373851253721 0.1023427677796323 0 0.3538845275791424 0.088776777852482933 0 0.33329243040139328 0.107016166359806 0 0.34786373851253721 0.1023427677796323 0 0.35317858083399778 0.1248435760738186 0 0.35317858083399778 0.1248435760738186 0 0.37764881736166511 0.1170447174313184 0 0.35317858083399778 0.1248435760738186 0 0.3650921004637151 0.100732251076075 0 0.37764881736166511 0.1170447174313184 0 0.35317858083399778 0.1248435760738186 0 0.37347549516161788 0.1215540423901538 0 0.37764881736166511 0.1170447174313184 0 0.35317858083399778 0.1248435760738186 0 0.37347549516161788 0.1215540423901538 0 0.37325619145190331 0.1264065099257769 0 0.3538845275791424 0.088776777852482933 0 0.35262979011565349 0.07308109590520534 0 0.37305279059406149 0.078059761943527067 0 0.3650921004637151 0.100732251076075 0 0.3538845275791424 0.088776777852482933 0 0.37305279059406149 0.078059761943527067 0 0.33695788835912799 0.09102212251397751 0 0.3538845275791424 0.088776777852482933 0 0.35262979011565349 0.07308109590520534 0 0.33695788835912799 0.09102212251397751 0 0.35262979011565349 0.07308109590520534 0 0.33695788835912799 0.09102212251397751 0 0.34190261569746999 0.06944605022859246 0 0.35262979011565349 0.07308109590520534 0 0.35023799868632538 0.064489840859406664 0 0.35262979011565349 0.07308109590520534 0 0.36830169187217737 0.055140069296431587 0 0.34190261569746999 0.06944605022859246 0 0.35023799868632538 0.064489840859406664 0 0.34532336688122439 0.054519772243848519 0 0.34190261569746999 0.06944605022859246 0 0.35023799868632538 0.064489840859406664 0 0.35262979011565349 0.07308109590520534 0 0.35262979011565349 0.07308109590520534 0 0.36830169187217737 0.055140069296431587 0 0.35262979011565349 0.07308109590520534 0 0.37305279059406149 0.078059761943527067 0 0.36830169187217737 0.055140069296431587 0 0.36830169187217737 0.055140069296431587 0 0.36742137474723269 0.038674665413447863 0 0.34532336688122439 0.054519772243848519 0 0.36742137474723269 0.038674665413447863 0 0.34959897125361022 0.035863384805242489 0 0.36973028303957373 0.022348201443321149 0 0.36830169187217737 0.055140069296431587 0 0.36742137474723269 0.038674665413447863 0 0.38385570192713031 0.037334003854962661 0 0.36742137474723269 0.038674665413447863 0 0.34959897125361022 0.035863384805242489 0 0.34532336688122439 0.054519772243848519 0 0.34959897125361022 0.035863384805242489 0 0.34532336688122439 0.054519772243848519 0 0.3381867907949957 0.041558537492527282 0 0.34959897125361022 0.035863384805242489 0 0.34532336688122439 0.054519772243848519 0 0.35023799868632538 0.064489840859406664 0 0.36830169187217737 0.055140069296431587 0 0.34532336688122439 0.054519772243848519 0 0.36830169187217737 0.055140069296431587 0 0.34532336688122439 0.054519772243848519 0 0.37121322671990142 0.01523148685660871 0 0.35586624731347583 0.0085164368245983415 0 0.37326828704277071 -0.00058451373500000155 0 0.37121322671990142 0.01523148685660871 0 0.35387457562600211 0.017206997366637829 0 0.35586624731347583 0.0085164368245983415 0 0.37121322671990142 0.01523148685660871 0 0.35586624731347583 0.0085164368245983415 0 0.36742137474723269 0.038674665413447863 0 0.36973028303957373 0.022348201443321149 0 0.37574036662274202 0.03083329384481838 0 0.37121322671990142 0.01523148685660871 0 0.36973028303957373 0.022348201443321149 0 0.35387457562600211 0.017206997366637829 0 0.36973028303957373 0.022348201443321149 0 0.35387457562600211 0.017206997366637829 0 0.34959897125361022 0.035863384805242489 0 0.36973028303957373 0.022348201443321149 0 0.35387457562600211 0.017206997366637829 0 0.34959897125361022 0.035863384805242489 0 0.35387457562600211 0.017206997366637829 0 0.34959897125361022 0.035863384805242489 0 0.35387457562600211 0.017206997366637829 0 0.33882877279712958 0.023933439016988911 0 0.35586624731347583 0.0085164368245983415 0 0.3581390112777687 -0.0061542180973873746 0 0.3351356511466751 -0.00055420742185291125 0 0.35586624731347583 0.0085164368245983415 0 0.34394201326358509 0.0087310001477325875 0 0.3351356511466751 -0.00055420742185291125 0 0.35586624731347583 0.0085164368245983415 0 0.3351356511466751 -0.00055420742185291125 0 0.35387457562600211 0.017206997366637829 0 0.35586624731347583 0.0085164368245983415 0 0.35387457562600211 0.017206997366637829 0 0.35586624731347583 0.0085164368245983415 0 0.34394201326358509 0.0087310001477325875 0 0.35387457562600211 0.017206997366637829 0 0.33089157896819138 0.0097547738215436226 0 0.35387457562600211 0.017206997366637829 0 0.34394201326358509 0.0087310001477325875 0 0.33089157896819138 0.0097547738215436226 0 0.33089157896819138 0.0097547738215436226 0 0.32243597160031312 0.00024560631661407512 0 0.3351356511466751 -0.00055420742185291125 0 0.34394201326358509 0.0087310001477325875 0 0.33089157896819138 0.0097547738215436226 0 0.3351356511466751 -0.00055420742185291125 0 0.35387457562600211 0.017206997366637829 0 0.33089157896819138 0.0097547738215436226 0 0.33882877279712958 0.023933439016988911 0 0.33089157896819138 0.0097547738215436226 0 0.32816516047950239 0.02081417747467362 0 0.33882877279712958 0.023933439016988911 0 0.32816516047950239 0.02081417747467362 0 0.33882877279712958 0.023933439016988911 0 0.32719074762170069 0.032162934522072341 0 0.32816516047950239 0.02081417747467362 0 0.3157773144540465 0.018840237817711492 0 0.32719074762170069 0.032162934522072341 0 0.3157773144540465 0.018840237817711492 0 0.32719074762170069 0.032162934522072341 0 0.31459241746411659 0.034125342931503613 0 0.33089157896819138 0.0097547738215436226 0 0.32816516047950239 0.02081417747467362 0 0.3157773144540465 0.018840237817711492 0 0.33089157896819138 0.0097547738215436226 0 0.3157773144540465 0.018840237817711492 0 0.30790858231038049 0.002302550276449572 0 0.33089157896819138 0.0097547738215436226 0 0.32243597160031312 0.00024560631661407512 0 0.30790858231038049 0.002302550276449572 0 0.33089157896819138 0.0097547738215436226 0 0.30790858231038049 0.002302550276449572 0 0.33860434956305552 0.054338393199018023 0 0.32732709896402651 0.043004836724076727 0 0.32020580803400661 0.053773867810390667 0 0.34190261569746999 0.06944605022859246 0 0.33860434956305552 0.054338393199018023 0 0.32020580803400661 0.053773867810390667 0 0.34190261569746999 0.06944605022859246 0 0.32020580803400661 0.053773867810390667 0 0.34190261569746999 0.06944605022859246 0 0.34532336688122439 0.054519772243848519 0 0.34190261569746999 0.06944605022859246 0 0.34532336688122439 0.054519772243848519 0 0.33860434956305552 0.054338393199018023 0 0.34532336688122439 0.054519772243848519 0 0.33860434956305552 0.054338393199018023 0 0.3381867907949957 0.041558537492527282 0 0.34532336688122439 0.054519772243848519 0 0.33860434956305552 0.054338393199018023 0 0.33882877279712958 0.023933439016988911 0 0.3381867907949957 0.041558537492527282 0 0.32719074762170069 0.032162934522072341 0 0.34959897125361022 0.035863384805242489 0 0.33882877279712958 0.023933439016988911 0 0.3381867907949957 0.041558537492527282 0 0.3381867907949957 0.041558537492527282 0 0.32732709896402651 0.043004836724076727 0 0.32719074762170069 0.032162934522072341 0 0.33860434956305552 0.054338393199018023 0 0.3381867907949957 0.041558537492527282 0 0.32732709896402651 0.043004836724076727 0 0.32732709896402651 0.043004836724076727 0 0.31459241746411659 0.034125342931503613 0 0.32020580803400661 0.053773867810390667 0 0.32732709896402651 0.043004836724076727 0 0.32719074762170069 0.032162934522072341 0 0.31459241746411659 0.034125342931503613 0 0.29850900037054351 0.038101685392188389 0 0.2866738747546238 0.058733855150002567 0 0.30719775791145409 0.068121939970813492 0 0.32020580803400661 0.053773867810390667 0 0.29850900037054351 0.038101685392188389 0 0.30719775791145409 0.068121939970813492 0 0.31459241746411659 0.034125342931503613 0 0.32020580803400661 0.053773867810390667 0 0.29850900037054351 0.038101685392188389 0 0.32020580803400661 0.053773867810390667 0 0.29850900037054351 0.038101685392188389 0 0.29850900037054351 0.038101685392188389 0 0.28190141041181271 0.042253480274533087 0 0.2866738747546238 0.058733855150002567 0 0.29850900037054351 0.038101685392188389 0 0.28190141041181271 0.042253480274533087 0 0.27681219270708057 0.022429502973985879 0 0.30790858231038049 0.002302550276449572 0 0.29854453534037628 0.01886849532258203 0 0.28524332576007949 0.0018670035296111909 0 0.3157773144540465 0.018840237817711492 0 0.30790858231038049 0.002302550276449572 0 0.29854453534037628 0.01886849532258203 0 0.3157773144540465 0.018840237817711492 0 0.31459241746411659 0.034125342931503613 0 0.29854453534037628 0.01886849532258203 0 0.31459241746411659 0.034125342931503613 0 0.29850900037054351 0.038101685392188389 0 0.29854453534037628 0.01886849532258203 0 0.29850900037054351 0.038101685392188389 0 0.27681219270708057 0.022429502973985879 0 0.29850900037054351 0.038101685392188389 0 0.29854453534037628 0.01886849532258203 0 0.27681219270708057 0.022429502973985879 0 0.29854453534037628 0.01886849532258203 0 0.28524332576007949 0.0018670035296111909 0 0.27681219270708057 0.022429502973985879 0 0.28524332576007949 0.0018670035296111909 0 0.27681219270708057 0.022429502973985879 0 0.28524332576007949 0.0018670035296111909 0 0.27436285468293609 0.0077398376249921486 0 0.27681219270708057 0.022429502973985879 0 0.27436285468293609 0.0077398376249921486 0 0.26493826226400458 0.013319139454159331 0 0.26250953054351589 0.00176968330735934 0 0.27436285468293609 0.0077398376249921486 0 0.26250953054351589 0.00176968330735934 0 0.27453272865153588 -0.0027713048981822812 0 0.28524332576007949 0.0018670035296111909 0 0.27436285468293609 0.0077398376249921486 0 0.27453272865153588 -0.0027713048981822812 0 0.27436285468293609 0.0077398376249921486 0 0.27241743056368201 0.015891561571576299 0 0.27681219270708057 0.022429502973985879 0 0.27436285468293609 0.0077398376249921486 0 0.27241743056368201 0.015891561571576299 0 0.26493826226400458 0.013319139454159331 0 0.27241743056368201 0.015891561571576299 0 0.27355641260070701 0.0200777662331676 0 0.26493826226400458 0.013319139454159331 0 0.26649654369804082 0.021276841551311421 0 0.27681219270708057 0.022429502973985879 0 0.27355641260070701 0.0200777662331676 0 0.26649654369804082 0.021276841551311421 0 0.27355641260070701 0.0200777662331676 0 0.26493826226400458 0.013319139454159331 0 0.27241743056368201 0.015891561571576299 0 0.27681219270708057 0.022429502973985879 0 0.27355641260070701 0.0200777662331676 0 0.27681219270708057 0.022429502973985879 0 0.27355641260070701 0.0200777662331676 0 0.26649654369804082 0.021276841551311421 0 0.27681219270708057 0.022429502973985879 0 0.26232332916984907 0.032969070735920862 0 0.23762708062597629 0.025290352907342151 0 0.25485252174856282 0.01758872835932318 0 0.26232332916984907 0.032969070735920862 0 0.26649654369804082 0.021276841551311421 0 0.25485252174856282 0.01758872835932318 0 0.26232332916984907 0.032969070735920862 0 0.26649654369804082 0.021276841551311421 0 0.25485252174856282 0.01758872835932318 0 0.26493826226400458 0.013319139454159331 0 0.24166181837664269 0.0013377863527376729 0 0.25485252174856282 0.01758872835932318 0 0.26250953054351589 0.00176968330735934 0 0.25485252174856282 0.01758872835932318 0 0.26493826226400458 0.013319139454159331 0 0.26250953054351589 0.00176968330735934 0 0.28190141041181271 0.042253480274533087 0 0.2866738747546238 0.058733855150002567 0 0.26561057381500291 0.049748877581955293 0 0.2866738747546238 0.058733855150002567 0 0.26561057381500291 0.049748877581955293 0 0.27162239628568058 0.072773385401714658 0 0.27681219270708057 0.022429502973985879 0 0.26232332916984907 0.032969070735920862 0 0.26561057381500291 0.049748877581955293 0 0.27681219270708057 0.022429502973985879 0 0.26561057381500291 0.049748877581955293 0 0.28190141041181271 0.042253480274533087 0 0.27681219270708057 0.022429502973985879 0 0.26561057381500291 0.049748877581955293 0 0.24554085141178869 0.04339145424653499 0 0.26232332916984907 0.032969070735920862 0 0.26561057381500291 0.049748877581955293 0 0.2488077657281941 0.062220657992294072 0 0.24554085141178869 0.04339145424653499 0 0.26561057381500291 0.049748877581955293 0 0.2488077657281941 0.062220657992294072 0 0.26561057381500291 0.049748877581955293 0 0.27162239628568058 0.072773385401714658 0 0.24109634526414769 0.097076131968194423 0 0.25571581673653421 0.082932545351010509 0 0.27255335211386938 0.096510447487099388 0 0.2488077657281941 0.062220657992294072 0 0.25571581673653421 0.082932545351010509 0 0.27162239628568058 0.072773385401714658 0 0.27162239628568058 0.072773385401714658 0 0.29364251355514259 0.081696217235889282 0 0.27255335211386938 0.096510447487099388 0 0.25571581673653421 0.082932545351010509 0 0.27162239628568058 0.072773385401714658 0 0.27255335211386938 0.096510447487099388 0 0.2866738747546238 0.058733855150002567 0 0.27162239628568058 0.072773385401714658 0 0.29364251355514259 0.081696217235889282 0 0.2866738747546238 0.058733855150002567 0 0.29364251355514259 0.081696217235889282 0 0.30719775791145409 0.068121939970813492 0 0.29364251355514259 0.081696217235889282 0 0.30032258236485188 0.1021508610648056 0 0.27255335211386938 0.096510447487099388 0 0.31493526495508672 0.08668171582054876 0 0.29364251355514259 0.081696217235889282 0 0.30719775791145409 0.068121939970813492 0 0.31493526495508672 0.08668171582054876 0 0.29364251355514259 0.081696217235889282 0 0.30032258236485188 0.1021508610648056 0 0.31032787454065958 0.1215078793756028 0 0.28433243934786362 0.11948427475288639 0 0.29976061221448602 0.13360516900397701 0 0.32364288144989972 0.10626500094479541 0 0.31032787454065958 0.1215078793756028 0 0.30032258236485188 0.1021508610648056 0 0.31032787454065958 0.1215078793756028 0 0.30032258236485188 0.1021508610648056 0 0.28433243934786362 0.11948427475288639 0 0.31032787454065958 0.1215078793756028 0 0.28433243934786362 0.11948427475288639 0 0.30032258236485188 0.1021508610648056 0 0.28433243934786362 0.11948427475288639 0 0.27255335211386938 0.096510447487099388 0 0.28433243934786362 0.11948427475288639 0 0.25833700415506688 0.1174606701301795 0 0.28433243934786362 0.11948427475288639 0 0.25833700415506688 0.1174606701301795 0 0.26123080777521379 0.1221508544495872 0 0.28433243934786362 0.11948427475288639 0 0.27255335211386938 0.096510447487099388 0 0.25833700415506688 0.1174606701301795 0 0.28433243934786362 0.11948427475288639 0 0.26123080777521379 0.1221508544495872 0 0.28049570999485018 0.12787801172678109 0 0.24109634526414769 0.097076131968194423 0 0.27255335211386938 0.096510447487099388 0 0.25833700415506688 0.1174606701301795 0 0.25833700415506688 0.1174606701301795 0 0.26123080777521379 0.1221508544495872 0 0.25175638400313383 0.12610528964351431 0 0.25175638400313383 0.12610528964351431 0 0.25742572417832671 0.1350100413469742 0 0.26199555433163291 0.1297829475185962 0 0.24839548149688639 0.1350597881438366 0 0.25175638400313383 0.12610528964351431 0 0.25742572417832671 0.1350100413469742 0 0.24839548149688639 0.1350597881438366 0 0.25742572417832671 0.1350100413469742 0 0.2550421399890076 0.14276758108538659 0 0.25742572417832671 0.1350100413469742 0 0.26199555433163291 0.1297829475185962 0 0.26635128208559278 0.14019173443532801 0 0.25742572417832671 0.1350100413469742 0 0.26635128208559278 0.14019173443532801 0 0.2550421399890076 0.14276758108538659 0 0.26123080777521379 0.1221508544495872 0 0.25175638400313383 0.12610528964351431 0 0.26199555433163291 0.1297829475185962 0 0.26123080777521379 0.1221508544495872 0 0.26199555433163291 0.1297829475185962 0 0.2693328318838602 0.13111377534403881 0 0.26123080777521379 0.1221508544495872 0 0.28049570999485018 0.12787801172678109 0 0.26123080777521379 0.1221508544495872 0 0.2693328318838602 0.13111377534403881 0 0.28049570999485018 0.12787801172678109 0 0.2693328318838602 0.13111377534403881 0 0.26635128208559278 0.14019173443532801 0 0.27761028123560771 0.13649458742228571 0 0.26199555433163291 0.1297829475185962 0 0.2693328318838602 0.13111377534403881 0 0.26635128208559278 0.14019173443532801 0 0.2693328318838602 0.13111377534403881 0 0.27761028123560771 0.13649458742228571 0 0.28049570999485018 0.12787801172678109 0 0.25598526272878458 0.15581985813964519 0 0.28458011186384868 0.14670645271522539 0 0.26635128208559278 0.14019173443532801 0 0.27761028123560771 0.13649458742228571 0 0.28458011186384868 0.14670645271522539 0 0.25598526272878458 0.15581985813964519 0 0.27204387194860441 0.1655987279288389 0 0.28458011186384868 0.14670645271522539 0 0.26635128208559278 0.14019173443532801 0 0.25598526272878458 0.15581985813964519 0 0.28458011186384868 0.14670645271522539 0 0.26635128208559278 0.14019173443532801 0 0.2550421399890076 0.14276758108538659 0 0.25598526272878458 0.15581985813964519 0 0.2447639709830893 0.14352008692224369 0 0.2550421399890076 0.14276758108538659 0 0.25598526272878458 0.15581985813964519 0 0.25598526272878458 0.15581985813964519 0 0.25142757826099521 0.16979423355062589 0 0.27204387194860441 0.1655987279288389 0 0.25142757826099521 0.16979423355062589 0 0.25924029390337539 0.18346852117565179 0 0.27204387194860441 0.1655987279288389 0 0.24247804913049081 0.17915079694492789 0 0.25142757826099521 0.16979423355062589 0 0.25924029390337539 0.18346852117565179 0 0.25924029390337539 0.18346852117565179 0 0.27204387194860441 0.1655987279288389 0 0.25924029390337539 0.18346852117565179 0 0.27925462472054291 0.18485296975097221 0 0.27204387194860441 0.1655987279288389 0 0.27925462472054291 0.18485296975097221 0 0.27204387194860441 0.1655987279288389 0 0.2863955612215584 0.17161239608861109 0 0.27204387194860441 0.1655987279288389 0 0.2867773959963143 0.15706441418633471 0 0.28458011186384868 0.14670645271522539 0 0.2867773959963143 0.15706441418633471 0 0.30018096887055118 0.17285559336738041 0 0.2867773959963143 0.15706441418633471 0 0.29481251470606817 0.1609667121973288 0 0.30018096887055118 0.17285559336738041 0 0.2867773959963143 0.15706441418633471 0 0.2863955612215584 0.17161239608861109 0 0.30018096887055118 0.17285559336738041 0 0.27204387194860441 0.1655987279288389 0 0.2867773959963143 0.15706441418633471 0 0.2863955612215584 0.17161239608861109 0 0.2867773959963143 0.15706441418633471 0 0.29481251470606817 0.1609667121973288 0 0.29332246696092712 0.15381123082990211 0 0.29481251470606817 0.1609667121973288 0 0.30118827335141007 0.15450338791072679 0 0.29332246696092712 0.15381123082990211 0 0.27925462472054291 0.18485296975097221 0 0.2863955612215584 0.17161239608861109 0 0.29295896706141777 0.1823329705167924 0 0.2863955612215584 0.17161239608861109 0 0.29295896706141777 0.1823329705167924 0 0.30018096887055118 0.17285559336738041 0 0.30018096887055118 0.17285559336738041 0 0.30956655556583051 0.17465656710540869 0 0.31358454174478823 0.18864677254842621 0 0.30155133995168593 0.18527649505951849 0 0.30018096887055118 0.17285559336738041 0 0.31358454174478823 0.18864677254842621 0 0.30018096887055118 0.17285559336738041 0 0.31358454174478823 0.18864677254842621 0 0.29295896706141777 0.1823329705167924 0 0.30155133995168593 0.18527649505951849 0 0.30018096887055118 0.17285559336738041 0 0.29481251470606817 0.1609667121973288 0 0.30676456449963019 0.16259971452896679 0 0.30118827335141007 0.15450338791072679 0 0.29481251470606817 0.1609667121973288 0 0.30018096887055118 0.17285559336738041 0 0.30956655556583051 0.17465656710540869 0 0.29481251470606817 0.1609667121973288 0 0.30956655556583051 0.17465656710540869 0 0.30676456449963019 0.16259971452896679 0 0.29481251470606817 0.1609667121973288 0 0.30956655556583051 0.17465656710540869 0 0.30956655556583051 0.17465656710540869 0 0.30676456449963019 0.16259971452896679 0 0.32018467520374588 0.16339690174097851 0 0.30676456449963019 0.16259971452896679 0 0.30923380432846248 0.15485446199187999 0 0.32018467520374588 0.16339690174097851 0 0.30676456449963019 0.16259971452896679 0 0.30923380432846248 0.15485446199187999 0 0.30118827335141007 0.15450338791072679 0 0.29779162016018462 0.14802782131959111 0 0.28458011186384868 0.14670645271522539 0 0.31317496099891229 0.13759304729080421 0 0.29547515163368809 0.1385111187416305 0 0.28458011186384868 0.14670645271522539 0 0.31317496099891229 0.13759304729080421 0 0.30923380432846248 0.15485446199187999 0 0.30683160632644219 0.1486378308661537 0 0.30118827335141007 0.15450338791072679 0 0.28458011186384868 0.14670645271522539 0 0.31317496099891229 0.13759304729080421 0 0.30923380432846248 0.15485446199187999 0 0.30683160632644219 0.1486378308661537 0 0.31276937279324141 0.14821043581776511 0 0.30118827335141007 0.15450338791072679 0 0.29779162016018462 0.14802782131959111 0 0.29332246696092712 0.15381123082990211 0 0.30683160632644219 0.1486378308661537 0 0.30118827335141007 0.15450338791072679 0 0.29779162016018462 0.14802782131959111 0 0.30683160632644219 0.1486378308661537 0 0.29779162016018462 0.14802782131959111 0 0.31317496099891229 0.13759304729080421 0 0.30683160632644219 0.1486378308661537 0 0.31317496099891229 0.13759304729080421 0 0.31276937279324141 0.14821043581776511 0 0.29976061221448602 0.13360516900397701 0 0.29547515163368809 0.1385111187416305 0 0.31317496099891229 0.13759304729080421 0 0.29976061221448602 0.13360516900397701 0 0.31317496099891229 0.13759304729080421 0 0.31032787454065958 0.1215078793756028 0 0.29976061221448602 0.13360516900397701 0 0.31317496099891229 0.13759304729080421 0 0.31032787454065958 0.1215078793756028 0 0.29976061221448602 0.13360516900397701 0 0.29976061221448602 0.13360516900397701 0 0.29547515163368809 0.1385111187416305 0 0.28049570999485018 0.12787801172678109 0 0.29976061221448602 0.13360516900397701 0 0.28729147034988628 0.13658296289005509 0 0.28049570999485018 0.12787801172678109 0 0.29976061221448602 0.13360516900397701 0 0.29976061221448602 0.13360516900397701 0 0.29547515163368809 0.1385111187416305 0 0.28729147034988628 0.13658296289005509 0 0.29547515163368809 0.1385111187416305 0 0.28729147034988628 0.13658296289005509 0 0.28458011186384868 0.14670645271522539 0 0.28433243934786362 0.11948427475288639 0 0.28049570999485018 0.12787801172678109 0 0.29976061221448602 0.13360516900397701 0 0.27761028123560771 0.13649458742228571 0 0.28729147034988628 0.13658296289005509 0 0.28458011186384868 0.14670645271522539 0 0.27761028123560771 0.13649458742228571 0 0.28049570999485018 0.12787801172678109 0 0.28729147034988628 0.13658296289005509 0 0.2867773959963143 0.15706441418633471 0 0.28458011186384868 0.14670645271522539 0 0.29332246696092712 0.15381123082990211 0 0.29779162016018462 0.14802782131959111 0 0.28458011186384868 0.14670645271522539 0 0.29332246696092712 0.15381123082990211 0 0.27829409754530371 0.24407401200611681 0 0.26712681831750551 0.23499281595901361 0 0.27694476224917702 0.23215747026448111 0 0.27829409754530371 0.24407401200611681 0 0.26712681831750551 0.23499281595901361 0 0.26610025655959169 0.24528589462681341 0 0.27212485655982022 0.25623018412663512 0 0.27829409754530371 0.24407401200611681 0 0.26610025655959169 0.24528589462681341 0 0.26610025655959169 0.24528589462681341 0 0.25796111332710092 0.24725780601463959 0 0.25781945798610212 0.23876481432349059 0 0.2617523448072876 0.25504409120019123 0 0.26610025655959169 0.24528589462681341 0 0.25796111332710092 0.24725780601463959 0 0.2463733885494889 0.24903830734341381 0 0.25317499598307841 0.25303006526473892 0 0.25095851129944508 0.24416416465796389 0 0.25796111332710092 0.24725780601463959 0 0.25095851129944508 0.24416416465796389 0 0.25781945798610212 0.23876481432349059 0 0.25317499598307841 0.25303006526473892 0 0.25796111332710092 0.24725780601463959 0 0.25095851129944508 0.24416416465796389 0 0.24919991527462301 0.2346560722024468 0 0.25095851129944508 0.24416416465796389 0 0.25781945798610212 0.23876481432349059 0 0.26712681831750551 0.23499281595901361 0 0.26610025655959169 0.24528589462681341 0 0.25781945798610212 0.23876481432349059 0 0.26712681831750551 0.23499281595901361 0 0.25781945798610212 0.23876481432349059 0 0.25573779568112581 0.22943032044287809 0 0.26712681831750551 0.23499281595901361 0 0.25573779568112581 0.22943032044287809 0 0.26615467345238719 0.2251749277084325 0 0.24919991527462301 0.2346560722024468 0 0.25781945798610212 0.23876481432349059 0 0.25573779568112581 0.22943032044287809 0 0.24540406229182629 0.2218635228805253 0 0.24919991527462301 0.2346560722024468 0 0.25573779568112581 0.22943032044287809 0 0.24540406229182629 0.2218635228805253 0 0.25573779568112581 0.22943032044287809 0 0.25704771081547723 0.21986833790778909 0 0.25704771081547723 0.21986833790778909 0 0.26615467345238719 0.2251749277084325 0 0.26928279738410599 0.21304137018452449 0 0.25573779568112581 0.22943032044287809 0 0.25704771081547723 0.21986833790778909 0 0.26615467345238719 0.2251749277084325 0 0.26615467345238719 0.2251749277084325 0 0.27590544413869073 0.22316825470544571 0 0.26928279738410599 0.21304137018452449 0 0.26615467345238719 0.2251749277084325 0 0.27694476224917702 0.23215747026448111 0 0.27590544413869073 0.22316825470544571 0 0.26712681831750551 0.23499281595901361 0 0.26615467345238719 0.2251749277084325 0 0.27694476224917702 0.23215747026448111 0 0.27694476224917702 0.23215747026448111 0 0.27590544413869073 0.22316825470544571 0 0.28543794269413347 0.22779935878695931 0 0.26928279738410599 0.21304137018452449 0 0.28054129345753492 0.20055636802608909 0 0.28430389133987122 0.21736850639558269 0 0.27590544413869073 0.22316825470544571 0 0.26928279738410599 0.21304137018452449 0 0.28430389133987122 0.21736850639558269 0 0.26928279738410599 0.21304137018452449 0 0.26514644220522288 0.19857480795566679 0 0.28054129345753492 0.20055636802608909 0 0.24643671585814639 0.20133831442246461 0 0.2563987533174909 0.209592307488531 0 0.26514644220522288 0.19857480795566679 0 0.25704771081547723 0.21986833790778909 0 0.26928279738410599 0.21304137018452449 0 0.2563987533174909 0.209592307488531 0 0.24540406229182629 0.2218635228805253 0 0.25704771081547723 0.21986833790778909 0 0.2563987533174909 0.209592307488531 0 0.26928279738410599 0.21304137018452449 0 0.2563987533174909 0.209592307488531 0 0.26514644220522288 0.19857480795566679 0 0.24643671585814639 0.20133831442246461 0 0.25924029390337539 0.18346852117565179 0 0.26514644220522288 0.19857480795566679 0 0.24643671585814639 0.20133831442246461 0 0.25924029390337539 0.18346852117565179 0 0.27925462472054291 0.18485296975097221 0 0.26514644220522288 0.19857480795566679 0 0.28054129345753492 0.20055636802608909 0 0.25924029390337539 0.18346852117565179 0 0.27925462472054291 0.18485296975097221 0 0.26514644220522288 0.19857480795566679 0 0.28054129345753492 0.20055636802608909 0 0.2974123405427509 0.1970673983174796 0 0.28925436155445211 0.207349878957103 0 0.27925462472054291 0.18485296975097221 0 0.28054129345753492 0.20055636802608909 0 0.2974123405427509 0.1970673983174796 0 0.27925462472054291 0.18485296975097221 0 0.29295896706141777 0.1823329705167924 0 0.2974123405427509 0.1970673983174796 0 0.30155133995168593 0.18527649505951849 0 0.30751247650592312 0.19572972802712041 0 0.2974123405427509 0.1970673983174796 0 0.29295896706141777 0.1823329705167924 0 0.30155133995168593 0.18527649505951849 0 0.2974123405427509 0.1970673983174796 0 0.30751247650592312 0.19572972802712041 0 0.31420919438627459 0.199684597795552 0 0.31358454174478823 0.18864677254842621 0 0.30155133995168593 0.18527649505951849 0 0.30751247650592312 0.19572972802712041 0 0.31358454174478823 0.18864677254842621 0 0.30751247650592312 0.19572972802712041 0 0.31080496590411588 0.2079733764146259 0 0.31420919438627459 0.199684597795552 0 0.30751247650592312 0.19572972802712041 0 0.2974123405427509 0.1970673983174796 0 0.31080496590411588 0.2079733764146259 0 0.2974123405427509 0.1970673983174796 0 0.31080496590411588 0.2079733764146259 0 0.2974123405427509 0.1970673983174796 0 0.31080496590411588 0.2079733764146259 0 0.29752357439080751 0.21320559614320991 0 0.31080496590411588 0.2079733764146259 0 0.3049826702179424 0.22099804389354721 0 0.31446323967083989 0.21947145973681911 0 0.31080496590411588 0.2079733764146259 0 0.29752357439080751 0.21320559614320991 0 0.3049826702179424 0.22099804389354721 0 0.29752357439080751 0.21320559614320991 0 0.29205120990897948 0.2218032848960852 0 0.3049826702179424 0.22099804389354721 0 0.29752357439080751 0.21320559614320991 0 0.28925436155445211 0.207349878957103 0 0.28430389133987122 0.21736850639558269 0 0.29752357439080751 0.21320559614320991 0 0.28430389133987122 0.21736850639558269 0 0.29205120990897948 0.2218032848960852 0 0.28054129345753492 0.20055636802608909 0 0.28925436155445211 0.207349878957103 0 0.28430389133987122 0.21736850639558269 0 0.2974123405427509 0.1970673983174796 0 0.29752357439080751 0.21320559614320991 0 0.28925436155445211 0.207349878957103 0 0.28430389133987122 0.21736850639558269 0 0.28543794269413347 0.22779935878695931 0 0.29205120990897948 0.2218032848960852 0 0.27590544413869073 0.22316825470544571 0 0.28430389133987122 0.21736850639558269 0 0.28543794269413347 0.22779935878695931 0 0.27694476224917702 0.23215747026448111 0 0.28543794269413347 0.22779935878695931 0 0.28873626040934142 0.23676023141765359 0 0.2988229790677211 0.2276197570072957 0 0.29878947423393842 0.23710605117934719 0 0.28873626040934142 0.23676023141765359 0 0.28543794269413347 0.22779935878695931 0 0.2988229790677211 0.2276197570072957 0 0.28873626040934142 0.23676023141765359 0 0.28543794269413347 0.22779935878695931 0 0.29205120990897948 0.2218032848960852 0 0.2988229790677211 0.2276197570072957 0 0.29205120990897948 0.2218032848960852 0 0.3049826702179424 0.22099804389354721 0 0.2988229790677211 0.2276197570072957 0 0.3049826702179424 0.22099804389354721 0 0.30600899038007567 0.2300692390903491 0 0.2988229790677211 0.2276197570072957 0 0.3049826702179424 0.22099804389354721 0 0.31446323967083989 0.21947145973681911 0 0.31300638249421259 0.22601284219427331 0 0.3049826702179424 0.22099804389354721 0 0.30600899038007567 0.2300692390903491 0 0.31300638249421259 0.22601284219427331 0 0.30600899038007567 0.2300692390903491 0 0.30755892914058081 0.23723171885973601 0 0.3134307129580845 0.23359012256707579 0 0.30600899038007567 0.2300692390903491 0 0.3134307129580845 0.23359012256707579 0 0.31300638249421259 0.22601284219427331 0 0.30600899038007567 0.2300692390903491 0 0.2988229790677211 0.2276197570072957 0 0.29878947423393842 0.23710605117934719 0 0.30600899038007567 0.2300692390903491 0 0.29878947423393842 0.23710605117934719 0 0.30755892914058081 0.23723171885973601 0 0.29878947423393842 0.23710605117934719 0 0.30755892914058081 0.23723171885973601 0 0.3028219078173614 0.24724445686387611 0 0.30755892914058081 0.23723171885973601 0 0.3028219078173614 0.24724445686387611 0 0.31775004238357218 0.24070847555333161 0 0.29878947423393842 0.23710605117934719 0 0.3028219078173614 0.24724445686387611 0 0.29096547633145292 0.24698808805264719 0 0.29878947423393842 0.23710605117934719 0 0.29096547633145292 0.24698808805264719 0 0.28873626040934142 0.23676023141765359 0 0.27829409754530371 0.24407401200611681 0 0.27694476224917702 0.23215747026448111 0 0.28873626040934142 0.23676023141765359 0 0.27829409754530371 0.24407401200611681 0 0.29096547633145292 0.24698808805264719 0 0.28873626040934142 0.23676023141765359 0 0.28420227851296459 0.25721377561363551 0 0.27829409754530371 0.24407401200611681 0 0.29096547633145292 0.24698808805264719 0 0.33718771242873852 0.24418368278681021 0 0.33693163013853877 0.2376122464037195 0 0.34430668227928118 0.24545844944811859 0 0.34030979911781151 0.25659963693408222 0 0.33718771242873852 0.24418368278681021 0 0.34430668227928118 0.24545844944811859 0 0.33693163013853877 0.2376122464037195 0 0.34739288522714717 0.2377679115405206 0 0.34430668227928118 0.24545844944811859 0 0.33718771242873852 0.24418368278681021 0 0.33693163013853877 0.2376122464037195 0 0.33223806991831761 0.2415231908470199 0 0.33223806991831761 0.2415231908470199 0 0.32529326346830101 0.24327549796599279 0 0.33066826754943512 0.23346153483004589 0 0.33693163013853877 0.2376122464037195 0 0.33223806991831761 0.2415231908470199 0 0.33066826754943512 0.23346153483004589 0 0.33228355612085808 0.25065072999082361 0 0.33718771242873852 0.24418368278681021 0 0.33223806991831761 0.2415231908470199 0 0.33228355612085808 0.25065072999082361 0 0.33223806991831761 0.2415231908470199 0 0.32529326346830101 0.24327549796599279 0 0.31679550400019513 0.25587982274051901 0 0.32529326346830101 0.24327549796599279 0 0.31775004238357218 0.24070847555333161 0 0.30755892914058081 0.23723171885973601 0 0.31775004238357218 0.24070847555333161 0 0.3134307129580845 0.23359012256707579 0 0.31775004238357218 0.24070847555333161 0 0.31857501445615599 0.2310076132601602 0 0.3134307129580845 0.23359012256707579 0 0.32529326346830101 0.24327549796599279 0 0.31775004238357218 0.24070847555333161 0 0.31857501445615599 0.2310076132601602 0 0.32529326346830101 0.24327549796599279 0 0.32419759126548048 0.21887935451177271 0 0.33066826754943512 0.23346153483004589 0 0.32529326346830101 0.24327549796599279 0 0.31857501445615599 0.2310076132601602 0 0.32419759126548048 0.21887935451177271 0 0.32529326346830101 0.24327549796599279 0 0.32419759126548048 0.21887935451177271 0 0.31857501445615599 0.2310076132601602 0 0.31300638249421259 0.22601284219427331 0 0.31777209416728502 0.2235793867685151 0 0.31857501445615599 0.2310076132601602 0 0.3134307129580845 0.23359012256707579 0 0.31300638249421259 0.22601284219427331 0 0.31857501445615599 0.2310076132601602 0 0.31777209416728502 0.2235793867685151 0 0.32419759126548048 0.21887935451177271 0 0.31446323967083989 0.21947145973681911 0 0.31777209416728502 0.2235793867685151 0 0.32419759126548048 0.21887935451177271 0 0.31446323967083989 0.21947145973681911 0 0.31300638249421259 0.22601284219427331 0 0.31777209416728502 0.2235793867685151 0 0.32419759126548048 0.21887935451177271 0 0.33021177498593163 0.22388435202619619 0 0.32419759126548048 0.21887935451177271 0 0.33021177498593163 0.22388435202619619 0 0.33066826754943512 0.23346153483004589 0 0.33693163013853877 0.2376122464037195 0 0.33021177498593163 0.22388435202619619 0 0.34739288522714717 0.2377679115405206 0 0.33021177498593163 0.22388435202619619 0 0.35007274945119848 0.23163470056533869 0 0.34739288522714717 0.2377679115405206 0 0.33021177498593163 0.22388435202619619 0 0.33853043203511191 0.2180363261474054 0 0.35007274945119848 0.23163470056533869 0 0.33021177498593163 0.22388435202619619 0 0.34739288522714717 0.2377679115405206 0 0.33693163013853877 0.2376122464037195 0 0.33021177498593163 0.22388435202619619 0 0.33066826754943512 0.23346153483004589 0 0.33021177498593163 0.22388435202619619 0 0.32698811461902583 0.20443795172947149 0 0.33021177498593163 0.22388435202619619 0 0.33853043203511191 0.2180363261474054 0 0.32698811461902583 0.20443795172947149 0 0.33853043203511191 0.2180363261474054 0 0.34099511886712452 0.2113830661180349 0 0.3480749944715239 0.22148167374047811 0 0.34099511886712452 0.2113830661180349 0 0.34152250802954182 0.20430758656752579 0 0.32698811461902583 0.20443795172947149 0 0.33853043203511191 0.2180363261474054 0 0.32698811461902583 0.20443795172947149 0 0.33853043203511191 0.2180363261474054 0 0.34099511886712452 0.2113830661180349 0 0.32698811461902583 0.20443795172947149 0 0.32419759126548048 0.21887935451177271 0 0.32346838360715352 0.20264287922779661 0 0.32419759126548048 0.21887935451177271 0 0.33021177498593163 0.22388435202619619 0 0.32698811461902583 0.20443795172947149 0 0.32419759126548048 0.21887935451177271 0 0.32698811461902583 0.20443795172947149 0 0.32346838360715352 0.20264287922779661 0 0.32419759126548048 0.21887935451177271 0 0.31698891442837368 0.2049571003882234 0 0.32346838360715352 0.20264287922779661 0 0.31080496590411588 0.2079733764146259 0 0.32419759126548048 0.21887935451177271 0 0.31080496590411588 0.2079733764146259 0 0.31446323967083989 0.21947145973681911 0 0.32419759126548048 0.21887935451177271 0 0.31080496590411588 0.2079733764146259 0 0.31698891442837368 0.2049571003882234 0 0.31420919438627459 0.199684597795552 0 0.31080496590411588 0.2079733764146259 0 0.32419759126548048 0.21887935451177271 0 0.31698891442837368 0.2049571003882234 0 0.32698811461902583 0.20443795172947149 0 0.3243205964255933 0.18834642201348789 0 0.32698811461902583 0.20443795172947149 0 0.31358454174478823 0.18864677254842621 0 0.32698811461902583 0.20443795172947149 0 0.32346838360715352 0.20264287922779661 0 0.31358454174478823 0.18864677254842621 0 0.32698811461902583 0.20443795172947149 0 0.31358454174478823 0.18864677254842621 0 0.3243205964255933 0.18834642201348789 0 0.31698891442837368 0.2049571003882234 0 0.32346838360715352 0.20264287922779661 0 0.31420919438627459 0.199684597795552 0 0.32346838360715352 0.20264287922779661 0 0.31420919438627459 0.199684597795552 0 0.31358454174478823 0.18864677254842621 0 0.34152250802954182 0.20430758656752579 0 0.3243205964255933 0.18834642201348789 0 0.3243205964255933 0.18834642201348789 0 0.3375405372659277 0.19754083648462251 0 0.33750858061065953 0.19520859442300079 0 0.34152250802954182 0.20430758656752579 0 0.32698811461902583 0.20443795172947149 0 0.3243205964255933 0.18834642201348789 0 0.34152250802954182 0.20430758656752579 0 0.3243205964255933 0.18834642201348789 0 0.3375405372659277 0.19754083648462251 0 0.3243205964255933 0.18834642201348789 0 0.33199021984397009 0.18966575343700059 0 0.33750858061065953 0.19520859442300079 0 0.33199021984397009 0.18966575343700059 0 0.33750858061065953 0.19520859442300079 0 0.33766617605875521 0.191833946541282 0 0.34152250802954182 0.20430758656752579 0 0.34232459044276581 0.19755713638767891 0 0.34663796150642789 0.19594450085818321 0 0.3375405372659277 0.19754083648462251 0 0.34232459044276581 0.19755713638767891 0 0.33750858061065953 0.19520859442300079 0 0.34152250802954182 0.20430758656752579 0 0.3375405372659277 0.19754083648462251 0 0.34232459044276581 0.19755713638767891 0 0.34232459044276581 0.19755713638767891 0 0.34143368025820431 0.19340052734948129 0 0.34663796150642789 0.19594450085818321 0 0.34232459044276581 0.19755713638767891 0 0.34143368025820431 0.19340052734948129 0 0.33750858061065953 0.19520859442300079 0 0.33973222352218702 0.18906091095564551 0 0.34568297129266018 0.1903164199885167 0 0.34389711953819152 0.1859171110029863 0 0.34143368025820431 0.19340052734948129 0 0.33973222352218702 0.18906091095564551 0 0.34568297129266018 0.1903164199885167 0 0.33199021984397009 0.18966575343700059 0 0.33973222352218702 0.18906091095564551 0 0.33766617605875521 0.191833946541282 0 0.33199021984397009 0.18966575343700059 0 0.33973222352218702 0.18906091095564551 0 0.33811874970926292 0.18389514412285521 0 0.34143368025820431 0.19340052734948129 0 0.33973222352218702 0.18906091095564551 0 0.33766617605875521 0.191833946541282 0 0.34143368025820431 0.19340052734948129 0 0.33750858061065953 0.19520859442300079 0 0.33766617605875521 0.191833946541282 0 0.34152250802954182 0.20430758656752579 0 0.35637602540823571 0.1948134932099771 0 0.37151103952544468 0.20385208463081839 0 0.35103873956399823 0.19094624465869089 0 0.34663796150642789 0.19594450085818321 0 0.35637602540823571 0.1948134932099771 0 0.35103873956399823 0.19094624465869089 0 0.34568297129266018 0.1903164199885167 0 0.34663796150642789 0.19594450085818321 0 0.35103873956399823 0.19094624465869089 0 0.34568297129266018 0.1903164199885167 0 0.34968575690782999 0.18596098384133819 0 0.34143368025820431 0.19340052734948129 0 0.34568297129266018 0.1903164199885167 0 0.34663796150642789 0.19594450085818321 0 0.34152250802954182 0.20430758656752579 0 0.34663796150642789 0.19594450085818321 0 0.35637602540823571 0.1948134932099771 0 0.35103873956399823 0.19094624465869089 0 0.35637602540823571 0.1948134932099771 0 0.356388224946798 0.18532183894098311 0 0.35637602540823571 0.1948134932099771 0 0.36564785951501277 0.19059305725744799 0 0.356388224946798 0.18532183894098311 0 0.36564785951501277 0.19059305725744799 0 0.37151103952544468 0.20385208463081839 0 0.37923554463335518 0.18878523636230241 0 0.35637602540823571 0.1948134932099771 0 0.36564785951501277 0.19059305725744799 0 0.37151103952544468 0.20385208463081839 0 0.37151103952544468 0.20385208463081839 0 0.35768782527212228 0.21930692469445059 0 0.37296039670641168 0.21905777040416749 0 0.34099511886712452 0.2113830661180349 0 0.34152250802954182 0.20430758656752579 0 0.35768782527212228 0.21930692469445059 0 0.34099511886712452 0.2113830661180349 0 0.3480749944715239 0.22148167374047811 0 0.35768782527212228 0.21930692469445059 0 0.34152250802954182 0.20430758656752579 0 0.37151103952544468 0.20385208463081839 0 0.35768782527212228 0.21930692469445059 0 0.34152250802954182 0.20430758656752579 0 0.37151103952544468 0.20385208463081839 0 0.34152250802954182 0.20430758656752579 0 0.35768782527212228 0.21930692469445059 0 0.33853043203511191 0.2180363261474054 0 0.35007274945119848 0.23163470056533869 0 0.3480749944715239 0.22148167374047811 0 0.35007274945119848 0.23163470056533869 0 0.35391243444170739 0.2255143613919714 0 0.33853043203511191 0.2180363261474054 0 0.3480749944715239 0.22148167374047811 0 0.35007274945119848 0.23163470056533869 0 0.35007274945119848 0.23163470056533869 0 0.35391243444170739 0.2255143613919714 0 0.35981416857198512 0.2296341465676183 0 0.35007274945119848 0.23163470056533869 0 0.35981416857198512 0.2296341465676183 0 0.35429369724356352 0.234653824299249 0 0.35391243444170739 0.2255143613919714 0 0.35768782527212228 0.21930692469445059 0 0.35981416857198512 0.2296341465676183 0 0.3480749944715239 0.22148167374047811 0 0.35391243444170739 0.2255143613919714 0 0.35768782527212228 0.21930692469445059 0 0.35768782527212228 0.21930692469445059 0 0.37385314251470381 0.23430626282137429 0 0.35768782527212228 0.21930692469445059 0 0.37296039670641168 0.21905777040416749 0 0.37385314251470381 0.23430626282137429 0 0.35768782527212228 0.21930692469445059 0 0.37385314251470381 0.23430626282137429 0 0.36958681548853178 0.23147611155890541 0 0.36958681548853178 0.23147611155890541 0 0.35981416857198512 0.2296341465676183 0 0.36395614681641458 0.23462170192298351 0 0.35768782527212228 0.21930692469445059 0 0.36958681548853178 0.23147611155890541 0 0.35981416857198512 0.2296341465676183 0 0.36958681548853178 0.23147611155890541 0 0.36624833604961321 0.23947291284299649 0 0.36395614681641458 0.23462170192298351 0 0.35981416857198512 0.2296341465676183 0 0.3598949857239232 0.23957853852351829 0 0.36395614681641458 0.23462170192298351 0 0.36452136718342693 0.25171609899534492 0 0.37111474136511541 0.24292052916282719 0 0.38310622285093932 0.24996779441551559 0 0.36958681548853178 0.23147611155890541 0 0.37111474136511541 0.24292052916282719 0 0.38310622285093932 0.24996779441551559 0 0.3598949857239232 0.23957853852351829 0 0.36624833604961321 0.23947291284299649 0 0.36395614681641458 0.23462170192298351 0 0.36958681548853178 0.23147611155890541 0 0.36624833604961321 0.23947291284299649 0 0.37111474136511541 0.24292052916282719 0 0.36452136718342693 0.25171609899534492 0 0.36624833604961321 0.23947291284299649 0 0.37111474136511541 0.24292052916282719 0 0.36452136718342693 0.25171609899534492 0 0.3598949857239232 0.23957853852351829 0 0.36624833604961321 0.23947291284299649 0 0.36452136718342693 0.25171609899534492 0 0.35099919741285179 0.25037355860251248 0 0.34739288522714717 0.2377679115405206 0 0.36452136718342693 0.25171609899534492 0 0.34739288522714717 0.2377679115405206 0 0.36452136718342693 0.25171609899534492 0 0.3598949857239232 0.23957853852351829 0 0.34739288522714717 0.2377679115405206 0 0.3598949857239232 0.23957853852351829 0 0.35429369724356352 0.234653824299249 0 0.34739288522714717 0.2377679115405206 0 0.35981416857198512 0.2296341465676183 0 0.3598949857239232 0.23957853852351829 0 0.35429369724356352 0.234653824299249 0 0.35007274945119848 0.23163470056533869 0 0.35429369724356352 0.234653824299249 0 0.34739288522714717 0.2377679115405206 0 0.35099919741285179 0.25037355860251248 0 0.34739288522714717 0.2377679115405206 0 0.34430668227928118 0.24545844944811859 0 0.33785929596259001 0.14168262106612581 0 0.33866831703436279 0.14517182749295171 0 0.32728327590153727 0.13989062465191379 0 0.32921898203445599 0.1465717175742372 0 0.3347076210061094 0.1485436997421733 0 0.33866831703436279 0.14517182749295171 0 0.32921898203445599 0.1465717175742372 0 0.33098156844657051 0.15156314682923269 0 0.324988152818452 0.1497830524811018 0 0.32921898203445599 0.1465717175742372 0 0.33098156844657051 0.15156314682923269 0 0.3347076210061094 0.1485436997421733 0 0.33098156844657051 0.15156314682923269 0 0.33421658862665821 0.15691559947917719 0 0.32835002950445091 0.15684669022946041 0 0.33098156844657051 0.15156314682923269 0 0.33659601079741741 0.15141142103434821 0 0.33421658862665821 0.15691559947917719 0 0.33098156844657051 0.15156314682923269 0 0.3347076210061094 0.1485436997421733 0 0.33659601079741741 0.15141142103434821 0 0.34322989562813921 0.1501387260550458 0 0.33866831703436279 0.14517182749295171 0 0.34814317830837488 0.1505200993809413 0 0.3347076210061094 0.1485436997421733 0 0.33659601079741741 0.15141142103434821 0 0.33808189584797832 0.1483378589601797 0 0.33659601079741741 0.15141142103434821 0 0.33986709201573828 0.15183831837536671 0 0.33808189584797832 0.1483378589601797 0 0.34069360938868581 0.14951884709867719 0 0.33986709201573828 0.15183831837536671 0 0.33808189584797832 0.1483378589601797 0 0.33659601079741741 0.15141142103434821 0 0.33893295211327767 0.15472081280152569 0 0.33421658862665821 0.15691559947917719 0 0.33659601079741741 0.15141142103434821 0 0.33893295211327767 0.15472081280152569 0 0.33986709201573828 0.15183831837536671 0 0.33893295211327767 0.15472081280152569 0 0.34272279664976479 0.15285140401706149 0 0.34363109432834282 0.15618114693174431 0 0.33893295211327767 0.15472081280152569 0 0.34272279664976479 0.15285140401706149 0 0.33986709201573828 0.15183831837536671 0 0.34272279664976479 0.15285140401706149 0 0.34069360938868581 0.14951884709867719 0 0.33986709201573828 0.15183831837536671 0 0.34272279664976479 0.15285140401706149 0 0.34069360938868581 0.14951884709867719 0 0.34322989562813921 0.1501387260550458 0 0.34069360938868581 0.14951884709867719 0 0.34322989562813921 0.1501387260550458 0 0.33866831703436279 0.14517182749295171 0 0.3347076210061094 0.1485436997421733 0 0.33866831703436279 0.14517182749295171 0 0.33808189584797832 0.1483378589601797 0 0.34069360938868581 0.14951884709867719 0 0.33866831703436279 0.14517182749295171 0 0.33808189584797832 0.1483378589601797 0 0.32962697244367167 0.1230102102056374 0 0.35317858083399778 0.1248435760738186 0 0.3331767709164557 0.13121831168231371 0 0.35317858083399778 0.1248435760738186 0 0.3331767709164557 0.13121831168231371 0 0.33785929596259001 0.14168262106612581 0 0.3331767709164557 0.13121831168231371 0 0.35061719967077409 0.13505468829179329 0 0.32962697244367167 0.1230102102056374 0 0.3331767709164557 0.13121831168231371 0 0.3281339276079297 0.12952503723182929 0 0.32962697244367167 0.1230102102056374 0 0.3281339276079297 0.12952503723182929 0 0.33785929596259001 0.14168262106612581 0 0.3331767709164557 0.13121831168231371 0 0.32728327590153727 0.13989062465191379 0 0.3331767709164557 0.13121831168231371 0 0.3281339276079297 0.12952503723182929 0 0.31317496099891229 0.13759304729080421 0 0.3331767709164557 0.13121831168231371 0 0.31317496099891229 0.13759304729080421 0 0.31604875398189758 0.13844738146846941 0 0.3331767709164557 0.13121831168231371 0 0.32728327590153727 0.13989062465191379 0 0.31604875398189758 0.13844738146846941 0 0.3331767709164557 0.13121831168231371 0 0.31317496099891229 0.13759304729080421 0 0.31032787454065958 0.1215078793756028 0 0.31878362046859321 0.1282600242851219 0 0.31317496099891229 0.13759304729080421 0 0.32962697244367167 0.1230102102056374 0 0.3281339276079297 0.12952503723182929 0 0.31878362046859321 0.1282600242851219 0 0.3281339276079297 0.12952503723182929 0 0.31878362046859321 0.1282600242851219 0 0.31317496099891229 0.13759304729080421 0 0.31317496099891229 0.13759304729080421 0 0.31604875398189758 0.13844738146846941 0 0.31317496099891229 0.13759304729080421 0 0.31604875398189758 0.13844738146846941 0 0.31276937279324141 0.14821043581776511 0 0.31604875398189758 0.13844738146846941 0 0.32018467520374588 0.16339690174097851 0 0.32921898203445599 0.1465717175742372 0 0.33866831703436279 0.14517182749295171 0 0.31604875398189758 0.13844738146846941 0 0.33866831703436279 0.14517182749295171 0 0.31604875398189758 0.13844738146846941 0 0.33866831703436279 0.14517182749295171 0 0.32728327590153727 0.13989062465191379 0 0.31604875398189758 0.13844738146846941 0 0.31604875398189758 0.13844738146846941 0 0.31276937279324141 0.14821043581776511 0 0.32018467520374588 0.16339690174097851 0 0.31604875398189758 0.13844738146846941 0 0.324988152818452 0.1497830524811018 0 0.32018467520374588 0.16339690174097851 0 0.32921898203445599 0.1465717175742372 0 0.31604875398189758 0.13844738146846941 0 0.324988152818452 0.1497830524811018 0 0.33098156844657051 0.15156314682923269 0 0.324988152818452 0.1497830524811018 0 0.32835002950445091 0.15684669022946041 0 0.30923380432846248 0.15485446199187999 0 0.31276937279324141 0.14821043581776511 0 0.32018467520374588 0.16339690174097851 0 0.32018467520374588 0.16339690174097851 0 0.32835002950445091 0.15684669022946041 0 0.33137916242682819 0.16257475061681201 0 0.324988152818452 0.1497830524811018 0 0.32018467520374588 0.16339690174097851 0 0.32835002950445091 0.15684669022946041 0 0.3243205964255933 0.18834642201348789 0 0.32018467520374588 0.16339690174097851 0 0.33314417236277383 0.18196951069335399 0 0.30956655556583051 0.17465656710540869 0 0.3243205964255933 0.18834642201348789 0 0.32018467520374588 0.16339690174097851 0 0.3243205964255933 0.18834642201348789 0 0.32018467520374588 0.16339690174097851 0 0.30956655556583051 0.17465656710540869 0 0.31358454174478823 0.18864677254842621 0 0.3243205964255933 0.18834642201348789 0 0.30956655556583051 0.17465656710540869 0 0.3243205964255933 0.18834642201348789 0 0.32018467520374588 0.16339690174097851 0 0.33314417236277383 0.18196951069335399 0 0.33459862103336652 0.1716314657637206 0 0.3243205964255933 0.18834642201348789 0 0.33199021984397009 0.18966575343700059 0 0.33314417236277383 0.18196951069335399 0 0.33199021984397009 0.18966575343700059 0 0.33314417236277383 0.18196951069335399 0 0.33811874970926292 0.18389514412285521 0 0.33314417236277383 0.18196951069335399 0 0.33958840614533359 0.17802903707851889 0 0.33459862103336652 0.1716314657637206 0 0.3431882735813217 0.1725078784702524 0 0.33958840614533359 0.17802903707851889 0 0.33459862103336652 0.1716314657637206 0 0.3431882735813217 0.1725078784702524 0 0.33958840614533359 0.17802903707851889 0 0.34541344630137449 0.17704459279561061 0 0.33958840614533359 0.17802903707851889 0 0.34306717388390268 0.18112563062532069 0 0.34541344630137449 0.17704459279561061 0 0.33314417236277383 0.18196951069335399 0 0.33958840614533359 0.17802903707851889 0 0.33811874970926292 0.18389514412285521 0 0.33958840614533359 0.17802903707851889 0 0.34306717388390268 0.18112563062532069 0 0.33811874970926292 0.18389514412285521 0 0.34306717388390268 0.18112563062532069 0 0.33811874970926292 0.18389514412285521 0 0.34389711953819152 0.1859171110029863 0 0.33973222352218702 0.18906091095564551 0 0.33811874970926292 0.18389514412285521 0 0.34389711953819152 0.1859171110029863 0 0.33137916242682819 0.16257475061681201 0 0.33683164379531272 0.165483944130114 0 0.33681418988042738 0.16103078886672631 0 0.33421658862665821 0.15691559947917719 0 0.33137916242682819 0.16257475061681201 0 0.33681418988042738 0.16103078886672631 0 0.33421658862665821 0.15691559947917719 0 0.32835002950445091 0.15684669022946041 0 0.33137916242682819 0.16257475061681201 0 0.32018467520374588 0.16339690174097851 0 0.33137916242682819 0.16257475061681201 0 0.33459862103336652 0.1716314657637206 0 0.33137916242682819 0.16257475061681201 0 0.33459862103336652 0.1716314657637206 0 0.33683164379531272 0.165483944130114 0 0.3431882735813217 0.1725078784702524 0 0.33459862103336652 0.1716314657637206 0 0.3404010055609975 0.1681162551277505 0 0.33683164379531272 0.165483944130114 0 0.3404010055609975 0.1681162551277505 0 0.34103474669665901 0.16340697893893391 0 0.33459862103336652 0.1716314657637206 0 0.33683164379531272 0.165483944130114 0 0.3404010055609975 0.1681162551277505 0 0.3431882735813217 0.1725078784702524 0 0.3404010055609975 0.1681162551277505 0 0.34517206585097288 0.1667335190392398 0 0.3404010055609975 0.1681162551277505 0 0.34103474669665901 0.16340697893893391 0 0.34517206585097288 0.1667335190392398 0 0.34103474669665901 0.16340697893893391 0 0.34050469608583311 0.15859466222711849 0 0.34587335063047381 0.16045354106493459 0 0.34103474669665901 0.16340697893893391 0 0.33681418988042738 0.16103078886672631 0 0.34050469608583311 0.15859466222711849 0 0.33683164379531272 0.165483944130114 0 0.34103474669665901 0.16340697893893391 0 0.33681418988042738 0.16103078886672631 0 0.33893295211327767 0.15472081280152569 0 0.33421658862665821 0.15691559947917719 0 0.34050469608583311 0.15859466222711849 0 0.33421658862665821 0.15691559947917719 0 0.33681418988042738 0.16103078886672631 0 0.34050469608583311 0.15859466222711849 0 0.34363109432834282 0.15618114693174431 0 0.34050469608583311 0.15859466222711849 0 0.34587335063047381 0.16045354106493459 0 0.33893295211327767 0.15472081280152569 0 0.34363109432834282 0.15618114693174431 0 0.34050469608583311 0.15859466222711849 0 0.34363109432834282 0.15618114693174431 0 0.34754163118460041 0.15654358168218899 0 0.34587335063047381 0.16045354106493459 0 0.34754163118460041 0.15654358168218899 0 0.35074017500038979 0.15878205601851789 0 0.34587335063047381 0.16045354106493459 0 0.34754163118460041 0.15654358168218899 0 0.35074017500038979 0.15878205601851789 0 0.35187137749738279 0.15446024761157959 0 0.35074017500038979 0.15878205601851789 0 0.35035291815984948 0.16350562743907049 0 0.34587335063047381 0.16045354106493459 0 0.34103474669665901 0.16340697893893391 0 0.34587335063047381 0.16045354106493459 0 0.34517206585097288 0.1667335190392398 0 0.35035291815984948 0.16350562743907049 0 0.34587335063047381 0.16045354106493459 0 0.34517206585097288 0.1667335190392398 0 0.3431882735813217 0.1725078784702524 0 0.34517206585097288 0.1667335190392398 0 0.34828951568947292 0.17292991406502481 0 0.34517206585097288 0.1667335190392398 0 0.35099107940011759 0.1685822320841795 0 0.34828951568947292 0.17292991406502481 0 0.35099107940011759 0.1685822320841795 0 0.34828951568947292 0.17292991406502481 0 0.35269922104055312 0.17376695169349149 0 0.35035291815984948 0.16350562743907049 0 0.34517206585097288 0.1667335190392398 0 0.35099107940011759 0.1685822320841795 0 0.35035291815984948 0.16350562743907049 0 0.35099107940011759 0.1685822320841795 0 0.35429620016958729 0.16580339654185139 0 0.35099107940011759 0.1685822320841795 0 0.35429620016958729 0.16580339654185139 0 0.35522766787862969 0.16970012332803991 0 0.35099107940011759 0.1685822320841795 0 0.35522766787862969 0.16970012332803991 0 0.35269922104055312 0.17376695169349149 0 0.35522766787862969 0.16970012332803991 0 0.35869065307676129 0.17362790670997599 0 0.35946118570612923 0.16672012961070079 0 0.35429620016958729 0.16580339654185139 0 0.35522766787862969 0.16970012332803991 0 0.35946118570612923 0.16672012961070079 0 0.35429620016958729 0.16580339654185139 0 0.35524765001705449 0.16094199879292201 0 0.35946118570612923 0.16672012961070079 0 0.35524765001705449 0.16094199879292201 0 0.36199261477068362 0.15922670420186411 0 0.35946118570612923 0.16672012961070079 0 0.35524765001705449 0.16094199879292201 0 0.36199261477068362 0.15922670420186411 0 0.3570235168628314 0.156063568853265 0 0.35372067984441458 0.15756196781907111 0 0.35524765001705449 0.16094199879292201 0 0.3570235168628314 0.156063568853265 0 0.35074017500038979 0.15878205601851789 0 0.35372067984441458 0.15756196781907111 0 0.35187137749738279 0.15446024761157959 0 0.35074017500038979 0.15878205601851789 0 0.35372067984441458 0.15756196781907111 0 0.35524765001705449 0.16094199879292201 0 0.35035291815984948 0.16350562743907049 0 0.35429620016958729 0.16580339654185139 0 0.35524765001705449 0.16094199879292201 0 0.35074017500038979 0.15878205601851789 0 0.35035291815984948 0.16350562743907049 0 0.35524765001705449 0.16094199879292201 0 0.34568297129266018 0.1903164199885167 0 0.34968575690782999 0.18596098384133819 0 0.34389711953819152 0.1859171110029863 0 0.34968575690782999 0.18596098384133819 0 0.34389711953819152 0.1859171110029863 0 0.34750398821537298 0.18170273056013059 0 0.34306717388390268 0.18112563062532069 0 0.34389711953819152 0.1859171110029863 0 0.34750398821537298 0.18170273056013059 0 0.34306717388390268 0.18112563062532069 0 0.34750398821537298 0.18170273056013059 0 0.34541344630137449 0.17704459279561061 0 0.34750398821537298 0.18170273056013059 0 0.35022427126427541 0.1776386266559527 0 0.35217321814451369 0.18181776542610589 0 0.34968575690782999 0.18596098384133819 0 0.34750398821537298 0.18170273056013059 0 0.35217321814451369 0.18181776542610589 0 0.35022427126427541 0.1776386266559527 0 0.34541344630137449 0.17704459279561061 0 0.34828951568947292 0.17292991406502481 0 0.34750398821537298 0.18170273056013059 0 0.35022427126427541 0.1776386266559527 0 0.34541344630137449 0.17704459279561061 0 0.3431882735813217 0.1725078784702524 0 0.34541344630137449 0.17704459279561061 0 0.34828951568947292 0.17292991406502481 0 0.35022427126427541 0.1776386266559527 0 0.34828951568947292 0.17292991406502481 0 0.35269922104055312 0.17376695169349149 0 0.35269922104055312 0.17376695169349149 0 0.35869065307676129 0.17362790670997599 0 0.35584071978180648 0.17872268844597961 0 0.35522766787862969 0.16970012332803991 0 0.35269922104055312 0.17376695169349149 0 0.35869065307676129 0.17362790670997599 0 0.35022427126427541 0.1776386266559527 0 0.35269922104055312 0.17376695169349149 0 0.35584071978180648 0.17872268844597961 0 0.35022427126427541 0.1776386266559527 0 0.35584071978180648 0.17872268844597961 0 0.35217321814451369 0.18181776542610589 0 0.35584071978180648 0.17872268844597961 0 0.356388224946798 0.18532183894098311 0 0.36472846306123058 0.1801926331431592 0 0.35584071978180648 0.17872268844597961 0 0.35217321814451369 0.18181776542610589 0 0.356388224946798 0.18532183894098311 0 0.34968575690782999 0.18596098384133819 0 0.35217321814451369 0.18181776542610589 0 0.356388224946798 0.18532183894098311 0 0.35103873956399823 0.19094624465869089 0 0.34968575690782999 0.18596098384133819 0 0.356388224946798 0.18532183894098311 0 0.36564785951501277 0.19059305725744799 0 0.356388224946798 0.18532183894098311 0 0.36472846306123058 0.1801926331431592 0 0.35869065307676129 0.17362790670997599 0 0.36472846306123058 0.1801926331431592 0 0.36582209838502622 0.17166263129773091 0 0.35869065307676129 0.17362790670997599 0 0.35584071978180648 0.17872268844597961 0 0.36472846306123058 0.1801926331431592 0 0.36472846306123058 0.1801926331431592 0 0.36582209838502622 0.17166263129773091 0 0.3796950178133226 0.17363451161518251 0 0.36472846306123058 0.1801926331431592 0 0.3796950178133226 0.17363451161518251 0 0.37923554463335518 0.18878523636230241 0 0.36564785951501277 0.19059305725744799 0 0.36472846306123058 0.1801926331431592 0 0.37923554463335518 0.18878523636230241 0 0.36199261477068362 0.15922670420186411 0 0.35946118570612923 0.16672012961070079 0 0.36952117265167139 0.16453335817522599 0 0.35946118570612923 0.16672012961070079 0 0.36582209838502622 0.17166263129773091 0 0.36952117265167139 0.16453335817522599 0 0.35869065307676129 0.17362790670997599 0 0.35946118570612923 0.16672012961070079 0 0.36582209838502622 0.17166263129773091 0 0.36582209838502622 0.17166263129773091 0 0.36952117265167139 0.16453335817522599 0 0.3796950178133226 0.17363451161518251 0 0.36952117265167139 0.16453335817522599 0 0.37090649694264999 0.1536262382989646 0 0.38221519681506683 0.16118446429481281 0 0.36199261477068362 0.15922670420186411 0 0.36952117265167139 0.16453335817522599 0 0.37090649694264999 0.1536262382989646 0 0.37090649694264999 0.1536262382989646 0 0.36621472783985781 0.1447002654943737 0 0.36296118913509068 0.14638196389836691 0 0.36621472783985781 0.1447002654943737 0 0.36296118913509068 0.14638196389836691 0 0.36199261477068362 0.15922670420186411 0 0.37090649694264999 0.1536262382989646 0 0.36128788008682811 0.1518962735174339 0 0.37090649694264999 0.1536262382989646 0 0.36296118913509068 0.14638196389836691 0 0.36128788008682811 0.1518962735174339 0 0.36199261477068362 0.15922670420186411 0 0.36128788008682811 0.1518962735174339 0 0.3570235168628314 0.156063568853265 0 0.36128788008682811 0.1518962735174339 0 0.35187137749738279 0.15446024761157959 0 0.34814317830837488 0.1505200993809413 0 0.33785929596259001 0.14168262106612581 0 0.36621472783985781 0.1447002654943737 0 0.33866831703436279 0.14517182749295171 0 0.36128788008682811 0.1518962735174339 0 0.34814317830837488 0.1505200993809413 0 0.33866831703436279 0.14517182749295171 0 0.36128788008682811 0.1518962735174339 0 0.33785929596259001 0.14168262106612581 0 0.36621472783985781 0.1447002654943737 0 0.36296118913509068 0.14638196389836691 0 0.33866831703436279 0.14517182749295171 0 0.36296118913509068 0.14638196389836691 0 0.36128788008682811 0.1518962735174339 0 0.36128788008682811 0.1518962735174339 0 0.3570235168628314 0.156063568853265 0 0.35187137749738279 0.15446024761157959 0 0.33785929596259001 0.14168262106612581 0 0.33866831703436279 0.14517182749295171 0 0.36296118913509068 0.14638196389836691 0 0.35372067984441458 0.15756196781907111 0 0.3570235168628314 0.156063568853265 0 0.35187137749738279 0.15446024761157959 0 0.34322989562813921 0.1501387260550458 0 0.34618999559943409 0.15344920094642689 0 0.34814317830837488 0.1505200993809413 0 0.34272279664976479 0.15285140401706149 0 0.34322989562813921 0.1501387260550458 0 0.34618999559943409 0.15344920094642689 0 0.34272279664976479 0.15285140401706149 0 0.34363109432834282 0.15618114693174431 0 0.34618999559943409 0.15344920094642689 0 0.34363109432834282 0.15618114693174431 0 0.34754163118460041 0.15654358168218899 0 0.34618999559943409 0.15344920094642689 0 0.34754163118460041 0.15654358168218899 0 0.35187137749738279 0.15446024761157959 0 0.34618999559943409 0.15344920094642689 0 0.35187137749738279 0.15446024761157959 0 0.34618999559943409 0.15344920094642689 0 0.34814317830837488 0.1505200993809413 0 0.33785929596259001 0.14168262106612581 0 0.36621472783985781 0.1447002654943737 0 0.35061719967077409 0.13505468829179329 0 0.35317858083399778 0.1248435760738186 0 0.3331767709164557 0.13121831168231371 0 0.35061719967077409 0.13505468829179329 0 0.35317858083399778 0.1248435760738186 0 0.35061719967077409 0.13505468829179329 0 0.36265662280096828 0.13282866714233091 0 0.36621472783985781 0.1447002654943737 0 0.37325619145190331 0.1264065099257769 0 0.36265662280096828 0.13282866714233091 0 0.35317858083399778 0.1248435760738186 0 0.37325619145190331 0.1264065099257769 0 0.36265662280096828 0.13282866714233091 0 0.35317858083399778 0.1248435760738186 0 0.37325619145190331 0.1264065099257769 0 0.36621472783985781 0.1447002654943737 0 0.35061719967077409 0.13505468829179329 0 0.36265662280096828 0.13282866714233091 0 0.36621472783985781 0.1447002654943737 0 0.39267263377955303 0.13102462729568551 0 0.37325619145190331 0.1264065099257769 0 0.38968234021696252 0.12876627692535619 0 0.39333380206980878 0.12796944377773531 0 0.37347549516161788 0.1215540423901538 0 0.37325619145190331 0.1264065099257769 0 0.39333380206980878 0.12796944377773531 0 0.37325619145190331 0.1264065099257769 0 0.39333380206980878 0.12796944377773531 0 0.36621472783985781 0.1447002654943737 0 0.37325619145190331 0.1264065099257769 0 0.38968234021696252 0.12876627692535619 0 0.36621472783985781 0.1447002654943737 0 0.38968234021696252 0.12876627692535619 0 0.39267263377955303 0.13102462729568551 0 0.39267263377955303 0.13102462729568551 0 0.40538165026919981 0.14062281941132929 0 0.39215269729935209 0.14746063851067409 0 0.39333380206980878 0.12796944377773531 0 0.39789629002919152 0.12832460889258829 0 0.39333380206980878 0.12796944377773531 0 0.39789629002919152 0.12832460889258829 0 0.39267263377955303 0.13102462729568551 0 0.39789629002919152 0.12832460889258829 0 0.39267263377955303 0.13102462729568551 0 0.38968234021696252 0.12876627692535619 0 0.39267263377955303 0.13102462729568551 0 0.38968234021696252 0.12876627692535619 0 0.39333380206980878 0.12796944377773531 0 0.39267263377955303 0.13102462729568551 0 0.39789629002919152 0.12832460889258829 0 0.39267263377955303 0.13102462729568551 0 0.40538165026919981 0.14062281941132929 0 0.39267263377955303 0.13102462729568551 0 0.40538165026919981 0.14062281941132929 0 0.39215269729935209 0.14746063851067409 0 0.39698532428650818 0.1654144516528534 0 0.41809066675884649 0.15022101152697331 0 0.39215269729935209 0.14746063851067409 0 0.41809066675884649 0.15022101152697331 0 0.40538165026919981 0.14062281941132929 0 0.39215269729935209 0.14746063851067409 0 0.41809066675884649 0.15022101152697331 0 0.36621472783985781 0.1447002654943737 0 0.39215269729935209 0.14746063851067409 0 0.37090649694264999 0.1536262382989646 0 0.36621472783985781 0.1447002654943737 0 0.39215269729935209 0.14746063851067409 0 0.37090649694264999 0.1536262382989646 0 0.39215269729935209 0.14746063851067409 0 0.38221519681506683 0.16118446429481281 0 0.36621472783985781 0.1447002654943737 0 0.39267263377955303 0.13102462729568551 0 0.39215269729935209 0.14746063851067409 0 0.38221519681506683 0.16118446429481281 0 0.3796950178133226 0.17363451161518251 0 0.39698532428650818 0.1654144516528534 0 0.39215269729935209 0.14746063851067409 0 0.38221519681506683 0.16118446429481281 0 0.39698532428650818 0.1654144516528534 0 0.36952117265167139 0.16453335817522599 0 0.38221519681506683 0.16118446429481281 0 0.3796950178133226 0.17363451161518251 0 0.3796950178133226 0.17363451161518251 0 0.39490974409452578 0.18204281023076879 0 0.39698532428650818 0.1654144516528534 0 0.3796950178133226 0.17363451161518251 0 0.39490974409452578 0.18204281023076879 0 0.37923554463335518 0.18878523636230241 0 0.39490974409452578 0.18204281023076879 0 0.39698532428650818 0.1654144516528534 0 0.41484862293793529 0.17794327373870869 0 0.39698532428650818 0.1654144516528534 0 0.41484862293793529 0.17794327373870869 0 0.41809066675884649 0.15022101152697331 0 0.41484862293793529 0.17794327373870869 0 0.43252438305677599 0.18588067680912651 0 0.43772271433249837 0.1650476634861445 0 0.41484862293793529 0.17794327373870869 0 0.43252438305677599 0.18588067680912651 0 0.42009016988332742 0.19254040349983889 0 0.41484862293793529 0.17794327373870869 0 0.41809066675884649 0.15022101152697331 0 0.43772271433249837 0.1650476634861445 0 0.41809066675884649 0.15022101152697331 0 0.43772271433249837 0.1650476634861445 0 0.4303605567106652 0.14598559112864731 0 0.41809066675884649 0.15022101152697331 0 0.43789330405220961 0.15232844964858641 0 0.42067418814393648 0.13680199690362371 0 0.444784067887668 0.14459090643540601 0 0.4303605567106652 0.14598559112864731 0 0.42067418814393648 0.13680199690362371 0 0.444784067887668 0.14459090643540601 0 0.41809066675884649 0.15022101152697331 0 0.43789330405220961 0.15232844964858641 0 0.43772271433249837 0.1650476634861445 0 0.41809066675884649 0.15022101152697331 0 0.43789330405220961 0.15232844964858641 0 0.4303605567106652 0.14598559112864731 0 0.42067418814393648 0.13680199690362371 0 0.41809066675884649 0.15022101152697331 0 0.42789476641377772 0.13065982871236151 0 0.42067418814393648 0.13680199690362371 0 0.444784067887668 0.14459090643540601 0 0.39789629002919152 0.12832460889258829 0 0.42789476641377772 0.13065982871236151 0 0.41887826007353601 0.11747938812281369 0 0.39789629002919152 0.12832460889258829 0 0.42789476641377772 0.13065982871236151 0 0.42067418814393648 0.13680199690362371 0 0.39789629002919152 0.12832460889258829 0 0.42789476641377772 0.13065982871236151 0 0.39789629002919152 0.12832460889258829 0 0.42067418814393648 0.13680199690362371 0 0.39789629002919152 0.12832460889258829 0 0.40538165026919981 0.14062281941132929 0 0.42067418814393648 0.13680199690362371 0 0.40538165026919981 0.14062281941132929 0 0.41809066675884649 0.15022101152697331 0 0.40538165026919981 0.14062281941132929 0 0.42067418814393648 0.13680199690362371 0 0.41809066675884649 0.15022101152697331 0 0.39943183210595812 0.24635952553428289 0 0.4002795008227395 0.23307392347657799 0 0.41171165886391509 0.24645359225314689 0 0.39943183210595812 0.24635952553428289 0 0.38640376296415663 0.24139946380952829 0 0.4002795008227395 0.23307392347657799 0 0.39943183210595812 0.24635952553428289 0 0.39063387060276539 0.2489613406303878 0 0.38640376296415663 0.24139946380952829 0 0.39063387060276539 0.2489613406303878 0 0.38115881251560157 0.23671403923377901 0 0.38640376296415663 0.24139946380952829 0 0.37385314251470381 0.23430626282137429 0 0.36958681548853178 0.23147611155890541 0 0.38310622285093932 0.24996779441551559 0 0.36958681548853178 0.23147611155890541 0 0.38310622285093932 0.24996779441551559 0 0.37385314251470381 0.23430626282137429 0 0.39063387060276539 0.2489613406303878 0 0.37385314251470381 0.23430626282137429 0 0.39063387060276539 0.2489613406303878 0 0.38115881251560157 0.23671403923377901 0 0.37385314251470381 0.23430626282137429 0 0.39063387060276539 0.2489613406303878 0 0.38310622285093932 0.24996779441551559 0 0.39063387060276539 0.2489613406303878 0 0.38640376296415663 0.24139946380952829 0 0.38115881251560157 0.23671403923377901 0 0.38640376296415663 0.24139946380952829 0 0.38489427908114299 0.23068771701388749 0 0.38640376296415663 0.24139946380952829 0 0.38489427908114299 0.23068771701388749 0 0.4002795008227395 0.23307392347657799 0 0.37296039670641168 0.21905777040416749 0 0.37385314251470381 0.23430626282137429 0 0.37861862379445099 0.22723399078226689 0 0.38115881251560157 0.23671403923377901 0 0.38489427908114299 0.23068771701388749 0 0.37861862379445099 0.22723399078226689 0 0.37385314251470381 0.23430626282137429 0 0.38115881251560157 0.23671403923377901 0 0.37861862379445099 0.22723399078226689 0 0.37296039670641168 0.21905777040416749 0 0.37861862379445099 0.22723399078226689 0 0.3884422484071553 0.21903728832634839 0 0.38489427908114299 0.23068771701388749 0 0.37861862379445099 0.22723399078226689 0 0.3884422484071553 0.21903728832634839 0 0.3884422484071553 0.21903728832634839 0 0.4002795008227395 0.23307392347657799 0 0.40835720824181743 0.21898497855154039 0 0.38489427908114299 0.23068771701388749 0 0.3884422484071553 0.21903728832634839 0 0.4002795008227395 0.23307392347657799 0 0.3884422484071553 0.21903728832634839 0 0.40149957102134759 0.2033965826941129 0 0.40835720824181743 0.21898497855154039 0 0.37151103952544468 0.20385208463081839 0 0.40149957102134759 0.2033965826941129 0 0.37151103952544468 0.20385208463081839 0 0.3884422484071553 0.21903728832634839 0 0.40149957102134759 0.2033965826941129 0 0.37151103952544468 0.20385208463081839 0 0.37296039670641168 0.21905777040416749 0 0.3884422484071553 0.21903728832634839 0 0.37151103952544468 0.20385208463081839 0 0.40149957102134759 0.2033965826941129 0 0.37923554463335518 0.18878523636230241 0 0.39490974409452578 0.18204281023076879 0 0.41484862293793529 0.17794327373870869 0 0.40149957102134759 0.2033965826941129 0 0.39490974409452578 0.18204281023076879 0 0.40149957102134759 0.2033965826941129 0 0.37923554463335518 0.18878523636230241 0 0.40149957102134759 0.2033965826941129 0 0.42009016988332742 0.19254040349983889 0 0.43148810251725039 0.20294108075740741 0 0.41484862293793529 0.17794327373870869 0 0.40149957102134759 0.2033965826941129 0 0.42009016988332742 0.19254040349983889 0 0.43252438305677599 0.18588067680912651 0 0.43148810251725039 0.20294108075740741 0 0.44691246347592067 0.19510642350450669 0 0.43252438305677599 0.18588067680912651 0 0.42009016988332742 0.19254040349983889 0 0.43148810251725039 0.20294108075740741 0 0.43647016504570479 0.2103385315636854 0 0.42747380900303539 0.21102103635224709 0 0.42409091195480902 0.22839606190841541 0 0.43647016504570479 0.2103385315636854 0 0.43602381016202568 0.20814046088645879 0 0.42747380900303539 0.21102103635224709 0 0.43148810251725039 0.20294108075740741 0 0.43602381016202568 0.20814046088645879 0 0.42747380900303539 0.21102103635224709 0 0.43647016504570479 0.2103385315636854 0 0.43602381016202568 0.20814046088645879 0 0.40149957102134759 0.2033965826941129 0 0.42747380900303539 0.21102103635224709 0 0.40835720824181743 0.21898497855154039 0 0.40149957102134759 0.2033965826941129 0 0.43148810251725039 0.20294108075740741 0 0.40149957102134759 0.2033965826941129 0 0.43148810251725039 0.20294108075740741 0 0.42747380900303539 0.21102103635224709 0 0.4002795008227395 0.23307392347657799 0 0.40835720824181743 0.21898497855154039 0 0.42409091195480902 0.22839606190841541 0 0.42747380900303539 0.21102103635224709 0 0.40835720824181743 0.21898497855154039 0 0.42409091195480902 0.22839606190841541 0 0.43647016504570479 0.2103385315636854 0 0.42409091195480902 0.22839606190841541 0 0.44020979829539558 0.22875432242924049 0 0.42409091195480902 0.22839606190841541 0 0.42994884807394718 0.2417611176254415 0 0.44020979829539558 0.22875432242924049 0 0.43647016504570479 0.2103385315636854 0 0.42409091195480902 0.22839606190841541 0 0.43036828167397251 0.25583515747578711 0 0.42994884807394718 0.2417611176254415 0 0.41171165886391509 0.24645359225314689 0 0.42409091195480902 0.22839606190841541 0 0.42994884807394718 0.2417611176254415 0 0.41171165886391509 0.24645359225314689 0 0.43036828167397251 0.25583515747578711 0 0.42994884807394718 0.2417611176254415 0 0.44394943154508121 0.24717011329479671 0 0.4002795008227395 0.23307392347657799 0 0.42409091195480902 0.22839606190841541 0 0.41171165886391509 0.24645359225314689 0 0.42409091195480902 0.22839606190841541 0 0.41171165886391509 0.24645359225314689 0 0.47835632412559131 0.21010415620313441 0 0.5 0.24047019952709051 0 0.49999999999999772 0.1624289008388318 0 0.45792378038272358 0.25722343419473431 0 0.46150139341761087 0.23798049347047839 0 0.44394943154508121 0.24717011329479671 0 0.44394943154508121 0.24717011329479671 0 0.44020979829539558 0.22875432242924049 0 0.42994884807394718 0.2417611176254415 0 0.44394943154508121 0.24717011329479671 0 0.44020979829539558 0.22875432242924049 0 0.46150139341761087 0.23798049347047839 0 0.44394943154508121 0.24717011329479671 0 0.45074629156217427 0.2213417356391571 0 0.43647016504570479 0.2103385315636854 0 0.44020979829539558 0.22875432242924049 0 0.44394943154508121 0.24717011329479671 0 0.45074629156217427 0.2213417356391571 0 0.44394943154508121 0.24717011329479671 0 0.45074629156217427 0.2213417356391571 0 0.44020979829539558 0.22875432242924049 0 0.43647016504570479 0.2103385315636854 0 0.45074629156217427 0.2213417356391571 0 0.44020979829539558 0.22875432242924049 0 0.46150139341761087 0.23798049347047839 0 0.45074629156217427 0.2213417356391571 0 0.47835632412559131 0.21010415620313441 0 0.45074629156217427 0.2213417356391571 0 0.4575431515792695 0.19551335798351799 0 0.47835632412559131 0.21010415620313441 0 0.45074629156217427 0.2213417356391571 0 0.4575431515792695 0.19551335798351799 0 0.43647016504570479 0.2103385315636854 0 0.45074629156217427 0.2213417356391571 0 0.44691246347592067 0.19510642350450669 0 0.45074629156217427 0.2213417356391571 0 0.44691246347592067 0.19510642350450669 0 0.4575431515792695 0.19551335798351799 0 0.43647016504570479 0.2103385315636854 0 0.43602381016202568 0.20814046088645879 0 0.44691246347592067 0.19510642350450669 0 0.43148810251725039 0.20294108075740741 0 0.43602381016202568 0.20814046088645879 0 0.44691246347592067 0.19510642350450669 0 0.43647016504570479 0.2103385315636854 0 0.44691246347592067 0.19510642350450669 0 0.44691246347592067 0.19510642350450669 0 0.4575431515792695 0.19551335798351799 0 0.45735476190613911 0.17987431544533 0 0.4575431515792695 0.19551335798351799 0 0.47835632412559131 0.21010415620313441 0 0.47502352810970888 0.1784088923565792 0 0.47069668079935312 0.25631091585508992 0 0.46150139341761087 0.23798049347047839 0 0.5 0.24047019952709051 0 0.46150139341761087 0.23798049347047839 0 0.47835632412559131 0.21010415620313441 0 0.5 0.24047019952709051 0 0.46111997445354341 0.14177239373702849 0 0.444784067887668 0.14459090643540601 0 0.46889394763139952 0.1523798159671885 0 0.444784067887668 0.14459090643540601 0 0.46889394763139952 0.1523798159671885 0 0.45769594134557268 0.1544358877701992 0 0.444784067887668 0.14459090643540601 0 0.46889394763139952 0.1523798159671885 0 0.45769594134557268 0.1544358877701992 0 0.46083397484829819 0.16055403364853629 0 0.46889394763139952 0.1523798159671885 0 0.46111997445354341 0.14177239373702849 0 0.46889394763139952 0.1523798159671885 0 0.47290863949674289 0.13712380401337881 0 0.46111997445354341 0.14177239373702849 0 0.45789324279836341 0.13299504853214089 0 0.47290863949674289 0.13712380401337881 0 0.46111997445354341 0.14177239373702849 0 0.45789324279836341 0.13299504853214089 0 0.444784067887668 0.14459090643540601 0 0.42789476641377772 0.13065982871236151 0 0.45789324279836341 0.13299504853214089 0 0.444784067887668 0.14459090643540601 0 0.42789476641377772 0.13065982871236151 0 0.45789324279836341 0.13299504853214089 0 0.42789476641377772 0.13065982871236151 0 0.45789324279836341 0.13299504853214089 0 0.44630567279445171 0.1190124019661937 0 0.4303605567106652 0.14598559112864731 0 0.444784067887668 0.14459090643540601 0 0.43789330405220961 0.15232844964858641 0 0.45769594134557268 0.1544358877701992 0 0.43789330405220961 0.15232844964858641 0 0.45769594134557268 0.1544358877701992 0 0.43789330405220961 0.15232844964858641 0 0.44642948963753348 0.15938186285845199 0 0.45769594134557268 0.1544358877701992 0 0.444784067887668 0.14459090643540601 0 0.43789330405220961 0.15232844964858641 0 0.43789330405220961 0.15232844964858641 0 0.43772271433249837 0.1650476634861445 0 0.44642948963753348 0.15938186285845199 0 0.43772271433249837 0.1650476634861445 0 0.45240599881985322 0.16571545052887771 0 0.45735476190613911 0.17987431544533 0 0.43772271433249837 0.1650476634861445 0 0.45240599881985322 0.16571545052887771 0 0.44642948963753348 0.15938186285845199 0 0.45769594134557268 0.1544358877701992 0 0.45240599881985322 0.16571545052887771 0 0.44642948963753348 0.15938186285845199 0 0.43772271433249837 0.1650476634861445 0 0.45735476190613911 0.17987431544533 0 0.43252438305677599 0.18588067680912651 0 0.43772271433249837 0.1650476634861445 0 0.45735476190613911 0.17987431544533 0 0.43252438305677599 0.18588067680912651 0 0.44691246347592067 0.19510642350450669 0 0.45735476190613911 0.17987431544533 0 0.44691246347592067 0.19510642350450669 0 0.45735476190613911 0.17987431544533 0 0.4575431515792695 0.19551335798351799 0 0.45735476190613911 0.17987431544533 0 0.46434001159636629 0.16968498032787929 0 0.4575431515792695 0.19551335798351799 0 0.46434001159636629 0.16968498032787929 0 0.47502352810970888 0.1784088923565792 0 0.4575431515792695 0.19551335798351799 0 0.46434001159636629 0.16968498032787929 0 0.45735476190613911 0.17987431544533 0 0.46434001159636629 0.16968498032787929 0 0.46083397484829819 0.16055403364853629 0 0.46434001159636629 0.16968498032787929 0 0.46889394763139952 0.1523798159671885 0 0.46434001159636629 0.16968498032787929 0 0.46889394763139952 0.1523798159671885 0 0.45769594134557268 0.1544358877701992 0 0.45240599881985322 0.16571545052887771 0 0.46083397484829819 0.16055403364853629 0 0.45240599881985322 0.16571545052887771 0 0.46083397484829819 0.16055403364853629 0 0.46434001159636629 0.16968498032787929 0 0.45240599881985322 0.16571545052887771 0 0.45735476190613911 0.17987431544533 0 0.46434001159636629 0.16968498032787929 0 0.46434001159636629 0.16968498032787929 0 0.46889394763139952 0.1523798159671885 0 0.4748781532473193 0.15431306642953371 0 0.46434001159636629 0.16968498032787929 0 0.47502352810970888 0.1784088923565792 0 0.4748781532473193 0.15431306642953371 0 0.47502352810970888 0.1784088923565792 0 0.49999999999999772 0.1624289008388318 0 0.4748781532473193 0.15431306642953371 0 0.46434001159636629 0.16968498032787929 0 0.4748781532473193 0.15431306642953371 0 0.47835632412559131 0.21010415620313441 0 0.47502352810970888 0.1784088923565792 0 0.49999999999999772 0.1624289008388318 0 0.49999999999999772 0.1624289008388318 0 0.4748781532473193 0.15431306642953371 0 0.49999999999999772 0.1624289008388318 0 0.4748781532473193 0.15431306642953371 0 0.48789171918294871 0.1353302683519246 0 0.49999999999999772 0.1624289008388318 0 0.48789171918294871 0.1353302683519246 0 0.50000000000000888 0.13627283280036029 0 0.4748781532473193 0.15431306642953371 0 0.48789171918294871 0.1353302683519246 0 0.4748781532473193 0.15431306642953371 0 0.47290863949674289 0.13712380401337881 0 0.48789171918294871 0.1353302683519246 0 0.46889394763139952 0.1523798159671885 0 0.4748781532473193 0.15431306642953371 0 0.47290863949674289 0.13712380401337881 0 0.46889394763139952 0.1523798159671885 0 0.47290863949674289 0.13712380401337881 0 0.46889394763139952 0.1523798159671885 0 0.4748781532473193 0.15431306642953371 0 0.45789324279836341 0.13299504853214089 0 0.48789171918294871 0.1353302683519246 0 0.47974178229846692 0.1133187607316254 0 0.45789324279836341 0.13299504853214089 0 0.47290863949674289 0.13712380401337881 0 0.48789171918294871 0.1353302683519246 0 0.45789324279836341 0.13299504853214089 0 0.48789171918294871 0.1353302683519246 0 0.48789171918294871 0.1353302683519246 0 0.50000000000000888 0.13627283280036029 0 0.50000000000001066 0.1176680033775159 0 0.48789171918294871 0.1353302683519246 0 0.50000000000001066 0.1176680033775159 0 0.48789171918294871 0.1353302683519246 0 0.50000000000000888 0.13627283280036029 0 0.48789171918294871 0.1353302683519246 0 0.50000000000001066 0.1176680033775159 0 0.47974178229846692 0.1133187607316254 0 0.50000000000001066 0.1176680033775159 0 0.5 0.097859213798159539 0 0.47974178229846692 0.1133187607316254 0 0.5 0.097859213798159539 0 0.47974178229846692 0.1133187607316254 0 0.47552976347233028 0.085849282861305609 0 0.47974178229846692 0.1133187607316254 0 0.47552976347233028 0.085849282861305609 0 0.45839836973769221 0.1085763004913512 0 0.49999999999999689 0.078050424218803288 0 0.50000000000000122 0.068500453432316255 0 0.47090436247146239 0.073466026943859813 0 0.50000000000000122 0.068500453432316255 0 0.47090436247146239 0.073466026943859813 0 0.48901976721525459 0.058398838869827982 0 0.50000000000000122 0.068500453432316255 0 0.47090436247146239 0.073466026943859813 0 0.49999999999999689 0.078050424218803288 0 0.47552976347233028 0.085849282861305609 0 0.5 0.097859213798159539 0 0.49999999999999689 0.078050424218803288 0 0.47552976347233028 0.085849282861305609 0 0.49999999999999689 0.078050424218803288 0 0.47552976347233028 0.085849282861305609 0 0.47090436247146239 0.073466026943859813 0 0.46541424607908882 0.068415219662614976 0 0.48901976721525459 0.058398838869827982 0 0.47090436247146239 0.073466026943859813 0 0.46541424607908882 0.068415219662614976 0 0.48901976721525459 0.058398838869827982 0 0.46541424607908882 0.068415219662614976 0 0.44180872494292328 0.078431600455402997 0 0.47090436247146239 0.073466026943859813 0 0.44180872494292328 0.078431600455402997 0 0.47090436247146239 0.073466026943859813 0 0.46541424607908882 0.068415219662614976 0 0.44180872494292328 0.078431600455402997 0 0.46541424607908882 0.068415219662614976 0 0.45038258072911941 0.06581387706977021 0 0.46330381201010939 0.057704639826849487 0 0.47552976347233028 0.085849282861305609 0 0.47090436247146239 0.073466026943859813 0 0.451059526944664 0.093648141503808832 0 0.47090436247146239 0.073466026943859813 0 0.451059526944664 0.093648141503808832 0 0.44180872494292328 0.078431600455402997 0 0.47552976347233028 0.085849282861305609 0 0.451059526944664 0.093648141503808832 0 0.451059526944664 0.093648141503808832 0 0.43604584615808939 0.080876926192488055 0 0.42968067330667581 0.090409443335799353 0 0.451059526944664 0.093648141503808832 0 0.44180872494292328 0.078431600455402997 0 0.43604584615808939 0.080876926192488055 0 0.44180872494292328 0.078431600455402997 0 0.43604584615808939 0.080876926192488055 0 0.44180872494292328 0.078431600455402997 0 0.45038258072911941 0.06581387706977021 0 0.43758785680496443 0.057010440783870138 0 0.46541424607908882 0.068415219662614976 0 0.44180872494292328 0.078431600455402997 0 0.45038258072911941 0.06581387706977021 0 0.45789324279836341 0.13299504853214089 0 0.47974178229846692 0.1133187607316254 0 0.45839836973769221 0.1085763004913512 0 0.45789324279836341 0.13299504853214089 0 0.45839836973769221 0.1085763004913512 0 0.44630567279445171 0.1190124019661937 0 0.47552976347233028 0.085849282861305609 0 0.451059526944664 0.093648141503808832 0 0.45839836973769221 0.1085763004913512 0 0.451059526944664 0.093648141503808832 0 0.43986023011787689 0.10663416735303249 0 0.42658929041699772 0.101447000146312 0 0.451059526944664 0.093648141503808832 0 0.45839836973769221 0.1085763004913512 0 0.43986023011787689 0.10663416735303249 0 0.451059526944664 0.093648141503808832 0 0.42658929041699772 0.101447000146312 0 0.45839836973769221 0.1085763004913512 0 0.43986023011787689 0.10663416735303249 0 0.44630567279445171 0.1190124019661937 0 0.43986023011787689 0.10663416735303249 0 0.44630567279445171 0.1190124019661937 0 0.43323473234991061 0.1184464465386004 0 0.43986023011787689 0.10663416735303249 0 0.41887826007353601 0.11747938812281369 0 0.42789476641377772 0.13065982871236151 0 0.44630567279445171 0.1190124019661937 0 0.43323473234991061 0.1184464465386004 0 0.43986023011787689 0.10663416735303249 0 0.43323473234991061 0.1184464465386004 0 0.41887826007353601 0.11747938812281369 0 0.42789476641377772 0.13065982871236151 0 0.43323473234991061 0.1184464465386004 0 0.41887826007353601 0.11747938812281369 0 0.41887826007353601 0.11747938812281369 0 0.42658929041699772 0.101447000146312 0 0.40211905388933139 0.10924585878881519 0 0.39789629002919152 0.12832460889258829 0 0.41887826007353601 0.11747938812281369 0 0.42658929041699772 0.101447000146312 0 0.40211905388933139 0.10924585878881519 0 0.41094989773151752 0.09466494335255736 0 0.42658929041699772 0.101447000146312 0 0.40211905388933139 0.10924585878881519 0 0.41094989773151752 0.09466494335255736 0 0.42658929041699772 0.101447000146312 0 0.42968067330667581 0.090409443335799353 0 0.43986023011787689 0.10663416735303249 0 0.41887826007353601 0.11747938812281369 0 0.42658929041699772 0.101447000146312 0 0.451059526944664 0.093648141503808832 0 0.42658929041699772 0.101447000146312 0 0.42968067330667581 0.090409443335799353 0 0.44180872494292328 0.078431600455402997 0 0.43604584615808939 0.080876926192488055 0 0.42212361697916101 0.081791136763238043 0 0.44180872494292328 0.078431600455402997 0 0.42212361697916101 0.081791136763238043 0 0.43604584615808939 0.080876926192488055 0 0.42212361697916101 0.081791136763238043 0 0.42968067330667581 0.090409443335799353 0 0.44180872494292328 0.078431600455402997 0 0.42212361697916101 0.081791136763238043 0 0.42567392598481801 0.066791155580457617 0 0.44180872494292328 0.078431600455402997 0 0.42567392598481801 0.066791155580457617 0 0.43758785680496443 0.057010440783870138 0 0.42567392598481801 0.066791155580457617 0 0.41779227351145792 0.064925666456528114 0 0.41306108918742279 0.072111291232376987 0 0.42567392598481801 0.066791155580457617 0 0.41779227351145792 0.064925666456528114 0 0.41187190159981929 0.056316241740888458 0 0.41779227351145792 0.064925666456528114 0 0.41237220036730782 0.06507103071200071 0 0.41249171958182612 0.058801564610429527 0 0.41779227351145792 0.064925666456528114 0 0.41306108918742279 0.072111291232376987 0 0.41237220036730782 0.06507103071200071 0 0.42212361697916101 0.081791136763238043 0 0.42567392598481801 0.066791155580457617 0 0.41306108918742279 0.072111291232376987 0 0.41306108918742279 0.072111291232376987 0 0.41113762697758988 0.08169469216073881 0 0.39841590401225818 0.078211397294782867 0 0.41306108918742279 0.072111291232376987 0 0.41237220036730782 0.06507103071200071 0 0.40614371918852449 0.064445600548668214 0 0.41237220036730782 0.06507103071200071 0 0.40614371918852449 0.064445600548668214 0 0.41249171958182612 0.058801564610429527 0 0.41094989773151752 0.09466494335255736 0 0.42212361697916101 0.081791136763238043 0 0.42968067330667581 0.090409443335799353 0 0.41094989773151752 0.09466494335255736 0 0.41113762697758988 0.08169469216073881 0 0.39841590401225818 0.078211397294782867 0 0.41094989773151752 0.09466494335255736 0 0.42212361697916101 0.081791136763238043 0 0.41113762697758988 0.08169469216073881 0 0.42212361697916101 0.081791136763238043 0 0.41306108918742279 0.072111291232376987 0 0.41113762697758988 0.08169469216073881 0 0.41094989773151752 0.09466494335255736 0 0.39841590401225818 0.078211397294782867 0 0.38787976067542479 0.096326488314512654 0 0.39841590401225818 0.078211397294782867 0 0.40614371918852449 0.064445600548668214 0 0.39008679673599839 0.055728155518659242 0 0.41306108918742279 0.072111291232376987 0 0.39841590401225818 0.078211397294782867 0 0.40614371918852449 0.064445600548668214 0 0.37305279059406149 0.078059761943527067 0 0.39841590401225818 0.078211397294782867 0 0.39008679673599839 0.055728155518659242 0 0.37305279059406149 0.078059761943527067 0 0.36830169187217737 0.055140069296431587 0 0.39008679673599839 0.055728155518659242 0 0.37305279059406149 0.078059761943527067 0 0.39841590401225818 0.078211397294782867 0 0.38787976067542479 0.096326488314512654 0 0.3650921004637151 0.100732251076075 0 0.37305279059406149 0.078059761943527067 0 0.38787976067542479 0.096326488314512654 0 0.38787976067542479 0.096326488314512654 0 0.37764881736166511 0.1170447174313184 0 0.40211905388933139 0.10924585878881519 0 0.3650921004637151 0.100732251076075 0 0.38787976067542479 0.096326488314512654 0 0.37764881736166511 0.1170447174313184 0 0.37764881736166511 0.1170447174313184 0 0.38687636141998633 0.1205185168536148 0 0.40211905388933139 0.10924585878881519 0 0.37347549516161788 0.1215540423901538 0 0.39333380206980878 0.12796944377773531 0 0.37764881736166511 0.1170447174313184 0 0.40211905388933139 0.10924585878881519 0 0.37347549516161788 0.1215540423901538 0 0.39333380206980878 0.12796944377773531 0 0.38687636141998633 0.1205185168536148 0 0.37347549516161788 0.1215540423901538 0 0.37764881736166511 0.1170447174313184 0 0.38687636141998633 0.1205185168536148 0 0.41887826007353601 0.11747938812281369 0 0.39729479133282641 0.11869595027111859 0 0.40211905388933139 0.10924585878881519 0 0.39789629002919152 0.12832460889258829 0 0.41887826007353601 0.11747938812281369 0 0.39729479133282641 0.11869595027111859 0 0.38687636141998633 0.1205185168536148 0 0.39729479133282641 0.11869595027111859 0 0.40211905388933139 0.10924585878881519 0 0.39333380206980878 0.12796944377773531 0 0.38687636141998633 0.1205185168536148 0 0.39729479133282641 0.11869595027111859 0 0.39333380206980878 0.12796944377773531 0 0.39789629002919152 0.12832460889258829 0 0.39729479133282641 0.11869595027111859 0 0.41094989773151752 0.09466494335255736 0 0.38787976067542479 0.096326488314512654 0 0.40211905388933139 0.10924585878881519 0 0.40344019797046887 0.0293323544343005 0 0.40196708594723241 0.016600283871610971 0 0.40691949377352371 0.036458262806250273 0 0.40196708594723241 0.016600283871610971 0 0.40691949377352371 0.036458262806250273 0 0.39432806555376132 0.025345353249501899 0 0.40196708594723241 0.016600283871610971 0 0.39432806555376132 0.025345353249501899 0 0.40196708594723241 0.016600283871610971 0 0.39411994089374708 0.01314749595757596 0 0.39432806555376132 0.025345353249501899 0 0.39411994089374708 0.01314749595757596 0 0.3865602061263283 0.021946536888615979 0 0.39432806555376132 0.025345353249501899 0 0.40344019797046887 0.0293323544343005 0 0.3967886965133246 0.03446075000029386 0 0.39432806555376132 0.025345353249501899 0 0.40344019797046887 0.0293323544343005 0 0.39432806555376132 0.025345353249501899 0 0.40344019797046887 0.0293323544343005 0 0.40196708594723241 0.016600283871610971 0 0.40196708594723241 0.016600283871610971 0 0.39411994089374708 0.01314749595757596 0 0.39772389337593161 -0.00041391036517766239 0 0.40196708594723241 0.016600283871610971 0 0.40915615383727461 0.0083703153386766038 0 0.39772389337593161 -0.00041391036517766239 0 0.40196708594723241 0.016600283871610971 0 0.40915615383727461 0.0083703153386766038 0 0.40196708594723241 0.016600283871610971 0 0.39772389337593161 -0.00041391036517766239 0 0.40915615383727461 0.0083703153386766038 0 0.4111820605055595 -0.0060976978047664106 0 0.39772389337593161 -0.00041391036517766239 0 0.39411994089374708 0.01314749595757596 0 0.39002045346548109 0.0022592161433241729 0 0.39772389337593161 -0.00041391036517766239 0 0.37121322671990142 0.01523148685660871 0 0.39002045346548109 0.0022592161433241729 0 0.3865602061263283 0.021946536888615979 0 0.39002045346548109 0.0022592161433241729 0 0.3865602061263283 0.021946536888615979 0 0.39411994089374708 0.01314749595757596 0 0.39002045346548109 0.0022592161433241729 0 0.3865602061263283 0.021946536888615979 0 0.37121322671990142 0.01523148685660871 0 0.39002045346548109 0.0022592161433241729 0 0.37326828704277071 -0.00058451373500000155 0 0.37121322671990142 0.01523148685660871 0 0.3865602061263283 0.021946536888615979 0 0.37121322671990142 0.01523148685660871 0 0.36973028303957373 0.022348201443321149 0 0.3865602061263283 0.021946536888615979 0 0.36973028303957373 0.022348201443321149 0 0.38558599045314529 0.027489405520004621 0 0.36973028303957373 0.022348201443321149 0 0.3865602061263283 0.021946536888615979 0 0.38558599045314529 0.027489405520004621 0 0.36973028303957373 0.022348201443321149 0 0.38558599045314529 0.027489405520004621 0 0.37574036662274202 0.03083329384481838 0 0.38939503402526859 0.028724485723648139 0 0.38558599045314529 0.027489405520004621 0 0.38385570192713031 0.037334003854962661 0 0.39432806555376132 0.025345353249501899 0 0.38939503402526859 0.028724485723648139 0 0.38385570192713031 0.037334003854962661 0 0.38939503402526859 0.028724485723648139 0 0.38558599045314529 0.027489405520004621 0 0.39432806555376132 0.025345353249501899 0 0.3865602061263283 0.021946536888615979 0 0.39432806555376132 0.025345353249501899 0 0.3865602061263283 0.021946536888615979 0 0.38939503402526859 0.028724485723648139 0 0.3865602061263283 0.021946536888615979 0 0.38939503402526859 0.028724485723648139 0 0.38558599045314529 0.027489405520004621 0 0.3865602061263283 0.021946536888615979 0 0.38558599045314529 0.027489405520004621 0 0.36830169187217737 0.055140069296431587 0 0.38248216550945641 0.045148835963667977 0 0.38385570192713031 0.037334003854962661 0 0.36830169187217737 0.055140069296431587 0 0.38385570192713031 0.037334003854962661 0 0.36742137474723269 0.038674665413447863 0 0.37574036662274202 0.03083329384481838 0 0.38385570192713031 0.037334003854962661 0 0.38558599045314529 0.027489405520004621 0 0.37574036662274202 0.03083329384481838 0 0.38385570192713031 0.037334003854962661 0 0.38248216550945641 0.045148835963667977 0 0.38385570192713031 0.037334003854962661 0 0.39540002334173918 0.043833775656454251 0 0.38248216550945641 0.045148835963667977 0 0.38385570192713031 0.037334003854962661 0 0.39432806555376132 0.025345353249501899 0 0.38385570192713031 0.037334003854962661 0 0.38558599045314529 0.027489405520004621 0 0.38385570192713031 0.037334003854962661 0 0.36830169187217737 0.055140069296431587 0 0.38248216550945641 0.045148835963667977 0 0.39008679673599839 0.055728155518659242 0 0.36830169187217737 0.055140069296431587 0 0.39008679673599839 0.055728155518659242 0 0.38248216550945641 0.045148835963667977 0 0.39008679673599839 0.055728155518659242 0 0.39540002334173918 0.043833775656454251 0 0.40614371918852449 0.064445600548668214 0 0.39008679673599839 0.055728155518659242 0 0.41187190159981929 0.056316241740888458 0 0.39008679673599839 0.055728155518659242 0 0.41187190159981929 0.056316241740888458 0 0.39008679673599839 0.055728155518659242 0 0.39540002334173918 0.043833775656454251 0 0.41187190159981929 0.056316241740888458 0 0.39540002334173918 0.043833775656454251 0 0.40691949377352371 0.036458262806250273 0 0.41187190159981929 0.056316241740888458 0 0.38385570192713031 0.037334003854962661 0 0.3967886965133246 0.03446075000029386 0 0.39540002334173918 0.043833775656454251 0 0.39432806555376132 0.025345353249501899 0 0.38385570192713031 0.037334003854962661 0 0.3967886965133246 0.03446075000029386 0 0.3967886965133246 0.03446075000029386 0 0.39540002334173918 0.043833775656454251 0 0.40691949377352371 0.036458262806250273 0 0.40344019797046887 0.0293323544343005 0 0.3967886965133246 0.03446075000029386 0 0.40691949377352371 0.036458262806250273 0 0.40691949377352371 0.036458262806250273 0 0.41187190159981929 0.056316241740888458 0 0.40691949377352371 0.036458262806250273 0 0.41187190159981929 0.056316241740888458 0 0.41841446514451902 0.046899057407663237 0 0.41354479186111148 0.036517594090036513 0 0.40691949377352371 0.036458262806250273 0 0.41028805523300588 0.030244402316726381 0 0.41354479186111148 0.036517594090036513 0 0.40691949377352371 0.036458262806250273 0 0.41841446514451902 0.046899057407663237 0 0.41354479186111148 0.036517594090036513 0 0.41841446514451902 0.046899057407663237 0 0.42492730473633861 0.036307131051184598 0 0.41354479186111148 0.036517594090036513 0 0.42492730473633861 0.036307131051184598 0 0.42505643496229639 0.02645290130323524 0 0.41779227351145792 0.064925666456528114 0 0.41249171958182612 0.058801564610429527 0 0.41187190159981929 0.056316241740888458 0 0.40614371918852449 0.064445600548668214 0 0.41249171958182612 0.058801564610429527 0 0.41187190159981929 0.056316241740888458 0 0.41249171958182612 0.058801564610429527 0 0.41187190159981929 0.056316241740888458 0 0.41841446514451902 0.046899057407663237 0 0.43356371840447178 0.042849409709792972 0 0.43758785680496443 0.057010440783870138 0 0.41187190159981929 0.056316241740888458 0 0.43758785680496443 0.057010440783870138 0 0.42567392598481801 0.066791155580457617 0 0.41187190159981929 0.056316241740888458 0 0.43758785680496443 0.057010440783870138 0 0.41187190159981929 0.056316241740888458 0 0.41841446514451902 0.046899057407663237 0 0.43758785680496443 0.057010440783870138 0 0.41841446514451902 0.046899057407663237 0 0.42492730473633861 0.036307131051184598 0 0.43356371840447178 0.042849409709792972 0 0.42492730473633861 0.036307131051184598 0 0.43356371840447178 0.042849409709792972 0 0.43813649267415677 0.030255085761704398 0 0.43417643350433549 0.018693272884283602 0 0.42505643496229639 0.02645290130323524 0 0.43813649267415677 0.030255085761704398 0 0.43417643350433549 0.018693272884283602 0 0.42505643496229639 0.02645290130323524 0 0.4190942301207301 0.01237213139498987 0 0.42492730473633861 0.036307131051184598 0 0.42505643496229639 0.02645290130323524 0 0.43813649267415677 0.030255085761704398 0 0.41354479186111148 0.036517594090036513 0 0.42505643496229639 0.02645290130323524 0 0.4190942301207301 0.01237213139498987 0 0.41354479186111148 0.036517594090036513 0 0.41206450743916068 0.02295341500434037 0 0.4190942301207301 0.01237213139498987 0 0.41354479186111148 0.036517594090036513 0 0.4190942301207301 0.01237213139498987 0 0.40196708594723241 0.016600283871610971 0 0.40691949377352371 0.036458262806250273 0 0.41028805523300588 0.030244402316726381 0 0.41206450743916068 0.02295341500434037 0 0.41057049433609821 0.01507403640240477 0 0.4190942301207301 0.01237213139498987 0 0.40196708594723241 0.016600283871610971 0 0.41206450743916068 0.02295341500434037 0 0.41057049433609821 0.01507403640240477 0 0.40196708594723241 0.016600283871610971 0 0.41206450743916068 0.02295341500434037 0 0.41028805523300588 0.030244402316726381 0 0.41354479186111148 0.036517594090036513 0 0.41206450743916068 0.02295341500434037 0 0.41028805523300588 0.030244402316726381 0 0.40915615383727461 0.0083703153386766038 0 0.4190942301207301 0.01237213139498987 0 0.4111820605055595 -0.0060976978047664106 0 0.4190942301207301 0.01237213139498987 0 0.42464366838034862 -0.011773331300056681 0 0.40915615383727461 0.0083703153386766038 0 0.41057049433609821 0.01507403640240477 0 0.4190942301207301 0.01237213139498987 0 0.40196708594723241 0.016600283871610971 0 0.40915615383727461 0.0083703153386766038 0 0.41057049433609821 0.01507403640240477 0 0.4190942301207301 0.01237213139498987 0 0.43871252796875759 0.0061555649498879639 0 0.42464366838034862 -0.011773331300056681 0 0.43417643350433549 0.018693272884283602 0 0.4190942301207301 0.01237213139498987 0 0.43871252796875759 0.0061555649498879639 0 0.43871252796875759 0.0061555649498879639 0 0.46013945876892448 0.0090952484608414572 0 0.44899446048625019 -0.0075400202491378004 0 0.43871252796875759 0.0061555649498879639 0 0.44793617809480157 0.018372773318046261 0 0.46013945876892448 0.0090952484608414572 0 0.43417643350433549 0.018693272884283602 0 0.43871252796875759 0.0061555649498879639 0 0.44793617809480157 0.018372773318046261 0 0.43813649267415677 0.030255085761704398 0 0.44793617809480157 0.018372773318046261 0 0.45917371979334431 0.02834673760445329 0 0.43417643350433549 0.018693272884283602 0 0.43813649267415677 0.030255085761704398 0 0.44793617809480157 0.018372773318046261 0 0.44793617809480157 0.018372773318046261 0 0.45917371979334431 0.02834673760445329 0 0.46013945876892448 0.0090952484608414572 0 0.45917371979334431 0.02834673760445329 0 0.46013945876892448 0.0090952484608414572 0 0.4784268481125154 0.016574068286750069 0 0.46013945876892448 0.0090952484608414572 0 0.47605362695175663 -0.0038622867528701251 0 0.46220662409235891 -0.0047254815649330102 0 0.43758785680496443 0.057010440783870138 0 0.46330381201010939 0.057704639826849487 0 0.45038258072911941 0.06581387706977021 0 0.43758785680496443 0.057010440783870138 0 0.46330381201010939 0.057704639826849487 0 0.43758785680496443 0.057010440783870138 0 0.45093251123727668 0.043932405127358617 0 0.46330381201010939 0.057704639826849487 0 0.43356371840447178 0.042849409709792972 0 0.43758785680496443 0.057010440783870138 0 0.45093251123727668 0.043932405127358617 0 0.43356371840447178 0.042849409709792972 0 0.43813649267415677 0.030255085761704398 0 0.45093251123727668 0.043932405127358617 0 0.43813649267415677 0.030255085761704398 0 0.45917371979334431 0.02834673760445329 0 0.45093251123727668 0.043932405127358617 0 0.45093251123727668 0.043932405127358617 0 0.46330381201010939 0.057704639826849487 0 0.47622236021358538 0.03784411194872489 0 0.45917371979334431 0.02834673760445329 0 0.45093251123727668 0.043932405127358617 0 0.47622236021358538 0.03784411194872489 0 0.46330381201010939 0.057704639826849487 0 0.47622236021358538 0.03784411194872489 0 0.48901976721525459 0.058398838869827982 0 0.46330381201010939 0.057704639826849487 0 0.48901976721525459 0.058398838869827982 0 0.46541424607908882 0.068415219662614976 0 0.46330381201010939 0.057704639826849487 0 0.48901976721525459 0.058398838869827982 0 0.47622236021358538 0.03784411194872489 0 0.48929416700436029 0.04377741681532446 0 0.48901976721525459 0.058398838869827982 0 0.47622236021358538 0.03784411194872489 0 0.48929416700436029 0.04377741681532446 0 0.5 0.026255432439059812 0 0.48929416700436029 0.04377741681532446 0 0.49999999999999978 0.053739666461345079 0 0.5 0.026255432439059812 0 0.48929416700436029 0.04377741681532446 0 0.49999999999999978 0.053739666461345079 0 0.48901976721525459 0.058398838869827982 0 0.49999999999999978 0.053739666461345079 0 0.48901976721525459 0.058398838869827982 0 0.50000000000000633 0.058695248901268968 0 0.48901976721525459 0.058398838869827982 0 0.50000000000000122 0.068500453432316255 0 0.50000000000000633 0.058695248901268968 0 0.48901976721525459 0.058398838869827982 0 0.49999999999999978 0.053739666461345079 0 0.50000000000000633 0.058695248901268968 0 0.48901976721525459 0.058398838869827982 0 0.46013945876892448 0.0090952484608414572 0 0.4784268481125154 0.016574068286750069 0 0.47605362695175663 -0.0038622867528701251 0 0.45917371979334431 0.02834673760445329 0 0.47622236021358538 0.03784411194872489 0 0.4784268481125154 0.016574068286750069 0 0.47622236021358538 0.03784411194872489 0 0.4784268481125154 0.016574068286750069 0 0.5 0.026255432439059812 0 0.4784268481125154 0.016574068286750069 0 0.5 -0.001228801583225525 0 0.47605362695175663 -0.0038622867528701251 0 0.4784268481125154 0.016574068286750069 0 0.5 0.026255432439059812 0 0.5 -0.001228801583225525 0 0.5 -0.001228801583225525 0 0.47605362695175663 -0.0038622867528701251 0 0.47983379755290889 -0.02504216569543255 0 0.47605362695175663 -0.0038622867528701251 0 0.47983379755290889 -0.02504216569543255 0 0.46281531438054141 -0.018686686636588901 0 0.5 -0.001228801583225525 0 0.47983379755290889 -0.02504216569543255 0 0.5 -0.028713035605510921 0 0.5 -0.028713035605510921 0 0.48634011493702622 -0.043580497474564592 0 0.5 -0.056197269627796358 0 0.47983379755290889 -0.02504216569543255 0 0.5 -0.028713035605510921 0 0.48634011493702622 -0.043580497474564592 0 0.48634011493702622 -0.043580497474564592 0 0.5 -0.056197269627796358 0 0.47337763313387421 -0.062070561691586652 0 0.48634011493702622 -0.043580497474564592 0 0.47337763313387421 -0.062070561691586652 0 0.47068578504343012 -0.045464509784795978 0 0.47983379755290889 -0.02504216569543255 0 0.47068578504343012 -0.045464509784795978 0 0.46152011184353048 -0.032602379592356033 0 0.47983379755290889 -0.02504216569543255 0 0.48634011493702622 -0.043580497474564592 0 0.47068578504343012 -0.045464509784795978 0 0.47068578504343012 -0.045464509784795978 0 0.46152011184353048 -0.032602379592356033 0 0.44979602924154699 -0.043374625705729752 0 0.47337763313387421 -0.062070561691586652 0 0.47068578504343012 -0.045464509784795978 0 0.45576291189480761 -0.055256374497081172 0 0.47068578504343012 -0.045464509784795978 0 0.45576291189480761 -0.055256374497081172 0 0.44979602924154699 -0.043374625705729752 0 0.47337763313387421 -0.062070561691586652 0 0.45576291189480761 -0.055256374497081172 0 0.46075553004242792 -0.065352837242003997 0 0.47068578504343012 -0.045464509784795978 0 0.45576291189480761 -0.055256374497081172 0 0.45576291189480761 -0.055256374497081172 0 0.45410775738978282 -0.062454570800933577 0 0.46075553004242792 -0.065352837242003997 0 0.45576291189480761 -0.055256374497081172 0 0.44979602924154699 -0.043374625705729752 0 0.43909828291051289 -0.063949839580506956 0 0.45576291189480761 -0.055256374497081172 0 0.43909828291051289 -0.063949839580506956 0 0.44084003874618483 -0.065048239209365741 0 0.44979602924154699 -0.043374625705729752 0 0.43909828291051289 -0.063949839580506956 0 0.44979602924154699 -0.043374625705729752 0 0.43909828291051289 -0.063949839580506956 0 0.43574254489958569 -0.060064256690149573 0 0.45576291189480761 -0.055256374497081172 0 0.44084003874618483 -0.065048239209365741 0 0.45576291189480761 -0.055256374497081172 0 0.45410775738978282 -0.062454570800933577 0 0.44084003874618483 -0.065048239209365741 0 0.44979602924154699 -0.043374625705729752 0 0.43019310663996713 -0.035918793995103122 0 0.43574254489958569 -0.060064256690149573 0 0.46152011184353048 -0.032602379592356033 0 0.44979602924154699 -0.043374625705729752 0 0.44544916932657019 -0.02530543540397762 0 0.44979602924154699 -0.043374625705729752 0 0.44544916932657019 -0.02530543540397762 0 0.43019310663996713 -0.035918793995103122 0 0.44544916932657019 -0.02530543540397762 0 0.44899446048625019 -0.0075400202491378004 0 0.46281531438054141 -0.018686686636588901 0 0.44544916932657019 -0.02530543540397762 0 0.44899446048625019 -0.0075400202491378004 0 0.42464366838034862 -0.011773331300056681 0 0.44899446048625019 -0.0075400202491378004 0 0.46220662409235891 -0.0047254815649330102 0 0.46281531438054141 -0.018686686636588901 0 0.46013945876892448 0.0090952484608414572 0 0.44899446048625019 -0.0075400202491378004 0 0.46220662409235891 -0.0047254815649330102 0 0.47605362695175663 -0.0038622867528701251 0 0.46220662409235891 -0.0047254815649330102 0 0.46281531438054141 -0.018686686636588901 0 0.47983379755290889 -0.02504216569543255 0 0.46152011184353048 -0.032602379592356033 0 0.46281531438054141 -0.018686686636588901 0 0.46152011184353048 -0.032602379592356033 0 0.44544916932657019 -0.02530543540397762 0 0.46281531438054141 -0.018686686636588901 0 0.47636721308447211 -0.1118563203376373 0 0.46089539590529488 -0.11388036693040431 0 0.47780130380673319 -0.1335557229562552 0 0.47636721308447211 -0.1118563203376373 0 0.48720541854545441 -0.1206799802016226 0 0.47780130380673319 -0.1335557229562552 0 0.47636721308447211 -0.1118563203376373 0 0.48720541854545441 -0.1206799802016226 0 0.48796599538330149 -0.1086021644099506 0 0.48720541854545441 -0.1206799802016226 0 0.5 -0.1111657376723672 0 0.49999999999999739 -0.13864997169465271 0 0.48720541854545441 -0.1206799802016226 0 0.5 -0.1111657376723672 0 0.48796599538330149 -0.1086021644099506 0 0.48796599538330149 -0.1086021644099506 0 0.49232138281005439 -0.09751380530905758 0 0.47941989503010041 -0.099408210146979134 0 0.5 -0.1111657376723672 0 0.49232138281005439 -0.09751380530905758 0 0.5 -0.083681503650081757 0 0.5 -0.1111657376723672 0 0.48796599538330149 -0.1086021644099506 0 0.49232138281005439 -0.09751380530905758 0 0.49232138281005439 -0.09751380530905758 0 0.47941989503010041 -0.099408210146979134 0 0.47516093478876492 -0.086691949942493157 0 0.47636721308447211 -0.1118563203376373 0 0.47941989503010041 -0.099408210146979134 0 0.46579941820745679 -0.09483766908191392 0 0.47636721308447211 -0.1118563203376373 0 0.48796599538330149 -0.1086021644099506 0 0.47941989503010041 -0.099408210146979134 0 0.49232138281005439 -0.09751380530905758 0 0.47516093478876492 -0.086691949942493157 0 0.47941989503010041 -0.099408210146979134 0 0.47516093478876492 -0.086691949942493157 0 0.46579941820745679 -0.09483766908191392 0 0.47516093478876492 -0.086691949942493157 0 0.48841535257824131 -0.085377825599733059 0 0.48617909271414611 -0.073624043497299826 0 0.49232138281005439 -0.09751380530905758 0 0.47516093478876492 -0.086691949942493157 0 0.48841535257824131 -0.085377825599733059 0 0.49232138281005439 -0.09751380530905758 0 0.5 -0.083681503650081757 0 0.48841535257824131 -0.085377825599733059 0 0.5 -0.083681503650081757 0 0.48841535257824131 -0.085377825599733059 0 0.48617909271414611 -0.073624043497299826 0 0.5 -0.056197269627796358 0 0.5 -0.083681503650081757 0 0.48617909271414611 -0.073624043497299826 0 0.5 -0.056197269627796358 0 0.47337763313387421 -0.062070561691586652 0 0.48617909271414611 -0.073624043497299826 0 0.47337763313387421 -0.062070561691586652 0 0.48617909271414611 -0.073624043497299826 0 0.47069473548933771 -0.072721897389862469 0 0.47516093478876492 -0.086691949942493157 0 0.48617909271414611 -0.073624043497299826 0 0.47069473548933771 -0.072721897389862469 0 0.47337763313387421 -0.062070561691586652 0 0.47069473548933771 -0.072721897389862469 0 0.46075553004242792 -0.065352837242003997 0 0.47069473548933771 -0.072721897389862469 0 0.45800048676747529 -0.075870094575928693 0 0.46075553004242792 -0.065352837242003997 0 0.45800048676747529 -0.075870094575928693 0 0.45466891779531943 -0.075637640264810208 0 0.45558632304926422 -0.078905423715282239 0 0.45800048676747529 -0.075870094575928693 0 0.46075553004242792 -0.065352837242003997 0 0.45280720021011361 -0.067389627995313839 0 0.45410775738978282 -0.062454570800933577 0 0.46075553004242792 -0.065352837242003997 0 0.45280720021011361 -0.067389627995313839 0 0.45800048676747529 -0.075870094575928693 0 0.45280720021011361 -0.067389627995313839 0 0.44084003874618483 -0.065048239209365741 0 0.45800048676747529 -0.075870094575928693 0 0.45466891779531943 -0.075637640264810208 0 0.44084003874618483 -0.065048239209365741 0 0.45466891779531943 -0.075637640264810208 0 0.44084003874618483 -0.065048239209365741 0 0.43732953776085792 -0.067351706536221134 0 0.45466891779531943 -0.075637640264810208 0 0.43074057163525109 -0.080024411894237993 0 0.43732953776085792 -0.067351706536221134 0 0.45410775738978282 -0.062454570800933577 0 0.45280720021011361 -0.067389627995313839 0 0.44084003874618483 -0.065048239209365741 0 0.45466891779531943 -0.075637640264810208 0 0.43074057163525109 -0.080024411894237993 0 0.45800048676747529 -0.075870094575928693 0 0.44084003874618483 -0.065048239209365741 0 0.44084003874618483 -0.065048239209365741 0 0.43732953776085792 -0.067351706536221134 0 0.43909828291051289 -0.063949839580506956 0 0.43732953776085792 -0.067351706536221134 0 0.43909828291051289 -0.063949839580506956 0 0.44084003874618483 -0.065048239209365741 0 0.43732953776085792 -0.067351706536221134 0 0.43909828291051289 -0.063949839580506956 0 0.44084003874618483 -0.065048239209365741 0 0.45466891779531943 -0.075637640264810208 0 0.44357008569703588 -0.082551166608134594 0 0.43074057163525109 -0.080024411894237993 0 0.45238937171421839 -0.081037988520675619 0 0.45027901942776882 -0.085414042135813273 0 0.44357008569703588 -0.082551166608134594 0 0.45466891779531943 -0.075637640264810208 0 0.45238937171421839 -0.081037988520675619 0 0.44357008569703588 -0.082551166608134594 0 0.44357008569703588 -0.082551166608134594 0 0.44533218798050611 -0.091224612565768359 0 0.4355677383444741 -0.090716444235371702 0 0.45027901942776882 -0.085414042135813273 0 0.44533218798050611 -0.091224612565768359 0 0.45390330506510512 -0.090715921730766369 0 0.45027901942776882 -0.085414042135813273 0 0.44357008569703588 -0.082551166608134594 0 0.44533218798050611 -0.091224612565768359 0 0.47516093478876492 -0.086691949942493157 0 0.45800048676747529 -0.075870094575928693 0 0.45390330506510512 -0.090715921730766369 0 0.4572865159200436 -0.083075971499714435 0 0.46579941820745679 -0.09483766908191392 0 0.47516093478876492 -0.086691949942493157 0 0.45800048676747529 -0.075870094575928693 0 0.4572865159200436 -0.083075971499714435 0 0.47516093478876492 -0.086691949942493157 0 0.4572865159200436 -0.083075971499714435 0 0.46579941820745679 -0.09483766908191392 0 0.47516093478876492 -0.086691949942493157 0 0.47069473548933771 -0.072721897389862469 0 0.45800048676747529 -0.075870094575928693 0 0.45027901942776882 -0.085414042135813273 0 0.45390330506510512 -0.090715921730766369 0 0.4572865159200436 -0.083075971499714435 0 0.45238937171421839 -0.081037988520675619 0 0.45027901942776882 -0.085414042135813273 0 0.4572865159200436 -0.083075971499714435 0 0.45800048676747529 -0.075870094575928693 0 0.45558632304926422 -0.078905423715282239 0 0.4572865159200436 -0.083075971499714435 0 0.45466891779531943 -0.075637640264810208 0 0.45238937171421839 -0.081037988520675619 0 0.45558632304926422 -0.078905423715282239 0 0.45238937171421839 -0.081037988520675619 0 0.45558632304926422 -0.078905423715282239 0 0.4572865159200436 -0.083075971499714435 0 0.46579941820745679 -0.09483766908191392 0 0.45165923586310319 -0.10007471778129171 0 0.46089539590529488 -0.11388036693040431 0 0.47636721308447211 -0.1118563203376373 0 0.46579941820745679 -0.09483766908191392 0 0.46089539590529488 -0.11388036693040431 0 0.45390330506510512 -0.090715921730766369 0 0.46579941820745679 -0.09483766908191392 0 0.45165923586310319 -0.10007471778129171 0 0.44533218798050611 -0.091224612565768359 0 0.45390330506510512 -0.090715921730766369 0 0.45165923586310319 -0.10007471778129171 0 0.45165923586310319 -0.10007471778129171 0 0.44451567776047551 -0.1127262847887959 0 0.46089539590529488 -0.11388036693040431 0 0.44533218798050611 -0.091224612565768359 0 0.4372673368040827 -0.1008858606902643 0 0.4355677383444741 -0.090716444235371702 0 0.44533218798050611 -0.091224612565768359 0 0.45165923586310319 -0.10007471778129171 0 0.4372673368040827 -0.1008858606902643 0 0.45165923586310319 -0.10007471778129171 0 0.44451567776047551 -0.1127262847887959 0 0.4372673368040827 -0.1008858606902643 0 0.44451567776047551 -0.1127262847887959 0 0.4334039114202054 -0.12336722547945921 0 0.45560260761346932 -0.1284614742178572 0 0.44451567776047551 -0.1127262847887959 0 0.46089539590529488 -0.11388036693040431 0 0.45560260761346932 -0.1284614742178572 0 0.4108913093444978 -0.11820094031911341 0 0.42425832726331508 -0.1126141431545183 0 0.42092850960549433 -0.098896169418453098 0 0.4108913093444978 -0.11820094031911341 0 0.42425832726331508 -0.1126141431545183 0 0.4334039114202054 -0.12336722547945921 0 0.44451567776047551 -0.1127262847887959 0 0.42425832726331508 -0.1126141431545183 0 0.4334039114202054 -0.12336722547945921 0 0.4108913093444978 -0.11820094031911341 0 0.4334039114202054 -0.12336722547945921 0 0.44451567776047551 -0.1127262847887959 0 0.42425832726331508 -0.1126141431545183 0 0.4372673368040827 -0.1008858606902643 0 0.42425832726331508 -0.1126141431545183 0 0.4372673368040827 -0.1008858606902643 0 0.42092850960549433 -0.098896169418453098 0 0.4372673368040827 -0.1008858606902643 0 0.42092850960549433 -0.098896169418453098 0 0.4355677383444741 -0.090716444235371702 0 0.4108913093444978 -0.11820094031911341 0 0.42092850960549433 -0.098896169418453098 0 0.40588204823863971 -0.087986443552063878 0 0.4108913093444978 -0.11820094031911341 0 0.40588204823863971 -0.087986443552063878 0 0.4108913093444978 -0.11820094031911341 0 0.42092850960549433 -0.098896169418453098 0 0.42092850960549433 -0.098896169418453098 0 0.41308271782679368 -0.083261617324373524 0 0.40588204823863971 -0.087986443552063878 0 0.42092850960549433 -0.098896169418453098 0 0.41308271782679368 -0.083261617324373524 0 0.43074057163525109 -0.080024411894237993 0 0.41308271782679368 -0.083261617324373524 0 0.40588204823863971 -0.087986443552063878 0 0.41308271782679368 -0.083261617324373524 0 0.40530231230222419 -0.084687995143896938 0 0.40588204823863971 -0.087986443552063878 0 0.41308271782679368 -0.083261617324373524 0 0.40530231230222419 -0.084687995143896938 0 0.42092850960549433 -0.098896169418453098 0 0.43074057163525109 -0.080024411894237993 0 0.42092850960549433 -0.098896169418453098 0 0.4355677383444741 -0.090716444235371702 0 0.43074057163525109 -0.080024411894237993 0 0.41308271782679368 -0.083261617324373524 0 0.43074057163525109 -0.080024411894237993 0 0.44357008569703588 -0.082551166608134594 0 0.4355677383444741 -0.090716444235371702 0 0.43074057163525109 -0.080024411894237993 0 0.41308271782679368 -0.083261617324373524 0 0.43074057163525109 -0.080024411894237993 0 0.43732953776085792 -0.067351706536221134 0 0.41308271782679368 -0.083261617324373524 0 0.43732953776085792 -0.067351706536221134 0 0.41308271782679368 -0.083261617324373524 0 0.43732953776085792 -0.067351706536221134 0 0.42102607203478998 -0.065023218270037125 0 0.43909828291051289 -0.063949839580506956 0 0.43732953776085792 -0.067351706536221134 0 0.42102607203478998 -0.065023218270037125 0 0.43074057163525109 -0.080024411894237993 0 0.43732953776085792 -0.067351706536221134 0 0.41308271782679368 -0.083261617324373524 0 0.42102607203478998 -0.065023218270037125 0 0.40136177513636562 -0.062268031629919701 0 0.41308271782679368 -0.083261617324373524 0 0.40530231230222419 -0.084687995143896938 0 0.40136177513636562 -0.062268031629919701 0 0.39544735090406818 -0.074881049395417204 0 0.38138464137541572 -0.065930429483644679 0 0.40136177513636562 -0.062268031629919701 0 0.40530231230222419 -0.084687995143896938 0 0.40136177513636562 -0.062268031629919701 0 0.39544735090406818 -0.074881049395417204 0 0.40530231230222419 -0.084687995143896938 0 0.40136177513636562 -0.062268031629919701 0 0.38138464137541572 -0.065930429483644679 0 0.37554710294605281 -0.0773599997736161 0 0.36950501891220838 -0.050995666020024227 0 0.39544735090406818 -0.074881049395417204 0 0.38138464137541572 -0.065930429483644679 0 0.39031946198151479 -0.087434793534189759 0 0.38138464137541572 -0.065930429483644679 0 0.37554710294605281 -0.0773599997736161 0 0.37533661166080551 -0.090181591924483107 0 0.38138464137541572 -0.065930429483644679 0 0.37533661166080551 -0.090181591924483107 0 0.38138464137541572 -0.065930429483644679 0 0.37533661166080551 -0.090181591924483107 0 0.39031946198151479 -0.087434793534189759 0 0.37533661166080551 -0.090181591924483107 0 0.39031946198151479 -0.087434793534189759 0 0.37533661166080551 -0.090181591924483107 0 0.39031946198151479 -0.087434793534189759 0 0.38354037362599153 -0.098075885061456841 0 0.39031946198151479 -0.087434793534189759 0 0.39991479608822572 -0.09190194462072511 0 0.39136097168929468 -0.097736505567580956 0 0.39031946198151479 -0.087434793534189759 0 0.40530231230222419 -0.084687995143896938 0 0.39544735090406818 -0.074881049395417204 0 0.39031946198151479 -0.087434793534189759 0 0.40530231230222419 -0.084687995143896938 0 0.40588204823863971 -0.087986443552063878 0 0.39991479608822572 -0.09190194462072511 0 0.39819904494475922 -0.098816196614842311 0 0.39031946198151479 -0.087434793534189759 0 0.40530231230222419 -0.084687995143896938 0 0.39991479608822572 -0.09190194462072511 0 0.40530231230222419 -0.084687995143896938 0 0.40588204823863971 -0.087986443552063878 0 0.39991479608822572 -0.09190194462072511 0 0.40530231230222419 -0.084687995143896938 0 0.40588204823863971 -0.087986443552063878 0 0.40588204823863971 -0.087986443552063878 0 0.39991479608822572 -0.09190194462072511 0 0.40588204823863971 -0.087986443552063878 0 0.40120548393671412 -0.1071967205839634 0 0.39819904494475922 -0.098816196614842311 0 0.4108913093444978 -0.11820094031911341 0 0.40588204823863971 -0.087986443552063878 0 0.40120548393671412 -0.1071967205839634 0 0.40120548393671412 -0.1071967205839634 0 0.39819904494475922 -0.098816196614842311 0 0.38845102547698263 -0.1046025533490878 0 0.40120548393671412 -0.1071967205839634 0 0.38845102547698263 -0.1046025533490878 0 0.39264787752267022 -0.11401436202941451 0 0.39991479608822572 -0.09190194462072511 0 0.39136097168929468 -0.097736505567580956 0 0.39819904494475922 -0.098816196614842311 0 0.39136097168929468 -0.097736505567580956 0 0.39819904494475922 -0.098816196614842311 0 0.38845102547698263 -0.1046025533490878 0 0.39136097168929468 -0.097736505567580956 0 0.38354037362599153 -0.098075885061456841 0 0.38845102547698263 -0.1046025533490878 0 0.39031946198151479 -0.087434793534189759 0 0.39136097168929468 -0.097736505567580956 0 0.38354037362599153 -0.098075885061456841 0 0.37533661166080551 -0.090181591924483107 0 0.37854930815177912 -0.10214043899035539 0 0.37128205830612021 -0.1064393877140767 0 0.37533661166080551 -0.090181591924483107 0 0.38354037362599153 -0.098075885061456841 0 0.37854930815177912 -0.10214043899035539 0 0.37854930815177912 -0.10214043899035539 0 0.38845102547698263 -0.1046025533490878 0 0.37440444570084302 -0.10982778373971321 0 0.38354037362599153 -0.098075885061456841 0 0.37854930815177912 -0.10214043899035539 0 0.38845102547698263 -0.1046025533490878 0 0.37846746504523088 -0.1238085554348782 0 0.39264787752267022 -0.11401436202941451 0 0.37291576394733972 -0.1155387724980774 0 0.38845102547698263 -0.1046025533490878 0 0.39264787752267022 -0.11401436202941451 0 0.37440444570084302 -0.10982778373971321 0 0.39264787752267022 -0.11401436202941451 0 0.37291576394733972 -0.1155387724980774 0 0.37440444570084302 -0.10982778373971321 0 0.39264787752267022 -0.11401436202941451 0 0.37440444570084302 -0.10982778373971321 0 0.37846746504523088 -0.1238085554348782 0 0.39264787752267022 -0.11401436202941451 0 0.39175816338281999 -0.12723027968753561 0 0.4108913093444978 -0.11820094031911341 0 0.40120548393671412 -0.1071967205839634 0 0.39264787752267022 -0.11401436202941451 0 0.4108913093444978 -0.11820094031911341 0 0.39264787752267022 -0.11401436202941451 0 0.4108913093444978 -0.11820094031911341 0 0.39264787752267022 -0.11401436202941451 0 0.39175816338281999 -0.12723027968753561 0 0.4190942301207301 0.01237213139498987 0 0.4111820605055595 -0.0060976978047664106 0 0.42464366838034862 -0.011773331300056681 0 0.41110996486090817 -0.025885858256337789 0 0.4111820605055595 -0.0060976978047664106 0 0.42464366838034862 -0.011773331300056681 0 0.43871252796875759 0.0061555649498879639 0 0.44899446048625019 -0.0075400202491378004 0 0.42464366838034862 -0.011773331300056681 0 0.44544916932657019 -0.02530543540397762 0 0.42464366838034862 -0.011773331300056681 0 0.43019310663996713 -0.035918793995103122 0 0.42464366838034862 -0.011773331300056681 0 0.43019310663996713 -0.035918793995103122 0 0.41110996486090817 -0.025885858256337789 0 0.42464366838034862 -0.011773331300056681 0 0.43019310663996713 -0.035918793995103122 0 0.43909828291051289 -0.063949839580506956 0 0.41425804653942039 -0.048284896279163811 0 0.43019310663996713 -0.035918793995103122 0 0.43574254489958569 -0.060064256690149573 0 0.41425804653942039 -0.048284896279163811 0 0.43909828291051289 -0.063949839580506956 0 0.42102607203478998 -0.065023218270037125 0 0.41425804653942039 -0.048284896279163811 0 0.43909828291051289 -0.063949839580506956 0 0.43574254489958569 -0.060064256690149573 0 0.41425804653942039 -0.048284896279163811 0 0.43019310663996713 -0.035918793995103122 0 0.43574254489958569 -0.060064256690149573 0 0.42102607203478998 -0.065023218270037125 0 0.41425804653942039 -0.048284896279163811 0 0.40136177513636562 -0.062268031629919701 0 0.41110996486090817 -0.025885858256337789 0 0.43019310663996713 -0.035918793995103122 0 0.41425804653942039 -0.048284896279163811 0 0.41110996486090817 -0.025885858256337789 0 0.41425804653942039 -0.048284896279163811 0 0.39742123797049977 -0.039848068115943637 0 0.39742123797049977 -0.039848068115943637 0 0.38743267109002583 -0.041679267042806188 0 0.39348070080463499 -0.017428104601967399 0 0.39742123797049977 -0.039848068115943637 0 0.40136177513636562 -0.062268031629919701 0 0.38743267109002583 -0.041679267042806188 0 0.41425804653942039 -0.048284896279163811 0 0.39742123797049977 -0.039848068115943637 0 0.40136177513636562 -0.062268031629919701 0 0.39742123797049977 -0.039848068115943637 0 0.40136177513636562 -0.062268031629919701 0 0.38138464137541572 -0.065930429483644679 0 0.38743267109002583 -0.041679267042806188 0 0.37275595122103439 -0.045442561840718917 0 0.38138464137541572 -0.065930429483644679 0 0.38743267109002583 -0.041679267042806188 0 0.38138464137541572 -0.065930429483644679 0 0.40136177513636562 -0.062268031629919701 0 0.38743267109002583 -0.041679267042806188 0 0.38743267109002583 -0.041679267042806188 0 0.37903176572459829 -0.03046689578843044 0 0.37275595122103439 -0.045442561840718917 0 0.38743267109002583 -0.041679267042806188 0 0.39348070080463499 -0.017428104601967399 0 0.37903176572459829 -0.03046689578843044 0 0.37653074379466578 -0.01662624705150963 0 0.39348070080463499 -0.017428104601967399 0 0.38743267109002583 -0.041679267042806188 0 0.37903176572459829 -0.03046689578843044 0 0.39348070080463499 -0.017428104601967399 0 0.39742123797049977 -0.039848068115943637 0 0.39348070080463499 -0.017428104601967399 0 0.41110996486090817 -0.025885858256337789 0 0.39742123797049977 -0.039848068115943637 0 0.39348070080463499 -0.017428104601967399 0 0.41110996486090817 -0.025885858256337789 0 0.4111820605055595 -0.0060976978047664106 0 0.39348070080463499 -0.017428104601967399 0 0.4111820605055595 -0.0060976978047664106 0 0.39348070080463499 -0.017428104601967399 0 0.39772389337593161 -0.00041391036517766239 0 0.39348070080463499 -0.017428104601967399 0 0.39772389337593161 -0.00041391036517766239 0 0.39002045346548109 0.0022592161433241729 0 0.39348070080463499 -0.017428104601967399 0 0.39002045346548109 0.0022592161433241729 0 0.39348070080463499 -0.017428104601967399 0 0.39772389337593161 -0.00041391036517766239 0 0.39002045346548109 0.0022592161433241729 0 0.37653074379466578 -0.01662624705150963 0 0.39348070080463499 -0.017428104601967399 0 0.39002045346548109 0.0022592161433241729 0 0.37653074379466578 -0.01662624705150963 0 0.37326828704277071 -0.00058451373500000155 0 0.37653074379466578 -0.01662624705150963 0 0.3604125045130539 -0.01132093079027569 0 0.37326828704277071 -0.00058451373500000155 0 0.35586624731347583 0.0085164368245983415 0 0.3604125045130539 -0.01132093079027569 0 0.37326828704277071 -0.00058451373500000155 0 0.3604125045130539 -0.01132093079027569 0 0.36495876171263131 -0.03115829840514988 0 0.37653074379466578 -0.01662624705150963 0 0.3604125045130539 -0.01132093079027569 0 0.36495876171263131 -0.03115829840514988 0 0.37903176572459829 -0.03046689578843044 0 0.37653074379466578 -0.01662624705150963 0 0.36495876171263131 -0.03115829840514988 0 0.3604125045130539 -0.01132093079027569 0 0.36495876171263131 -0.03115829840514988 0 0.34975041365522752 -0.022573955549043019 0 0.36495876171263131 -0.03115829840514988 0 0.34975041365522752 -0.022573955549043019 0 0.35022770539812581 -0.03442794996019341 0 0.35586624731347583 0.0085164368245983415 0 0.3604125045130539 -0.01132093079027569 0 0.35586624731347583 0.0085164368245983415 0 0.3604125045130539 -0.01132093079027569 0 0.3581390112777687 -0.0061542180973873746 0 0.3581390112777687 -0.0061542180973873746 0 0.33138749881955931 -0.015067235169498851 0 0.3604125045130539 -0.01132093079027569 0 0.34975041365522752 -0.022573955549043019 0 0.3581390112777687 -0.0061542180973873746 0 0.34975041365522752 -0.022573955549043019 0 0.3581390112777687 -0.0061542180973873746 0 0.33138749881955931 -0.015067235169498851 0 0.3581390112777687 -0.0061542180973873746 0 0.33138749881955931 -0.015067235169498851 0 0.3351356511466751 -0.00055420742185291125 0 0.34975041365522752 -0.022573955549043019 0 0.33138749881955931 -0.015067235169498851 0 0.33027921086199802 -0.035986599376064687 0 0.34975041365522752 -0.022573955549043019 0 0.33027921086199802 -0.035986599376064687 0 0.35022770539812581 -0.03442794996019341 0 0.33138749881955931 -0.015067235169498851 0 0.31440505497987598 -0.0096248516683081348 0 0.30463598636135031 -0.02398025224161169 0 0.33138749881955931 -0.015067235169498851 0 0.33027921086199802 -0.035986599376064687 0 0.30463598636135031 -0.02398025224161169 0 0.33138749881955931 -0.015067235169498851 0 0.30463598636135031 -0.02398025224161169 0 0.33027921086199802 -0.035986599376064687 0 0.30463598636135031 -0.02398025224161169 0 0.3351356511466751 -0.00055420742185291125 0 0.31440505497987598 -0.0096248516683081348 0 0.32243597160031312 0.00024560631661407512 0 0.3351356511466751 -0.00055420742185291125 0 0.31440505497987598 -0.0096248516683081348 0 0.33138749881955931 -0.015067235169498851 0 0.3351356511466751 -0.00055420742185291125 0 0.31440505497987598 -0.0096248516683081348 0 0.32243597160031312 0.00024560631661407512 0 0.30790858231038049 0.002302550276449572 0 0.31440505497987598 -0.0096248516683081348 0 0.32246885145256921 -0.047906324217728807 0 0.33846313568078412 -0.049354866705555597 0 0.32274907666811181 -0.062747066244519756 0 0.32246885145256921 -0.047906324217728807 0 0.32274907666811181 -0.062747066244519756 0 0.30800786163724708 -0.053652907422248652 0 0.32246885145256921 -0.047906324217728807 0 0.31284497241470482 -0.037790181340255413 0 0.30800786163724708 -0.053652907422248652 0 0.31284497241470482 -0.037790181340255413 0 0.33027921086199802 -0.035986599376064687 0 0.30463598636135031 -0.02398025224161169 0 0.32246885145256921 -0.047906324217728807 0 0.31284497241470482 -0.037790181340255413 0 0.33027921086199802 -0.035986599376064687 0 0.33027921086199802 -0.035986599376064687 0 0.35592243536264662 -0.047992946510516027 0 0.33027921086199802 -0.035986599376064687 0 0.33846313568078412 -0.049354866705555597 0 0.35592243536264662 -0.047992946510516027 0 0.32246885145256921 -0.047906324217728807 0 0.33027921086199802 -0.035986599376064687 0 0.33846313568078412 -0.049354866705555597 0 0.33846313568078412 -0.049354866705555597 0 0.33992775423219468 -0.064960701810770127 0 0.32274907666811181 -0.062747066244519756 0 0.33846313568078412 -0.049354866705555597 0 0.3541191945261048 -0.050113166292873337 0 0.33992775423219468 -0.064960701810770127 0 0.33846313568078412 -0.049354866705555597 0 0.35592243536264662 -0.047992946510516027 0 0.3541191945261048 -0.050113166292873337 0 0.3541191945261048 -0.050113166292873337 0 0.3520491655455355 -0.062555863657029961 0 0.33992775423219468 -0.064960701810770127 0 0.3541191945261048 -0.050113166292873337 0 0.33992775423219468 -0.064960701810770127 0 0.35592243536264662 -0.047992946510516027 0 0.3541191945261048 -0.050113166292873337 0 0.35952703637877698 -0.055816687770123552 0 0.3541191945261048 -0.050113166292873337 0 0.35952703637877698 -0.055816687770123552 0 0.3520491655455355 -0.062555863657029961 0 0.36495876171263131 -0.03115829840514988 0 0.35592243536264662 -0.047992946510516027 0 0.35022770539812581 -0.03442794996019341 0 0.33027921086199802 -0.035986599376064687 0 0.35592243536264662 -0.047992946510516027 0 0.35022770539812581 -0.03442794996019341 0 0.36495876171263131 -0.03115829840514988 0 0.37275595122103439 -0.045442561840718917 0 0.36950501891220838 -0.050995666020024227 0 0.36495876171263131 -0.03115829840514988 0 0.36950501891220838 -0.050995666020024227 0 0.36495876171263131 -0.03115829840514988 0 0.35592243536264662 -0.047992946510516027 0 0.36950501891220838 -0.050995666020024227 0 0.37903176572459829 -0.03046689578843044 0 0.36495876171263131 -0.03115829840514988 0 0.37275595122103439 -0.045442561840718917 0 0.38138464137541572 -0.065930429483644679 0 0.37275595122103439 -0.045442561840718917 0 0.36950501891220838 -0.050995666020024227 0 0.35952703637877698 -0.055816687770123552 0 0.36950501891220838 -0.050995666020024227 0 0.35630515946011759 -0.073543104024389475 0 0.36950501891220838 -0.050995666020024227 0 0.35630515946011759 -0.073543104024389475 0 0.35592243536264662 -0.047992946510516027 0 0.35952703637877698 -0.055816687770123552 0 0.36950501891220838 -0.050995666020024227 0 0.37275595122103439 -0.045442561840718917 0 0.36950501891220838 -0.050995666020024227 0 0.37554710294605281 -0.0773599997736161 0 0.36950501891220838 -0.050995666020024227 0 0.35630515946011759 -0.073543104024389475 0 0.37554710294605281 -0.0773599997736161 0 0.36950501891220838 -0.050995666020024227 0 0.37533661166080551 -0.090181591924483107 0 0.35922095583441671 -0.093136066976619622 0 0.37533661166080551 -0.090181591924483107 0 0.36580366637718897 -0.083612566264793589 0 0.35922095583441671 -0.093136066976619622 0 0.37554710294605281 -0.0773599997736161 0 0.37533661166080551 -0.090181591924483107 0 0.36580366637718897 -0.083612566264793589 0 0.36580366637718897 -0.083612566264793589 0 0.35922095583441671 -0.093136066976619622 0 0.35630515946011759 -0.073543104024389475 0 0.37554710294605281 -0.0773599997736161 0 0.36580366637718897 -0.083612566264793589 0 0.35630515946011759 -0.073543104024389475 0 0.37533661166080551 -0.090181591924483107 0 0.35922095583441671 -0.093136066976619622 0 0.3674614377078983 -0.097784152418317699 0 0.35007080966615722 -0.076354829577702774 0 0.35630515946011759 -0.073543104024389475 0 0.34310530000802769 -0.096090542028755208 0 0.35922095583441671 -0.093136066976619622 0 0.35630515946011759 -0.073543104024389475 0 0.34310530000802769 -0.096090542028755208 0 0.35630515946011759 -0.073543104024389475 0 0.34310530000802769 -0.096090542028755208 0 0.35952703637877698 -0.055816687770123552 0 0.3520491655455355 -0.062555863657029961 0 0.35630515946011759 -0.073543104024389475 0 0.35007080966615722 -0.076354829577702774 0 0.34896269145952358 -0.069721414221347422 0 0.34117439232404012 -0.072711295734622053 0 0.34896269145952358 -0.069721414221347422 0 0.3520491655455355 -0.062555863657029961 0 0.33992775423219468 -0.064960701810770127 0 0.34896269145952358 -0.069721414221347422 0 0.3520491655455355 -0.062555863657029961 0 0.35630515946011759 -0.073543104024389475 0 0.35007080966615722 -0.076354829577702774 0 0.34896269145952358 -0.069721414221347422 0 0.35630515946011759 -0.073543104024389475 0 0.36419427341265809 -0.1222146642892703 0 0.35921685310185808 -0.12188493579336999 0 0.36030480180907137 -0.12607802159258361 0 0.36092377950578791 -0.1177257781861708 0 0.36419427341265809 -0.1222146642892703 0 0.35921685310185808 -0.12188493579336999 0 0.36092377950578791 -0.1177257781861708 0 0.36419427341265809 -0.1222146642892703 0 0.3660264935135456 -0.1167249281938669 0 0.36419427341265809 -0.1222146642892703 0 0.36960892406329948 -0.1207302904533256 0 0.3660264935135456 -0.1167249281938669 0 0.37846746504523088 -0.1238085554348782 0 0.36960892406329948 -0.1207302904533256 0 0.37291576394733972 -0.1155387724980774 0 0.36419427341265809 -0.1222146642892703 0 0.36960892406329948 -0.1207302904533256 0 0.36817917921628701 -0.12699096645145849 0 0.37846746504523088 -0.1238085554348782 0 0.36960892406329948 -0.1207302904533256 0 0.36817917921628701 -0.12699096645145849 0 0.36960892406329948 -0.1207302904533256 0 0.37291576394733972 -0.1155387724980774 0 0.3660264935135456 -0.1167249281938669 0 0.37291576394733972 -0.1155387724980774 0 0.36697295823074533 -0.1122250778150166 0 0.3660264935135456 -0.1167249281938669 0 0.37291576394733972 -0.1155387724980774 0 0.37440444570084302 -0.10982778373971321 0 0.37049994754018167 -0.11029292727459079 0 0.37291576394733972 -0.1155387724980774 0 0.37049994754018167 -0.11029292727459079 0 0.36697295823074533 -0.1122250778150166 0 0.36697295823074533 -0.1122250778150166 0 0.36154326192144332 -0.11191498592134071 0 0.36459163712854142 -0.1053580712373523 0 0.36697295823074533 -0.1122250778150166 0 0.3660264935135456 -0.1167249281938669 0 0.36154326192144332 -0.11191498592134071 0 0.36092377950578791 -0.1177257781861708 0 0.3660264935135456 -0.1167249281938669 0 0.36154326192144332 -0.11191498592134071 0 0.37533661166080551 -0.090181591924483107 0 0.37128205830612021 -0.1064393877140767 0 0.3674614377078983 -0.097784152418317699 0 0.37533661166080551 -0.090181591924483107 0 0.37128205830612021 -0.1064393877140767 0 0.36154326192144332 -0.11191498592134071 0 0.36459163712854142 -0.1053580712373523 0 0.35498768191559832 -0.1055446041861262 0 0.36459163712854142 -0.1053580712373523 0 0.37128205830612021 -0.1064393877140767 0 0.3674614377078983 -0.097784152418317699 0 0.37049994754018167 -0.11029292727459079 0 0.36697295823074533 -0.1122250778150166 0 0.36459163712854142 -0.1053580712373523 0 0.37049994754018167 -0.11029292727459079 0 0.36459163712854142 -0.1053580712373523 0 0.37128205830612021 -0.1064393877140767 0 0.37854930815177912 -0.10214043899035539 0 0.37440444570084302 -0.10982778373971321 0 0.37128205830612021 -0.1064393877140767 0 0.37440444570084302 -0.10982778373971321 0 0.37049994754018167 -0.11029292727459079 0 0.37128205830612021 -0.1064393877140767 0 0.35922095583441671 -0.093136066976619622 0 0.36459163712854142 -0.1053580712373523 0 0.3674614377078983 -0.097784152418317699 0 0.35922095583441671 -0.093136066976619622 0 0.36459163712854142 -0.1053580712373523 0 0.35498768191559832 -0.1055446041861262 0 0.35498768191559832 -0.1055446041861262 0 0.34713851000685397 -0.1127133682890238 0 0.34310530000802769 -0.096090542028755208 0 0.35922095583441671 -0.093136066976619622 0 0.34310530000802769 -0.096090542028755208 0 0.35922095583441671 -0.093136066976619622 0 0.35498768191559832 -0.1055446041861262 0 0.34310530000802769 -0.096090542028755208 0 0.35498768191559832 -0.1055446041861262 0 0.3547902941659471 -0.1129329674426329 0 0.34713851000685397 -0.1127133682890238 0 0.3547902941659471 -0.1129329674426329 0 0.34713851000685397 -0.1127133682890238 0 0.35524229449114919 -0.1195470931475059 0 0.36154326192144332 -0.11191498592134071 0 0.35498768191559832 -0.1055446041861262 0 0.3547902941659471 -0.1129329674426329 0 0.36092377950578791 -0.1177257781861708 0 0.36154326192144332 -0.11191498592134071 0 0.3547902941659471 -0.1129329674426329 0 0.36092377950578791 -0.1177257781861708 0 0.3547902941659471 -0.1129329674426329 0 0.35524229449114919 -0.1195470931475059 0 0.34713851000685397 -0.1127133682890238 0 0.34829576483595198 -0.12265469320266741 0 0.35524229449114919 -0.1195470931475059 0 0.34713851000685397 -0.1127133682890238 0 0.34829576483595198 -0.12265469320266741 0 0.33832246763778018 -0.1210818330307471 0 0.34829576483595198 -0.12265469320266741 0 0.35541911629062378 -0.1238591217513193 0 0.35227910082940278 -0.12719787550517569 0 0.34829576483595198 -0.12265469320266741 0 0.35541911629062378 -0.1238591217513193 0 0.35524229449114919 -0.1195470931475059 0 0.36092377950578791 -0.1177257781861708 0 0.35524229449114919 -0.1195470931475059 0 0.35921685310185808 -0.12188493579336999 0 0.35541911629062378 -0.1238591217513193 0 0.35524229449114919 -0.1195470931475059 0 0.35921685310185808 -0.12188493579336999 0 0.35541911629062378 -0.1238591217513193 0 0.35921685310185808 -0.12188493579336999 0 0.36030480180907137 -0.12607802159258361 0 0.33382962647809239 -0.1119348526916087 0 0.32390533113391379 -0.12888711152603469 0 0.33832246763778018 -0.1210818330307471 0 0.33382962647809239 -0.1119348526916087 0 0.32390533113391379 -0.12888711152603469 0 0.34829576483595198 -0.12265469320266741 0 0.33832246763778018 -0.1210818330307471 0 0.33779448391984462 -0.130327087615973 0 0.34713851000685397 -0.1127133682890238 0 0.33832246763778018 -0.1210818330307471 0 0.33382962647809239 -0.1119348526916087 0 0.33382962647809239 -0.1119348526916087 0 0.34310530000802769 -0.096090542028755208 0 0.32314110994718331 -0.099750566920471156 0 0.34310530000802769 -0.096090542028755208 0 0.32314110994718331 -0.099750566920471156 0 0.32972251788362961 -0.090467012576643177 0 0.34310530000802769 -0.096090542028755208 0 0.32314110994718331 -0.099750566920471156 0 0.33382962647809239 -0.1119348526916087 0 0.34310530000802769 -0.096090542028755208 0 0.34713851000685397 -0.1127133682890238 0 0.33382962647809239 -0.1119348526916087 0 0.34310530000802769 -0.096090542028755208 0 0.32314110994718331 -0.099750566920471156 0 0.31445661691231092 -0.091609414570424971 0 0.3031769198863381 -0.103410591812184 0 0.33382962647809239 -0.1119348526916087 0 0.32314110994718331 -0.099750566920471156 0 0.31626372204589398 -0.1116460846705236 0 0.32314110994718331 -0.099750566920471156 0 0.31626372204589398 -0.1116460846705236 0 0.3031769198863381 -0.103410591812184 0 0.32314110994718331 -0.099750566920471156 0 0.3031769198863381 -0.103410591812184 0 0.32314110994718331 -0.099750566920471156 0 0.32972251788362961 -0.090467012576643177 0 0.31445661691231092 -0.091609414570424971 0 0.31876797703702431 -0.120234323429929 0 0.30537596431518782 -0.12408867219293949 0 0.32390533113391379 -0.12888711152603469 0 0.33382962647809239 -0.1119348526916087 0 0.31876797703702431 -0.120234323429929 0 0.32390533113391379 -0.12888711152603469 0 0.33382962647809239 -0.1119348526916087 0 0.31626372204589398 -0.1116460846705236 0 0.31876797703702431 -0.120234323429929 0 0.31626372204589398 -0.1116460846705236 0 0.31876797703702431 -0.120234323429929 0 0.31161740822412459 -0.1180536322882601 0 0.33992775423219468 -0.064960701810770127 0 0.32573631393828512 -0.079808237328667375 0 0.32274907666811181 -0.062747066244519756 0 0.35007080966615722 -0.076354829577702774 0 0.32573631393828512 -0.079808237328667375 0 0.35007080966615722 -0.076354829577702774 0 0.34117439232404012 -0.072711295734622053 0 0.32573631393828512 -0.079808237328667375 0 0.33992775423219468 -0.064960701810770127 0 0.34117439232404012 -0.072711295734622053 0 0.32573631393828512 -0.079808237328667375 0 0.33992775423219468 -0.064960701810770127 0 0.32573631393828512 -0.079808237328667375 0 0.34896269145952358 -0.069721414221347422 0 0.33992775423219468 -0.064960701810770127 0 0.34117439232404012 -0.072711295734622053 0 0.35007080966615722 -0.076354829577702774 0 0.34310530000802769 -0.096090542028755208 0 0.33715873537402469 -0.085680155377942158 0 0.35007080966615722 -0.076354829577702774 0 0.33715873537402469 -0.085680155377942158 0 0.32573631393828512 -0.079808237328667375 0 0.34310530000802769 -0.096090542028755208 0 0.33715873537402469 -0.085680155377942158 0 0.32972251788362961 -0.090467012576643177 0 0.33715873537402469 -0.085680155377942158 0 0.32972251788362961 -0.090467012576643177 0 0.32573631393828512 -0.079808237328667375 0 0.32573631393828512 -0.079808237328667375 0 0.31911734015258392 -0.080747562952284774 0 0.32573631393828512 -0.079808237328667375 0 0.31911734015258392 -0.080747562952284774 0 0.31993622427014651 -0.082744720879526501 0 0.32972251788362961 -0.090467012576643177 0 0.32573631393828512 -0.079808237328667375 0 0.31445661691231092 -0.091609414570424971 0 0.32573631393828512 -0.079808237328667375 0 0.31445661691231092 -0.091609414570424971 0 0.32573631393828512 -0.079808237328667375 0 0.31445661691231092 -0.091609414570424971 0 0.31993622427014651 -0.082744720879526501 0 0.31445661691231092 -0.091609414570424971 0 0.31911734015258392 -0.080747562952284774 0 0.31993622427014651 -0.082744720879526501 0 0.31911734015258392 -0.080747562952284774 0 0.31993622427014651 -0.082744720879526501 0 0.31911734015258392 -0.080747562952284774 0 0.30800786163724708 -0.053652907422248652 0 0.32573631393828512 -0.079808237328667375 0 0.31911734015258392 -0.080747562952284774 0 0.32274907666811181 -0.062747066244519756 0 0.31911734015258392 -0.080747562952284774 0 0.32274907666811181 -0.062747066244519756 0 0.30800786163724708 -0.053652907422248652 0 0.30125559237393568 -0.071205775062936572 0 0.28822298737180801 -0.065496667772256711 0 0.30800786163724708 -0.053652907422248652 0 0.31911734015258392 -0.080747562952284774 0 0.30125559237393568 -0.071205775062936572 0 0.30800786163724708 -0.053652907422248652 0 0.31445661691231092 -0.091609414570424971 0 0.31911734015258392 -0.080747562952284774 0 0.28967418033410408 -0.084925962104956496 0 0.31911734015258392 -0.080747562952284774 0 0.30125559237393568 -0.071205775062936572 0 0.28967418033410408 -0.084925962104956496 0 0.31445661691231092 -0.091609414570424971 0 0.28967418033410408 -0.084925962104956496 0 0.3031769198863381 -0.103410591812184 0 0.31911734015258392 -0.080747562952284774 0 0.28967418033410408 -0.084925962104956496 0 0.28967418033410408 -0.084925962104956496 0 0.28822298737180801 -0.065496667772256711 0 0.27050520651740978 -0.075539868408666333 0 0.30125559237393568 -0.071205775062936572 0 0.28967418033410408 -0.084925962104956496 0 0.28822298737180801 -0.065496667772256711 0 0.30560380050387892 -0.1146476963696797 0 0.3031769198863381 -0.103410591812184 0 0.28289053765723571 -0.12463484914182631 0 0.30537596431518782 -0.12408867219293949 0 0.30560380050387892 -0.1146476963696797 0 0.28289053765723571 -0.12463484914182631 0 0.31161740822412459 -0.1180536322882601 0 0.30537596431518782 -0.12408867219293949 0 0.30560380050387892 -0.1146476963696797 0 0.31876797703702431 -0.120234323429929 0 0.31161740822412459 -0.1180536322882601 0 0.30537596431518782 -0.12408867219293949 0 0.31626372204589398 -0.1116460846705236 0 0.30560380050387892 -0.1146476963696797 0 0.3031769198863381 -0.103410591812184 0 0.31626372204589398 -0.1116460846705236 0 0.31161740822412459 -0.1180536322882601 0 0.30560380050387892 -0.1146476963696797 0 0.31445661691231092 -0.091609414570424971 0 0.3031769198863381 -0.103410591812184 0 0.3031769198863381 -0.103410591812184 0 0.27933260477122862 -0.1077819580725355 0 0.2774657864100733 -0.093169678125771427 0 0.28967418033410408 -0.084925962104956496 0 0.3031769198863381 -0.103410591812184 0 0.2774657864100733 -0.093169678125771427 0 0.3031769198863381 -0.103410591812184 0 0.27933260477122862 -0.1077819580725355 0 0.3031769198863381 -0.103410591812184 0 0.28289053765723571 -0.12463484914182631 0 0.27933260477122862 -0.1077819580725355 0 0.3031769198863381 -0.103410591812184 0 0.28289053765723571 -0.12463484914182631 0 0.27933260477122862 -0.1077819580725355 0 0.25548828965611892 -0.11215332433288561 0 0.28289053765723571 -0.12463484914182631 0 0.26716837714052188 -0.1230048335767904 0 0.27933260477122862 -0.1077819580725355 0 0.28289053765723571 -0.12463484914182631 0 0.26716837714052188 -0.1230048335767904 0 0.26716837714052188 -0.1230048335767904 0 0.27933260477122862 -0.1077819580725355 0 0.25548828965611892 -0.11215332433288561 0 0.26879319939835389 -0.102095262504037 0 0.27933260477122862 -0.1077819580725355 0 0.25548828965611892 -0.11215332433288561 0 0.26879319939835389 -0.102095262504037 0 0.27933260477122862 -0.1077819580725355 0 0.2774657864100733 -0.093169678125771427 0 0.26879319939835389 -0.102095262504037 0 0.26288611675599483 -0.09527608948495539 0 0.2774657864100733 -0.093169678125771427 0 0.26288611675599483 -0.09527608948495539 0 0.25548828965611892 -0.11215332433288561 0 0.26879319939835389 -0.102095262504037 0 0.26288611675599483 -0.09527608948495539 0 0.25548828965611892 -0.11215332433288561 0 0.26288611675599483 -0.09527608948495539 0 0.25299782758473599 -0.1026919658610191 0 0.25548828965611892 -0.11215332433288561 0 0.26288611675599483 -0.09527608948495539 0 0.25618395309801151 -0.094945264875807553 0 0.25299782758473599 -0.1026919658610191 0 0.25618395309801151 -0.094945264875807553 0 0.25138360069796761 -0.096875162065650278 0 0.25342119993573448 -0.090778745709784364 0 0.25618395309801151 -0.094945264875807553 0 0.25138360069796761 -0.096875162065650278 0 0.25299782758473599 -0.1026919658610191 0 0.25138360069796761 -0.096875162065650278 0 0.25299782758473599 -0.1026919658610191 0 0.24588766003713841 -0.1000366880907987 0 0.25299782758473599 -0.1026919658610191 0 0.25548828965611892 -0.11215332433288561 0 0.24390073001419069 -0.10684896634340969 0 0.26716837714052188 -0.1230048335767904 0 0.25144621662380812 -0.1213748180117534 0 0.26716837714052188 -0.1230048335767904 0 0.25144621662380812 -0.1213748180117534 0 0.25955663788325339 -0.12995587934349559 0 0.26716837714052188 -0.1230048335767904 0 0.25548828965611892 -0.11215332433288561 0 0.25144621662380812 -0.1213748180117534 0 0.25548828965611892 -0.11215332433288561 0 0.25144621662380812 -0.1213748180117534 0 0.28822298737180801 -0.065496667772256711 0 0.27050520651740978 -0.075539868408666333 0 0.27283826203150069 -0.057560212966094697 0 0.27050520651740978 -0.075539868408666333 0 0.2635220156926355 -0.066901558512210024 0 0.27283826203150069 -0.057560212966094697 0 0.28967418033410408 -0.084925962104956496 0 0.27050520651740978 -0.075539868408666333 0 0.26023102051562452 -0.089104361257628564 0 0.28967418033410408 -0.084925962104956496 0 0.2774657864100733 -0.093169678125771427 0 0.26023102051562452 -0.089104361257628564 0 0.26288611675599483 -0.09527608948495539 0 0.2774657864100733 -0.093169678125771427 0 0.26023102051562452 -0.089104361257628564 0 0.28967418033410408 -0.084925962104956496 0 0.26023102051562452 -0.089104361257628564 0 0.27050520651740978 -0.075539868408666333 0 0.26084328912928478 -0.081236323222784124 0 0.26023102051562452 -0.089104361257628564 0 0.26084328912928478 -0.081236323222784124 0 0.26023102051562452 -0.089104361257628564 0 0.25405647890238758 -0.083871296450864816 0 0.26084328912928478 -0.081236323222784124 0 0.25405647890238758 -0.083871296450864816 0 0.25858045058171752 -0.076429766773976782 0 0.26288611675599483 -0.09527608948495539 0 0.25618395309801151 -0.094945264875807553 0 0.26023102051562452 -0.089104361257628564 0 0.25618395309801151 -0.094945264875807553 0 0.26023102051562452 -0.089104361257628564 0 0.25342119993573448 -0.090778745709784364 0 0.26023102051562452 -0.089104361257628564 0 0.25342119993573448 -0.090778745709784364 0 0.25405647890238758 -0.083871296450864816 0 0.25342119993573448 -0.090778745709784364 0 0.25405647890238758 -0.083871296450864816 0 0.24713508377738 -0.087174843542402125 0 0.25138360069796761 -0.096875162065650278 0 0.25342119993573448 -0.090778745709784364 0 0.24631783240790919 -0.093478230447878577 0 0.25405647890238758 -0.083871296450864816 0 0.25007455629334258 -0.077416501080899897 0 0.25858045058171752 -0.076429766773976782 0 0.25405647890238758 -0.083871296450864816 0 0.24895230400992441 -0.082572269176136595 0 0.24713508377738 -0.087174843542402125 0 0.25405647890238758 -0.083871296450864816 0 0.25007455629334258 -0.077416501080899897 0 0.24895230400992441 -0.082572269176136595 0 0.25007455629334258 -0.077416501080899897 0 0.2537660316286422 -0.07051991331107621 0 0.25858045058171752 -0.076429766773976782 0 0.2537660316286422 -0.07051991331107621 0 0.25858045058171752 -0.076429766773976782 0 0.2635220156926355 -0.066901558512210024 0 0.27050520651740978 -0.075539868408666333 0 0.25858045058171752 -0.076429766773976782 0 0.2635220156926355 -0.066901558512210024 0 0.27050520651740978 -0.075539868408666333 0 0.26084328912928478 -0.081236323222784124 0 0.25858045058171752 -0.076429766773976782 0 0.2537660316286422 -0.07051991331107621 0 0.2635220156926355 -0.066901558512210024 0 0.25708778584189551 -0.059997329477878322 0 0.2537660316286422 -0.07051991331107621 0 0.24973129387797571 -0.04656734675647161 0 0.2537660316286422 -0.07051991331107621 0 0.25708778584189551 -0.059997329477878322 0 0.24973129387797571 -0.04656734675647161 0 0.25708778584189551 -0.059997329477878322 0 0.26133180216832852 -0.056000499331755417 0 0.24973129387797571 -0.04656734675647161 0 0.26061754828948902 -0.047791942972378577 0 0.26133180216832852 -0.056000499331755417 0 0.24973129387797571 -0.04656734675647161 0 0.26061754828948902 -0.047791942972378577 0 0.26601442273624998 -0.051619589613556269 0 0.26933574976844782 -0.04432643594612775 0 0.26061754828948902 -0.047791942972378577 0 0.26133180216832852 -0.056000499331755417 0 0.26601442273624998 -0.051619589613556269 0 0.2635220156926355 -0.066901558512210024 0 0.25708778584189551 -0.059997329477878322 0 0.26133180216832852 -0.056000499331755417 0 0.2635220156926355 -0.066901558512210024 0 0.26133180216832852 -0.056000499331755417 0 0.27283826203150069 -0.057560212966094697 0 0.27283826203150069 -0.057560212966094697 0 0.26933574976844782 -0.04432643594612775 0 0.28515586646920638 -0.047196428437717888 0 0.26133180216832852 -0.056000499331755417 0 0.27283826203150069 -0.057560212966094697 0 0.26601442273624998 -0.051619589613556269 0 0.27283826203150069 -0.057560212966094697 0 0.26601442273624998 -0.051619589613556269 0 0.26933574976844782 -0.04432643594612775 0 0.2768069502944156 -0.033252276541263497 0 0.26933574976844782 -0.04432643594612775 0 0.28515586646920638 -0.047196428437717888 0 0.2768069502944156 -0.033252276541263497 0 0.26933574976844782 -0.04432643594612775 0 0.25671551746692178 -0.039946301190313928 0 0.2768069502944156 -0.033252276541263497 0 0.25671551746692178 -0.039946301190313928 0 0.26457324966550338 -0.02913693135683796 0 0.2768069502944156 -0.033252276541263497 0 0.25671551746692178 -0.039946301190313928 0 0.25671551746692178 -0.039946301190313928 0 0.25512514952921073 -0.03052599226127033 0 0.24973129387797571 -0.04656734675647161 0 0.25512514952921073 -0.03052599226127033 0 0.24973129387797571 -0.04656734675647161 0 0.2456965561273092 -0.02261478020186693 0 0.25671551746692178 -0.039946301190313928 0 0.25512514952921073 -0.03052599226127033 0 0.26457324966550338 -0.02913693135683796 0 0.26061754828948902 -0.047791942972378577 0 0.26933574976844782 -0.04432643594612775 0 0.25671551746692178 -0.039946301190313928 0 0.26061754828948902 -0.047791942972378577 0 0.25671551746692178 -0.039946301190313928 0 0.24973129387797571 -0.04656734675647161 0 0.25512514952921073 -0.03052599226127033 0 0.26152132025506453 -0.021042051780320571 0 0.2456965561273092 -0.02261478020186693 0 0.26152132025506453 -0.021042051780320571 0 0.25632568119525651 -0.01063847001040636 0 0.2456965561273092 -0.02261478020186693 0 0.25512514952921073 -0.03052599226127033 0 0.26152132025506453 -0.021042051780320571 0 0.26457324966550338 -0.02913693135683796 0 0.24166181837664269 0.0013377863527376729 0 0.26250953054351589 0.00176968330735934 0 0.25632568119525651 -0.01063847001040636 0 0.26152132025506453 -0.021042051780320571 0 0.25632568119525651 -0.01063847001040636 0 0.26807325487031808 -0.011263562504648579 0 0.26250953054351589 0.00176968330735934 0 0.25632568119525651 -0.01063847001040636 0 0.26807325487031808 -0.011263562504648579 0 0.26250953054351589 0.00176968330735934 0 0.26807325487031808 -0.011263562504648579 0 0.27453272865153588 -0.0027713048981822812 0 0.26807325487031808 -0.011263562504648579 0 0.28030875159739749 -0.01259006122293279 0 0.27324151697913829 -0.022309170423408829 0 0.26807325487031808 -0.011263562504648579 0 0.28030875159739749 -0.01259006122293279 0 0.27453272865153588 -0.0027713048981822812 0 0.28524332576007949 0.0018670035296111909 0 0.28030875159739749 -0.01259006122293279 0 0.27453272865153588 -0.0027713048981822812 0 0.26152132025506453 -0.021042051780320571 0 0.26457324966550338 -0.02913693135683796 0 0.27324151697913829 -0.022309170423408829 0 0.2768069502944156 -0.033252276541263497 0 0.26457324966550338 -0.02913693135683796 0 0.27324151697913829 -0.022309170423408829 0 0.26152132025506453 -0.021042051780320571 0 0.26807325487031808 -0.011263562504648579 0 0.27324151697913829 -0.022309170423408829 0 0.28030875159739749 -0.01259006122293279 0 0.27324151697913829 -0.022309170423408829 0 0.28534777256359689 -0.022338826193988311 0 0.2768069502944156 -0.033252276541263497 0 0.27324151697913829 -0.022309170423408829 0 0.28534777256359689 -0.022338826193988311 0 0.2768069502944156 -0.033252276541263497 0 0.28534777256359689 -0.022338826193988311 0 0.29689838312190941 -0.026558251892212881 0 0.2768069502944156 -0.033252276541263497 0 0.29689838312190941 -0.026558251892212881 0 0.28030875159739749 -0.01259006122293279 0 0.28534777256359689 -0.022338826193988311 0 0.29375183765384211 -0.018884213416932829 0 0.28030875159739749 -0.01259006122293279 0 0.29375183765384211 -0.018884213416932829 0 0.28534777256359689 -0.022338826193988311 0 0.29375183765384211 -0.018884213416932829 0 0.29689838312190941 -0.026558251892212881 0 0.28534777256359689 -0.022338826193988311 0 0.29375183765384211 -0.018884213416932829 0 0.29375183765384211 -0.018884213416932829 0 0.29689838312190941 -0.026558251892212881 0 0.30790858231038049 0.002302550276449572 0 0.28524332576007949 0.0018670035296111909 0 0.29375183765384211 -0.018884213416932829 0 0.28524332576007949 0.0018670035296111909 0 0.28030875159739749 -0.01259006122293279 0 0.29375183765384211 -0.018884213416932829 0 0.28524332576007949 0.0018670035296111909 0 0.29375183765384211 -0.018884213416932829 0 0.31440505497987598 -0.0096248516683081348 0 0.29375183765384211 -0.018884213416932829 0 0.30790858231038049 0.002302550276449572 0 0.31440505497987598 -0.0096248516683081348 0 0.29375183765384211 -0.018884213416932829 0 0.31440505497987598 -0.0096248516683081348 0 0.29375183765384211 -0.018884213416932829 0 0.30463598636135031 -0.02398025224161169 0 0.31284497241470482 -0.037790181340255413 0 0.30463598636135031 -0.02398025224161169 0 0.29689838312190941 -0.026558251892212881 0 0.30463598636135031 -0.02398025224161169 0 0.29689838312190941 -0.026558251892212881 0 0.29375183765384211 -0.018884213416932829 0 0.30463598636135031 -0.02398025224161169 0 0.29689838312190941 -0.026558251892212881 0 0.29375183765384211 -0.018884213416932829 0 0.30463598636135031 -0.02398025224161169 0 0.29689838312190941 -0.026558251892212881 0 0.30800786163724708 -0.053652907422248652 0 0.31284497241470482 -0.037790181340255413 0 0.29689838312190941 -0.026558251892212881 0 0.30800786163724708 -0.053652907422248652 0 0.28822298737180801 -0.065496667772256711 0 0.30800786163724708 -0.053652907422248652 0 0.28515586646920638 -0.047196428437717888 0 0.28822298737180801 -0.065496667772256711 0 0.27283826203150069 -0.057560212966094697 0 0.28515586646920638 -0.047196428437717888 0 0.29689838312190941 -0.026558251892212881 0 0.30800786163724708 -0.053652907422248652 0 0.28515586646920638 -0.047196428437717888 0 0.2768069502944156 -0.033252276541263497 0 0.29689838312190941 -0.026558251892212881 0 0.28515586646920638 -0.047196428437717888 0 0.28977401036872691 -0.2148325205860141 0 0.30151348742833539 -0.19697926383077949 0 0.28977401036872691 -0.2148325205860141 0 0.28436205541124648 -0.19881664461789081 0 0.27664061773925519 -0.2127630830443564 0 0.28977401036872691 -0.2148325205860141 0 0.2988194928861958 -0.19005422251290069 0 0.28977401036872691 -0.2148325205860141 0 0.30151348742833539 -0.19697926383077949 0 0.2988194928861958 -0.19005422251290069 0 0.28977401036872691 -0.2148325205860141 0 0.28436205541124648 -0.19881664461789081 0 0.2988194928861958 -0.19005422251290069 0 0.28436205541124648 -0.19881664461789081 0 0.28742090160124328 -0.18905119790010641 0 0.27681369514217491 -0.18941226916404541 0 0.28436205541124648 -0.19881664461789081 0 0.28742090160124328 -0.18905119790010641 0 0.2988194928861958 -0.19005422251290069 0 0.30151348742833539 -0.19697926383077949 0 0.3118246053380383 -0.19436842623259559 0 0.31325296448794338 -0.17912600707554449 0 0.30151348742833539 -0.19697926383077949 0 0.31325296448794338 -0.17912600707554449 0 0.30151348742833539 -0.19697926383077949 0 0.2988194928861958 -0.19005422251290069 0 0.30224950305722947 -0.18270992184737189 0 0.30151348742833539 -0.19697926383077949 0 0.3118246053380383 -0.19436842623259559 0 0.31084938156166181 -0.20370505937730241 0 0.31084938156166181 -0.20370505937730241 0 0.30271762478459657 -0.21119738683623351 0 0.31126574138715563 -0.2162029008053086 0 0.30151348742833539 -0.19697926383077949 0 0.31084938156166181 -0.20370505937730241 0 0.30271762478459657 -0.21119738683623351 0 0.28977401036872691 -0.2148325205860141 0 0.30151348742833539 -0.19697926383077949 0 0.30271762478459657 -0.21119738683623351 0 0.28977401036872691 -0.2148325205860141 0 0.30271762478459657 -0.21119738683623351 0 0.30018550317710418 -0.22426718958176339 0 0.30271762478459657 -0.21119738683623351 0 0.31126574138715563 -0.2162029008053086 0 0.30018550317710418 -0.22426718958176339 0 0.30018550317710418 -0.22426718958176339 0 0.30160104914305641 -0.23992682079840449 0 0.31410972905233292 -0.22786483125615539 0 0.31126574138715563 -0.2162029008053086 0 0.30018550317710418 -0.22426718958176339 0 0.31410972905233292 -0.22786483125615539 0 0.28834449707508208 -0.24166328516994851 0 0.29771736771108348 -0.25617020568059101 0 0.30611037547219261 -0.25101477684642998 0 0.30160104914305641 -0.23992682079840449 0 0.28834449707508208 -0.24166328516994851 0 0.31463346435564588 -0.2420096581471432 0 0.28834449707508208 -0.24166328516994851 0 0.31463346435564588 -0.2420096581471432 0 0.30611037547219261 -0.25101477684642998 0 0.28834449707508208 -0.24166328516994851 0 0.31463346435564588 -0.2420096581471432 0 0.30160104914305641 -0.23992682079840449 0 0.31463346435564588 -0.2420096581471432 0 0.31410972905233292 -0.22786483125615539 0 0.30160104914305641 -0.23992682079840449 0 0.28834449707508208 -0.24166328516994851 0 0.28396154640346449 -0.23075460814655549 0 0.28834449707508208 -0.24166328516994851 0 0.28396154640346449 -0.23075460814655549 0 0.27794460526012998 -0.2472368202175998 0 0.30160104914305641 -0.23992682079840449 0 0.28396154640346449 -0.23075460814655549 0 0.28834449707508208 -0.24166328516994851 0 0.27794460526012998 -0.2472368202175998 0 0.28874422650624992 -0.25311000535506789 0 0.28977401036872691 -0.2148325205860141 0 0.28049101145706862 -0.22894999465976579 0 0.27664061773925519 -0.2127630830443564 0 0.28977401036872691 -0.2148325205860141 0 0.30018550317710418 -0.22426718958176339 0 0.28396154640346449 -0.23075460814655549 0 0.28977401036872691 -0.2148325205860141 0 0.28396154640346449 -0.23075460814655549 0 0.28049101145706862 -0.22894999465976579 0 0.30018550317710418 -0.22426718958176339 0 0.30160104914305641 -0.23992682079840449 0 0.28396154640346449 -0.23075460814655549 0 0.28977401036872691 -0.2148325205860141 0 0.28396154640346449 -0.23075460814655549 0 0.28396154640346449 -0.23075460814655549 0 0.28049101145706862 -0.22894999465976579 0 0.28977401036872691 -0.2148325205860141 0 0.28049101145706862 -0.22894999465976579 0 0.28049101145706862 -0.22894999465976579 0 0.26084610585771723 -0.21873500989840911 0 0.28049101145706862 -0.22894999465976579 0 0.26419468275064728 -0.23421330535954721 0 0.26084610585771723 -0.21873500989840911 0 0.28049101145706862 -0.22894999465976579 0 0.27143500521496811 -0.23717549934215071 0 0.26419468275064728 -0.23421330535954721 0 0.28049101145706862 -0.22894999465976579 0 0.26084610585771723 -0.21873500989840911 0 0.27664061773925519 -0.2127630830443564 0 0.28396154640346449 -0.23075460814655549 0 0.28049101145706862 -0.22894999465976579 0 0.27324388863994942 -0.23997133264047979 0 0.28396154640346449 -0.23075460814655549 0 0.27794460526012998 -0.2472368202175998 0 0.28396154640346449 -0.23075460814655549 0 0.27794460526012998 -0.2472368202175998 0 0.27324388863994942 -0.23997133264047979 0 0.27794460526012998 -0.2472368202175998 0 0.27324388863994942 -0.23997133264047979 0 0.28049101145706862 -0.22894999465976579 0 0.27324388863994942 -0.23997133264047979 0 0.28049101145706862 -0.22894999465976579 0 0.27143500521496811 -0.23717549934215071 0 0.27324388863994942 -0.23997133264047979 0 0.26737636187736968 -0.23868072358086229 0 0.27324388863994942 -0.23997133264047979 0 0.26427651804830671 -0.2433517912627165 0 0.27143500521496811 -0.23717549934215071 0 0.26737636187736968 -0.23868072358086229 0 0.26419468275064728 -0.23421330535954721 0 0.27143500521496811 -0.23717549934215071 0 0.26737636187736968 -0.23868072358086229 0 0.27324388863994942 -0.23997133264047979 0 0.27143500521496811 -0.23717549934215071 0 0.27324388863994942 -0.23997133264047979 0 0.27794460526012998 -0.2472368202175998 0 0.27324388863994942 -0.23997133264047979 0 0.26406700720096599 -0.25392742452690692 0 0.27324388863994942 -0.23997133264047979 0 0.26406700720096599 -0.25392742452690692 0 0.27324388863994942 -0.23997133264047979 0 0.26427651804830671 -0.2433517912627165 0 0.26406700720096599 -0.25392742452690692 0 0.26427651804830671 -0.2433517912627165 0 0.25581869970654059 -0.24030327644925831 0 0.25778810253160939 -0.24841987595847881 0 0.26427651804830671 -0.2433517912627165 0 0.25778810253160939 -0.24841987595847881 0 0.26406700720096599 -0.25392742452690692 0 0.25581869970654059 -0.24030327644925831 0 0.26419468275064728 -0.23421330535954721 0 0.25424304294133221 -0.2308757708725192 0 0.26737636187736968 -0.23868072358086229 0 0.26427651804830671 -0.2433517912627165 0 0.26419468275064728 -0.23421330535954721 0 0.26427651804830671 -0.2433517912627165 0 0.25581869970654059 -0.24030327644925831 0 0.26419468275064728 -0.23421330535954721 0 0.25581869970654059 -0.24030327644925831 0 0.25424304294133221 -0.2308757708725192 0 0.24632564505351409 -0.23834552986145471 0 0.25581869970654059 -0.24030327644925831 0 0.25778810253160939 -0.24841987595847881 0 0.25054914913674842 -0.25280247024608682 0 0.25581869970654059 -0.24030327644925831 0 0.25054914913674842 -0.25280247024608682 0 0.24632564505351409 -0.23834552986145471 0 0.25424304294133221 -0.2308757708725192 0 0.26084610585771723 -0.21873500989840911 0 0.24430961509086091 -0.224962264488552 0 0.26419468275064728 -0.23421330535954721 0 0.25424304294133221 -0.2308757708725192 0 0.26084610585771723 -0.21873500989840911 0 0.25594887105859843 -0.20686619401500461 0 0.26084610585771723 -0.21873500989840911 0 0.26772990560151799 -0.2024812454597025 0 0.26084610585771723 -0.21873500989840911 0 0.241201200258366 -0.20852002513705209 0 0.25594887105859843 -0.20686619401500461 0 0.26084610585771723 -0.21873500989840911 0 0.241201200258366 -0.20852002513705209 0 0.25594887105859843 -0.20686619401500461 0 0.25504473298086189 -0.19673515701096991 0 0.241201200258366 -0.20852002513705209 0 0.28436205541124648 -0.19881664461789081 0 0.27664061773925519 -0.2127630830443564 0 0.26772990560151799 -0.2024812454597025 0 0.26084610585771723 -0.21873500989840911 0 0.27664061773925519 -0.2127630830443564 0 0.26772990560151799 -0.2024812454597025 0 0.28436205541124648 -0.19881664461789081 0 0.27681369514217491 -0.18941226916404541 0 0.26772990560151799 -0.2024812454597025 0 0.27681369514217491 -0.18941226916404541 0 0.26772990560151799 -0.2024812454597025 0 0.26538315921447969 -0.18698329968142419 0 0.25504473298086189 -0.19673515701096991 0 0.25364506350098859 -0.1843635255179171 0 0.26538315921447969 -0.18698329968142419 0 0.26772990560151799 -0.2024812454597025 0 0.25504473298086189 -0.19673515701096991 0 0.26538315921447969 -0.18698329968142419 0 0.25594887105859843 -0.20686619401500461 0 0.26772990560151799 -0.2024812454597025 0 0.25504473298086189 -0.19673515701096991 0 0.25504473298086189 -0.19673515701096991 0 0.25364506350098859 -0.1843635255179171 0 0.24630568300509781 -0.19294230823387501 0 0.25364506350098859 -0.1843635255179171 0 0.26009526996086818 -0.1792511232186047 0 0.25491174071680489 -0.17547369080858691 0 0.25364506350098859 -0.1843635255179171 0 0.26538315921447969 -0.18698329968142419 0 0.26009526996086818 -0.1792511232186047 0 0.26009526996086818 -0.1792511232186047 0 0.26163920651487199 -0.1712092893819461 0 0.27225144663475281 -0.1765094115020541 0 0.26009526996086818 -0.1792511232186047 0 0.25491174071680489 -0.17547369080858691 0 0.26163920651487199 -0.1712092893819461 0 0.25364506350098859 -0.1843635255179171 0 0.25491174071680489 -0.17547369080858691 0 0.2483605234221187 -0.17756579387472551 0 0.25491174071680489 -0.17547369080858691 0 0.2559122274368878 -0.1690060680006496 0 0.26163920651487199 -0.1712092893819461 0 0.25491174071680489 -0.17547369080858691 0 0.25031876860071478 -0.17146752122160769 0 0.2559122274368878 -0.1690060680006496 0 0.25491174071680489 -0.17547369080858691 0 0.25031876860071478 -0.17146752122160769 0 0.2483605234221187 -0.17756579387472551 0 0.25031876860071478 -0.17146752122160769 0 0.25227976173192967 -0.16562016146460759 0 0.2559122274368878 -0.1690060680006496 0 0.25227976173192967 -0.16562016146460759 0 0.2559122274368878 -0.1690060680006496 0 0.25900970898980702 -0.1635452500311009 0 0.25227976173192967 -0.16562016146460759 0 0.25165241946205757 -0.15731716043719179 0 0.25900970898980702 -0.1635452500311009 0 0.25227976173192967 -0.16562016146460759 0 0.25165241946205757 -0.15731716043719179 0 0.24620067143455129 -0.1690729137675954 0 0.25900970898980702 -0.1635452500311009 0 0.26750673575771838 -0.1644662770238971 0 0.26489522637555207 -0.15449063488189629 0 0.25165241946205757 -0.15731716043719179 0 0.25900970898980702 -0.1635452500311009 0 0.26489522637555207 -0.15449063488189629 0 0.25900970898980702 -0.1635452500311009 0 0.26163920651487199 -0.1712092893819461 0 0.26750673575771838 -0.1644662770238971 0 0.2559122274368878 -0.1690060680006496 0 0.25900970898980702 -0.1635452500311009 0 0.26163920651487199 -0.1712092893819461 0 0.26750673575771838 -0.1644662770238971 0 0.27694671851389141 -0.1672305612578554 0 0.27225144663475281 -0.1765094115020541 0 0.26163920651487199 -0.1712092893819461 0 0.26750673575771838 -0.1644662770238971 0 0.27225144663475281 -0.1765094115020541 0 0.26750673575771838 -0.1644662770238971 0 0.26489522637555207 -0.15449063488189629 0 0.27753004863486269 -0.15345663567902509 0 0.26750673575771838 -0.1644662770238971 0 0.27694671851389141 -0.1672305612578554 0 0.27753004863486269 -0.15345663567902509 0 0.27694671851389141 -0.1672305612578554 0 0.27753004863486269 -0.15345663567902509 0 0.28633860233563679 -0.16522072310401009 0 0.27694671851389141 -0.1672305612578554 0 0.27225144663475281 -0.1765094115020541 0 0.28620431325727452 -0.1738081244347898 0 0.27225144663475281 -0.1765094115020541 0 0.28373470238980891 -0.18263181582309429 0 0.28620431325727452 -0.1738081244347898 0 0.27681369514217491 -0.18941226916404541 0 0.27225144663475281 -0.1765094115020541 0 0.28373470238980891 -0.18263181582309429 0 0.27681369514217491 -0.18941226916404541 0 0.26538315921447969 -0.18698329968142419 0 0.27225144663475281 -0.1765094115020541 0 0.26538315921447969 -0.18698329968142419 0 0.26009526996086818 -0.1792511232186047 0 0.27225144663475281 -0.1765094115020541 0 0.26716837714052188 -0.1230048335767904 0 0.25955663788325339 -0.12995587934349559 0 0.26727147855964672 -0.140976004789509 0 0.25144621662380812 -0.1213748180117534 0 0.25955663788325339 -0.12995587934349559 0 0.25378750229977459 -0.13678441467043101 0 0.25955663788325339 -0.12995587934349559 0 0.25378750229977459 -0.13678441467043101 0 0.26727147855964672 -0.140976004789509 0 0.25165241946205757 -0.15731716043719179 0 0.25097577147138178 -0.14692537127348951 0 0.26727147855964672 -0.140976004789509 0 0.25165241946205757 -0.15731716043719179 0 0.26489522637555207 -0.15449063488189629 0 0.26727147855964672 -0.140976004789509 0 0.25378750229977459 -0.13678441467043101 0 0.25097577147138178 -0.14692537127348951 0 0.26727147855964672 -0.140976004789509 0 0.25165241946205757 -0.15731716043719179 0 0.26727147855964672 -0.140976004789509 0 0.26489522637555207 -0.15449063488189629 0 0.27753004863486269 -0.15345663567902509 0 0.26727147855964672 -0.140976004789509 0 0.27753004863486269 -0.15345663567902509 0 0.26727147855964672 -0.140976004789509 0 0.28125738362266189 -0.13870887567183071 0 0.28289053765723571 -0.12463484914182631 0 0.26727147855964672 -0.140976004789509 0 0.28289053765723571 -0.12463484914182631 0 0.26727147855964672 -0.140976004789509 0 0.28125738362266189 -0.13870887567183071 0 0.28289053765723571 -0.12463484914182631 0 0.26716837714052188 -0.1230048335767904 0 0.26727147855964672 -0.140976004789509 0 0.28289053765723571 -0.12463484914182631 0 0.30339793439557472 -0.12676098033393091 0 0.28125738362266189 -0.13870887567183071 0 0.29234436275186998 -0.14548276009545899 0 0.30339793439557472 -0.12676098033393091 0 0.28289053765723571 -0.12463484914182631 0 0.28125738362266189 -0.13870887567183071 0 0.30339793439557472 -0.12676098033393091 0 0.27753004863486269 -0.15345663567902509 0 0.29234436275186998 -0.14548276009545899 0 0.29515985285931862 -0.15789080794072541 0 0.27753004863486269 -0.15345663567902509 0 0.28125738362266189 -0.13870887567183071 0 0.29234436275186998 -0.14548276009545899 0 0.30355575166810972 -0.1505893849185494 0 0.30339793439557472 -0.12676098033393091 0 0.31378642292879239 -0.14617179976494579 0 0.29234436275186998 -0.14548276009545899 0 0.30355575166810972 -0.1505893849185494 0 0.30339793439557472 -0.12676098033393091 0 0.29234436275186998 -0.14548276009545899 0 0.30355575166810972 -0.1505893849185494 0 0.29515985285931862 -0.15789080794072541 0 0.30355575166810972 -0.1505893849185494 0 0.31463061368182382 -0.1566060803959424 0 0.31378642292879239 -0.14617179976494579 0 0.30537596431518782 -0.12408867219293949 0 0.30339793439557472 -0.12676098033393091 0 0.32390533113391379 -0.12888711152603469 0 0.30537596431518782 -0.12408867219293949 0 0.28289053765723571 -0.12463484914182631 0 0.30339793439557472 -0.12676098033393091 0 0.29316633755004712 -0.18139872452611591 0 0.28620431325727452 -0.1738081244347898 0 0.29806059946777391 -0.17161300909324151 0 0.28742090160124328 -0.18905119790010641 0 0.2988194928861958 -0.19005422251290069 0 0.29316633755004712 -0.18139872452611591 0 0.28742090160124328 -0.18905119790010641 0 0.27681369514217491 -0.18941226916404541 0 0.28373470238980891 -0.18263181582309429 0 0.28742090160124328 -0.18905119790010641 0 0.29316633755004712 -0.18139872452611591 0 0.28373470238980891 -0.18263181582309429 0 0.29316633755004712 -0.18139872452611591 0 0.28373470238980891 -0.18263181582309429 0 0.28620431325727452 -0.1738081244347898 0 0.27753004863486269 -0.15345663567902509 0 0.28633860233563679 -0.16522072310401009 0 0.29515985285931862 -0.15789080794072541 0 0.27694671851389141 -0.1672305612578554 0 0.28620431325727452 -0.1738081244347898 0 0.28633860233563679 -0.16522072310401009 0 0.28620431325727452 -0.1738081244347898 0 0.28633860233563679 -0.16522072310401009 0 0.29806059946777391 -0.17161300909324151 0 0.28633860233563679 -0.16522072310401009 0 0.29515985285931862 -0.15789080794072541 0 0.29806059946777391 -0.17161300909324151 0 0.29515985285931862 -0.15789080794072541 0 0.29806059946777391 -0.17161300909324151 0 0.30827537061875371 -0.16284967329071889 0 0.29806059946777391 -0.17161300909324151 0 0.30827537061875371 -0.16284967329071889 0 0.31325296448794338 -0.17912600707554449 0 0.30355575166810972 -0.1505893849185494 0 0.29515985285931862 -0.15789080794072541 0 0.30827537061875371 -0.16284967329071889 0 0.30355575166810972 -0.1505893849185494 0 0.30827537061875371 -0.16284967329071889 0 0.31463061368182382 -0.1566060803959424 0 0.30151348742833539 -0.19697926383077949 0 0.30224950305722947 -0.18270992184737189 0 0.31325296448794338 -0.17912600707554449 0 0.29316633755004712 -0.18139872452611591 0 0.29806059946777391 -0.17161300909324151 0 0.30224950305722947 -0.18270992184737189 0 0.29806059946777391 -0.17161300909324151 0 0.30224950305722947 -0.18270992184737189 0 0.31325296448794338 -0.17912600707554449 0 0.2988194928861958 -0.19005422251290069 0 0.29316633755004712 -0.18139872452611591 0 0.30224950305722947 -0.18270992184737189 0 0.32761855735763212 -0.17727379530084861 0 0.31325296448794338 -0.17912600707554449 0 0.32499244154755258 -0.16127275032031019 0 0.32761855735763212 -0.17727379530084861 0 0.31325296448794338 -0.17912600707554449 0 0.33044386252883268 -0.18847517517080439 0 0.30827537061875371 -0.16284967329071889 0 0.31325296448794338 -0.17912600707554449 0 0.32499244154755258 -0.16127275032031019 0 0.30827537061875371 -0.16284967329071889 0 0.31463061368182382 -0.1566060803959424 0 0.32499244154755258 -0.16127275032031019 0 0.31325296448794338 -0.17912600707554449 0 0.32499244154755258 -0.16127275032031019 0 0.31463061368182382 -0.1566060803959424 0 0.32329694400005349 -0.15935956911058999 0 0.32499244154755258 -0.16127275032031019 0 0.32329694400005349 -0.15935956911058999 0 0.32499244154755258 -0.16127275032031019 0 0.32499244154755258 -0.16127275032031019 0 0.32967644122411061 -0.154149379454432 0 0.32329694400005349 -0.15935956911058999 0 0.32499244154755258 -0.16127275032031019 0 0.32967644122411061 -0.154149379454432 0 0.32499244154755258 -0.16127275032031019 0 0.33925415812725529 -0.16554892008440089 0 0.34178496086619969 -0.18022124863673519 0 0.32499244154755258 -0.16127275032031019 0 0.34178496086619969 -0.18022124863673519 0 0.32499244154755258 -0.16127275032031019 0 0.33331213698313789 -0.15879448042522321 0 0.32967644122411061 -0.154149379454432 0 0.32499244154755258 -0.16127275032031019 0 0.33331213698313789 -0.15879448042522321 0 0.33925415812725529 -0.16554892008440089 0 0.33331213698313789 -0.15879448042522321 0 0.33925415812725529 -0.16554892008440089 0 0.33884731801199902 -0.1544074502360849 0 0.33925415812725529 -0.16554892008440089 0 0.33884731801199902 -0.1544074502360849 0 0.35307699669021081 -0.1569206805340162 0 0.32761855735763212 -0.17727379530084861 0 0.32499244154755258 -0.16127275032031019 0 0.34178496086619969 -0.18022124863673519 0 0.32761855735763212 -0.17727379530084861 0 0.34178496086619969 -0.18022124863673519 0 0.33044386252883268 -0.18847517517080439 0 0.30339793439557472 -0.12676098033393091 0 0.32390533113391379 -0.12888711152603469 0 0.31378642292879239 -0.14617179976494579 0 0.30339793439557472 -0.12676098033393091 0 0.32390533113391379 -0.12888711152603469 0 0.32390533113391379 -0.12888711152603469 0 0.31378642292879239 -0.14617179976494579 0 0.32893239051990242 -0.14125615929418059 0 0.32390533113391379 -0.12888711152603469 0 0.31378642292879239 -0.14617179976494579 0 0.30537596431518782 -0.12408867219293949 0 0.32390533113391379 -0.12888711152603469 0 0.31378642292879239 -0.14617179976494579 0 0.32284481833821332 -0.1507419853700421 0 0.32893239051990242 -0.14125615929418059 0 0.31463061368182382 -0.1566060803959424 0 0.32329694400005349 -0.15935956911058999 0 0.32284481833821332 -0.1507419853700421 0 0.31463061368182382 -0.1566060803959424 0 0.31378642292879239 -0.14617179976494579 0 0.32284481833821332 -0.1507419853700421 0 0.32329694400005349 -0.15935956911058999 0 0.32284481833821332 -0.1507419853700421 0 0.32967644122411061 -0.154149379454432 0 0.3330654597773155 -0.1485105136088353 0 0.32967644122411061 -0.154149379454432 0 0.33884731801199902 -0.1544074502360849 0 0.33331213698313789 -0.15879448042522321 0 0.32967644122411061 -0.154149379454432 0 0.33884731801199902 -0.1544074502360849 0 0.32284481833821332 -0.1507419853700421 0 0.3330654597773155 -0.1485105136088353 0 0.32967644122411061 -0.154149379454432 0 0.3330654597773155 -0.1485105136088353 0 0.33884731801199902 -0.1544074502360849 0 0.34207579244373049 -0.14400663722257559 0 0.3330654597773155 -0.1485105136088353 0 0.34207579244373049 -0.14400663722257559 0 0.32893239051990242 -0.14125615929418059 0 0.32284481833821332 -0.1507419853700421 0 0.3330654597773155 -0.1485105136088353 0 0.32893239051990242 -0.14125615929418059 0 0.32390533113391379 -0.12888711152603469 0 0.32893239051990242 -0.14125615929418059 0 0.33779448391984462 -0.130327087615973 0 0.34207579244373049 -0.14400663722257559 0 0.32893239051990242 -0.14125615929418059 0 0.33779448391984462 -0.130327087615973 0 0.33832246763778018 -0.1210818330307471 0 0.32390533113391379 -0.12888711152603469 0 0.33779448391984462 -0.130327087615973 0 0.32390533113391379 -0.12888711152603469 0 0.33779448391984462 -0.130327087615973 0 0.34207579244373049 -0.14400663722257559 0 0.33779448391984462 -0.130327087615973 0 0.35803352335224709 -0.1342217607004387 0 0.33779448391984462 -0.130327087615973 0 0.35227910082940278 -0.12719787550517569 0 0.35949733806797007 -0.13257715941937059 0 0.33779448391984462 -0.130327087615973 0 0.35803352335224709 -0.1342217607004387 0 0.33779448391984462 -0.130327087615973 0 0.35949733806797007 -0.13257715941937059 0 0.33779448391984462 -0.130327087615973 0 0.35803352335224709 -0.1342217607004387 0 0.35949733806797007 -0.13257715941937059 0 0.35541911629062378 -0.1238591217513193 0 0.35227910082940278 -0.12719787550517569 0 0.36030480180907137 -0.12607802159258361 0 0.35227910082940278 -0.12719787550517569 0 0.35949733806797007 -0.13257715941937059 0 0.36030480180907137 -0.12607802159258361 0 0.34829576483595198 -0.12265469320266741 0 0.33779448391984462 -0.130327087615973 0 0.35227910082940278 -0.12719787550517569 0 0.34207579244373049 -0.14400663722257559 0 0.35803352335224709 -0.1342217607004387 0 0.35307699669021081 -0.1569206805340162 0 0.33884731801199902 -0.1544074502360849 0 0.34207579244373049 -0.14400663722257559 0 0.35307699669021081 -0.1569206805340162 0 0.35803352335224709 -0.1342217607004387 0 0.37176693285291418 -0.15500874894055261 0 0.37827256278464982 -0.13811643378490451 0 0.35803352335224709 -0.1342217607004387 0 0.37176693285291418 -0.15500874894055261 0 0.35307699669021081 -0.1569206805340162 0 0.35803352335224709 -0.1342217607004387 0 0.35949733806797007 -0.13257715941937059 0 0.37827256278464982 -0.13811643378490451 0 0.35803352335224709 -0.1342217607004387 0 0.37827256278464982 -0.13811643378490451 0 0.36817917921628701 -0.12699096645145849 0 0.35949733806797007 -0.13257715941937059 0 0.37827256278464982 -0.13811643378490451 0 0.37846746504523088 -0.1238085554348782 0 0.36817917921628701 -0.12699096645145849 0 0.37827256278464982 -0.13811643378490451 0 0.36419427341265809 -0.1222146642892703 0 0.36817917921628701 -0.12699096645145849 0 0.36030480180907137 -0.12607802159258361 0 0.36817917921628701 -0.12699096645145849 0 0.35949733806797007 -0.13257715941937059 0 0.36030480180907137 -0.12607802159258361 0 0.33925415812725529 -0.16554892008440089 0 0.34178496086619969 -0.18022124863673519 0 0.35899394288304748 -0.17454420306685381 0 0.34178496086619969 -0.18022124863673519 0 0.35899394288304748 -0.17454420306685381 0 0.35857748018484681 -0.19916974695316059 0 0.33925415812725529 -0.16554892008440089 0 0.35899394288304748 -0.17454420306685381 0 0.35307699669021081 -0.1569206805340162 0 0.37176693285291418 -0.15500874894055261 0 0.35899394288304748 -0.17454420306685381 0 0.37984278837139512 -0.17791725249823659 0 0.37176693285291418 -0.15500874894055261 0 0.35899394288304748 -0.17454420306685381 0 0.35307699669021081 -0.1569206805340162 0 0.35899394288304748 -0.17454420306685381 0 0.35857748018484681 -0.19916974695316059 0 0.37984278837139512 -0.17791725249823659 0 0.35857748018484681 -0.19916974695316059 0 0.3849470338477809 -0.20036842310980191 0 0.37984278837139512 -0.17791725249823659 0 0.35857748018484681 -0.19916974695316059 0 0.37536999950349381 -0.21811824526958601 0 0.3849470338477809 -0.20036842310980191 0 0.35857748018484681 -0.19916974695316059 0 0.35274330396780029 -0.22055010615685411 0 0.37536999950349381 -0.21811824526958601 0 0.35857748018484681 -0.19916974695316059 0 0.37536999950349381 -0.21811824526958601 0 0.35857748018484681 -0.19916974695316059 0 0.34117912335935202 -0.21143486772623929 0 0.35274330396780029 -0.22055010615685411 0 0.35857748018484681 -0.19916974695316059 0 0.33712848274327012 -0.1978716698036386 0 0.34117912335935202 -0.21143486772623929 0 0.34178496086619969 -0.18022124863673519 0 0.35857748018484681 -0.19916974695316059 0 0.33712848274327012 -0.1978716698036386 0 0.34178496086619969 -0.18022124863673519 0 0.35857748018484681 -0.19916974695316059 0 0.34178496086619969 -0.18022124863673519 0 0.33044386252883268 -0.18847517517080439 0 0.33712848274327012 -0.1978716698036386 0 0.33044386252883268 -0.18847517517080439 0 0.33712848274327012 -0.1978716698036386 0 0.32168258787421261 -0.1976633746467561 0 0.33712848274327012 -0.1978716698036386 0 0.32910288164617679 -0.21026560568813579 0 0.32168258787421261 -0.1976633746467561 0 0.34117912335935202 -0.21143486772623929 0 0.33543798340908187 -0.22021801312914821 0 0.35274330396780029 -0.22055010615685411 0 0.32910288164617679 -0.21026560568813579 0 0.32217012802894379 -0.21954367665067839 0 0.33543798340908187 -0.22021801312914821 0 0.34117912335935202 -0.21143486772623929 0 0.32910288164617679 -0.21026560568813579 0 0.33543798340908187 -0.22021801312914821 0 0.33712848274327012 -0.1978716698036386 0 0.34117912335935202 -0.21143486772623929 0 0.32910288164617679 -0.21026560568813579 0 0.32910288164617679 -0.21026560568813579 0 0.3183727023749886 -0.21056402235718211 0 0.32168258787421261 -0.1976633746467561 0 0.32910288164617679 -0.21026560568813579 0 0.3183727023749886 -0.21056402235718211 0 0.32217012802894379 -0.21954367665067839 0 0.31126574138715563 -0.2162029008053086 0 0.3183727023749886 -0.21056402235718211 0 0.32217012802894379 -0.21954367665067839 0 0.31084938156166181 -0.20370505937730241 0 0.3183727023749886 -0.21056402235718211 0 0.32168258787421261 -0.1976633746467561 0 0.31084938156166181 -0.20370505937730241 0 0.31126574138715563 -0.2162029008053086 0 0.3183727023749886 -0.21056402235718211 0 0.3118246053380383 -0.19436842623259559 0 0.31084938156166181 -0.20370505937730241 0 0.32168258787421261 -0.1976633746467561 0 0.31325296448794338 -0.17912600707554449 0 0.33044386252883268 -0.18847517517080439 0 0.32168258787421261 -0.1976633746467561 0 0.3118246053380383 -0.19436842623259559 0 0.31325296448794338 -0.17912600707554449 0 0.32168258787421261 -0.1976633746467561 0 0.31463346435564588 -0.2420096581471432 0 0.34092243163620972 -0.2423560311243379 0 0.31463346435564588 -0.2420096581471432 0 0.32674017766144609 -0.23000157472983221 0 0.33074708986101847 -0.2359698779561156 0 0.31463346435564588 -0.2420096581471432 0 0.32905063734818951 -0.2492174273236471 0 0.31922682890946208 -0.25360083818125972 0 0.31463346435564588 -0.2420096581471432 0 0.31922682890946208 -0.25360083818125972 0 0.30611037547219261 -0.25101477684642998 0 0.31463346435564588 -0.2420096581471432 0 0.31410972905233292 -0.22786483125615539 0 0.32674017766144609 -0.23000157472983221 0 0.31126574138715563 -0.2162029008053086 0 0.31410972905233292 -0.22786483125615539 0 0.32217012802894379 -0.21954367665067839 0 0.31410972905233292 -0.22786483125615539 0 0.32217012802894379 -0.21954367665067839 0 0.32674017766144609 -0.23000157472983221 0 0.32217012802894379 -0.21954367665067839 0 0.32674017766144609 -0.23000157472983221 0 0.33543798340908187 -0.22021801312914821 0 0.33543798340908187 -0.22021801312914821 0 0.34069228579077232 -0.2295122478231493 0 0.35274330396780029 -0.22055010615685411 0 0.32674017766144609 -0.23000157472983221 0 0.33543798340908187 -0.22021801312914821 0 0.34069228579077232 -0.2295122478231493 0 0.32674017766144609 -0.23000157472983221 0 0.34069228579077232 -0.2295122478231493 0 0.33074708986101847 -0.2359698779561156 0 0.31463346435564588 -0.2420096581471432 0 0.32905063734818951 -0.2492174273236471 0 0.34092243163620972 -0.2423560311243379 0 0.31463346435564588 -0.2420096581471432 0 0.33074708986101847 -0.2359698779561156 0 0.34092243163620972 -0.2423560311243379 0 0.34069228579077232 -0.2295122478231493 0 0.33074708986101847 -0.2359698779561156 0 0.34092243163620972 -0.2423560311243379 0 0.32905063734818951 -0.2492174273236471 0 0.34092243163620972 -0.2423560311243379 0 0.34044482528759762 -0.25273564321929187 0 0.34092243163620972 -0.2423560311243379 0 0.34044482528759762 -0.25273564321929187 0 0.35763765611385828 -0.25488990979904269 0 0.34092243163620972 -0.2423560311243379 0 0.36721139891677351 -0.2427024041015326 0 0.34069228579077232 -0.2295122478231493 0 0.34092243163620972 -0.2423560311243379 0 0.36721139891677351 -0.2427024041015326 0 0.34092243163620972 -0.2423560311243379 0 0.36721139891677351 -0.2427024041015326 0 0.35763765611385828 -0.25488990979904269 0 0.34069228579077232 -0.2295122478231493 0 0.35274330396780029 -0.22055010615685411 0 0.36721139891677351 -0.2427024041015326 0 0.35274330396780029 -0.22055010615685411 0 0.36721139891677351 -0.2427024041015326 0 0.37536999950349381 -0.21811824526958601 0 0.36721139891677351 -0.2427024041015326 0 0.3935003661973373 -0.2430487770787273 0 0.37910657038801931 -0.26381954561652071 0 0.36721139891677351 -0.2427024041015326 0 0.3935003661973373 -0.2430487770787273 0 0.37536999950349381 -0.21811824526958601 0 0.36721139891677351 -0.2427024041015326 0 0.3935003661973373 -0.2430487770787273 0 0.39519455631833639 -0.2198338399641864 0 0.40886966684705461 -0.20607666898129959 0 0.41328571519601548 -0.23155708538151709 0 0.3935003661973373 -0.2430487770787273 0 0.39519455631833639 -0.2198338399641864 0 0.41328571519601548 -0.23155708538151709 0 0.3935003661973373 -0.2430487770787273 0 0.39519455631833639 -0.2198338399641864 0 0.37536999950349381 -0.21811824526958601 0 0.39519455631833639 -0.2198338399641864 0 0.37536999950349381 -0.21811824526958601 0 0.3849470338477809 -0.20036842310980191 0 0.3849470338477809 -0.20036842310980191 0 0.39885111756204789 -0.18870687132432451 0 0.37984278837139512 -0.17791725249823659 0 0.3849470338477809 -0.20036842310980191 0 0.39885111756204789 -0.18870687132432451 0 0.40886966684705461 -0.20607666898129959 0 0.39519455631833639 -0.2198338399641864 0 0.3849470338477809 -0.20036842310980191 0 0.40886966684705461 -0.20607666898129959 0 0.40886966684705461 -0.20607666898129959 0 0.42393222481718468 -0.21720731998711881 0 0.41328571519601548 -0.23155708538151709 0 0.40886966684705461 -0.20607666898129959 0 0.42982093127565291 -0.201020494186302 0 0.42393222481718468 -0.21720731998711881 0 0.39885111756204789 -0.18870687132432451 0 0.40886966684705461 -0.20607666898129959 0 0.41623657675750808 -0.19029154925262809 0 0.40886966684705461 -0.20607666898129959 0 0.41623657675750808 -0.19029154925262809 0 0.42982093127565291 -0.201020494186302 0 0.41623657675750808 -0.19029154925262809 0 0.42982093127565291 -0.201020494186302 0 0.43308250129563258 -0.18325881625713111 0 0.42982093127565291 -0.201020494186302 0 0.42393222481718468 -0.21720731998711881 0 0.44107948944884451 -0.2213745541555934 0 0.42669080060716769 -0.22910349131257021 0 0.42846577296662602 -0.2462750057260514 0 0.44107948944884451 -0.2213745541555934 0 0.42393222481718468 -0.21720731998711881 0 0.42669080060716769 -0.22910349131257021 0 0.44107948944884451 -0.2213745541555934 0 0.42846577296662602 -0.2462750057260514 0 0.44107948944884451 -0.2213745541555934 0 0.42669080060716769 -0.22910349131257021 0 0.42846577296662602 -0.2462750057260514 0 0.41328571519601548 -0.23155708538151709 0 0.42846577296662602 -0.2462750057260514 0 0.44395406754978289 -0.24950337649478241 0 0.42842231737761582 -0.25402914490065448 0 0.42846577296662602 -0.2462750057260514 0 0.41328571519601548 -0.23155708538151709 0 0.4159973389276756 -0.25361634155057622 0 0.3935003661973373 -0.2430487770787273 0 0.41328571519601548 -0.23155708538151709 0 0.4159973389276756 -0.25361634155057622 0 0.42393222481718468 -0.21720731998711881 0 0.42669080060716769 -0.22910349131257021 0 0.41328571519601548 -0.23155708538151709 0 0.4108913093444978 -0.11820094031911341 0 0.39175816338281999 -0.12723027968753561 0 0.39851160221705278 -0.1420111068693678 0 0.4108913093444978 -0.11820094031911341 0 0.39851160221705278 -0.1420111068693678 0 0.39175816338281999 -0.12723027968753561 0 0.37827256278464982 -0.13811643378490451 0 0.39851160221705278 -0.1420111068693678 0 0.37827256278464982 -0.13811643378490451 0 0.39851160221705278 -0.1420111068693678 0 0.37846746504523088 -0.1238085554348782 0 0.39175816338281999 -0.12723027968753561 0 0.37827256278464982 -0.13811643378490451 0 0.37827256278464982 -0.13811643378490451 0 0.39851160221705278 -0.1420111068693678 0 0.38917719529422368 -0.15996417968380211 0 0.37176693285291418 -0.15500874894055261 0 0.37827256278464982 -0.13811643378490451 0 0.38917719529422368 -0.15996417968380211 0 0.39851160221705278 -0.1420111068693678 0 0.40548315299982929 -0.15577366913195731 0 0.38917719529422368 -0.15996417968380211 0 0.39851160221705278 -0.1420111068693678 0 0.38917719529422368 -0.15996417968380211 0 0.40548315299982929 -0.15577366913195731 0 0.40513979327042537 -0.17106666506351231 0 0.38917719529422368 -0.15996417968380211 0 0.40513979327042537 -0.17106666506351231 0 0.38917719529422368 -0.15996417968380211 0 0.37984278837139512 -0.17791725249823659 0 0.38917719529422368 -0.15996417968380211 0 0.37984278837139512 -0.17791725249823659 0 0.37176693285291418 -0.15500874894055261 0 0.38917719529422368 -0.15996417968380211 0 0.37984278837139512 -0.17791725249823659 0 0.39885111756204789 -0.18870687132432451 0 0.40513979327042537 -0.17106666506351231 0 0.37984278837139512 -0.17791725249823659 0 0.41623657675750808 -0.19029154925262809 0 0.40513979327042537 -0.17106666506351231 0 0.42127082319112102 -0.17554196160376501 0 0.39885111756204789 -0.18870687132432451 0 0.41623657675750808 -0.19029154925262809 0 0.40513979327042537 -0.17106666506351231 0 0.43308250129563258 -0.18325881625713111 0 0.43107005360111611 -0.16681124765480701 0 0.44640341701733521 -0.16941354226014929 0 0.41623657675750808 -0.19029154925262809 0 0.42127082319112102 -0.17554196160376501 0 0.43308250129563258 -0.18325881625713111 0 0.42127082319112102 -0.17554196160376501 0 0.43308250129563258 -0.18325881625713111 0 0.43107005360111611 -0.16681124765480701 0 0.42127082319112102 -0.17554196160376501 0 0.43107005360111611 -0.16681124765480701 0 0.4186193324695221 -0.16045611854895561 0 0.43107005360111611 -0.16681124765480701 0 0.4186193324695221 -0.16045611854895561 0 0.43557217169262719 -0.1491428090884197 0 0.40513979327042537 -0.17106666506351231 0 0.42127082319112102 -0.17554196160376501 0 0.4186193324695221 -0.16045611854895561 0 0.42127082319112102 -0.17554196160376501 0 0.4186193324695221 -0.16045611854895561 0 0.40548315299982929 -0.15577366913195731 0 0.40513979327042537 -0.17106666506351231 0 0.4186193324695221 -0.16045611854895561 0 0.39851160221705278 -0.1420111068693678 0 0.41596784174792728 -0.14537027549414561 0 0.39851160221705278 -0.1420111068693678 0 0.40548315299982929 -0.15577366913195731 0 0.41596784174792728 -0.14537027549414561 0 0.40548315299982929 -0.15577366913195731 0 0.4186193324695221 -0.16045611854895561 0 0.41596784174792728 -0.14537027549414561 0 0.4186193324695221 -0.16045611854895561 0 0.41596784174792728 -0.14537027549414561 0 0.41596784174792728 -0.14537027549414561 0 0.43557217169262719 -0.1491428090884197 0 0.4186193324695221 -0.16045611854895561 0 0.41596784174792728 -0.14537027549414561 0 0.43557217169262719 -0.1491428090884197 0 0.41596784174792728 -0.14537027549414561 0 0.43557217169262719 -0.1491428090884197 0 0.42777425379982148 -0.1356014360254203 0 0.4108913093444978 -0.11820094031911341 0 0.4334039114202054 -0.12336722547945921 0 0.42777425379982148 -0.1356014360254203 0 0.43557217169262719 -0.1491428090884197 0 0.42777425379982148 -0.1356014360254203 0 0.44270194702390858 -0.13600751190375429 0 0.4334039114202054 -0.12336722547945921 0 0.42777425379982148 -0.1356014360254203 0 0.44270194702390858 -0.13600751190375429 0 0.4108913093444978 -0.11820094031911341 0 0.41596784174792728 -0.14537027549414561 0 0.4108913093444978 -0.11820094031911341 0 0.39851160221705278 -0.1420111068693678 0 0.41596784174792728 -0.14537027549414561 0 0.4108913093444978 -0.11820094031911341 0 0.41596784174792728 -0.14537027549414561 0 0.42777425379982148 -0.1356014360254203 0 0.46089539590529488 -0.11388036693040431 0 0.45560260761346932 -0.1284614742178572 0 0.47780130380673319 -0.1335557229562552 0 0.45560260761346932 -0.1284614742178572 0 0.47780130380673319 -0.1335557229562552 0 0.45560260761346932 -0.1284614742178572 0 0.46693730047671939 -0.14108926116759191 0 0.47780130380673319 -0.1335557229562552 0 0.45560260761346932 -0.1284614742178572 0 0.45737822998636329 -0.15022189154972329 0 0.46693730047671939 -0.14108926116759191 0 0.4334039114202054 -0.12336722547945921 0 0.45560260761346932 -0.1284614742178572 0 0.45560260761346932 -0.1284614742178572 0 0.44270194702390858 -0.13600751190375429 0 0.45737822998636329 -0.15022189154972329 0 0.4334039114202054 -0.12336722547945921 0 0.45560260761346932 -0.1284614742178572 0 0.44270194702390858 -0.13600751190375429 0 0.43557217169262719 -0.1491428090884197 0 0.44270194702390858 -0.13600751190375429 0 0.45737822998636329 -0.15022189154972329 0 0.45737822998636329 -0.15022189154972329 0 0.46630692241328131 -0.17157365101467759 0 0.47892063889549968 -0.14667319944421969 0 0.45737822998636329 -0.15022189154972329 0 0.46693730047671939 -0.14108926116759191 0 0.47892063889549968 -0.14667319944421969 0 0.45737822998636329 -0.15022189154972329 0 0.46630692241328131 -0.17157365101467759 0 0.44640341701733521 -0.16941354226014929 0 0.43107005360111611 -0.16681124765480701 0 0.43557217169262719 -0.1491428090884197 0 0.44640341701733521 -0.16941354226014929 0 0.43557217169262719 -0.1491428090884197 0 0.45737822998636329 -0.15022189154972329 0 0.44640341701733521 -0.16941354226014929 0 0.43308250129563258 -0.18325881625713111 0 0.44640341701733521 -0.16941354226014929 0 0.45369320593106288 -0.19647410258513551 0 0.46630692241328131 -0.17157365101467759 0 0.45369320593106288 -0.19647410258513551 0 0.47804764695548291 -0.18952881390324761 0 0.46630692241328131 -0.17157365101467759 0 0.44640341701733521 -0.16941354226014929 0 0.45369320593106288 -0.19647410258513551 0 0.46630692241328131 -0.17157365101467759 0 0.45369320593106288 -0.19647410258513551 0 0.46630692241328131 -0.17157365101467759 0 0.48258750224078623 -0.1641757712082913 0 0.47804764695548291 -0.18952881390324761 0 0.5 -0.16824895509007989 0 0.47804764695548291 -0.18952881390324761 0 0.49999999999999678 -0.19784793848550719 0 0.5 -0.16824895509007989 0 0.48258750224078623 -0.1641757712082913 0 0.47804764695548291 -0.18952881390324761 0 0.5 -0.16824895509007989 0 0.48258750224078623 -0.1641757712082913 0 0.49999999999999739 -0.13864997169465271 0 0.46630692241328131 -0.17157365101467759 0 0.48258750224078623 -0.1641757712082913 0 0.47892063889549968 -0.14667319944421969 0 0.46630692241328131 -0.17157365101467759 0 0.47892063889549968 -0.14667319944421969 0 0.48258750224078623 -0.1641757712082913 0 0.47892063889549968 -0.14667319944421969 0 0.49999999999999739 -0.13864997169465271 0 0.48720541854545441 -0.1206799802016226 0 0.49999999999999739 -0.13864997169465271 0 0.47780130380673319 -0.1335557229562552 0 0.47892063889549968 -0.14667319944421969 0 0.49999999999999739 -0.13864997169465271 0 0.47780130380673319 -0.1335557229562552 0 0.49999999999999739 -0.13864997169465271 0 0.47780130380673319 -0.1335557229562552 0 0.46693730047671939 -0.14108926116759191 0 0.47892063889549968 -0.14667319944421969 0 0.47780130380673319 -0.1335557229562552 0 0.46263604503318712 -0.23228489715835679 0 0.44107948944884451 -0.2213745541555934 0 0.46242787558665871 -0.2133148611171102 0 0.46263604503318712 -0.23228489715835679 0 0.44395406754978289 -0.24950337649478241 0 0.46263604503318712 -0.23228489715835679 0 0.44395406754978289 -0.24950337649478241 0 0.45626984260130887 -0.25595449397302977 0 0.46263604503318712 -0.23228489715835679 0 0.47290783058493491 -0.25501559146347053 0 0.45626984260130887 -0.25595449397302977 0 0.42846577296662602 -0.2462750057260514 0 0.44395406754978289 -0.24950337649478241 0 0.44107948944884451 -0.2213745541555934 0 0.46263604503318712 -0.23228489715835679 0 0.44395406754978289 -0.24950337649478241 0 0.44107948944884451 -0.2213745541555934 0 0.42982093127565291 -0.201020494186302 0 0.44107948944884451 -0.2213745541555934 0 0.45369320593106288 -0.19647410258513551 0 0.44107948944884451 -0.2213745541555934 0 0.45369320593106288 -0.19647410258513551 0 0.44107948944884451 -0.2213745541555934 0 0.45369320593106288 -0.19647410258513551 0 0.46242787558665871 -0.2133148611171102 0 0.42982093127565291 -0.201020494186302 0 0.43308250129563258 -0.18325881625713111 0 0.45369320593106288 -0.19647410258513551 0 0.45369320593106288 -0.19647410258513551 0 0.46242787558665871 -0.2133148611171102 0 0.47804764695548291 -0.18952881390324761 0 0.46242787558665871 -0.2133148611171102 0 0.48131802251659123 -0.2150664178219312 0 0.47804764695548291 -0.18952881390324761 0 0.48131802251659123 -0.2150664178219312 0 0.47804764695548291 -0.18952881390324761 0 0.49999999999999678 -0.19784793848550719 0 0.48131802251659123 -0.2150664178219312 0 0.49999999999999678 -0.19784793848550719 0 0.5 -0.22468489889779419 0 0.48131802251659123 -0.2150664178219312 0 0.49999999999999678 -0.19784793848550719 0 0.48131802251659123 -0.2150664178219312 0 0.5 -0.22468489889779419 0 0.48270806551167311 -0.23531878168033751 0 0.46263604503318712 -0.23228489715835679 0 0.46242787558665871 -0.2133148611171102 0 0.48131802251659123 -0.2150664178219312 0 0.46263604503318712 -0.23228489715835679 0 0.48131802251659123 -0.2150664178219312 0 0.46263604503318712 -0.23228489715835679 0 0.48131802251659123 -0.2150664178219312 0 0.48270806551167311 -0.23531878168033751 0 0.46263604503318712 -0.23228489715835679 0 0.48270806551167311 -0.23531878168033751 0 0.47290783058493491 -0.25501559146347053 0 0.5 -0.22468489889779419 0 0.48270806551167311 -0.23531878168033751 0 0.5 -0.25152185931008131 0 0.48270806551167311 -0.23531878168033751 0 0.5 -0.25152185931008131 0 0.47290783058493491 -0.25501559146347053 0 0.5 -0.25152185931008131 0 0.5 -0.27835881972236842 0 0.47938768865877018 -0.27532256488155921 0 0.47938768865877018 -0.27532256488155921 0 0.47290783058493491 -0.25501559146347053 0 0.45830946194746619 -0.27637796135763182 0 0.5 -0.25152185931008131 0 0.47938768865877018 -0.27532256488155921 0 0.47290783058493491 -0.25501559146347053 0 0.47290783058493491 -0.25501559146347053 0 0.45626984260130887 -0.25595449397302977 0 0.45830946194746619 -0.27637796135763182 0 0.45626984260130887 -0.25595449397302977 0 0.45830946194746619 -0.27637796135763182 0 0.44354180789117381 -0.26659064339090771 0 0.45830946194746619 -0.27637796135763182 0 0.44354180789117381 -0.26659064339090771 0 0.43576769753372879 -0.28108253887805912 0 0.44395406754978289 -0.24950337649478241 0 0.45626984260130887 -0.25595449397302977 0 0.44354180789117381 -0.26659064339090771 0 0.44395406754978289 -0.24950337649478241 0 0.44354180789117381 -0.26659064339090771 0 0.42527209006637878 -0.266721855831208 0 0.45382019744479818 -0.30013288245409281 0 0.44620969573072611 -0.32647470604429091 0 0.43262986953050292 -0.30074106457634842 0 0.45382019744479818 -0.30013288245409281 0 0.43576769753372879 -0.28108253887805912 0 0.43262986953050292 -0.30074106457634842 0 0.45830946194746619 -0.27637796135763182 0 0.45382019744479818 -0.30013288245409281 0 0.43576769753372879 -0.28108253887805912 0 0.45830946194746619 -0.27637796135763182 0 0.45382019744479818 -0.30013288245409281 0 0.47241436831400241 -0.29355948429000139 0 0.45382019744479818 -0.30013288245409281 0 0.47241436831400241 -0.29355948429000139 0 0.47025024007882971 -0.31315008355749602 0 0.48411168318027292 -0.30398187114484521 0 0.48901120573918327 -0.31863731625020919 0 0.47025024007882971 -0.31315008355749602 0 0.48411168318027292 -0.30398187114484521 0 0.47241436831400241 -0.29355948429000139 0 0.47025024007882971 -0.31315008355749602 0 0.47938768865877018 -0.27532256488155921 0 0.47241436831400241 -0.29355948429000139 0 0.48718274803060913 -0.2912837040346859 0 0.47938768865877018 -0.27532256488155921 0 0.45830946194746619 -0.27637796135763182 0 0.47241436831400241 -0.29355948429000139 0 0.48411168318027292 -0.30398187114484521 0 0.47241436831400241 -0.29355948429000139 0 0.48718274803060913 -0.2912837040346859 0 0.5 -0.27835881972236842 0 0.47938768865877018 -0.27532256488155921 0 0.48718274803060913 -0.2912837040346859 0 0.5 -0.27835881972236842 0 0.48718274803060913 -0.2912837040346859 0 0.5 -0.30519578013465531 0 0.48411168318027292 -0.30398187114484521 0 0.48718274803060913 -0.2912837040346859 0 0.5 -0.30519578013465531 0 0.48411168318027292 -0.30398187114484521 0 0.5 -0.30519578013465531 0 0.48901120573918327 -0.31863731625020919 0 0.5 -0.30519578013465531 0 0.48901120573918327 -0.31863731625020919 0 0.5 -0.33203274054694221 0 0.48901120573918327 -0.31863731625020919 0 0.5 -0.33203274054694221 0 0.48741056054110499 -0.34222582480546082 0 0.48901120573918327 -0.31863731625020919 0 0.48741056054110499 -0.34222582480546082 0 0.47440036383506712 -0.33542283188122168 0 0.48741056054110499 -0.34222582480546082 0 0.47440036383506712 -0.33542283188122168 0 0.47362966324735628 -0.3504285256744204 0 0.48901120573918327 -0.31863731625020919 0 0.47440036383506712 -0.33542283188122168 0 0.47025024007882971 -0.31315008355749602 0 0.48901120573918327 -0.31863731625020919 0 0.47440036383506712 -0.33542283188122168 0 0.5 -0.35886970095922899 0 0.48369451658836382 -0.37060005726738948 0 0.5 -0.38570666137151588 0 0.5 -0.35886970095922899 0 0.48209612070829649 -0.35754364161365287 0 0.48369451658836382 -0.37060005726738948 0 0.5 -0.33203274054694221 0 0.48741056054110499 -0.34222582480546082 0 0.5 -0.35886970095922899 0 0.48741056054110499 -0.34222582480546082 0 0.5 -0.35886970095922899 0 0.48209612070829649 -0.35754364161365287 0 0.47440036383506712 -0.33542283188122168 0 0.47362966324735628 -0.3504285256744204 0 0.45978952193094969 -0.35220834751223318 0 0.48741056054110499 -0.34222582480546082 0 0.47362966324735628 -0.3504285256744204 0 0.48209612070829649 -0.35754364161365287 0 0.47362966324735628 -0.3504285256744204 0 0.47198647448133513 -0.35812228461503443 0 0.48209612070829649 -0.35754364161365287 0 0.47362966324735628 -0.3504285256744204 0 0.47198647448133513 -0.35812228461503443 0 0.46709476108707809 -0.35599024496604847 0 0.47198647448133513 -0.35812228461503443 0 0.46826204511639152 -0.3602391350072619 0 0.46709476108707809 -0.35599024496604847 0 0.47119975599103131 -0.37003558690509558 0 0.46476800412523361 -0.36164252391134988 0 0.47351982256615571 -0.38856323671165749 0 0.48209612070829649 -0.35754364161365287 0 0.47493085492690962 -0.36494250637651382 0 0.48369451658836382 -0.37060005726738948 0 0.47198647448133513 -0.35812228461503443 0 0.48209612070829649 -0.35754364161365287 0 0.47493085492690962 -0.36494250637651382 0 0.47198647448133513 -0.35812228461503443 0 0.47022294596398012 -0.36259705877117432 0 0.47493085492690962 -0.36494250637651382 0 0.47198647448133513 -0.35812228461503443 0 0.47022294596398012 -0.36259705877117432 0 0.46826204511639152 -0.3602391350072619 0 0.47022294596398012 -0.36259705877117432 0 0.47119975599103131 -0.37003558690509558 0 0.46723803992433027 -0.36284356277270252 0 0.47022294596398012 -0.36259705877117432 0 0.47493085492690962 -0.36494250637651382 0 0.47119975599103131 -0.37003558690509558 0 0.47493085492690962 -0.36494250637651382 0 0.47613810716899191 -0.37068413481790619 0 0.47119975599103131 -0.37003558690509558 0 0.47613810716899191 -0.37068413481790619 0 0.47119975599103131 -0.37003558690509558 0 0.47472730116966272 -0.37715838872262619 0 0.47493085492690962 -0.36494250637651382 0 0.47613810716899191 -0.37068413481790619 0 0.48369451658836382 -0.37060005726738948 0 0.47613810716899191 -0.37068413481790619 0 0.48369451658836382 -0.37060005726738948 0 0.47472730116966272 -0.37715838872262619 0 0.45437477138662408 -0.35842902805181409 0 0.45303493934388661 -0.37082665383639912 0 0.46380157323764942 -0.37711758934672263 0 0.45437477138662408 -0.35842902805181409 0 0.46380157323764942 -0.37711758934672263 0 0.46476800412523361 -0.36164252391134988 0 0.46049466418149121 -0.36131538885270548 0 0.46380157323764942 -0.37711758934672263 0 0.46049466418149121 -0.36131538885270548 0 0.45437477138662408 -0.35842902805181409 0 0.46380157323764942 -0.37711758934672263 0 0.47119975599103131 -0.37003558690509558 0 0.46723803992433027 -0.36284356277270252 0 0.46476800412523361 -0.36164252391134988 0 0.47022294596398012 -0.36259705877117432 0 0.46826204511639152 -0.3602391350072619 0 0.46723803992433027 -0.36284356277270252 0 0.46826204511639152 -0.3602391350072619 0 0.46723803992433027 -0.36284356277270252 0 0.46476800412523361 -0.36164252391134988 0 0.47440036383506712 -0.33542283188122168 0 0.45978952193094969 -0.35220834751223318 0 0.46049466418149121 -0.36131538885270548 0 0.45437477138662408 -0.35842902805181409 0 0.45978952193094969 -0.35220834751223318 0 0.45437477138662408 -0.35842902805181409 0 0.45978952193094969 -0.35220834751223318 0 0.45058354218139562 -0.35091294566197923 0 0.45437477138662408 -0.35842902805181409 0 0.45978952193094969 -0.35220834751223318 0 0.46476800412523361 -0.36164252391134988 0 0.46049466418149121 -0.36131538885270548 0 0.45978952193094969 -0.35220834751223318 0 0.46476800412523361 -0.36164252391134988 0 0.45978952193094969 -0.35220834751223318 0 0.46476800412523361 -0.36164252391134988 0 0.45978952193094969 -0.35220834751223318 0 0.46709476108707809 -0.35599024496604847 0 0.47362966324735628 -0.3504285256744204 0 0.45978952193094969 -0.35220834751223318 0 0.46709476108707809 -0.35599024496604847 0 0.46826204511639152 -0.3602391350072619 0 0.46476800412523361 -0.36164252391134988 0 0.46709476108707809 -0.35599024496604847 0 0.45058354218139562 -0.35091294566197923 0 0.44108025021217862 -0.36042077314998638 0 0.4356458225959583 -0.34362959526418191 0 0.45437477138662408 -0.35842902805181409 0 0.45058354218139562 -0.35091294566197923 0 0.44108025021217862 -0.36042077314998638 0 0.45437477138662408 -0.35842902805181409 0 0.45058354218139562 -0.35091294566197923 0 0.45437477138662408 -0.35842902805181409 0 0.44108025021217862 -0.36042077314998638 0 0.44094042593574828 -0.37386293781813501 0 0.45437477138662408 -0.35842902805181409 0 0.44094042593574828 -0.37386293781813501 0 0.45437477138662408 -0.35842902805181409 0 0.44094042593574828 -0.37386293781813501 0 0.45303493934388661 -0.37082665383639912 0 0.44094042593574828 -0.37386293781813501 0 0.45303493934388661 -0.37082665383639912 0 0.45157054038117572 -0.38028891537273901 0 0.45382019744479818 -0.30013288245409281 0 0.47025024007882971 -0.31315008355749602 0 0.44620969573072611 -0.32647470604429091 0 0.47440036383506712 -0.33542283188122168 0 0.47025024007882971 -0.31315008355749602 0 0.44620969573072611 -0.32647470604429091 0 0.47440036383506712 -0.33542283188122168 0 0.45978952193094969 -0.35220834751223318 0 0.44620969573072611 -0.32647470604429091 0 0.45978952193094969 -0.35220834751223318 0 0.45058354218139562 -0.35091294566197923 0 0.44620969573072611 -0.32647470604429091 0 0.45978952193094969 -0.35220834751223318 0 0.44620969573072611 -0.32647470604429091 0 0.45058354218139562 -0.35091294566197923 0 0.44620969573072611 -0.32647470604429091 0 0.4356458225959583 -0.34362959526418191 0 0.44620969573072611 -0.32647470604429091 0 0.43262986953050292 -0.30074106457634842 0 0.44620969573072611 -0.32647470604429091 0 0.42127764699718001 -0.32625823351519462 0 0.43262986953050292 -0.30074106457634842 0 0.44620969573072611 -0.32647470604429091 0 0.4356458225959583 -0.34362959526418191 0 0.42127764699718001 -0.32625823351519462 0 0.4356458225959583 -0.34362959526418191 0 0.42127764699718001 -0.32625823351519462 0 0.42125402295459291 -0.35209019887977971 0 0.42127764699718001 -0.32625823351519462 0 0.42125402295459291 -0.35209019887977971 0 0.40358239043188249 -0.34108110724454982 0 0.42127764699718001 -0.32625823351519462 0 0.40061951244687782 -0.31303648836200793 0 0.40358239043188249 -0.34108110724454982 0 0.42127764699718001 -0.32625823351519462 0 0.40061951244687782 -0.31303648836200793 0 0.41515305683560932 -0.30022442161156732 0 0.44108025021217862 -0.36042077314998638 0 0.42450776360999137 -0.36989373413568383 0 0.42125402295459291 -0.35209019887977971 0 0.44108025021217862 -0.36042077314998638 0 0.44094042593574828 -0.37386293781813501 0 0.42450776360999137 -0.36989373413568383 0 0.44108025021217862 -0.36042077314998638 0 0.4356458225959583 -0.34362959526418191 0 0.42125402295459291 -0.35209019887977971 0 0.42125402295459291 -0.35209019887977971 0 0.40984562289754961 -0.36012788362466208 0 0.40358239043188249 -0.34108110724454982 0 0.42450776360999137 -0.36989373413568383 0 0.40984562289754961 -0.36012788362466208 0 0.40751489087075132 -0.38026261165226438 0 0.42450776360999137 -0.36989373413568383 0 0.42125402295459291 -0.35209019887977971 0 0.40984562289754961 -0.36012788362466208 0 0.3923690466205299 -0.35731176621103311 0 0.40751489087075132 -0.38026261165226438 0 0.40984562289754961 -0.36012788362466208 0 0.3923690466205299 -0.35731176621103311 0 0.40751489087075132 -0.38026261165226438 0 0.3923690466205299 -0.35731176621103311 0 0.38451317195331808 -0.37365250517970938 0 0.40751489087075132 -0.38026261165226438 0 0.40984562289754961 -0.36012788362466208 0 0.3923690466205299 -0.35731176621103311 0 0.40358239043188249 -0.34108110724454982 0 0.3923690466205299 -0.35731176621103311 0 0.40358239043188249 -0.34108110724454982 0 0.37722320237030849 -0.33436092076980178 0 0.3923690466205299 -0.35731176621103311 0 0.37722320237030849 -0.33436092076980178 0 0.3691282338251386 -0.35159181985285209 0 0.3923690466205299 -0.35731176621103311 0 0.37722320237030849 -0.33436092076980178 0 0.3923690466205299 -0.35731176621103311 0 0.36979769266664198 -0.36623740864826237 0 0.3691282338251386 -0.35159181985285209 0 0.3923690466205299 -0.35731176621103311 0 0.38451317195331808 -0.37365250517970938 0 0.36979769266664198 -0.36623740864826237 0 0.38451317195331808 -0.37365250517970938 0 0.37402409147838339 -0.37852198623957178 0 0.36979769266664198 -0.36623740864826237 0 0.40061951244687782 -0.31303648836200793 0 0.40358239043188249 -0.34108110724454982 0 0.37722320237030849 -0.33436092076980178 0 0.40061951244687782 -0.31303648836200793 0 0.37722320237030849 -0.33436092076980178 0 0.38012033908276438 -0.3129359227770373 0 0.40061951244687782 -0.31303648836200793 0 0.38012033908276438 -0.3129359227770373 0 0.38056128339378442 -0.29293620664776931 0 0.40061951244687782 -0.31303648836200793 0 0.38056128339378442 -0.29293620664776931 0 0.38056128339378442 -0.29293620664776931 0 0.39229906439440981 -0.27548683484142428 0 0.40659011258297462 -0.28394033516763362 0 0.40061951244687782 -0.31303648836200793 0 0.38056128339378442 -0.29293620664776931 0 0.40659011258297462 -0.28394033516763362 0 0.38056128339378442 -0.29293620664776931 0 0.37910657038801931 -0.26381954561652071 0 0.39229906439440981 -0.27548683484142428 0 0.3935003661973373 -0.2430487770787273 0 0.37910657038801931 -0.26381954561652071 0 0.40254255655754562 -0.26426268094275851 0 0.3935003661973373 -0.2430487770787273 0 0.40254255655754562 -0.26426268094275851 0 0.4159973389276756 -0.25361634155057622 0 0.37910657038801931 -0.26381954561652071 0 0.40254255655754562 -0.26426268094275851 0 0.39229906439440981 -0.27548683484142428 0 0.40254255655754562 -0.26426268094275851 0 0.39229906439440981 -0.27548683484142428 0 0.40659011258297462 -0.28394033516763362 0 0.40254255655754562 -0.26426268094275851 0 0.42527209006637878 -0.266721855831208 0 0.40659011258297462 -0.28394033516763362 0 0.41905004333027968 -0.27500742310840592 0 0.42527209006637878 -0.266721855831208 0 0.40659011258297462 -0.28394033516763362 0 0.42527209006637878 -0.266721855831208 0 0.40659011258297462 -0.28394033516763362 0 0.40254255655754562 -0.26426268094275851 0 0.4159973389276756 -0.25361634155057622 0 0.42527209006637878 -0.266721855831208 0 0.44395406754978289 -0.24950337649478241 0 0.42842231737761582 -0.25402914490065448 0 0.42527209006637878 -0.266721855831208 0 0.44395406754978289 -0.24950337649478241 0 0.42527209006637878 -0.266721855831208 0 0.42846577296662602 -0.2462750057260514 0 0.4159973389276756 -0.25361634155057622 0 0.42842231737761582 -0.25402914490065448 0 0.4159973389276756 -0.25361634155057622 0 0.42842231737761582 -0.25402914490065448 0 0.42527209006637878 -0.266721855831208 0 0.41905004333027968 -0.27500742310840592 0 0.43576769753372879 -0.28108253887805912 0 0.42527209006637878 -0.266721855831208 0 0.44354180789117381 -0.26659064339090771 0 0.43576769753372879 -0.28108253887805912 0 0.42527209006637878 -0.266721855831208 0 0.41905004333027968 -0.27500742310840592 0 0.43262986953050292 -0.30074106457634842 0 0.41515305683560932 -0.30022442161156732 0 0.41905004333027968 -0.27500742310840592 0 0.43576769753372879 -0.28108253887805912 0 0.43262986953050292 -0.30074106457634842 0 0.41905004333027968 -0.27500742310840592 0 0.43262986953050292 -0.30074106457634842 0 0.42127764699718001 -0.32625823351519462 0 0.43262986953050292 -0.30074106457634842 0 0.41515305683560932 -0.30022442161156732 0 0.40061951244687782 -0.31303648836200793 0 0.41515305683560932 -0.30022442161156732 0 0.40659011258297462 -0.28394033516763362 0 0.41905004333027968 -0.27500742310840592 0 0.41515305683560932 -0.30022442161156732 0 0.40659011258297462 -0.28394033516763362 0 0.5 -0.5 0 0.47974667804875482 -0.45355454381981353 0 0.5 -0.43529344183669721 0 0.5 -0.5 0 0.47344907999588559 -0.49061052355387702 0 0.41592547523021361 -0.50000000000000011 0 0.44587065062247322 -0.47881389534894758 0 0.47344907999588559 -0.49061052355387702 0 0.41592547523021361 -0.50000000000000011 0 0.44587065062247322 -0.47881389534894758 0 0.46809826787163678 -0.47206599341718958 0 0.47344907999588559 -0.49061052355387702 0 0.44587065062247322 -0.47881389534894758 0 0.46809826787163678 -0.47206599341718958 0 0.45105290407532889 -0.46469106840949392 0 0.44587065062247322 -0.47881389534894758 0 0.47344907999588559 -0.49061052355387702 0 0.46809826787163678 -0.47206599341718958 0 0.5 -0.5 0 0.47344907999588559 -0.49061052355387702 0 0.46809826787163678 -0.47206599341718958 0 0.5 -0.5 0 0.47974667804875482 -0.45355454381981353 0 0.47974667804875482 -0.45355454381981353 0 0.49058829718815539 -0.43701354402197962 0 0.5 -0.43529344183669721 0 0.47974667804875482 -0.45355454381981353 0 0.47875503362369698 -0.44035360980345889 0 0.49058829718815539 -0.43701354402197962 0 0.47974667804875482 -0.45355454381981353 0 0.47875503362369698 -0.44035360980345889 0 0.46659846583045028 -0.43923765121227032 0 0.47974667804875482 -0.45355454381981353 0 0.46659846583045028 -0.43923765121227032 0 0.45295242362141541 -0.44911514797595831 0 0.46659846583045028 -0.43923765121227032 0 0.45295242362141541 -0.44911514797595831 0 0.45028614062696548 -0.43146548036112548 0 0.46809826787163678 -0.47206599341718958 0 0.47974667804875482 -0.45355454381981353 0 0.45295242362141541 -0.44911514797595831 0 0.46809826787163678 -0.47206599341718958 0 0.45105290407532889 -0.46469106840949392 0 0.45295242362141541 -0.44911514797595831 0 0.46809826787163678 -0.47206599341718958 0 0.45295242362141541 -0.44911514797595831 0 0.45105290407532889 -0.46469106840949392 0 0.45295242362141541 -0.44911514797595831 0 0.43729027418579042 -0.45876923689588012 0 0.44587065062247322 -0.47881389534894758 0 0.45105290407532889 -0.46469106840949392 0 0.43729027418579042 -0.45876923689588012 0 0.4382708803329618 -0.44429694558483651 0 0.45295242362141541 -0.44911514797595831 0 0.43780657937119399 -0.42616430253472698 0 0.4382708803329618 -0.44429694558483651 0 0.45295242362141541 -0.44911514797595831 0 0.43729027418579042 -0.45876923689588012 0 0.45295242362141541 -0.44911514797595831 0 0.43780657937119399 -0.42616430253472698 0 0.45295242362141541 -0.44911514797595831 0 0.45028614062696548 -0.43146548036112548 0 0.43780657937119399 -0.42616430253472698 0 0.45028614062696548 -0.43146548036112548 0 0.43780657937119399 -0.42616430253472698 0 0.44890831582404789 -0.41736930755553131 0 0.43780657937119399 -0.42616430253472698 0 0.43926518775752499 -0.40973381861890451 0 0.44890831582404789 -0.41736930755553131 0 0.43926518775752499 -0.40973381861890451 0 0.44890831582404789 -0.41736930755553131 0 0.44936681998106592 -0.40268326740117699 0 0.44890831582404789 -0.41736930755553131 0 0.45838179906711218 -0.41077550990859801 0 0.44936681998106592 -0.40268326740117699 0 0.44890831582404789 -0.41736930755553131 0 0.45838179906711218 -0.41077550990859801 0 0.46719298361081568 -0.42503047620003348 0 0.45838179906711218 -0.41077550990859801 0 0.46832765139682958 -0.41035856176581892 0 0.46334402570684069 -0.40094265226392262 0 0.45838179906711218 -0.41077550990859801 0 0.46832765139682958 -0.41035856176581892 0 0.46719298361081568 -0.42503047620003348 0 0.45028614062696548 -0.43146548036112548 0 0.46719298361081568 -0.42503047620003348 0 0.45028614062696548 -0.43146548036112548 0 0.44890831582404789 -0.41736930755553131 0 0.46719298361081568 -0.42503047620003348 0 0.46659846583045028 -0.43923765121227032 0 0.45028614062696548 -0.43146548036112548 0 0.46719298361081568 -0.42503047620003348 0 0.47875503362369698 -0.44035360980345889 0 0.46659846583045028 -0.43923765121227032 0 0.47854958084994131 -0.43134090850431289 0 0.46719298361081568 -0.42503047620003348 0 0.47854958084994131 -0.43134090850431289 0 0.48462318550452721 -0.41839627359805531 0 0.46659846583045028 -0.43923765121227032 0 0.46719298361081568 -0.42503047620003348 0 0.47854958084994131 -0.43134090850431289 0 0.47875503362369698 -0.44035360980345889 0 0.47854958084994131 -0.43134090850431289 0 0.49058829718815539 -0.43701354402197962 0 0.47854958084994131 -0.43134090850431289 0 0.49058829718815539 -0.43701354402197962 0 0.48462318550452721 -0.41839627359805531 0 0.49058829718815539 -0.43701354402197962 0 0.49070480531516791 -0.43045303753556452 0 0.48462318550452721 -0.41839627359805531 0 0.49058829718815539 -0.43701354402197962 0 0.48462318550452721 -0.41839627359805531 0 0.49070480531516791 -0.43045303753556452 0 0.5 -0.43529344183669721 0 0.49999999999999961 -0.41254362178380283 0 0.49070480531516791 -0.43045303753556452 0 0.48462318550452721 -0.41839627359805531 0 0.49058829718815539 -0.43701354402197962 0 0.49070480531516791 -0.43045303753556452 0 0.5 -0.43529344183669721 0 0.49070480531516791 -0.43045303753556452 0 0.49999999999999961 -0.41254362178380283 0 0.48462318550452721 -0.41839627359805531 0 0.49999999999999961 -0.41254362178380283 0 0.48985796687941741 -0.40958313984025102 0 0.48888717843717738 -0.3989148696752155 0 0.49999999999999961 -0.41254362178380283 0 0.48462318550452721 -0.41839627359805531 0 0.48462318550452721 -0.41839627359805531 0 0.48985796687941741 -0.40958313984025102 0 0.48265517693970011 -0.4144947119365392 0 0.48985796687941741 -0.40958313984025102 0 0.48265517693970011 -0.4144947119365392 0 0.48888717843717738 -0.3989148696752155 0 0.49999999999999961 -0.41254362178380283 0 0.48462318550452721 -0.41839627359805531 0 0.48985796687941741 -0.40958313984025102 0 0.48265517693970011 -0.4144947119365392 0 0.47481659780707142 -0.41105753741328832 0 0.47255057271477607 -0.40507854267940979 0 0.46719298361081568 -0.42503047620003348 0 0.48462318550452721 -0.41839627359805531 0 0.48265517693970011 -0.4144947119365392 0 0.47565360754473801 -0.41581227090141659 0 0.47481659780707142 -0.41105753741328832 0 0.46719298361081568 -0.42503047620003348 0 0.48462318550452721 -0.41839627359805531 0 0.47565360754473801 -0.41581227090141659 0 0.48462318550452721 -0.41839627359805531 0 0.48265517693970011 -0.4144947119365392 0 0.47565360754473801 -0.41581227090141659 0 0.48462318550452721 -0.41839627359805531 0 0.48265517693970011 -0.4144947119365392 0 0.46832765139682958 -0.41035856176581892 0 0.46719298361081568 -0.42503047620003348 0 0.47565360754473801 -0.41581227090141659 0 0.46832765139682958 -0.41035856176581892 0 0.47565360754473801 -0.41581227090141659 0 0.47481659780707142 -0.41105753741328832 0 0.46832765139682958 -0.41035856176581892 0 0.47481659780707142 -0.41105753741328832 0 0.47255057271477607 -0.40507854267940979 0 0.48265517693970011 -0.4144947119365392 0 0.47351982256615571 -0.38856323671165749 0 0.48265517693970011 -0.4144947119365392 0 0.48888717843717738 -0.3989148696752155 0 0.47351982256615571 -0.38856323671165749 0 0.48265517693970011 -0.4144947119365392 0 0.47255057271477607 -0.40507854267940979 0 0.47322837508867482 -0.39580615064163083 0 0.48265517693970011 -0.4144947119365392 0 0.47322837508867482 -0.39580615064163083 0 0.47351982256615571 -0.38856323671165749 0 0.47255057271477607 -0.40507854267940979 0 0.47322837508867482 -0.39580615064163083 0 0.46334402570684069 -0.40094265226392262 0 0.48265517693970011 -0.4144947119365392 0 0.47322837508867482 -0.39580615064163083 0 0.49999999999999961 -0.41254362178380283 0 0.48888717843717738 -0.3989148696752155 0 0.5 -0.38570666137151588 0 0.48888717843717738 -0.3989148696752155 0 0.5 -0.38570666137151588 0 0.48416576375227188 -0.38418864274968079 0 0.48369451658836382 -0.37060005726738948 0 0.5 -0.38570666137151588 0 0.48416576375227188 -0.38418864274968079 0 0.48369451658836382 -0.37060005726738948 0 0.48416576375227188 -0.38418864274968079 0 0.47472730116966272 -0.37715838872262619 0 0.46476800412523361 -0.36164252391134988 0 0.47351982256615571 -0.38856323671165749 0 0.47119975599103131 -0.37003558690509558 0 0.47351982256615571 -0.38856323671165749 0 0.47472730116966272 -0.37715838872262619 0 0.47322837508867482 -0.39580615064163083 0 0.47351982256615571 -0.38856323671165749 0 0.46380157323764942 -0.37711758934672263 0 0.48416576375227188 -0.38418864274968079 0 0.47351982256615571 -0.38856323671165749 0 0.47472730116966272 -0.37715838872262619 0 0.48888717843717738 -0.3989148696752155 0 0.48416576375227188 -0.38418864274968079 0 0.47351982256615571 -0.38856323671165749 0 0.47322837508867482 -0.39580615064163083 0 0.46380157323764942 -0.37711758934672263 0 0.46422300821509099 -0.39115217044770112 0 0.47322837508867482 -0.39580615064163083 0 0.46380157323764942 -0.37711758934672263 0 0.46476800412523361 -0.36164252391134988 0 0.47351982256615571 -0.38856323671165749 0 0.46380157323764942 -0.37711758934672263 0 0.45303493934388661 -0.37082665383639912 0 0.46380157323764942 -0.37711758934672263 0 0.45157054038117572 -0.38028891537273901 0 0.46380157323764942 -0.37711758934672263 0 0.45651805882719959 -0.39074228953852852 0 0.45157054038117572 -0.38028891537273901 0 0.46380157323764942 -0.37711758934672263 0 0.46422300821509099 -0.39115217044770112 0 0.45651805882719959 -0.39074228953852852 0 0.46422300821509099 -0.39115217044770112 0 0.46334402570684069 -0.40094265226392262 0 0.45651805882719959 -0.39074228953852852 0 0.47322837508867482 -0.39580615064163083 0 0.46422300821509099 -0.39115217044770112 0 0.46334402570684069 -0.40094265226392262 0 0.46832765139682958 -0.41035856176581892 0 0.47255057271477607 -0.40507854267940979 0 0.46334402570684069 -0.40094265226392262 0 0.45838179906711218 -0.41077550990859801 0 0.46334402570684069 -0.40094265226392262 0 0.44936681998106592 -0.40268326740117699 0 0.46334402570684069 -0.40094265226392262 0 0.45651805882719959 -0.39074228953852852 0 0.44936681998106592 -0.40268326740117699 0 0.45651805882719959 -0.39074228953852852 0 0.44936681998106592 -0.40268326740117699 0 0.44355770456139509 -0.38889510632391 0 0.43926518775752499 -0.40973381861890451 0 0.44936681998106592 -0.40268326740117699 0 0.43647130558116609 -0.39876449940438852 0 0.44936681998106592 -0.40268326740117699 0 0.44355770456139509 -0.38889510632391 0 0.43647130558116609 -0.39876449940438852 0 0.44094042593574828 -0.37386293781813501 0 0.44355770456139509 -0.38889510632391 0 0.45157054038117572 -0.38028891537273901 0 0.45651805882719959 -0.39074228953852852 0 0.44355770456139509 -0.38889510632391 0 0.45157054038117572 -0.38028891537273901 0 0.44094042593574828 -0.37386293781813501 0 0.42450776360999137 -0.36989373413568383 0 0.42750608048487199 -0.3892968475844556 0 0.44094042593574828 -0.37386293781813501 0 0.44355770456139509 -0.38889510632391 0 0.42750608048487199 -0.3892968475844556 0 0.44094042593574828 -0.37386293781813501 0 0.42750608048487199 -0.3892968475844556 0 0.44355770456139509 -0.38889510632391 0 0.42750608048487199 -0.3892968475844556 0 0.43647130558116609 -0.39876449940438852 0 0.43926518775752499 -0.40973381861890451 0 0.43647130558116609 -0.39876449940438852 0 0.42266073512097269 -0.40321345709349571 0 0.42750608048487199 -0.3892968475844556 0 0.43647130558116609 -0.39876449940438852 0 0.42266073512097269 -0.40321345709349571 0 0.42750608048487199 -0.3892968475844556 0 0.42266073512097269 -0.40321345709349571 0 0.40751489087075132 -0.38026261165226438 0 0.42266073512097269 -0.40321345709349571 0 0.40751489087075132 -0.38026261165226438 0 0.40562349323290892 -0.40880080412345882 0 0.42266073512097269 -0.40321345709349571 0 0.40751489087075132 -0.38026261165226438 0 0.42450776360999137 -0.36989373413568383 0 0.42750608048487199 -0.3892968475844556 0 0.40751489087075132 -0.38026261165226438 0 0.38451317195331808 -0.37365250517970938 0 0.40751489087075132 -0.38026261165226438 0 0.38424346621287059 -0.38671789432220482 0 0.40751489087075132 -0.38026261165226438 0 0.38424346621287059 -0.38671789432220482 0 0.39382690337600462 -0.39619812415953359 0 0.38424346621287059 -0.38671789432220482 0 0.37293009030856311 -0.39404759767746578 0 0.37402409147838339 -0.37852198623957178 0 0.38451317195331808 -0.37365250517970938 0 0.38424346621287059 -0.38671789432220482 0 0.37402409147838339 -0.37852198623957178 0 0.38424346621287059 -0.38671789432220482 0 0.39382690337600462 -0.39619812415953359 0 0.37293009030856311 -0.39404759767746578 0 0.38722414436660302 -0.41614066998471461 0 0.37293009030856311 -0.39404759767746578 0 0.39382690337600462 -0.39619812415953359 0 0.38722414436660302 -0.41614066998471461 0 0.37293009030856311 -0.39404759767746578 0 0.38722414436660302 -0.41614066998471461 0 0.36644769819446332 -0.4036470739984469 0 0.37293009030856311 -0.39404759767746578 0 0.40751489087075132 -0.38026261165226438 0 0.39382690337600462 -0.39619812415953359 0 0.40562349323290892 -0.40880080412345882 0 0.40562349323290892 -0.40880080412345882 0 0.38722414436660302 -0.41614066998471461 0 0.40524930928844 -0.42458174715090902 0 0.39382690337600462 -0.39619812415953359 0 0.40562349323290892 -0.40880080412345882 0 0.38722414436660302 -0.41614066998471461 0 0.38722414436660302 -0.41614066998471461 0 0.37858095488113669 -0.42893997174602261 0 0.36644769819446332 -0.4036470739984469 0 0.38722414436660302 -0.41614066998471461 0 0.37858095488113669 -0.42893997174602261 0 0.40151819842464298 -0.43823374229196332 0 0.38722414436660302 -0.41614066998471461 0 0.40524930928844 -0.42458174715090902 0 0.40151819842464298 -0.43823374229196332 0 0.38722414436660302 -0.41614066998471461 0 0.40151819842464298 -0.43823374229196332 0 0.40524930928844 -0.42458174715090902 0 0.41278402296468669 -0.43626668344589231 0 0.40151819842464298 -0.43823374229196332 0 0.41278402296468669 -0.43626668344589231 0 0.41766212931309887 -0.42356473242855608 0 0.42503424415344748 -0.44313909493278042 0 0.40524930928844 -0.42458174715090902 0 0.41278402296468669 -0.43626668344589231 0 0.41766212931309887 -0.42356473242855608 0 0.42266073512097269 -0.40321345709349571 0 0.40562349323290892 -0.40880080412345882 0 0.41766212931309887 -0.42356473242855608 0 0.40562349323290892 -0.40880080412345882 0 0.40524930928844 -0.42458174715090902 0 0.41766212931309887 -0.42356473242855608 0 0.43780657937119399 -0.42616430253472698 0 0.42266073512097269 -0.40321345709349571 0 0.41766212931309887 -0.42356473242855608 0 0.43780657937119399 -0.42616430253472698 0 0.43926518775752499 -0.40973381861890451 0 0.42266073512097269 -0.40321345709349571 0 0.43780657937119399 -0.42616430253472698 0 0.42266073512097269 -0.40321345709349571 0 0.43780657937119399 -0.42616430253472698 0 0.41766212931309887 -0.42356473242855608 0 0.42503424415344748 -0.44313909493278042 0 0.4382708803329618 -0.44429694558483651 0 0.43780657937119399 -0.42616430253472698 0 0.42503424415344748 -0.44313909493278042 0 0.4382708803329618 -0.44429694558483651 0 0.42503424415344748 -0.44313909493278042 0 0.43729027418579042 -0.45876923689588012 0 0.42503424415344748 -0.44313909493278042 0 0.43729027418579042 -0.45876923689588012 0 0.41829222124906112 -0.46701726714401831 0 0.44587065062247322 -0.47881389534894758 0 0.43729027418579042 -0.45876923689588012 0 0.41829222124906112 -0.46701726714401831 0 0.42503424415344748 -0.44313909493278042 0 0.41829222124906112 -0.46701726714401831 0 0.40757035457055912 -0.45228400372144462 0 0.41278402296468669 -0.43626668344589231 0 0.42503424415344748 -0.44313909493278042 0 0.40757035457055912 -0.45228400372144462 0 0.41278402296468669 -0.43626668344589231 0 0.40757035457055912 -0.45228400372144462 0 0.40151819842464298 -0.43823374229196332 0 0.40757035457055912 -0.45228400372144462 0 0.39916201865749362 -0.44829010126355179 0 0.39071379187564881 -0.45522063893908887 0 0.37858095488113669 -0.42893997174602261 0 0.40151819842464298 -0.43823374229196332 0 0.39916201865749362 -0.44829010126355179 0 0.40757035457055912 -0.45228400372144462 0 0.40151819842464298 -0.43823374229196332 0 0.39916201865749362 -0.44829010126355179 0 0.37858095488113669 -0.42893997174602261 0 0.39916201865749362 -0.44829010126355179 0 0.39071379187564881 -0.45522063893908887 0 0.37858095488113669 -0.42893997174602261 0 0.39071379187564881 -0.45522063893908887 0 0.37858095488113669 -0.42893997174602261 0 0.37773976356269579 -0.44218070252203512 0 0.39071379187564881 -0.45522063893908887 0 0.37773976356269579 -0.44218070252203512 0 0.38625190559757372 -0.45385530616201969 0 0.39071379187564881 -0.45522063893908887 0 0.37773976356269579 -0.44218070252203512 0 0.38115292489089903 -0.45397361038748918 0 0.38625190559757372 -0.45385530616201969 0 0.37773976356269579 -0.44218070252203512 0 0.38115292489089903 -0.45397361038748918 0 0.37340321614515187 -0.45471939905765929 0 0.37800129617856898 -0.46778470288146751 0 0.38012768236476863 -0.46010608891944321 0 0.38584513473601151 -0.4636681219655911 0 0.37800129617856898 -0.46778470288146751 0 0.38012768236476863 -0.46010608891944321 0 0.37436901102285958 -0.46159657615150912 0 0.38012768236476863 -0.46010608891944321 0 0.37340321614515187 -0.45471939905765929 0 0.37436901102285958 -0.46159657615150912 0 0.38115292489089903 -0.45397361038748918 0 0.38012768236476863 -0.46010608891944321 0 0.37340321614515187 -0.45471939905765929 0 0.38115292489089903 -0.45397361038748918 0 0.38012768236476863 -0.46010608891944321 0 0.38586549615284399 -0.45842273030144243 0 0.38586549615284399 -0.45842273030144243 0 0.3891375394390939 -0.45740757059980758 0 0.39371896413030882 -0.46213160699667932 0 0.38012768236476863 -0.46010608891944321 0 0.38586549615284399 -0.45842273030144243 0 0.38584513473601151 -0.4636681219655911 0 0.38115292489089903 -0.45397361038748918 0 0.38586549615284399 -0.45842273030144243 0 0.38625190559757372 -0.45385530616201969 0 0.38625190559757372 -0.45385530616201969 0 0.3891375394390939 -0.45740757059980758 0 0.39071379187564881 -0.45522063893908887 0 0.38586549615284399 -0.45842273030144243 0 0.38625190559757372 -0.45385530616201969 0 0.3891375394390939 -0.45740757059980758 0 0.38586549615284399 -0.45842273030144243 0 0.38584513473601151 -0.4636681219655911 0 0.39371896413030882 -0.46213160699667932 0 0.37800129617856898 -0.46778470288146751 0 0.38584513473601151 -0.4636681219655911 0 0.39287176674543772 -0.47144762814103858 0 0.41829222124906112 -0.46701726714401831 0 0.39371896413030882 -0.46213160699667932 0 0.39287176674543772 -0.47144762814103858 0 0.41829222124906112 -0.46701726714401831 0 0.39071379187564881 -0.45522063893908887 0 0.38584513473601151 -0.4636681219655911 0 0.39371896413030882 -0.46213160699667932 0 0.39287176674543772 -0.47144762814103858 0 0.41829222124906112 -0.46701726714401831 0 0.39371896413030882 -0.46213160699667932 0 0.39071379187564881 -0.45522063893908887 0 0.41829222124906112 -0.46701726714401831 0 0.40757035457055912 -0.45228400372144462 0 0.39071379187564881 -0.45522063893908887 0 0.3891375394390939 -0.45740757059980758 0 0.39371896413030882 -0.46213160699667932 0 0.39071379187564881 -0.45522063893908887 0 0.37800129617856898 -0.46778470288146751 0 0.39287176674543772 -0.47144762814103858 0 0.37484134184939288 -0.48096508542735927 0 0.39287176674543772 -0.47144762814103858 0 0.37484134184939288 -0.48096508542735927 0 0.39287176674543772 -0.47144762814103858 0 0.39108621974961633 -0.49364140715149751 0 0.37484134184939288 -0.48096508542735927 0 0.39108621974961633 -0.49364140715149751 0 0.36624696426901893 -0.48728281430299469 0 0.39108621974961633 -0.49364140715149751 0 0.36624696426901893 -0.48728281430299469 0 0.37484134184939288 -0.48096508542735927 0 0.39021048083924342 -0.5 0 0.39108621974961633 -0.49364140715149751 0 0.36624696426901893 -0.48728281430299469 0 0.39287176674543772 -0.47144762814103858 0 0.39108621974961633 -0.49364140715149751 0 0.41592547523021361 -0.50000000000000011 0 0.39021048083924342 -0.5 0 0.39108621974961633 -0.49364140715149751 0 0.41592547523021361 -0.50000000000000011 0 0.39108621974961633 -0.49364140715149751 0 0.41592547523021361 -0.50000000000000011 0 0.44587065062247322 -0.47881389534894758 0 0.41829222124906112 -0.46701726714401831 0 0.41592547523021361 -0.50000000000000011 0 0.41829222124906112 -0.46701726714401831 0 0.39287176674543772 -0.47144762814103858 0 0.41592547523021361 -0.50000000000000011 0 0.44587065062247322 -0.47881389534894758 0 0.41829222124906112 -0.46701726714401831 0 0.32530314215716749 -0.48833260656166461 0 0.31541417798405791 -0.48208765409352078 0 0.30951164410824777 -0.5 0 0.32530314215716749 -0.48833260656166461 0 0.3387804920573031 -0.50000000000000044 0 0.30951164410824777 -0.5 0 0.31541417798405791 -0.48208765409352078 0 0.31930499066167412 -0.46965978989670393 0 0.32600570434493981 -0.4784592227170672 0 0.31541417798405791 -0.48208765409352078 0 0.31930499066167412 -0.46965978989670393 0 0.31930499066167412 -0.46965978989670393 0 0.32600570434493981 -0.4784592227170672 0 0.33313901461935758 -0.47120138057204902 0 0.32530314215716749 -0.48833260656166461 0 0.31541417798405791 -0.48208765409352078 0 0.32600570434493981 -0.4784592227170672 0 0.32600570434493981 -0.4784592227170672 0 0.33313901461935758 -0.47120138057204902 0 0.33686719630244177 -0.48101468246139789 0 0.32530314215716749 -0.48833260656166461 0 0.32600570434493981 -0.4784592227170672 0 0.33686719630244177 -0.48101468246139789 0 0.33313901461935758 -0.47120138057204902 0 0.34339270490110979 -0.47082973129536348 0 0.33686719630244177 -0.48101468246139789 0 0.34339270490110979 -0.47082973129536348 0 0.33686719630244177 -0.48101468246139789 0 0.3491987747110451 -0.48095858134951291 0 0.33686719630244177 -0.48101468246139789 0 0.3387804920573031 -0.50000000000000044 0 0.3491987747110451 -0.48095858134951291 0 0.32530314215716749 -0.48833260656166461 0 0.33686719630244177 -0.48101468246139789 0 0.3387804920573031 -0.50000000000000044 0 0.3387804920573031 -0.50000000000000044 0 0.3568109169533481 -0.49048254271368003 0 0.36449548644827318 -0.5 0 0.3387804920573031 -0.50000000000000044 0 0.3568109169533481 -0.49048254271368003 0 0.3491987747110451 -0.48095858134951291 0 0.3387804920573031 -0.50000000000000044 0 0.3568109169533481 -0.49048254271368003 0 0.3568109169533481 -0.49048254271368003 0 0.36624696426901893 -0.48728281430299469 0 0.37484134184939288 -0.48096508542735927 0 0.39021048083924342 -0.5 0 0.36449548644827318 -0.5 0 0.36624696426901893 -0.48728281430299469 0 0.3568109169533481 -0.49048254271368003 0 0.36449548644827318 -0.5 0 0.36624696426901893 -0.48728281430299469 0 0.3568109169533481 -0.49048254271368003 0 0.37484134184939288 -0.48096508542735927 0 0.3568109169533481 -0.49048254271368003 0 0.37484134184939288 -0.48096508542735927 0 0.36177078007713881 -0.47839252248615399 0 0.37800129617856898 -0.46778470288146751 0 0.36998706293807349 -0.47293955713091829 0 0.37484134184939288 -0.48096508542735927 0 0.36998706293807349 -0.47293955713091829 0 0.37484134184939288 -0.48096508542735927 0 0.36177078007713881 -0.47839252248615399 0 0.36998706293807349 -0.47293955713091829 0 0.36177078007713881 -0.47839252248615399 0 0.35608775776012142 -0.46722117737418373 0 0.36177078007713881 -0.47839252248615399 0 0.3491987747110451 -0.48095858134951291 0 0.35608775776012142 -0.46722117737418373 0 0.3568109169533481 -0.49048254271368003 0 0.36177078007713881 -0.47839252248615399 0 0.3491987747110451 -0.48095858134951291 0 0.34339270490110979 -0.47082973129536348 0 0.3491987747110451 -0.48095858134951291 0 0.35608775776012142 -0.46722117737418373 0 0.35608775776012142 -0.46722117737418373 0 0.35810537070426129 -0.44660255247745001 0 0.33870518068296768 -0.45813117118707702 0 0.34339270490110979 -0.47082973129536348 0 0.35608775776012142 -0.46722117737418373 0 0.33870518068296768 -0.45813117118707702 0 0.36998706293807349 -0.47293955713091829 0 0.35608775776012142 -0.46722117737418373 0 0.36740150822275869 -0.46344673605497549 0 0.37340321614515187 -0.45471939905765929 0 0.36740150822275869 -0.46344673605497549 0 0.35810537070426129 -0.44660255247745001 0 0.35608775776012142 -0.46722117737418373 0 0.36740150822275869 -0.46344673605497549 0 0.35810537070426129 -0.44660255247745001 0 0.37340321614515187 -0.45471939905765929 0 0.37436901102285958 -0.46159657615150912 0 0.36740150822275869 -0.46344673605497549 0 0.37800129617856898 -0.46778470288146751 0 0.36998706293807349 -0.47293955713091829 0 0.36740150822275869 -0.46344673605497549 0 0.37800129617856898 -0.46778470288146751 0 0.37436901102285958 -0.46159657615150912 0 0.36740150822275869 -0.46344673605497549 0 0.37773976356269579 -0.44218070252203512 0 0.35810537070426129 -0.44660255247745001 0 0.36575620271823822 -0.43477229386512001 0 0.37773976356269579 -0.44218070252203512 0 0.37340321614515187 -0.45471939905765929 0 0.35810537070426129 -0.44660255247745001 0 0.35810537070426129 -0.44660255247745001 0 0.34180528876057908 -0.44128423336996903 0 0.33870518068296768 -0.45813117118707702 0 0.35810537070426129 -0.44660255247745001 0 0.34180528876057908 -0.44128423336996903 0 0.35439762424423438 -0.42645449777509881 0 0.35810537070426129 -0.44660255247745001 0 0.33870518068296768 -0.45813117118707702 0 0.32601704142661131 -0.44822045002082639 0 0.33272909219154861 -0.42678111014494891 0 0.34180528876057908 -0.44128423336996903 0 0.32601704142661131 -0.44822045002082639 0 0.33272909219154861 -0.42678111014494891 0 0.34180528876057908 -0.44128423336996903 0 0.33870518068296768 -0.45813117118707702 0 0.32601704142661131 -0.44822045002082639 0 0.31930499066167412 -0.46965978989670393 0 0.33313901461935758 -0.47120138057204902 0 0.33870518068296768 -0.45813117118707702 0 0.31930499066167412 -0.46965978989670393 0 0.33870518068296768 -0.45813117118707702 0 0.33313901461935758 -0.47120138057204902 0 0.34339270490110979 -0.47082973129536348 0 0.33870518068296768 -0.45813117118707702 0 0.31930499066167412 -0.46965978989670393 0 0.32601704142661131 -0.44822045002082639 0 0.31930499066167412 -0.46965978989670393 0 0.33870518068296768 -0.45813117118707702 0 0.32601704142661131 -0.44822045002082639 0 0.31930499066167412 -0.46965978989670393 0 0.32601704142661131 -0.44822045002082639 0 0.31134666028669622 -0.45574090925137267 0 0.3129029440117771 -0.44147393675038238 0 0.32601704142661131 -0.44822045002082639 0 0.33272909219154861 -0.42678111014494891 0 0.3129029440117771 -0.44147393675038238 0 0.32601704142661131 -0.44822045002082639 0 0.31134666028669622 -0.45574090925137267 0 0.3129029440117771 -0.44147393675038238 0 0.33272909219154861 -0.42678111014494891 0 0.31074510665716543 -0.42703361775589638 0 0.31598454455673858 -0.41033578708083862 0 0.33272909219154861 -0.42678111014494891 0 0.31074510665716543 -0.42703361775589638 0 0.33272909219154861 -0.42678111014494891 0 0.351501914290128 -0.41190630885161972 0 0.33944114295648598 -0.40534177026907142 0 0.31598454455673858 -0.41033578708083862 0 0.33272909219154861 -0.42678111014494891 0 0.33944114295648598 -0.40534177026907142 0 0.33272909219154861 -0.42678111014494891 0 0.33944114295648598 -0.40534177026907142 0 0.34180528876057908 -0.44128423336996903 0 0.33272909219154861 -0.42678111014494891 0 0.35439762424423438 -0.42645449777509881 0 0.35810537070426129 -0.44660255247745001 0 0.35439762424423438 -0.42645449777509881 0 0.36575620271823822 -0.43477229386512001 0 0.35439762424423438 -0.42645449777509881 0 0.36575620271823822 -0.43477229386512001 0 0.36333687886564009 -0.42114402924726169 0 0.37858095488113669 -0.42893997174602261 0 0.36575620271823822 -0.43477229386512001 0 0.36333687886564009 -0.42114402924726169 0 0.37858095488113669 -0.42893997174602261 0 0.37773976356269579 -0.44218070252203512 0 0.36575620271823822 -0.43477229386512001 0 0.36333687886564009 -0.42114402924726169 0 0.351501914290128 -0.41190630885161972 0 0.36644769819446332 -0.4036470739984469 0 0.37858095488113669 -0.42893997174602261 0 0.36333687886564009 -0.42114402924726169 0 0.36644769819446332 -0.4036470739984469 0 0.37858095488113669 -0.42893997174602261 0 0.36644769819446332 -0.4036470739984469 0 0.33272909219154861 -0.42678111014494891 0 0.35439762424423438 -0.42645449777509881 0 0.351501914290128 -0.41190630885161972 0 0.35439762424423438 -0.42645449777509881 0 0.36333687886564009 -0.42114402924726169 0 0.351501914290128 -0.41190630885161972 0 0.351501914290128 -0.41190630885161972 0 0.35290328517994418 -0.39458779341864508 0 0.33944114295648598 -0.40534177026907142 0 0.351501914290128 -0.41190630885161972 0 0.35290328517994418 -0.39458779341864508 0 0.36644769819446332 -0.4036470739984469 0 0.35290328517994418 -0.39458779341864508 0 0.36644769819446332 -0.4036470739984469 0 0.35431444150778979 -0.3783541762508712 0 0.36644769819446332 -0.4036470739984469 0 0.35431444150778979 -0.3783541762508712 0 0.36644769819446332 -0.4036470739984469 0 0.37293009030856311 -0.39404759767746578 0 0.35431444150778979 -0.3783541762508712 0 0.37293009030856311 -0.39404759767746578 0 0.35863603625052309 -0.37195452537021712 0 0.37293009030856311 -0.39404759767746578 0 0.37402409147838339 -0.37852198623957178 0 0.35863603625052309 -0.37195452537021712 0 0.37293009030856311 -0.39404759767746578 0 0.35431444150778979 -0.3783541762508712 0 0.35863603625052309 -0.37195452537021712 0 0.35290328517994418 -0.39458779341864508 0 0.35431444150778979 -0.3783541762508712 0 0.34773695588814341 -0.38461589671315771 0 0.35290328517994418 -0.39458779341864508 0 0.34773695588814341 -0.38461589671315771 0 0.33887570590904392 -0.38636564184894739 0 0.35431444150778979 -0.3783541762508712 0 0.34773695588814341 -0.38461589671315771 0 0.34389903146793749 -0.37925319585290751 0 0.35431444150778979 -0.3783541762508712 0 0.34389903146793749 -0.37925319585290751 0 0.34149446895420649 -0.3712707004396405 0 0.34389903146793749 -0.37925319585290751 0 0.33647648540059272 -0.37572032683613349 0 0.33887570590904392 -0.38636564184894739 0 0.34389903146793749 -0.37925319585290751 0 0.33647648540059272 -0.37572032683613349 0 0.34149446895420649 -0.3712707004396405 0 0.33647648540059272 -0.37572032683613349 0 0.33887570590904392 -0.38636564184894739 0 0.32631641468145511 -0.37622843915742671 0 0.33887570590904392 -0.38636564184894739 0 0.32580427783648741 -0.3911782875922869 0 0.32631641468145511 -0.37622843915742671 0 0.34773695588814341 -0.38461589671315771 0 0.34389903146793749 -0.37925319585290751 0 0.33887570590904392 -0.38636564184894739 0 0.33887570590904392 -0.38636564184894739 0 0.33944114295648598 -0.40534177026907142 0 0.32580427783648741 -0.3911782875922869 0 0.35290328517994418 -0.39458779341864508 0 0.33887570590904392 -0.38636564184894739 0 0.33944114295648598 -0.40534177026907142 0 0.31598454455673858 -0.41033578708083862 0 0.32580427783648741 -0.3911782875922869 0 0.31150713574720779 -0.39303873675933482 0 0.31598454455673858 -0.41033578708083862 0 0.33944114295648598 -0.40534177026907142 0 0.32580427783648741 -0.3911782875922869 0 0.32580427783648741 -0.3911782875922869 0 0.31467360947491307 -0.37987770711583291 0 0.31150713574720779 -0.39303873675933482 0 0.32580427783648741 -0.3911782875922869 0 0.31467360947491307 -0.37987770711583291 0 0.32631641468145511 -0.37622843915742671 0 0.30399606376594479 -0.38568054617800429 0 0.29898341253251193 -0.39977225390257609 0 0.29030363501371109 -0.38512319453575561 0 0.30399606376594479 -0.38568054617800429 0 0.29030363501371109 -0.38512319453575561 0 0.30451252606138018 -0.3705908385765222 0 0.31467360947491307 -0.37987770711583291 0 0.30399606376594479 -0.38568054617800429 0 0.30451252606138018 -0.3705908385765222 0 0.31467360947491307 -0.37987770711583291 0 0.30399606376594479 -0.38568054617800429 0 0.31150713574720779 -0.39303873675933482 0 0.30399606376594479 -0.38568054617800429 0 0.31150713574720779 -0.39303873675933482 0 0.29898341253251193 -0.39977225390257609 0 0.31598454455673858 -0.41033578708083862 0 0.31150713574720779 -0.39303873675933482 0 0.29898341253251193 -0.39977225390257609 0 0.29898341253251193 -0.39977225390257609 0 0.29030363501371109 -0.38512319453575561 0 0.27860313416518689 -0.40889862758908252 0 0.29030363501371109 -0.38512319453575561 0 0.27503354019545101 -0.37578130820458538 0 0.28749817370513742 -0.36681607297304469 0 0.29030363501371109 -0.38512319453575561 0 0.26577410463590578 -0.39039980486866321 0 0.27503354019545101 -0.37578130820458538 0 0.26577410463590578 -0.39039980486866321 0 0.27503354019545101 -0.37578130820458538 0 0.25750275590377619 -0.36890528202481782 0 0.26577410463590578 -0.39039980486866321 0 0.25750275590377619 -0.36890528202481782 0 0.24762604424047341 -0.38612413505374482 0 0.26577410463590578 -0.39039980486866321 0 0.25299319112237462 -0.41151202415231841 0 0.24762604424047341 -0.38612413505374482 0 0.29030363501371109 -0.38512319453575561 0 0.26577410463590578 -0.39039980486866321 0 0.27860313416518689 -0.40889862758908252 0 0.26577410463590578 -0.39039980486866321 0 0.27860313416518689 -0.40889862758908252 0 0.25299319112237462 -0.41151202415231841 0 0.27860313416518689 -0.40889862758908252 0 0.26346116562300981 -0.42881658638633929 0 0.28008542463960512 -0.42648788712235242 0 0.27860313416518689 -0.40889862758908252 0 0.25299319112237462 -0.41151202415231841 0 0.26346116562300981 -0.42881658638633929 0 0.25299319112237462 -0.41151202415231841 0 0.26346116562300981 -0.42881658638633929 0 0.2484082765115711 -0.43294646813763532 0 0.26346116562300981 -0.42881658638633929 0 0.26288694695813558 -0.44471083382816312 0 0.2484082765115711 -0.43294646813763532 0 0.26346116562300981 -0.42881658638633929 0 0.28008542463960512 -0.42648788712235242 0 0.27961433935704599 -0.43982943603655822 0 0.28008542463960512 -0.42648788712235242 0 0.29646164270168279 -0.4345169943817227 0 0.29681054420881509 -0.41784086130541143 0 0.28008542463960512 -0.42648788712235242 0 0.29646164270168279 -0.4345169943817227 0 0.27961433935704599 -0.43982943603655822 0 0.27860313416518689 -0.40889862758908252 0 0.28008542463960512 -0.42648788712235242 0 0.29681054420881509 -0.41784086130541143 0 0.29898341253251193 -0.39977225390257609 0 0.27860313416518689 -0.40889862758908252 0 0.29681054420881509 -0.41784086130541143 0 0.31598454455673858 -0.41033578708083862 0 0.29681054420881509 -0.41784086130541143 0 0.31074510665716543 -0.42703361775589638 0 0.31598454455673858 -0.41033578708083862 0 0.29898341253251193 -0.39977225390257609 0 0.29681054420881509 -0.41784086130541143 0 0.3129029440117771 -0.44147393675038238 0 0.29646164270168279 -0.4345169943817227 0 0.31074510665716543 -0.42703361775589638 0 0.29646164270168279 -0.4345169943817227 0 0.29681054420881509 -0.41784086130541143 0 0.31074510665716543 -0.42703361775589638 0 0.3129029440117771 -0.44147393675038238 0 0.29646164270168279 -0.4345169943817227 0 0.29245957483106322 -0.4494849031577785 0 0.3129029440117771 -0.44147393675038238 0 0.31134666028669622 -0.45574090925137267 0 0.29245957483106322 -0.4494849031577785 0 0.30283890859912882 -0.46620687589667881 0 0.31134666028669622 -0.45574090925137267 0 0.29245957483106322 -0.4494849031577785 0 0.31930499066167412 -0.46965978989670393 0 0.30283890859912882 -0.46620687589667881 0 0.31134666028669622 -0.45574090925137267 0 0.28215210272028091 -0.46054507331021599 0 0.29245957483106322 -0.4494849031577785 0 0.27510283551386899 -0.45163092230707852 0 0.29009822512915101 -0.46850383155719461 0 0.28215210272028091 -0.46054507331021599 0 0.29245957483106322 -0.4494849031577785 0 0.30283890859912882 -0.46620687589667881 0 0.29009822512915101 -0.46850383155719461 0 0.29245957483106322 -0.4494849031577785 0 0.29009822512915101 -0.46850383155719461 0 0.28215210272028091 -0.46054507331021599 0 0.27463773759158838 -0.47018111776146421 0 0.29245957483106322 -0.4494849031577785 0 0.27961433935704599 -0.43982943603655822 0 0.27510283551386899 -0.45163092230707852 0 0.29646164270168279 -0.4345169943817227 0 0.29245957483106322 -0.4494849031577785 0 0.27961433935704599 -0.43982943603655822 0 0.27961433935704599 -0.43982943603655822 0 0.27510283551386899 -0.45163092230707852 0 0.26288694695813558 -0.44471083382816312 0 0.26346116562300981 -0.42881658638633929 0 0.27961433935704599 -0.43982943603655822 0 0.26288694695813558 -0.44471083382816312 0 0.27510283551386899 -0.45163092230707852 0 0.26288694695813558 -0.44471083382816312 0 0.26062306324129503 -0.46134912216002988 0 0.26288694695813558 -0.44471083382816312 0 0.26062306324129503 -0.46134912216002988 0 0.24878105380009541 -0.45176825587022418 0 0.26288694695813558 -0.44471083382816312 0 0.24878105380009541 -0.45176825587022418 0 0.2484082765115711 -0.43294646813763532 0 0.26062306324129503 -0.46134912216002988 0 0.24211114021142299 -0.46861955655691429 0 0.24878105380009541 -0.45176825587022418 0 0.27510283551386899 -0.45163092230707852 0 0.26062306324129503 -0.46134912216002988 0 0.27463773759158838 -0.47018111776146421 0 0.28215210272028091 -0.46054507331021599 0 0.27510283551386899 -0.45163092230707852 0 0.27463773759158838 -0.47018111776146421 0 0.27463773759158838 -0.47018111776146421 0 0.27252809301159248 -0.48329218862092982 0 0.28169056904596929 -0.48056905876729189 0 0.27463773759158838 -0.47018111776146421 0 0.27252809301159248 -0.48329218862092982 0 0.26052795958916181 -0.4830207634546701 0 0.26062306324129503 -0.46134912216002988 0 0.27463773759158838 -0.47018111776146421 0 0.26052795958916181 -0.4830207634546701 0 0.26062306324129503 -0.46134912216002988 0 0.26052795958916181 -0.4830207634546701 0 0.24211114021142299 -0.46861955655691429 0 0.26052795958916181 -0.4830207634546701 0 0.2509739482101373 -0.5 0 0.27514426060502373 -0.49590243072666951 0 0.2509739482101373 -0.5 0 0.28024279615919268 -0.5 0 0.27514426060502373 -0.49590243072666951 0 0.27252809301159248 -0.48329218862092982 0 0.26052795958916181 -0.4830207634546701 0 0.27514426060502373 -0.49590243072666951 0 0.27252809301159248 -0.48329218862092982 0 0.27514426060502373 -0.49590243072666951 0 0.28169056904596929 -0.48056905876729189 0 0.27514426060502373 -0.49590243072666951 0 0.28169056904596929 -0.48056905876729189 0 0.29722462563334889 -0.4827811103116868 0 0.28024279615919268 -0.5 0 0.27514426060502373 -0.49590243072666951 0 0.29722462563334889 -0.4827811103116868 0 0.28024279615919268 -0.5 0 0.29722462563334889 -0.4827811103116868 0 0.30951164410824777 -0.5 0 0.27514426060502373 -0.49590243072666951 0 0.29722462563334889 -0.4827811103116868 0 0.30283890859912882 -0.46620687589667881 0 0.29009822512915101 -0.46850383155719461 0 0.29722462563334889 -0.4827811103116868 0 0.29009822512915101 -0.46850383155719461 0 0.27463773759158838 -0.47018111776146421 0 0.28169056904596929 -0.48056905876729189 0 0.29009822512915101 -0.46850383155719461 0 0.28169056904596929 -0.48056905876729189 0 0.29722462563334889 -0.4827811103116868 0 0.31930499066167412 -0.46965978989670393 0 0.29722462563334889 -0.4827811103116868 0 0.31541417798405791 -0.48208765409352078 0 0.31930499066167412 -0.46965978989670393 0 0.29722462563334889 -0.4827811103116868 0 0.31930499066167412 -0.46965978989670393 0 0.30283890859912882 -0.46620687589667881 0 0.29722462563334889 -0.4827811103116868 0 0.31541417798405791 -0.48208765409352078 0 0.29722462563334889 -0.4827811103116868 0 0.30951164410824777 -0.5 0 0.33167623617219549 -0.29960821043276398 0 0.32474517585940632 -0.28587026570253982 0 0.34693151386986582 -0.28845922988733919 0 0.34297783957122191 -0.30646086698790292 0 0.33167623617219549 -0.29960821043276398 0 0.34693151386986582 -0.28845922988733919 0 0.34297783957122191 -0.30646086698790292 0 0.33167623617219549 -0.29960821043276398 0 0.3310568606386306 -0.31305032647946129 0 0.33167623617219549 -0.29960821043276398 0 0.31702209741586418 -0.30763549062119 0 0.32474517585940632 -0.28587026570253982 0 0.33167623617219549 -0.29960821043276398 0 0.31702209741586418 -0.30763549062119 0 0.3310568606386306 -0.31305032647946129 0 0.31702209741586418 -0.30763549062119 0 0.32474517585940632 -0.28587026570253982 0 0.3039962666972853 -0.28750260048666038 0 0.32474517585940632 -0.28587026570253982 0 0.31950965134267389 -0.27101764455113392 0 0.3317856696196444 -0.26550838444610791 0 0.32474517585940632 -0.28587026570253982 0 0.31950965134267389 -0.27101764455113392 0 0.30773610710610322 -0.27432940871561851 0 0.31950965134267389 -0.27101764455113392 0 0.31062971930968891 -0.26162989705320761 0 0.30773610710610322 -0.27432940871561851 0 0.31950965134267389 -0.27101764455113392 0 0.32214923015074848 -0.26194674322845768 0 0.3317856696196444 -0.26550838444610791 0 0.31950965134267389 -0.27101764455113392 0 0.32214923015074848 -0.26194674322845768 0 0.31062971930968891 -0.26162989705320761 0 0.31922682890946208 -0.25360083818125972 0 0.32214923015074848 -0.26194674322845768 0 0.31062971930968891 -0.26162989705320761 0 0.32905063734818951 -0.2492174273236471 0 0.31922682890946208 -0.25360083818125972 0 0.33057949255912489 -0.25611720988226028 0 0.31922682890946208 -0.25360083818125972 0 0.32214923015074848 -0.26194674322845768 0 0.33057949255912489 -0.25611720988226028 0 0.32905063734818951 -0.2492174273236471 0 0.33057949255912489 -0.25611720988226028 0 0.34044482528759762 -0.25273564321929187 0 0.33057949255912489 -0.25611720988226028 0 0.3317856696196444 -0.26550838444610791 0 0.34044482528759762 -0.25273564321929187 0 0.32214923015074848 -0.26194674322845768 0 0.33057949255912489 -0.25611720988226028 0 0.3317856696196444 -0.26550838444610791 0 0.3317856696196444 -0.26550838444610791 0 0.34693151386986582 -0.28845922988733919 0 0.32474517585940632 -0.28587026570253982 0 0.3317856696196444 -0.26550838444610791 0 0.34693151386986582 -0.28845922988733919 0 0.3317856696196444 -0.26550838444610791 0 0.36050305434069108 -0.27283592493353059 0 0.34693151386986582 -0.28845922988733919 0 0.34044482528759762 -0.25273564321929187 0 0.35763765611385828 -0.25488990979904269 0 0.36050305434069108 -0.27283592493353059 0 0.3317856696196444 -0.26550838444610791 0 0.34044482528759762 -0.25273564321929187 0 0.36050305434069108 -0.27283592493353059 0 0.34044482528759762 -0.25273564321929187 0 0.36050305434069108 -0.27283592493353059 0 0.37910657038801931 -0.26381954561652071 0 0.35763765611385828 -0.25488990979904269 0 0.36050305434069108 -0.27283592493353059 0 0.36721139891677351 -0.2427024041015326 0 0.37910657038801931 -0.26381954561652071 0 0.35763765611385828 -0.25488990979904269 0 0.38056128339378442 -0.29293620664776931 0 0.37910657038801931 -0.26381954561652071 0 0.36050305434069108 -0.27283592493353059 0 0.38056128339378442 -0.29293620664776931 0 0.36050305434069108 -0.27283592493353059 0 0.38056128339378442 -0.29293620664776931 0 0.36050305434069108 -0.27283592493353059 0 0.36319802612544427 -0.29047384054270509 0 0.36319802612544427 -0.29047384054270509 0 0.34693151386986582 -0.28845922988733919 0 0.36207735812008718 -0.31141007532857051 0 0.36050305434069108 -0.27283592493353059 0 0.36319802612544427 -0.29047384054270509 0 0.34693151386986582 -0.28845922988733919 0 0.34297783957122191 -0.30646086698790292 0 0.34693151386986582 -0.28845922988733919 0 0.36207735812008718 -0.31141007532857051 0 0.34693151386986582 -0.28845922988733919 0 0.36207735812008718 -0.31141007532857051 0 0.38012033908276438 -0.3129359227770373 0 0.38056128339378442 -0.29293620664776931 0 0.36207735812008718 -0.31141007532857051 0 0.38056128339378442 -0.29293620664776931 0 0.36319802612544427 -0.29047384054270509 0 0.36207735812008718 -0.31141007532857051 0 0.37722320237030849 -0.33436092076980178 0 0.36207735812008718 -0.31141007532857051 0 0.35623946784102489 -0.33000955655433029 0 0.37722320237030849 -0.33436092076980178 0 0.38012033908276438 -0.3129359227770373 0 0.36207735812008718 -0.31141007532857051 0 0.37722320237030849 -0.33436092076980178 0 0.36207735812008718 -0.31141007532857051 0 0.37722320237030849 -0.33436092076980178 0 0.36207520870091908 -0.34093033686511909 0 0.35623946784102489 -0.33000955655433029 0 0.37722320237030849 -0.33436092076980178 0 0.36207520870091908 -0.34093033686511909 0 0.3691282338251386 -0.35159181985285209 0 0.36207520870091908 -0.34093033686511909 0 0.35083672151785023 -0.34008091969151599 0 0.35694841795027349 -0.34860846745709551 0 0.36207520870091908 -0.34093033686511909 0 0.35623946784102489 -0.33000955655433029 0 0.35083672151785023 -0.34008091969151599 0 0.35083672151785023 -0.34008091969151599 0 0.34523241532978571 -0.33171375401751391 0 0.3429572166648136 -0.33776353886129601 0 0.35083672151785023 -0.34008091969151599 0 0.34434198219248319 -0.34986145306296851 0 0.3429572166648136 -0.33776353886129601 0 0.35623946784102489 -0.33000955655433029 0 0.35083672151785023 -0.34008091969151599 0 0.34523241532978571 -0.33171375401751391 0 0.35623946784102489 -0.33000955655433029 0 0.34523241532978571 -0.33171375401751391 0 0.34405395957491591 -0.32049214437692369 0 0.34297783957122191 -0.30646086698790292 0 0.36207735812008718 -0.31141007532857051 0 0.34405395957491591 -0.32049214437692369 0 0.36207735812008718 -0.31141007532857051 0 0.35623946784102489 -0.33000955655433029 0 0.34405395957491591 -0.32049214437692369 0 0.37402409147838339 -0.37852198623957178 0 0.36979769266664198 -0.36623740864826237 0 0.35863603625052309 -0.37195452537021712 0 0.36979769266664198 -0.36623740864826237 0 0.35977047257701211 -0.35765073487827909 0 0.35863603625052309 -0.37195452537021712 0 0.36979769266664198 -0.36623740864826237 0 0.35977047257701211 -0.35765073487827909 0 0.3691282338251386 -0.35159181985285209 0 0.35977047257701211 -0.35765073487827909 0 0.3691282338251386 -0.35159181985285209 0 0.35694841795027349 -0.34860846745709551 0 0.36207520870091908 -0.34093033686511909 0 0.3691282338251386 -0.35159181985285209 0 0.35694841795027349 -0.34860846745709551 0 0.34434198219248319 -0.34986145306296851 0 0.35863603625052309 -0.37195452537021712 0 0.34218118482111631 -0.35306127850329538 0 0.35083672151785023 -0.34008091969151599 0 0.35694841795027349 -0.34860846745709551 0 0.34434198219248319 -0.34986145306296851 0 0.35977047257701211 -0.35765073487827909 0 0.35694841795027349 -0.34860846745709551 0 0.34434198219248319 -0.34986145306296851 0 0.35431444150778979 -0.3783541762508712 0 0.34107818162776438 -0.36442944432560398 0 0.34218118482111631 -0.35306127850329538 0 0.34434198219248319 -0.34986145306296851 0 0.35863603625052309 -0.37195452537021712 0 0.35431444150778979 -0.3783541762508712 0 0.34218118482111631 -0.35306127850329538 0 0.35977047257701211 -0.35765073487827909 0 0.34434198219248319 -0.34986145306296851 0 0.35863603625052309 -0.37195452537021712 0 0.35431444150778979 -0.3783541762508712 0 0.35863603625052309 -0.37195452537021712 0 0.34218118482111631 -0.35306127850329538 0 0.35431444150778979 -0.3783541762508712 0 0.34149446895420649 -0.3712707004396405 0 0.34107818162776438 -0.36442944432560398 0 0.32631641468145511 -0.37622843915742671 0 0.33457456438911182 -0.36768595871507098 0 0.32778532277354172 -0.36128094686873419 0 0.33647648540059272 -0.37572032683613349 0 0.32631641468145511 -0.37622843915742671 0 0.33457456438911182 -0.36768595871507098 0 0.33647648540059272 -0.37572032683613349 0 0.33457456438911182 -0.36768595871507098 0 0.34149446895420649 -0.3712707004396405 0 0.33457456438911182 -0.36768595871507098 0 0.34149446895420649 -0.3712707004396405 0 0.34107818162776438 -0.36442944432560398 0 0.33457456438911182 -0.36768595871507098 0 0.34107818162776438 -0.36442944432560398 0 0.33504521823091538 -0.35912588823682001 0 0.34107818162776438 -0.36442944432560398 0 0.33504521823091538 -0.35912588823682001 0 0.33885921186344681 -0.35707866380792619 0 0.33457456438911182 -0.36768595871507098 0 0.33504521823091538 -0.35912588823682001 0 0.32778532277354172 -0.36128094686873419 0 0.33150117684015817 -0.35393623423326021 0 0.33504521823091538 -0.35912588823682001 0 0.32778532277354172 -0.36128094686873419 0 0.33150117684015817 -0.35393623423326021 0 0.33661877093911069 -0.35349963846627702 0 0.33430151938994812 -0.3501452480190157 0 0.33150117684015817 -0.35393623423326021 0 0.33504521823091538 -0.35912588823682001 0 0.33661877093911069 -0.35349963846627702 0 0.34107818162776438 -0.36442944432560398 0 0.33885921186344681 -0.35707866380792619 0 0.34218118482111631 -0.35306127850329538 0 0.33504521823091538 -0.35912588823682001 0 0.33885921186344681 -0.35707866380792619 0 0.33661877093911069 -0.35349963846627702 0 0.33885921186344681 -0.35707866380792619 0 0.34218118482111631 -0.35306127850329538 0 0.33661877093911069 -0.35349963846627702 0 0.34218118482111631 -0.35306127850329538 0 0.33661877093911069 -0.35349963846627702 0 0.33694975611874972 -0.34867953041879662 0 0.33661877093911069 -0.35349963846627702 0 0.33694975611874972 -0.34867953041879662 0 0.33430151938994812 -0.3501452480190157 0 0.34218118482111631 -0.35306127850329538 0 0.33694975611874972 -0.34867953041879662 0 0.33327897880652457 -0.33893574293377982 0 0.33694975611874972 -0.34867953041879662 0 0.33404592795637339 -0.34588878384531108 0 0.33327897880652457 -0.33893574293377982 0 0.33150117684015817 -0.35393623423326021 0 0.33023076575501109 -0.3477885729682817 0 0.32275717552738842 -0.35199758439070161 0 0.33694975611874972 -0.34867953041879662 0 0.33404592795637339 -0.34588878384531108 0 0.33430151938994812 -0.3501452480190157 0 0.33404592795637339 -0.34588878384531108 0 0.33430151938994812 -0.3501452480190157 0 0.33023076575501109 -0.3477885729682817 0 0.33150117684015817 -0.35393623423326021 0 0.33430151938994812 -0.3501452480190157 0 0.33023076575501109 -0.3477885729682817 0 0.33023076575501109 -0.3477885729682817 0 0.33071716924609351 -0.34295550594611501 0 0.32763172335347451 -0.34335126508002928 0 0.33404592795637339 -0.34588878384531108 0 0.33023076575501109 -0.3477885729682817 0 0.33071716924609351 -0.34295550594611501 0 0.32423598228910999 -0.34589655554638671 0 0.32275717552738842 -0.35199758439070161 0 0.31845601163720971 -0.3434258238003472 0 0.33023076575501109 -0.3477885729682817 0 0.32423598228910999 -0.34589655554638671 0 0.32763172335347451 -0.34335126508002928 0 0.33023076575501109 -0.3477885729682817 0 0.32423598228910999 -0.34589655554638671 0 0.32275717552738842 -0.35199758439070161 0 0.31281244731165592 -0.35181793005413681 0 0.32275717552738842 -0.35199758439070161 0 0.31845601163720971 -0.3434258238003472 0 0.31281244731165592 -0.35181793005413681 0 0.31845601163720971 -0.3434258238003472 0 0.30722218109404181 -0.34324699211106607 0 0.31281244731165592 -0.35181793005413681 0 0.32275717552738842 -0.35199758439070161 0 0.31669418137114541 -0.36446298290931112 0 0.31281244731165592 -0.35181793005413681 0 0.31669418137114541 -0.36446298290931112 0 0.30829240119418932 -0.36073571991082432 0 0.33150117684015817 -0.35393623423326021 0 0.32275717552738842 -0.35199758439070161 0 0.32778532277354172 -0.36128094686873419 0 0.32275717552738842 -0.35199758439070161 0 0.32778532277354172 -0.36128094686873419 0 0.31669418137114541 -0.36446298290931112 0 0.31467360947491307 -0.37987770711583291 0 0.32631641468145511 -0.37622843915742671 0 0.31669418137114541 -0.36446298290931112 0 0.32631641468145511 -0.37622843915742671 0 0.32778532277354172 -0.36128094686873419 0 0.31669418137114541 -0.36446298290931112 0 0.33434092235744539 -0.32393310566702088 0 0.32868589819103933 -0.32566320989921738 0 0.3310568606386306 -0.31305032647946129 0 0.33434092235744539 -0.32393310566702088 0 0.330047928134443 -0.32776838075571979 0 0.33473725648429942 -0.32844933159584733 0 0.33434092235744539 -0.32393310566702088 0 0.330047928134443 -0.32776838075571979 0 0.32868589819103933 -0.32566320989921738 0 0.330047928134443 -0.32776838075571979 0 0.32868589819103933 -0.32566320989921738 0 0.34297783957122191 -0.30646086698790292 0 0.34405395957491591 -0.32049214437692369 0 0.3310568606386306 -0.31305032647946129 0 0.34405395957491591 -0.32049214437692369 0 0.33434092235744539 -0.32393310566702088 0 0.3310568606386306 -0.31305032647946129 0 0.34523241532978571 -0.33171375401751391 0 0.34405395957491591 -0.32049214437692369 0 0.33887059013550591 -0.32853730880434528 0 0.34405395957491591 -0.32049214437692369 0 0.33434092235744539 -0.32393310566702088 0 0.33887059013550591 -0.32853730880434528 0 0.33434092235744539 -0.32393310566702088 0 0.33887059013550591 -0.32853730880434528 0 0.33473725648429942 -0.32844933159584733 0 0.34218118482111631 -0.35306127850329538 0 0.330047928134443 -0.32776838075571979 0 0.34434198219248319 -0.34986145306296851 0 0.330047928134443 -0.32776838075571979 0 0.33847562708731449 -0.33419763547653242 0 0.34218118482111631 -0.35306127850329538 0 0.330047928134443 -0.32776838075571979 0 0.33327897880652457 -0.33893574293377982 0 0.34434198219248319 -0.34986145306296851 0 0.330047928134443 -0.32776838075571979 0 0.34434198219248319 -0.34986145306296851 0 0.34218118482111631 -0.35306127850329538 0 0.330047928134443 -0.32776838075571979 0 0.34434198219248319 -0.34986145306296851 0 0.33847562708731449 -0.33419763547653242 0 0.3429572166648136 -0.33776353886129601 0 0.34523241532978571 -0.33171375401751391 0 0.34138396230435492 -0.3330530592899219 0 0.33887059013550591 -0.32853730880434528 0 0.34523241532978571 -0.33171375401751391 0 0.34138396230435492 -0.3330530592899219 0 0.3429572166648136 -0.33776353886129601 0 0.34138396230435492 -0.3330530592899219 0 0.33847562708731449 -0.33419763547653242 0 0.3429572166648136 -0.33776353886129601 0 0.34138396230435492 -0.3330530592899219 0 0.33847562708731449 -0.33419763547653242 0 0.33887059013550591 -0.32853730880434528 0 0.33847562708731449 -0.33419763547653242 0 0.33887059013550591 -0.32853730880434528 0 0.33473725648429942 -0.32844933159584733 0 0.33404592795637339 -0.34588878384531108 0 0.33327897880652457 -0.33893574293377982 0 0.33071716924609351 -0.34295550594611501 0 0.33327897880652457 -0.33893574293377982 0 0.3283984503590836 -0.33881316490317298 0 0.32977728647835719 -0.33476871969937883 0 0.3283984503590836 -0.33881316490317298 0 0.33071716924609351 -0.34295550594611501 0 0.32763172335347451 -0.34335126508002928 0 0.33327897880652457 -0.33893574293377982 0 0.3283984503590836 -0.33881316490317298 0 0.33071716924609351 -0.34295550594611501 0 0.330047928134443 -0.32776838075571979 0 0.33847562708731449 -0.33419763547653242 0 0.33473725648429942 -0.32844933159584733 0 0.330047928134443 -0.32776838075571979 0 0.33327897880652457 -0.33893574293377982 0 0.32977728647835719 -0.33476871969937883 0 0.330047928134443 -0.32776838075571979 0 0.32977728647835719 -0.33476871969937883 0 0.32738378861337791 -0.33355759020484282 0 0.3283984503590836 -0.33881316490317298 0 0.32977728647835719 -0.33476871969937883 0 0.32738378861337791 -0.33355759020484282 0 0.32363565291716628 -0.33567480363345981 0 0.32394634721059101 -0.33027112053549529 0 0.31532833464311438 -0.3334505967037239 0 0.330047928134443 -0.32776838075571979 0 0.32738378861337791 -0.33355759020484282 0 0.32394634721059101 -0.33027112053549529 0 0.32738378861337791 -0.33355759020484282 0 0.32363565291716628 -0.33567480363345981 0 0.32394634721059101 -0.33027112053549529 0 0.32423598228910999 -0.34589655554638671 0 0.32425635238950501 -0.3415675234017605 0 0.32763172335347451 -0.34335126508002928 0 0.3283984503590836 -0.33881316490317298 0 0.32425635238950501 -0.3415675234017605 0 0.32763172335347451 -0.34335126508002928 0 0.3283984503590836 -0.33881316490317298 0 0.32363565291716628 -0.33567480363345981 0 0.32425635238950501 -0.3415675234017605 0 0.3283984503590836 -0.33881316490317298 0 0.32738378861337791 -0.33355759020484282 0 0.32363565291716628 -0.33567480363345981 0 0.32423598228910999 -0.34589655554638671 0 0.32425635238950501 -0.3415675234017605 0 0.31845601163720971 -0.3434258238003472 0 0.32363565291716628 -0.33567480363345981 0 0.32425635238950501 -0.3415675234017605 0 0.31845601163720971 -0.3434258238003472 0 0.31845601163720971 -0.3434258238003472 0 0.31532833464311438 -0.3334505967037239 0 0.30722218109404181 -0.34324699211106607 0 0.32363565291716628 -0.33567480363345981 0 0.31845601163720971 -0.3434258238003472 0 0.31532833464311438 -0.3334505967037239 0 0.32394634721059101 -0.33027112053549529 0 0.31532833464311438 -0.3334505967037239 0 0.3192903331746445 -0.32463488059437678 0 0.31532833464311438 -0.3334505967037239 0 0.3192903331746445 -0.32463488059437678 0 0.30954276984173817 -0.32471850080293102 0 0.31702209741586418 -0.30763549062119 0 0.32868589819103933 -0.32566320989921738 0 0.31702209741586418 -0.30763549062119 0 0.3192903331746445 -0.32463488059437678 0 0.30954276984173817 -0.32471850080293102 0 0.31702209741586418 -0.30763549062119 0 0.32868589819103933 -0.32566320989921738 0 0.3310568606386306 -0.31305032647946129 0 0.31702209741586418 -0.30763549062119 0 0.32868589819103933 -0.32566320989921738 0 0.3192903331746445 -0.32463488059437678 0 0.330047928134443 -0.32776838075571979 0 0.32868589819103933 -0.32566320989921738 0 0.3192903331746445 -0.32463488059437678 0 0.330047928134443 -0.32776838075571979 0 0.32394634721059101 -0.33027112053549529 0 0.3192903331746445 -0.32463488059437678 0 0.31702209741586418 -0.30763549062119 0 0.29903787647261942 -0.31878144321193841 0 0.30954276984173817 -0.32471850080293102 0 0.29903787647261942 -0.31878144321193841 0 0.30954276984173817 -0.32471850080293102 0 0.30171115984856339 -0.33216838768100809 0 0.31532833464311438 -0.3334505967037239 0 0.30954276984173817 -0.32471850080293102 0 0.30171115984856339 -0.33216838768100809 0 0.31532833464311438 -0.3334505967037239 0 0.30722218109404181 -0.34324699211106607 0 0.30171115984856339 -0.33216838768100809 0 0.30722218109404181 -0.34324699211106607 0 0.30171115984856339 -0.33216838768100809 0 0.29507240495747822 -0.34217327519622748 0 0.28406339208238901 -0.33063951806016212 0 0.29507240495747822 -0.34217327519622748 0 0.28117144719735099 -0.34905168749808668 0 0.30171115984856339 -0.33216838768100809 0 0.28406339208238901 -0.33063951806016212 0 0.29507240495747822 -0.34217327519622748 0 0.29903787647261942 -0.31878144321193841 0 0.30171115984856339 -0.33216838768100809 0 0.28406339208238901 -0.33063951806016212 0 0.29903787647261942 -0.31878144321193841 0 0.28406339208238901 -0.33063951806016212 0 0.28054203268648942 -0.31227620807799311 0 0.30451252606138018 -0.3705908385765222 0 0.29915045003257568 -0.35607112810332742 0 0.28749817370513742 -0.36681607297304469 0 0.31467360947491307 -0.37987770711583291 0 0.31669418137114541 -0.36446298290931112 0 0.30451252606138018 -0.3705908385765222 0 0.31669418137114541 -0.36446298290931112 0 0.30451252606138018 -0.3705908385765222 0 0.30829240119418932 -0.36073571991082432 0 0.30451252606138018 -0.3705908385765222 0 0.30829240119418932 -0.36073571991082432 0 0.29915045003257568 -0.35607112810332742 0 0.31281244731165592 -0.35181793005413681 0 0.30829240119418932 -0.36073571991082432 0 0.29915045003257568 -0.35607112810332742 0 0.31281244731165592 -0.35181793005413681 0 0.30722218109404181 -0.34324699211106607 0 0.29915045003257568 -0.35607112810332742 0 0.30722218109404181 -0.34324699211106607 0 0.29507240495747822 -0.34217327519622748 0 0.29915045003257568 -0.35607112810332742 0 0.29507240495747822 -0.34217327519622748 0 0.29915045003257568 -0.35607112810332742 0 0.28117144719735099 -0.34905168749808668 0 0.29915045003257568 -0.35607112810332742 0 0.28749817370513742 -0.36681607297304469 0 0.28117144719735099 -0.34905168749808668 0 0.29030363501371109 -0.38512319453575561 0 0.30451252606138018 -0.3705908385765222 0 0.28749817370513742 -0.36681607297304469 0 0.28749817370513742 -0.36681607297304469 0 0.27328926609749388 -0.36228969284542373 0 0.28117144719735099 -0.34905168749808668 0 0.27503354019545101 -0.37578130820458538 0 0.27328926609749388 -0.36228969284542373 0 0.25750275590377619 -0.36890528202481782 0 0.27503354019545101 -0.37578130820458538 0 0.28749817370513742 -0.36681607297304469 0 0.27328926609749388 -0.36228969284542373 0 0.28117144719735099 -0.34905168749808668 0 0.265240413485754 -0.35089411352658378 0 0.26518712509773579 -0.33647775326405599 0 0.27328926609749388 -0.36228969284542373 0 0.28117144719735099 -0.34905168749808668 0 0.265240413485754 -0.35089411352658378 0 0.265240413485754 -0.35089411352658378 0 0.26518712509773579 -0.33647775326405599 0 0.24812327578594101 -0.34924604261849213 0 0.265240413485754 -0.35089411352658378 0 0.25750275590377619 -0.36890528202481782 0 0.24812327578594101 -0.34924604261849213 0 0.27328926609749388 -0.36228969284542373 0 0.265240413485754 -0.35089411352658378 0 0.25750275590377619 -0.36890528202481782 0 0.28406339208238901 -0.33063951806016212 0 0.26292828823443898 -0.32064604337728908 0 0.28054203268648942 -0.31227620807799311 0 0.28406339208238901 -0.33063951806016212 0 0.26518712509773579 -0.33647775326405599 0 0.26292828823443898 -0.32064604337728908 0 0.28406339208238901 -0.33063951806016212 0 0.28117144719735099 -0.34905168749808668 0 0.26518712509773579 -0.33647775326405599 0 0.26518712509773579 -0.33647775326405599 0 0.26292828823443898 -0.32064604337728908 0 0.24789315315755561 -0.33202203644564821 0 0.26518712509773579 -0.33647775326405599 0 0.24789315315755561 -0.33202203644564821 0 0.24812327578594101 -0.34924604261849213 0 0.26292828823443898 -0.32064604337728908 0 0.25777984190456138 -0.30247417389476922 0 0.24808084794805069 -0.31759143413946761 0 0.26292828823443898 -0.32064604337728908 0 0.24808084794805069 -0.31759143413946761 0 0.24789315315755561 -0.33202203644564821 0 0.25777984190456138 -0.30247417389476922 0 0.2671428662038427 -0.27682603334446371 0 0.24439953999624631 -0.28379165719404459 0 0.25777984190456138 -0.30247417389476922 0 0.2671428662038427 -0.27682603334446371 0 0.25777984190456138 -0.30247417389476922 0 0.27504409966278581 -0.28694350919387318 0 0.28139237824143282 -0.29709162766814962 0 0.25777984190456138 -0.30247417389476922 0 0.27504409966278581 -0.28694350919387318 0 0.2671428662038427 -0.27682603334446371 0 0.26292828823443898 -0.32064604337728908 0 0.25777984190456138 -0.30247417389476922 0 0.28054203268648942 -0.31227620807799311 0 0.25777984190456138 -0.30247417389476922 0 0.28054203268648942 -0.31227620807799311 0 0.28139237824143282 -0.29709162766814962 0 0.29903787647261942 -0.31878144321193841 0 0.28054203268648942 -0.31227620807799311 0 0.29654199613043841 -0.30272172369921752 0 0.28054203268648942 -0.31227620807799311 0 0.29654199613043841 -0.30272172369921752 0 0.28139237824143282 -0.29709162766814962 0 0.29654199613043841 -0.30272172369921752 0 0.28857280848333638 -0.28553931324431808 0 0.3039962666972853 -0.28750260048666038 0 0.27504409966278581 -0.28694350919387318 0 0.28139237824143282 -0.29709162766814962 0 0.28857280848333638 -0.28553931324431808 0 0.29654199613043841 -0.30272172369921752 0 0.28139237824143282 -0.29709162766814962 0 0.28857280848333638 -0.28553931324431808 0 0.27504409966278581 -0.28694350919387318 0 0.28857280848333638 -0.28553931324431808 0 0.28033260348075612 -0.27278639781766539 0 0.32474517585940632 -0.28587026570253982 0 0.3039962666972853 -0.28750260048666038 0 0.30773610710610322 -0.27432940871561851 0 0.31702209741586418 -0.30763549062119 0 0.3039962666972853 -0.28750260048666038 0 0.31702209741586418 -0.30763549062119 0 0.29903787647261942 -0.31878144321193841 0 0.29654199613043841 -0.30272172369921752 0 0.31702209741586418 -0.30763549062119 0 0.29654199613043841 -0.30272172369921752 0 0.3039962666972853 -0.28750260048666038 0 0.30168828997920449 -0.26498624630303169 0 0.29771736771108348 -0.25617020568059101 0 0.31062971930968891 -0.26162989705320761 0 0.29771736771108348 -0.25617020568059101 0 0.30611037547219261 -0.25101477684642998 0 0.31062971930968891 -0.26162989705320761 0 0.31922682890946208 -0.25360083818125972 0 0.30611037547219261 -0.25101477684642998 0 0.31062971930968891 -0.26162989705320761 0 0.30168828997920449 -0.26498624630303169 0 0.30773610710610322 -0.27432940871561851 0 0.29097043597870642 -0.26736971035213092 0 0.30168828997920449 -0.26498624630303169 0 0.31062971930968891 -0.26162989705320761 0 0.30773610710610322 -0.27432940871561851 0 0.3039962666972853 -0.28750260048666038 0 0.30773610710610322 -0.27432940871561851 0 0.29097043597870642 -0.26736971035213092 0 0.3039962666972853 -0.28750260048666038 0 0.29097043597870642 -0.26736971035213092 0 0.28857280848333638 -0.28553931324431808 0 0.29097043597870642 -0.26736971035213092 0 0.28033260348075612 -0.27278639781766539 0 0.28857280848333638 -0.28553931324431808 0 0.3039962666972853 -0.28750260048666038 0 0.29097043597870642 -0.26736971035213092 0 0.29097043597870642 -0.26736971035213092 0 0.28044784511289428 -0.26235608879210742 0 0.28033260348075612 -0.27278639781766539 0 0.27794460526012998 -0.2472368202175998 0 0.29097043597870642 -0.26736971035213092 0 0.28874422650624992 -0.25311000535506789 0 0.27794460526012998 -0.2472368202175998 0 0.29097043597870642 -0.26736971035213092 0 0.28044784511289428 -0.26235608879210742 0 0.27794460526012998 -0.2472368202175998 0 0.29097043597870642 -0.26736971035213092 0 0.29771736771108348 -0.25617020568059101 0 0.29097043597870642 -0.26736971035213092 0 0.28874422650624992 -0.25311000535506789 0 0.30168828997920449 -0.26498624630303169 0 0.29771736771108348 -0.25617020568059101 0 0.29097043597870642 -0.26736971035213092 0 0.28834449707508208 -0.24166328516994851 0 0.29771736771108348 -0.25617020568059101 0 0.28874422650624992 -0.25311000535506789 0 0.27794460526012998 -0.2472368202175998 0 0.2725437357319872 -0.26203142678103197 0 0.27794460526012998 -0.2472368202175998 0 0.28044784511289428 -0.26235608879210742 0 0.2725437357319872 -0.26203142678103197 0 0.2725437357319872 -0.26203142678103197 0 0.26455974479577271 -0.26749993274001971 0 0.26406700720096599 -0.25392742452690692 0 0.27794460526012998 -0.2472368202175998 0 0.2725437357319872 -0.26203142678103197 0 0.26406700720096599 -0.25392742452690692 0 0.27504409966278581 -0.28694350919387318 0 0.28033260348075612 -0.27278639781766539 0 0.2671428662038427 -0.27682603334446371 0 0.28033260348075612 -0.27278639781766539 0 0.2671428662038427 -0.27682603334446371 0 0.28044784511289428 -0.26235608879210742 0 0.2725437357319872 -0.26203142678103197 0 0.28033260348075612 -0.27278639781766539 0 0.2725437357319872 -0.26203142678103197 0 0.2671428662038427 -0.27682603334446371 0 0.2725437357319872 -0.26203142678103197 0 0.28033260348075612 -0.27278639781766539 0 0.2671428662038427 -0.27682603334446371 0 0.2725437357319872 -0.26203142678103197 0 0.2671428662038427 -0.27682603334446371 0 0.26455974479577271 -0.26749993274001971 0 0.2671428662038427 -0.27682603334446371 0 0.25489012576198361 -0.26788351641333491 0 0.24439953999624631 -0.28379165719404459 0 0.2671428662038427 -0.27682603334446371 0 0.24439953999624631 -0.28379165719404459 0 0.2671428662038427 -0.27682603334446371 0 0.26455974479577271 -0.26749993274001971 0 0.25489012576198361 -0.26788351641333491 0 0.25489012576198361 -0.26788351641333491 0 0.26406700720096599 -0.25392742452690692 0 0.26455974479577271 -0.26749993274001971 0 0.25489012576198361 -0.26788351641333491 0 0.26406700720096599 -0.25392742452690692 0 0.25489012576198361 -0.26788351641333491 0 0.26406700720096599 -0.25392742452690692 0 0.25054914913674842 -0.25280247024608682 0 0.25778810253160939 -0.24841987595847881 0 0.26406700720096599 -0.25392742452690692 0 0.25054914913674842 -0.25280247024608682 0 0.25054914913674842 -0.25280247024608682 0 0.24040858601454501 -0.26024498000700991 0 0.23759967491846501 -0.24749385189608991 0 0.25489012576198361 -0.26788351641333491 0 0.25054914913674842 -0.25280247024608682 0 0.24040858601454501 -0.26024498000700991 0 0.24040858601454501 -0.26024498000700991 0 0.23020776286794459 -0.25511931681223948 0 0.23759967491846501 -0.24749385189608991 0 0.25489012576198361 -0.26788351641333491 0 0.24001665443263831 -0.27187075035282382 0 0.24439953999624631 -0.28379165719404459 0 0.25489012576198361 -0.26788351641333491 0 0.24040858601454501 -0.26024498000700991 0 0.24001665443263831 -0.27187075035282382 0 0.24040858601454501 -0.26024498000700991 0 0.24001665443263831 -0.27187075035282382 0 0.22934601954743039 -0.26556988157714678 0 0.24001665443263831 -0.27187075035282382 0 0.2300653326553645 -0.27662678915960442 0 0.24439953999624631 -0.28379165719404459 0 0.2300653326553645 -0.27662678915960442 0 0.215846079543286 -0.27238936179736611 0 0.2216562137886498 -0.29075728104362542 0 0.24001665443263831 -0.27187075035282382 0 0.2300653326553645 -0.27662678915960442 0 0.22934601954743039 -0.26556988157714678 0 0.2300653326553645 -0.27662678915960442 0 0.22934601954743039 -0.26556988157714678 0 0.215846079543286 -0.27238936179736611 0 0.24040858601454501 -0.26024498000700991 0 0.23020776286794459 -0.25511931681223948 0 0.22934601954743039 -0.26556988157714678 0 0.23020776286794459 -0.25511931681223948 0 0.22934601954743039 -0.26556988157714678 0 0.21990094859475551 -0.2577316402583229 0 0.22934601954743039 -0.26556988157714678 0 0.21990094859475551 -0.2577316402583229 0 0.215846079543286 -0.27238936179736611 0 0.23020776286794459 -0.25511931681223948 0 0.21990094859475551 -0.2577316402583229 0 0.22450502149858331 -0.2452780979226937 0 0.21990094859475551 -0.2577316402583229 0 0.20778692041294111 -0.25874592010212188 0 0.21085836707491901 -0.24968625092785521 0 0.21990094859475551 -0.2577316402583229 0 0.22450502149858331 -0.2452780979226937 0 0.21085836707491901 -0.24968625092785521 0 0.20778692041294111 -0.25874592010212188 0 0.21085836707491901 -0.24968625092785521 0 0.19652093644832719 -0.24936833127840161 0 0.20778692041294111 -0.25874592010212188 0 0.20478430765621439 -0.26826402256594239 0 0.1988459412941794 -0.2627728339719459 0 0.21990094859475551 -0.2577316402583229 0 0.20778692041294111 -0.25874592010212188 0 0.215846079543286 -0.27238936179736611 0 0.215846079543286 -0.27238936179736611 0 0.20313746987532669 -0.2754822183487608 0 0.20878232134737429 -0.28457376755759878 0 0.20778692041294111 -0.25874592010212188 0 0.215846079543286 -0.27238936179736611 0 0.20478430765621439 -0.26826402256594239 0 0.215846079543286 -0.27238936179736611 0 0.20313746987532669 -0.2754822183487608 0 0.20478430765621439 -0.26826402256594239 0 0.20478430765621439 -0.26826402256594239 0 0.19615714990430791 -0.27192546635777121 0 0.1988459412941794 -0.2627728339719459 0 0.20313746987532669 -0.2754822183487608 0 0.19011749092545069 -0.28025847346512572 0 0.20878232134737429 -0.28457376755759878 0 0.20313746987532669 -0.2754822183487608 0 0.20478430765621439 -0.26826402256594239 0 0.19615714990430791 -0.27192546635777121 0 0.20313746987532669 -0.2754822183487608 0 0.19615714990430791 -0.27192546635777121 0 0.19011749092545069 -0.28025847346512572 0 0.19615714990430791 -0.27192546635777121 0 0.19011749092545069 -0.28025847346512572 0 0.18723419132615601 -0.27438856609800188 0 0.19615714990430791 -0.27192546635777121 0 0.18898039204910591 -0.26556042955549208 0 0.1988459412941794 -0.2627728339719459 0 0.19615714990430791 -0.27192546635777121 0 0.18898039204910591 -0.26556042955549208 0 0.18723419132615601 -0.27438856609800188 0 0.18898039204910591 -0.26556042955549208 0 0.19652093644832719 -0.24936833127840161 0 0.18898039204910591 -0.26556042955549208 0 0.1988459412941794 -0.2627728339719459 0 0.19652093644832719 -0.24936833127840161 0 0.18898039204910591 -0.26556042955549208 0 0.1860431423588518 -0.25876500451816792 0 0.19652093644832719 -0.24936833127840161 0 0.1860431423588518 -0.25876500451816792 0 0.19652093644832719 -0.24936833127840161 0 0.20778692041294111 -0.25874592010212188 0 0.1988459412941794 -0.2627728339719459 0 0.19652093644832719 -0.24936833127840161 0 0.18999687325765319 -0.30431760145207359 0 0.19925269406390081 -0.3150914692738736 0 0.17895735527510809 -0.3114574929739013 0 0.1989128875810533 -0.29772290489320619 0 0.18999687325765319 -0.30431760145207359 0 0.19925269406390081 -0.3150914692738736 0 0.1989128875810533 -0.29772290489320619 0 0.18999687325765319 -0.30431760145207359 0 0.18505132192002291 -0.29271427653333731 0 0.19011749092545069 -0.28025847346512572 0 0.20878232134737429 -0.28457376755759878 0 0.18505132192002291 -0.29271427653333731 0 0.20878232134737429 -0.28457376755759878 0 0.18505132192002291 -0.29271427653333731 0 0.1989128875810533 -0.29772290489320619 0 0.20878232134737429 -0.28457376755759878 0 0.18505132192002291 -0.29271427653333731 0 0.1989128875810533 -0.29772290489320619 0 0.2216562137886498 -0.29075728104362542 0 0.215846079543286 -0.27238936179736611 0 0.20878232134737429 -0.28457376755759878 0 0.2216562137886498 -0.29075728104362542 0 0.1989128875810533 -0.29772290489320619 0 0.20878232134737429 -0.28457376755759878 0 0.2216562137886498 -0.29075728104362542 0 0.1989128875810533 -0.29772290489320619 0 0.21343782087282889 -0.3052319176115536 0 0.19925269406390081 -0.3150914692738736 0 0.1989128875810533 -0.29772290489320619 0 0.21343782087282889 -0.3052319176115536 0 0.2216562137886498 -0.29075728104362542 0 0.2253553059699899 -0.30224585193274278 0 0.2366945555548722 -0.30915260037389192 0 0.2206091687892924 -0.31910319533274611 0 0.21343782087282889 -0.3052319176115536 0 0.2253553059699899 -0.30224585193274278 0 0.2206091687892924 -0.31910319533274611 0 0.21343782087282889 -0.3052319176115536 0 0.2253553059699899 -0.30224585193274278 0 0.2216562137886498 -0.29075728104362542 0 0.2253553059699899 -0.30224585193274278 0 0.23583882479854271 -0.29530897314704702 0 0.2366945555548722 -0.30915260037389192 0 0.2300653326553645 -0.27662678915960442 0 0.2216562137886498 -0.29075728104362542 0 0.24439953999624631 -0.28379165719404459 0 0.2216562137886498 -0.29075728104362542 0 0.23583882479854271 -0.29530897314704702 0 0.24439953999624631 -0.28379165719404459 0 0.2216562137886498 -0.29075728104362542 0 0.24439953999624631 -0.28379165719404459 0 0.2253553059699899 -0.30224585193274278 0 0.2216562137886498 -0.29075728104362542 0 0.23583882479854271 -0.29530897314704702 0 0.25777984190456138 -0.30247417389476922 0 0.23583882479854271 -0.29530897314704702 0 0.24439953999624631 -0.28379165719404459 0 0.25777984190456138 -0.30247417389476922 0 0.2366945555548722 -0.30915260037389192 0 0.24808084794805069 -0.31759143413946761 0 0.25777984190456138 -0.30247417389476922 0 0.23583882479854271 -0.29530897314704702 0 0.2366945555548722 -0.30915260037389192 0 0.2366945555548722 -0.30915260037389192 0 0.24808084794805069 -0.31759143413946761 0 0.23510840088882501 -0.32366231660573958 0 0.24808084794805069 -0.31759143413946761 0 0.23510840088882501 -0.32366231660573958 0 0.24789315315755561 -0.33202203644564821 0 0.24789315315755561 -0.33202203644564821 0 0.22710587127962861 -0.34090826940929342 0 0.24812327578594101 -0.34924604261849213 0 0.23510840088882501 -0.32366231660573958 0 0.24789315315755561 -0.33202203644564821 0 0.22710587127962861 -0.34090826940929342 0 0.23510840088882501 -0.32366231660573958 0 0.22710587127962861 -0.34090826940929342 0 0.2206091687892924 -0.31910319533274611 0 0.2366945555548722 -0.30915260037389192 0 0.23510840088882501 -0.32366231660573958 0 0.2206091687892924 -0.31910319533274611 0 0.25750275590377619 -0.36890528202481782 0 0.23042404980377151 -0.36211229113992588 0 0.24762604424047341 -0.38612413505374482 0 0.25750275590377619 -0.36890528202481782 0 0.24812327578594101 -0.34924604261849213 0 0.23042404980377151 -0.36211229113992588 0 0.22710587127962861 -0.34090826940929342 0 0.24812327578594101 -0.34924604261849213 0 0.23042404980377151 -0.36211229113992588 0 0.22710587127962861 -0.34090826940929342 0 0.23042404980377151 -0.36211229113992588 0 0.20313010440717499 -0.35932069702308789 0 0.23042404980377151 -0.36211229113992588 0 0.20313010440717499 -0.35932069702308789 0 0.23042404980377151 -0.36211229113992588 0 0.20313010440717499 -0.35932069702308789 0 0.20592571450423319 -0.38707031522322582 0 0.22710587127962861 -0.34090826940929342 0 0.20313010440717499 -0.35932069702308789 0 0.20467060691705929 -0.33486936141870699 0 0.20313010440717499 -0.35932069702308789 0 0.17583615901057839 -0.35652910290625001 0 0.20313010440717499 -0.35932069702308789 0 0.18970984878539929 -0.343921095567298 0 0.17583615901057839 -0.35652910290625001 0 0.20313010440717499 -0.35932069702308789 0 0.18970984878539929 -0.343921095567298 0 0.20467060691705929 -0.33486936141870699 0 0.20313010440717499 -0.35932069702308789 0 0.20592571450423319 -0.38707031522322582 0 0.18041530927192759 -0.3764493573634527 0 0.21343782087282889 -0.3052319176115536 0 0.2206091687892924 -0.31910319533274611 0 0.19925269406390081 -0.3150914692738736 0 0.2206091687892924 -0.31910319533274611 0 0.20467060691705929 -0.33486936141870699 0 0.19925269406390081 -0.3150914692738736 0 0.22710587127962861 -0.34090826940929342 0 0.2206091687892924 -0.31910319533274611 0 0.20467060691705929 -0.33486936141870699 0 0.18970984878539929 -0.343921095567298 0 0.20467060691705929 -0.33486936141870699 0 0.18864161191840151 -0.32884601153425658 0 0.18864161191840151 -0.32884601153425658 0 0.19925269406390081 -0.3150914692738736 0 0.17895735527510809 -0.3114574929739013 0 0.20467060691705929 -0.33486936141870699 0 0.18864161191840151 -0.32884601153425658 0 0.19925269406390081 -0.3150914692738736 0 0.18864161191840151 -0.32884601153425658 0 0.16788486828108651 -0.32693127162741659 0 0.17895735527510809 -0.3114574929739013 0 0.18864161191840151 -0.32884601153425658 0 0.16788486828108651 -0.32693127162741659 0 0.18864161191840151 -0.32884601153425658 0 0.1762707616737825 -0.34004030495418841 0 0.16788486828108651 -0.32693127162741659 0 0.18970984878539929 -0.343921095567298 0 0.18864161191840151 -0.32884601153425658 0 0.1762707616737825 -0.34004030495418841 0 0.15970697811488849 -0.34194861276403399 0 0.16788486828108651 -0.32693127162741659 0 0.1519580475186503 -0.33504820823691722 0 0.1762707616737825 -0.34004030495418841 0 0.15970697811488849 -0.34194861276403399 0 0.16788486828108651 -0.32693127162741659 0 0.16788486828108651 -0.32693127162741659 0 0.14712812464377159 -0.32501653172057599 0 0.16382266767315939 -0.31606502045774232 0 0.14712812464377159 -0.32501653172057599 0 0.16132032249267009 -0.3008547855090713 0 0.16382266767315939 -0.31606502045774232 0 0.16788486828108651 -0.32693127162741659 0 0.14712812464377159 -0.32501653172057599 0 0.16382266767315939 -0.31606502045774232 0 0.16788486828108651 -0.32693127162741659 0 0.17895735527510809 -0.3114574929739013 0 0.20313010440717499 -0.35932069702308789 0 0.17583615901057839 -0.35652910290625001 0 0.18041530927192759 -0.3764493573634527 0 0.18970984878539929 -0.343921095567298 0 0.1762707616737825 -0.34004030495418841 0 0.17583615901057839 -0.35652910290625001 0 0.17583615901057839 -0.35652910290625001 0 0.1549049040396219 -0.36582839950367962 0 0.14854221361398179 -0.35373750878941201 0 0.15970697811488849 -0.34194861276403399 0 0.17583615901057839 -0.35652910290625001 0 0.14854221361398179 -0.35373750878941201 0 0.17583615901057839 -0.35652910290625001 0 0.14854221361398179 -0.35373750878941201 0 0.1762707616737825 -0.34004030495418841 0 0.15970697811488849 -0.34194861276403399 0 0.17583615901057839 -0.35652910290625001 0 0.17583615901057839 -0.35652910290625001 0 0.1549049040396219 -0.36582839950367962 0 0.18041530927192759 -0.3764493573634527 0 0.1549049040396219 -0.36582839950367962 0 0.18041530927192759 -0.3764493573634527 0 0.1549049040396219 -0.36582839950367962 0 0.12939449880731591 -0.35520744164390722 0 0.13837823405098609 -0.37027997285178721 0 0.1549049040396219 -0.36582839950367962 0 0.12939449880731591 -0.35520744164390722 0 0.1549049040396219 -0.36582839950367962 0 0.13837823405098609 -0.37027997285178721 0 0.15044759568021809 -0.3786940771427364 0 0.1549049040396219 -0.36582839950367962 0 0.14854221361398179 -0.35373750878941201 0 0.12939449880731591 -0.35520744164390722 0 0.15970697811488849 -0.34194861276403399 0 0.14854221361398179 -0.35373750878941201 0 0.15029517541066101 -0.34241841199864809 0 0.14854221361398179 -0.35373750878941201 0 0.14097346239512329 -0.33893931820422929 0 0.13906408423710059 -0.33874529310198609 0 0.14854221361398179 -0.35373750878941201 0 0.15029517541066101 -0.34241841199864809 0 0.14097346239512329 -0.33893931820422929 0 0.14854221361398179 -0.35373750878941201 0 0.12939449880731591 -0.35520744164390722 0 0.13906408423710059 -0.33874529310198609 0 0.12939449880731591 -0.35520744164390722 0 0.13906408423710059 -0.33874529310198609 0 0.12939449880731591 -0.35520744164390722 0 0.13837823405098609 -0.37027997285178721 0 0.1154636360686058 -0.37892427349644381 0 0.14712812464377159 -0.32501653172057599 0 0.16132032249267009 -0.3008547855090713 0 0.16788486828108651 -0.32693127162741659 0 0.14712812464377159 -0.32501653172057599 0 0.1519580475186503 -0.33504820823691722 0 0.15970697811488849 -0.34194861276403399 0 0.1519580475186503 -0.33504820823691722 0 0.15029517541066101 -0.34241841199864809 0 0.1519580475186503 -0.33504820823691722 0 0.15029517541066101 -0.34241841199864809 0 0.14097346239512329 -0.33893931820422929 0 0.14712812464377159 -0.32501653172057599 0 0.14097346239512329 -0.33893931820422929 0 0.13906408423710059 -0.33874529310198609 0 0.14712812464377159 -0.32501653172057599 0 0.13906408423710059 -0.33874529310198609 0 0.14712812464377159 -0.32501653172057599 0 0.1519580475186503 -0.33504820823691722 0 0.14097346239512329 -0.33893931820422929 0 0.13906408423710059 -0.33874529310198609 0 0.11785001665137319 -0.33658958517417942 0 0.14712812464377159 -0.32501653172057599 0 0.13906408423710059 -0.33874529310198609 0 0.1282536940425594 -0.32327542887118488 0 0.13906408423710059 -0.33874529310198609 0 0.1282536940425594 -0.32327542887118488 0 0.11785001665137319 -0.33658958517417942 0 0.12939449880731591 -0.35520744164390722 0 0.13906408423710059 -0.33874529310198609 0 0.11785001665137319 -0.33658958517417942 0 0.14097346239512329 -0.33893931820422929 0 0.13906408423710059 -0.33874529310198609 0 0.14712812464377159 -0.32501653172057599 0 0.1282536940425594 -0.32327542887118488 0 0.14712812464377159 -0.32501653172057599 0 0.1282536940425594 -0.32327542887118488 0 0.14007972880738009 -0.30814100386134102 0 0.1282536940425594 -0.32327542887118488 0 0.14007972880738009 -0.30814100386134102 0 0.1282536940425594 -0.32327542887118488 0 0.13006690916062719 -0.31157572849046322 0 0.1208154990584448 -0.31487798322937183 0 0.1282536940425594 -0.32327542887118488 0 0.13006690916062719 -0.31157572849046322 0 0.14007972880738009 -0.30814100386134102 0 0.13006690916062719 -0.31157572849046322 0 0.13088153888929521 -0.30209363602668821 0 0.1172730364533757 -0.30140319911069879 0 0.13088153888929521 -0.30209363602668821 0 0.13776253998276461 -0.29636728165956738 0 0.12922548004232881 -0.29298096701137188 0 0.13088153888929521 -0.30209363602668821 0 0.12922548004232881 -0.29298096701137188 0 0.1172730364533757 -0.30140319911069879 0 0.13088153888929521 -0.30209363602668821 0 0.14007972880738009 -0.30814100386134102 0 0.13776253998276461 -0.29636728165956738 0 0.13006690916062719 -0.31157572849046322 0 0.14007972880738009 -0.30814100386134102 0 0.13006690916062719 -0.31157572849046322 0 0.13088153888929521 -0.30209363602668821 0 0.14007972880738009 -0.30814100386134102 0 0.14007972880738009 -0.30814100386134102 0 0.15646905515447129 -0.28716668444705029 0 0.14712812464377159 -0.32501653172057599 0 0.14007972880738009 -0.30814100386134102 0 0.16132032249267009 -0.3008547855090713 0 0.14007972880738009 -0.30814100386134102 0 0.16132032249267009 -0.3008547855090713 0 0.14007972880738009 -0.30814100386134102 0 0.16132032249267009 -0.3008547855090713 0 0.15646905515447129 -0.28716668444705029 0 0.14007972880738009 -0.30814100386134102 0 0.1479004836358874 -0.29297202342451989 0 0.13776253998276461 -0.29636728165956738 0 0.14007972880738009 -0.30814100386134102 0 0.1479004836358874 -0.29297202342451989 0 0.15646905515447129 -0.28716668444705029 0 0.1479004836358874 -0.29297202342451989 0 0.1514555975007314 -0.27815123146268289 0 0.16697181299736941 -0.2758685139713436 0 0.1479004836358874 -0.29297202342451989 0 0.13858989814624001 -0.28387825671342182 0 0.13776253998276461 -0.29636728165956738 0 0.1479004836358874 -0.29297202342451989 0 0.13858989814624001 -0.28387825671342182 0 0.1514555975007314 -0.27815123146268289 0 0.13858989814624001 -0.28387825671342182 0 0.13776253998276461 -0.29636728165956738 0 0.12922548004232881 -0.29298096701137188 0 0.13858989814624001 -0.28387825671342182 0 0.12922548004232881 -0.29298096701137188 0 0.1238571776902499 -0.27940968580072589 0 0.1416484211225825 -0.26681610704846598 0 0.1178567090507763 -0.25981103156283653 0 0.1238571776902499 -0.27940968580072589 0 0.13858989814624001 -0.28387825671342182 0 0.1416484211225825 -0.26681610704846598 0 0.1238571776902499 -0.27940968580072589 0 0.1416484211225825 -0.26681610704846598 0 0.1178567090507763 -0.25981103156283653 0 0.13836737310886571 -0.24893409614863071 0 0.1554435917445722 -0.26077319582811143 0 0.15525579557553351 -0.24361999514067911 0 0.13836737310886571 -0.24893409614863071 0 0.1554435917445722 -0.26077319582811143 0 0.1416484211225825 -0.26681610704846598 0 0.13836737310886571 -0.24893409614863071 0 0.13858989814624001 -0.28387825671342182 0 0.1416484211225825 -0.26681610704846598 0 0.1514555975007314 -0.27815123146268289 0 0.1554435917445722 -0.26077319582811143 0 0.1416484211225825 -0.26681610704846598 0 0.1569285658974103 -0.27049852372706018 0 0.1416484211225825 -0.26681610704846598 0 0.1514555975007314 -0.27815123146268289 0 0.1569285658974103 -0.27049852372706018 0 0.16697181299736941 -0.2758685139713436 0 0.17368173242575971 -0.27980989501361891 0 0.15646905515447129 -0.28716668444705029 0 0.1514555975007314 -0.27815123146268289 0 0.1569285658974103 -0.27049852372706018 0 0.16697181299736941 -0.2758685139713436 0 0.1569285658974103 -0.27049852372706018 0 0.16697181299736941 -0.2758685139713436 0 0.1630604488999666 -0.26457269522119642 0 0.16697181299736941 -0.2758685139713436 0 0.1630604488999666 -0.26457269522119642 0 0.17182912700415531 -0.26210014760047451 0 0.1554435917445722 -0.26077319582811143 0 0.16412914685632579 -0.25362309497899271 0 0.15525579557553351 -0.24361999514067911 0 0.17182912700415531 -0.26210014760047451 0 0.16412914685632579 -0.25362309497899271 0 0.17471693118402931 -0.2431580641854417 0 0.1554435917445722 -0.26077319582811143 0 0.1630604488999666 -0.26457269522119642 0 0.16412914685632579 -0.25362309497899271 0 0.1554435917445722 -0.26077319582811143 0 0.1569285658974103 -0.27049852372706018 0 0.1630604488999666 -0.26457269522119642 0 0.1630604488999666 -0.26457269522119642 0 0.17182912700415531 -0.26210014760047451 0 0.16412914685632579 -0.25362309497899271 0 0.16697181299736941 -0.2758685139713436 0 0.17182912700415531 -0.26210014760047451 0 0.1860431423588518 -0.25876500451816792 0 0.17182912700415531 -0.26210014760047451 0 0.1860431423588518 -0.25876500451816792 0 0.17471693118402931 -0.2431580641854417 0 0.16697181299736941 -0.2758685139713436 0 0.1860431423588518 -0.25876500451816792 0 0.19011749092545069 -0.28025847346512572 0 0.17368173242575971 -0.27980989501361891 0 0.18723419132615601 -0.27438856609800188 0 0.16697181299736941 -0.2758685139713436 0 0.1860431423588518 -0.25876500451816792 0 0.17368173242575971 -0.27980989501361891 0 0.18898039204910591 -0.26556042955549208 0 0.1860431423588518 -0.25876500451816792 0 0.17368173242575971 -0.27980989501361891 0 0.1860431423588518 -0.25876500451816792 0 0.17368173242575971 -0.27980989501361891 0 0.18898039204910591 -0.26556042955549208 0 0.17368173242575971 -0.27980989501361891 0 0.18723419132615601 -0.27438856609800188 0 0.17368173242575971 -0.27980989501361891 0 0.1807850765741415 -0.28501225257962032 0 0.16132032249267009 -0.3008547855090713 0 0.18505132192002291 -0.29271427653333731 0 0.16132032249267009 -0.3008547855090713 0 0.1807850765741415 -0.28501225257962032 0 0.18505132192002291 -0.29271427653333731 0 0.16132032249267009 -0.3008547855090713 0 0.19011749092545069 -0.28025847346512572 0 0.1807850765741415 -0.28501225257962032 0 0.18505132192002291 -0.29271427653333731 0 0.19011749092545069 -0.28025847346512572 0 0.17368173242575971 -0.27980989501361891 0 0.1807850765741415 -0.28501225257962032 0 0.18999687325765319 -0.30431760145207359 0 0.18505132192002291 -0.29271427653333731 0 0.17895735527510809 -0.3114574929739013 0 0.18505132192002291 -0.29271427653333731 0 0.17895735527510809 -0.3114574929739013 0 0.16132032249267009 -0.3008547855090713 0 0.16382266767315939 -0.31606502045774232 0 0.17895735527510809 -0.3114574929739013 0 0.16132032249267009 -0.3008547855090713 0 0.17368173242575971 -0.27980989501361891 0 0.16132032249267009 -0.3008547855090713 0 0.1479004836358874 -0.29297202342451989 0 0.16697181299736941 -0.2758685139713436 0 0.15646905515447129 -0.28716668444705029 0 0.17368173242575971 -0.27980989501361891 0 0.16132032249267009 -0.3008547855090713 0 0.15646905515447129 -0.28716668444705029 0 0.1479004836358874 -0.29297202342451989 0 0.16697181299736941 -0.2758685139713436 0 0.19529444531123691 -0.47912647623923088 0 0.21685125032089481 -0.47109870807186399 0 0.19695731456745461 -0.46006175170667901 0 0.19529444531123691 -0.47912647623923088 0 0.21685125032089481 -0.47109870807186399 0 0.22170510026108209 -0.5 0 0.19243625231202691 -0.5 0 0.19529444531123691 -0.47912647623923088 0 0.22170510026108209 -0.5 0 0.21685125032089481 -0.47109870807186399 0 0.22170510026108209 -0.5 0 0.2374080729513903 -0.4861833278371458 0 0.2509739482101373 -0.5 0 0.22170510026108209 -0.5 0 0.2374080729513903 -0.4861833278371458 0 0.26052795958916181 -0.4830207634546701 0 0.2509739482101373 -0.5 0 0.2374080729513903 -0.4861833278371458 0 0.26052795958916181 -0.4830207634546701 0 0.2374080729513903 -0.4861833278371458 0 0.24211114021142299 -0.46861955655691429 0 0.21685125032089481 -0.47109870807186399 0 0.2374080729513903 -0.4861833278371458 0 0.24211114021142299 -0.46861955655691429 0 0.21685125032089481 -0.47109870807186399 0 0.24211114021142299 -0.46861955655691429 0 0.22987584207805209 -0.45121529866837812 0 0.24211114021142299 -0.46861955655691429 0 0.24878105380009541 -0.45176825587022418 0 0.22987584207805209 -0.45121529866837812 0 0.24878105380009541 -0.45176825587022418 0 0.22987584207805209 -0.45121529866837812 0 0.2484082765115711 -0.43294646813763532 0 0.22987584207805209 -0.45121529866837812 0 0.20856551198180581 -0.44339277029687463 0 0.23077111462805561 -0.42645484985475562 0 0.21685125032089481 -0.47109870807186399 0 0.20856551198180581 -0.44339277029687463 0 0.19695731456745461 -0.46006175170667901 0 0.21685125032089481 -0.47109870807186399 0 0.22987584207805209 -0.45121529866837812 0 0.20856551198180581 -0.44339277029687463 0 0.19529444531123691 -0.47912647623923088 0 0.19695731456745461 -0.46006175170667901 0 0.18008197544605489 -0.46373097112297701 0 0.20856551198180581 -0.44339277029687463 0 0.19695731456745461 -0.46006175170667901 0 0.18231652739658291 -0.44131632282537397 0 0.20856551198180581 -0.44339277029687463 0 0.1964120405326904 -0.42960242059025489 0 0.18231652739658291 -0.44131632282537397 0 0.1964120405326904 -0.42960242059025489 0 0.18609295143471569 -0.41768458112233969 0 0.18231652739658291 -0.44131632282537397 0 0.1964120405326904 -0.42960242059025489 0 0.2086731713176572 -0.4160160081164313 0 0.18609295143471569 -0.41768458112233969 0 0.2086731713176572 -0.4160160081164313 0 0.19474883117177899 -0.40457477076325399 0 0.18609295143471569 -0.41768458112233969 0 0.20856551198180581 -0.44339277029687463 0 0.1964120405326904 -0.42960242059025489 0 0.2086731713176572 -0.4160160081164313 0 0.20856551198180581 -0.44339277029687463 0 0.2086731713176572 -0.4160160081164313 0 0.23077111462805561 -0.42645484985475562 0 0.22987584207805209 -0.45121529866837812 0 0.23077111462805561 -0.42645484985475562 0 0.2484082765115711 -0.43294646813763532 0 0.25299319112237462 -0.41151202415231841 0 0.23077111462805561 -0.42645484985475562 0 0.2484082765115711 -0.43294646813763532 0 0.25299319112237462 -0.41151202415231841 0 0.23077111462805561 -0.42645484985475562 0 0.23143611973653891 -0.3976912730829989 0 0.2086731713176572 -0.4160160081164313 0 0.23077111462805561 -0.42645484985475562 0 0.23143611973653891 -0.3976912730829989 0 0.23042404980377151 -0.36211229113992588 0 0.23143611973653891 -0.3976912730829989 0 0.20592571450423319 -0.38707031522322582 0 0.23042404980377151 -0.36211229113992588 0 0.23143611973653891 -0.3976912730829989 0 0.24762604424047341 -0.38612413505374482 0 0.25299319112237462 -0.41151202415231841 0 0.23143611973653891 -0.3976912730829989 0 0.24762604424047341 -0.38612413505374482 0 0.2086731713176572 -0.4160160081164313 0 0.23143611973653891 -0.3976912730829989 0 0.20592571450423319 -0.38707031522322582 0 0.23143611973653891 -0.3976912730829989 0 0.20592571450423319 -0.38707031522322582 0 0.2086731713176572 -0.4160160081164313 0 0.20592571450423319 -0.38707031522322582 0 0.19474883117177899 -0.40457477076325399 0 0.20592571450423319 -0.38707031522322582 0 0.19474883117177899 -0.40457477076325399 0 0.17830348743050969 -0.39752817859101952 0 0.20592571450423319 -0.38707031522322582 0 0.18041530927192759 -0.3764493573634527 0 0.17830348743050969 -0.39752817859101952 0 0.20592571450423319 -0.38707031522322582 0 0.18041530927192759 -0.3764493573634527 0 0.18041530927192759 -0.3764493573634527 0 0.17830348743050969 -0.39752817859101952 0 0.16320012494293751 -0.38312631177685419 0 0.17830348743050969 -0.39752817859101952 0 0.1546291079693044 -0.39676600184402211 0 0.1661073091228745 -0.41804800803622971 0 0.17830348743050969 -0.39752817859101952 0 0.16320012494293751 -0.38312631177685419 0 0.1546291079693044 -0.39676600184402211 0 0.1549049040396219 -0.36582839950367962 0 0.18041530927192759 -0.3764493573634527 0 0.16320012494293751 -0.38312631177685419 0 0.16320012494293751 -0.38312631177685419 0 0.15044759568021809 -0.3786940771427364 0 0.1546291079693044 -0.39676600184402211 0 0.1549049040396219 -0.36582839950367962 0 0.16320012494293751 -0.38312631177685419 0 0.15044759568021809 -0.3786940771427364 0 0.15044759568021809 -0.3786940771427364 0 0.13768489936489681 -0.38571791383350118 0 0.1546291079693044 -0.39676600184402211 0 0.13837823405098609 -0.37027997285178721 0 0.15044759568021809 -0.3786940771427364 0 0.13768489936489681 -0.38571791383350118 0 0.13837823405098609 -0.37027997285178721 0 0.13768489936489681 -0.38571791383350118 0 0.1154636360686058 -0.37892427349644381 0 0.13768489936489681 -0.38571791383350118 0 0.1242283147182751 -0.39650438614310912 0 0.1154636360686058 -0.37892427349644381 0 0.13768489936489681 -0.38571791383350118 0 0.13811153260425019 -0.40243784979755248 0 0.1242283147182751 -0.39650438614310912 0 0.13811153260425019 -0.40243784979755248 0 0.1269352407973687 -0.41589806488757541 0 0.1242283147182751 -0.39650438614310912 0 0.13811153260425019 -0.40243784979755248 0 0.1546291079693044 -0.39676600184402211 0 0.1470801001714061 -0.41730288227955481 0 0.13768489936489681 -0.38571791383350118 0 0.13811153260425019 -0.40243784979755248 0 0.1546291079693044 -0.39676600184402211 0 0.1546291079693044 -0.39676600184402211 0 0.1470801001714061 -0.41730288227955481 0 0.1661073091228745 -0.41804800803622971 0 0.13811153260425019 -0.40243784979755248 0 0.1470801001714061 -0.41730288227955481 0 0.1269352407973687 -0.41589806488757541 0 0.1470801001714061 -0.41730288227955481 0 0.1269352407973687 -0.41589806488757541 0 0.13632144753417089 -0.44092535739490413 0 0.1269352407973687 -0.41589806488757541 0 0.13632144753417089 -0.44092535739490413 0 0.11495679813956131 -0.43115783812278607 0 0.1470801001714061 -0.41730288227955481 0 0.15642504240159799 -0.43607951193722477 0 0.13632144753417089 -0.44092535739490413 0 0.1470801001714061 -0.41730288227955481 0 0.15642504240159799 -0.43607951193722477 0 0.1661073091228745 -0.41804800803622971 0 0.15642504240159799 -0.43607951193722477 0 0.1661073091228745 -0.41804800803622971 0 0.18231652739658291 -0.44131632282537397 0 0.19474883117177899 -0.40457477076325399 0 0.17830348743050969 -0.39752817859101952 0 0.18609295143471569 -0.41768458112233969 0 0.17830348743050969 -0.39752817859101952 0 0.1661073091228745 -0.41804800803622971 0 0.18609295143471569 -0.41768458112233969 0 0.1661073091228745 -0.41804800803622971 0 0.18609295143471569 -0.41768458112233969 0 0.18231652739658291 -0.44131632282537397 0 0.18231652739658291 -0.44131632282537397 0 0.18008197544605489 -0.46373097112297701 0 0.16070452042021691 -0.45581338935957078 0 0.19695731456745461 -0.46006175170667901 0 0.18231652739658291 -0.44131632282537397 0 0.18008197544605489 -0.46373097112297701 0 0.18008197544605489 -0.46373097112297701 0 0.16070452042021691 -0.45581338935957078 0 0.16373477895990771 -0.47986742653386533 0 0.15642504240159799 -0.43607951193722477 0 0.18231652739658291 -0.44131632282537397 0 0.16070452042021691 -0.45581338935957078 0 0.15642504240159799 -0.43607951193722477 0 0.16070452042021691 -0.45581338935957078 0 0.13632144753417089 -0.44092535739490413 0 0.13632144753417089 -0.44092535739490413 0 0.14088009014115571 -0.46799286658937927 0 0.1133814735030842 -0.45414628076162922 0 0.14088009014115571 -0.46799286658937927 0 0.1213797802521976 -0.47808447432792772 0 0.1133814735030842 -0.45414628076162922 0 0.16070452042021691 -0.45581338935957078 0 0.13632144753417089 -0.44092535739490413 0 0.14088009014115571 -0.46799286658937927 0 0.16070452042021691 -0.45581338935957078 0 0.14088009014115571 -0.46799286658937927 0 0.16373477895990771 -0.47986742653386533 0 0.14088009014115571 -0.46799286658937927 0 0.13389855641391649 -0.5 0 0.16373477895990771 -0.47986742653386533 0 0.14088009014115571 -0.46799286658937927 0 0.13389855641391649 -0.5 0 0.1213797802521976 -0.47808447432792772 0 0.13389855641391649 -0.5 0 0.1631674043629717 -0.5 0 0.16373477895990771 -0.47986742653386533 0 0.19243625231202691 -0.5 0 0.19529444531123691 -0.47912647623923088 0 0.16373477895990771 -0.47986742653386533 0 0.19529444531123691 -0.47912647623923088 0 0.18008197544605489 -0.46373097112297701 0 0.16373477895990771 -0.47986742653386533 0 0.19243625231202691 -0.5 0 0.1631674043629717 -0.5 0 0.16373477895990771 -0.47986742653386533 0 0.075360860515806594 -0.5 0 0.080938695034739119 -0.47973060240531462 0 0.058430111646445293 -0.48277065980423622 0 0.080938695034739119 -0.47973060240531462 0 0.065603664243758061 -0.4683794361931925 0 0.058430111646445293 -0.48277065980423622 0 0.080938695034739119 -0.47973060240531462 0 0.101655537798755 -0.47247601758956848 0 0.084468809773259448 -0.45689252669999958 0 0.075360860515806594 -0.5 0 0.080938695034739119 -0.47973060240531462 0 0.1046297084648615 -0.5 0 0.13389855641391649 -0.5 0 0.1046297084648615 -0.5 0 0.1213797802521976 -0.47808447432792772 0 0.1046297084648615 -0.5 0 0.1213797802521976 -0.47808447432792772 0 0.101655537798755 -0.47247601758956848 0 0.080938695034739119 -0.47973060240531462 0 0.1046297084648615 -0.5 0 0.101655537798755 -0.47247601758956848 0 0.101655537798755 -0.47247601758956848 0 0.1133814735030842 -0.45414628076162922 0 0.084468809773259448 -0.45689252669999958 0 0.1213797802521976 -0.47808447432792772 0 0.101655537798755 -0.47247601758956848 0 0.1133814735030842 -0.45414628076162922 0 0.13632144753417089 -0.44092535739490413 0 0.1133814735030842 -0.45414628076162922 0 0.11495679813956131 -0.43115783812278607 0 0.1133814735030842 -0.45414628076162922 0 0.094619771498046651 -0.43449884939500982 0 0.11495679813956131 -0.43115783812278607 0 0.1133814735030842 -0.45414628076162922 0 0.084468809773259448 -0.45689252669999958 0 0.094619771498046651 -0.43449884939500982 0 0.084468809773259448 -0.45689252669999958 0 0.071482130099217306 -0.43780798929723902 0 0.094619771498046651 -0.43449884939500982 0 0.084468809773259448 -0.45689252669999958 0 0.065603664243758061 -0.4683794361931925 0 0.060323475486055357 -0.45278441500877659 0 0.080938695034739119 -0.47973060240531462 0 0.084468809773259448 -0.45689252669999958 0 0.065603664243758061 -0.4683794361931925 0 0.084468809773259448 -0.45689252669999958 0 0.071482130099217306 -0.43780798929723902 0 0.060323475486055357 -0.45278441500877659 0 0.078181765938224818 -0.41963477627165768 0 0.094619771498046651 -0.43449884939500982 0 0.1015327733298912 -0.40264110534897768 0 0.071482130099217306 -0.43780798929723902 0 0.078181765938224818 -0.41963477627165768 0 0.057938410160850898 -0.425609483432842 0 0.078181765938224818 -0.41963477627165768 0 0.081117121099379116 -0.39810211889277802 0 0.062344814676913572 -0.40648723954891969 0 0.078181765938224818 -0.41963477627165768 0 0.062344814676913572 -0.40648723954891969 0 0.057938410160850898 -0.425609483432842 0 0.078181765938224818 -0.41963477627165768 0 0.1015327733298912 -0.40264110534897768 0 0.081117121099379116 -0.39810211889277802 0 0.071482130099217306 -0.43780798929723902 0 0.078181765938224818 -0.41963477627165768 0 0.094619771498046651 -0.43449884939500982 0 0.094619771498046651 -0.43449884939500982 0 0.11495679813956131 -0.43115783812278607 0 0.1015327733298912 -0.40264110534897768 0 0.1269352407973687 -0.41589806488757541 0 0.11495679813956131 -0.43115783812278607 0 0.1015327733298912 -0.40264110534897768 0 0.1015327733298912 -0.40264110534897768 0 0.098658877542276979 -0.3813170178932026 0 0.081117121099379116 -0.39810211889277802 0 0.1015327733298912 -0.40264110534897768 0 0.1154636360686058 -0.37892427349644381 0 0.1269352407973687 -0.41589806488757541 0 0.1015327733298912 -0.40264110534897768 0 0.1242283147182751 -0.39650438614310912 0 0.1015327733298912 -0.40264110534897768 0 0.1242283147182751 -0.39650438614310912 0 0.1154636360686058 -0.37892427349644381 0 0.1015327733298912 -0.40264110534897768 0 0.1154636360686058 -0.37892427349644381 0 0.098658877542276979 -0.3813170178932026 0 0.098658877542276979 -0.3813170178932026 0 0.082805318564488459 -0.38143820651987931 0 0.096256120207690976 -0.36422447826356857 0 0.098658877542276979 -0.3813170178932026 0 0.082805318564488459 -0.38143820651987931 0 0.081117121099379116 -0.39810211889277802 0 0.081117121099379116 -0.39810211889277802 0 0.064005905646729186 -0.38376819583773808 0 0.062344814676913572 -0.40648723954891969 0 0.082805318564488459 -0.38143820651987931 0 0.064005905646729186 -0.38376819583773808 0 0.07801076430559141 -0.36218061026844511 0 0.082805318564488459 -0.38143820651987931 0 0.081117121099379116 -0.39810211889277802 0 0.064005905646729186 -0.38376819583773808 0 0.064005905646729186 -0.38376819583773808 0 0.048843818945769238 -0.39633623855761441 0 0.042573411647005219 -0.37768887844655041 0 0.048843818945769238 -0.39633623855761441 0 0.042007139197073891 -0.41384778981754838 0 0.062344814676913572 -0.40648723954891969 0 0.064005905646729186 -0.38376819583773808 0 0.048843818945769238 -0.39633623855761441 0 0.062344814676913572 -0.40648723954891969 0 0.048843818945769238 -0.39633623855761441 0 0.042573411647005219 -0.37768887844655041 0 0.02775026941841275 -0.40055693109690987 0 0.048843818945769238 -0.39633623855761441 0 0.02775026941841275 -0.40055693109690987 0 0.042007139197073891 -0.41384778981754838 0 0.042573411647005219 -0.37768887844655041 0 0.02775026941841275 -0.40055693109690987 0 0.042573411647005219 -0.37768887844655041 0 0.026374897481470452 -0.38485868106270588 0 0.02775026941841275 -0.40055693109690987 0 0.026374897481470452 -0.38485868106270588 0 0.011932552714515271 -0.38885705716029351 0 0.023243356145948559 -0.37233185754706999 0 0.042573411647005219 -0.37768887844655041 0 0.026374897481470452 -0.38485868106270588 0 0.023243356145948559 -0.37233185754706999 0 -0.002301545340072768 -0.38144261677986668 0 -0.0043455370979135809 -0.39541487434033717 0 0.011932552714515271 -0.38885705716029351 0 -0.002301545340072768 -0.38144261677986668 0 0.011932552714515271 -0.38885705716029351 0 0.0040815130034665562 -0.37227814972297701 0 0.011932552714515271 -0.38885705716029351 0 0.023243356145948559 -0.37233185754706999 0 0.0040815130034665562 -0.37227814972297701 0 -0.0043455370979135809 -0.39541487434033717 0 0.011932552714515271 -0.38885705716029351 0 0.0062075464587520342 -0.40315125831179799 0 0.011932552714515271 -0.38885705716029351 0 0.0062075464587520342 -0.40315125831179799 0 0.013996367502663431 -0.41246423099095653 0 -0.0043455370979135809 -0.39541487434033717 0 0.0058573225964503057 -0.41574313958097803 0 -0.0043455370979135809 -0.39541487434033717 0 0.0062075464587520342 -0.40315125831179799 0 0.0058573225964503057 -0.41574313958097803 0 0.011932552714515271 -0.38885705716029351 0 0.013996367502663431 -0.41246423099095653 0 0.011932552714515271 -0.38885705716029351 0 0.02775026941841275 -0.40055693109690987 0 0.013996367502663431 -0.41246423099095653 0 0.026374897481470452 -0.38485868106270588 0 0.011932552714515271 -0.38885705716029351 0 0.02775026941841275 -0.40055693109690987 0 0.02644711537509108 -0.4133703815899315 0 0.02273916879129732 -0.41947772217370122 0 0.03025040817180194 -0.42406318928840969 0 0.02273916879129732 -0.41947772217370122 0 0.013996367502663431 -0.41246423099095653 0 0.0217474318040979 -0.4265438843772012 0 0.02644711537509108 -0.4133703815899315 0 0.02273916879129732 -0.41947772217370122 0 0.013996367502663431 -0.41246423099095653 0 0.02775026941841275 -0.40055693109690987 0 0.02644711537509108 -0.4133703815899315 0 0.013996367502663431 -0.41246423099095653 0 0.0062075464587520342 -0.40315125831179799 0 0.013996367502663431 -0.41246423099095653 0 0.0058573225964503057 -0.41574313958097803 0 0.013996367502663431 -0.41246423099095653 0 0.0058573225964503057 -0.41574313958097803 0 0.016060182290813029 -0.43607140482161949 0 -0.0085883594014833208 -0.40611213760437431 0 0.0058573225964503057 -0.41574313958097803 0 0.0046315788295552187 -0.4313369617072963 0 0.013996367502663431 -0.41246423099095653 0 0.016060182290813029 -0.43607140482161949 0 0.0058573225964503057 -0.41574313958097803 0 0.0046315788295552187 -0.4313369617072963 0 0.016060182290813029 -0.43607140482161949 0 0.0058573225964503057 -0.41574313958097803 0 0.016060182290813029 -0.43607140482161949 0 0.013996367502663431 -0.41246423099095653 0 0.016060182290813029 -0.43607140482161949 0 0.0217474318040979 -0.4265438843772012 0 0.016060182290813029 -0.43607140482161949 0 0.0217474318040979 -0.4265438843772012 0 0.028660327640843971 -0.43770446971470778 0 0.0217474318040979 -0.4265438843772012 0 0.03025040817180194 -0.42406318928840969 0 0.028660327640843971 -0.43770446971470778 0 0.02273916879129732 -0.41947772217370122 0 0.0217474318040979 -0.4265438843772012 0 0.03025040817180194 -0.42406318928840969 0 0.03025040817180194 -0.42406318928840969 0 0.041127737787337769 -0.4341010266687973 0 0.028660327640843971 -0.43770446971470778 0 0.03025040817180194 -0.42406318928840969 0 0.041127737787337769 -0.4341010266687973 0 0.042007139197073891 -0.41384778981754838 0 0.02644711537509108 -0.4133703815899315 0 0.03025040817180194 -0.42406318928840969 0 0.042007139197073891 -0.41384778981754838 0 0.02775026941841275 -0.40055693109690987 0 0.02644711537509108 -0.4133703815899315 0 0.042007139197073891 -0.41384778981754838 0 0.042007139197073891 -0.41384778981754838 0 0.062344814676913572 -0.40648723954891969 0 0.057938410160850898 -0.425609483432842 0 0.041127737787337769 -0.4341010266687973 0 0.057938410160850898 -0.425609483432842 0 0.054983137984192527 -0.44012084559885589 0 0.041127737787337769 -0.4341010266687973 0 0.042007139197073891 -0.41384778981754838 0 0.057938410160850898 -0.425609483432842 0 0.071482130099217306 -0.43780798929723902 0 0.057938410160850898 -0.425609483432842 0 0.054983137984192527 -0.44012084559885589 0 0.054983137984192527 -0.44012084559885589 0 0.060323475486055357 -0.45278441500877659 0 0.044043936387501308 -0.45030131358662517 0 0.071482130099217306 -0.43780798929723902 0 0.054983137984192527 -0.44012084559885589 0 0.060323475486055357 -0.45278441500877659 0 0.060323475486055357 -0.45278441500877659 0 0.046325778881981902 -0.46561902743825517 0 0.044043936387501308 -0.45030131358662517 0 0.065603664243758061 -0.4683794361931925 0 0.060323475486055357 -0.45278441500877659 0 0.046325778881981902 -0.46561902743825517 0 0.046325778881981902 -0.46561902743825517 0 0.03547469800402938 -0.45630662330282362 0 0.044043936387501308 -0.45030131358662517 0 0.046325778881981902 -0.46561902743825517 0 0.031473218628807101 -0.46678047073334911 0 0.03547469800402938 -0.45630662330282362 0 0.041127737787337769 -0.4341010266687973 0 0.054983137984192527 -0.44012084559885589 0 0.044043936387501308 -0.45030131358662517 0 0.03547469800402938 -0.45630662330282362 0 0.033218357903810551 -0.44667244209661028 0 0.044043936387501308 -0.45030131358662517 0 0.041127737787337769 -0.4341010266687973 0 0.033218357903810551 -0.44667244209661028 0 0.044043936387501308 -0.45030131358662517 0 0.041127737787337769 -0.4341010266687973 0 0.033218357903810551 -0.44667244209661028 0 0.028660327640843971 -0.43770446971470778 0 0.016060182290813029 -0.43607140482161949 0 0.017851517060591932 -0.45656178581021922 0 0.016060182290813029 -0.43607140482161949 0 0.02376670045981066 -0.45142593777748402 0 0.017851517060591932 -0.45656178581021922 0 0.033218357903810551 -0.44667244209661028 0 0.028660327640843971 -0.43770446971470778 0 0.02376670045981066 -0.45142593777748402 0 0.03547469800402938 -0.45630662330282362 0 0.033218357903810551 -0.44667244209661028 0 0.02376670045981066 -0.45142593777748402 0 0.016060182290813029 -0.43607140482161949 0 0.02376670045981066 -0.45142593777748402 0 0.016060182290813029 -0.43607140482161949 0 0.028660327640843971 -0.43770446971470778 0 0.02376670045981066 -0.45142593777748402 0 0.0046315788295552187 -0.4313369617072963 0 0.016060182290813029 -0.43607140482161949 0 0.017851517060591932 -0.45656178581021922 0 0.0046315788295552187 -0.4313369617072963 0 0.0087411307311617472 -0.45053420095942198 0 0.017851517060591932 -0.45656178581021922 0 0.0046315788295552187 -0.4313369617072963 0 0.017851517060591932 -0.45656178581021922 0 -0.00088972168063912731 -0.44219186557544948 0 0.0046315788295552187 -0.4313369617072963 0 0.0032196226666316961 -0.44724249138027827 0 0.0046315788295552187 -0.4313369617072963 0 0.0087411307311617472 -0.45053420095942198 0 0.0032196226666316961 -0.44724249138027827 0 0.0087411307311617472 -0.45053420095942198 0 0.0032196226666316961 -0.44724249138027827 0 0.0056129295235970858 -0.45849178134335722 0 -0.0049109966380322459 -0.45110520302394008 0 0.0032196226666316961 -0.44724249138027827 0 0.0056129295235970858 -0.45849178134335722 0 0.0056129295235970858 -0.45849178134335722 0 0.011849543483193239 -0.46498279431249961 0 0.0035871959730645478 -0.47190327215778533 0 -0.0060942376894543814 -0.46416944557302392 0 0.0056129295235970858 -0.45849178134335722 0 0.0035871959730645478 -0.47190327215778533 0 0.011013780199635999 -0.45764264060637438 0 0.011849543483193239 -0.46498279431249961 0 0.017851517060591932 -0.45656178581021922 0 0.0087411307311617472 -0.45053420095942198 0 0.0056129295235970858 -0.45849178134335722 0 0.011013780199635999 -0.45764264060637438 0 0.0087411307311617472 -0.45053420095942198 0 0.011013780199635999 -0.45764264060637438 0 0.017851517060591932 -0.45656178581021922 0 0.0056129295235970858 -0.45849178134335722 0 0.011013780199635999 -0.45764264060637438 0 0.011849543483193239 -0.46498279431249961 0 0.031473218628807101 -0.46678047073334911 0 0.01977845705368321 -0.46023855959940629 0 0.019806069283279829 -0.47891914769517652 0 0.017851517060591932 -0.45656178581021922 0 0.019806069283279829 -0.47891914769517652 0 0.017851517060591932 -0.45656178581021922 0 0.01977845705368321 -0.46023855959940629 0 0.019806069283279829 -0.47891914769517652 0 0.011849543483193239 -0.46498279431249961 0 0.017851517060591932 -0.45656178581021922 0 0.019806069283279829 -0.47891914769517652 0 0.02376670045981066 -0.45142593777748402 0 0.017851517060591932 -0.45656178581021922 0 0.01977845705368321 -0.46023855959940629 0 0.017851517060591932 -0.45656178581021922 0 0.01977845705368321 -0.46023855959940629 0 0.031473218628807101 -0.46678047073334911 0 0.02376670045981066 -0.45142593777748402 0 0.01977845705368321 -0.46023855959940629 0 0.031473218628807101 -0.46678047073334911 0 0.03547469800402938 -0.45630662330282362 0 0.02376670045981066 -0.45142593777748402 0 0.031473218628807101 -0.46678047073334911 0 0.02376670045981066 -0.45142593777748402 0 0.031473218628807101 -0.46678047073334911 0 0.019806069283279829 -0.47891914769517652 0 0.036259658635634427 -0.48289489278865511 0 0.011849543483193239 -0.46498279431249961 0 0.019806069283279829 -0.47891914769517652 0 0.0035871959730645478 -0.47190327215778533 0 0.019806069283279829 -0.47891914769517652 0 0.0035871959730645478 -0.47190327215778533 0 0.002949759188172708 -0.48578715135778872 0 -0.0124456833313582 -0.5 0 0.002949759188172708 -0.48578715135778872 0 0.016823164617696729 -0.5 0 0.019806069283279829 -0.47891914769517652 0 0.002949759188172708 -0.48578715135778872 0 0.016823164617696729 -0.5 0 0.019806069283279829 -0.47891914769517652 0 0.016823164617696729 -0.5 0 0.036259658635634427 -0.48289489278865511 0 0.016823164617696729 -0.5 0 0.046092012566751661 -0.5 0 0.036259658635634427 -0.48289489278865511 0 0.046325778881981902 -0.46561902743825517 0 0.031473218628807101 -0.46678047073334911 0 0.036259658635634427 -0.48289489278865511 0 0.065603664243758061 -0.4683794361931925 0 0.046325778881981902 -0.46561902743825517 0 0.058430111646445293 -0.48277065980423622 0 0.046325778881981902 -0.46561902743825517 0 0.036259658635634427 -0.48289489278865511 0 0.058430111646445293 -0.48277065980423622 0 0.075360860515806594 -0.5 0 0.046092012566751661 -0.5 0 0.058430111646445293 -0.48277065980423622 0 0.046092012566751661 -0.5 0 0.036259658635634427 -0.48289489278865511 0 0.058430111646445293 -0.48277065980423622 0 0.088807117075150224 -0.30636292112606739 0 0.079460786451670248 -0.28066222153155151 0 0.1051141033632884 -0.28120570309124832 0 0.088807117075150224 -0.30636292112606739 0 0.06560596511926628 -0.2981640820819017 0 0.068045279232018446 -0.31317988501387423 0 0.06560596511926628 -0.2981640820819017 0 0.068045279232018446 -0.31317988501387423 0 0.057388641920464653 -0.31295746922558632 0 0.06560596511926628 -0.2981640820819017 0 0.079460786451670248 -0.28066222153155151 0 0.055188196368965742 -0.28463890427986133 0 0.088807117075150224 -0.30636292112606739 0 0.06560596511926628 -0.2981640820819017 0 0.079460786451670248 -0.28066222153155151 0 0.077989144561480012 -0.25381619599155852 0 0.079460786451670248 -0.28066222153155151 0 0.061030032203867338 -0.2657471328650079 0 0.079460786451670248 -0.28066222153155151 0 0.055188196368965742 -0.28463890427986133 0 0.061030032203867338 -0.2657471328650079 0 0.077989144561480012 -0.25381619599155852 0 0.061030032203867338 -0.2657471328650079 0 0.061871376859649663 -0.24574624219232591 0 0.077989144561480012 -0.25381619599155852 0 0.095583820749375561 -0.26321772480671651 0 0.097498360319662802 -0.24059347185638769 0 0.077989144561480012 -0.25381619599155852 0 0.079460786451670248 -0.28066222153155151 0 0.095583820749375561 -0.26321772480671651 0 0.079460786451670248 -0.28066222153155151 0 0.1051141033632884 -0.28120570309124832 0 0.095583820749375561 -0.26321772480671651 0 0.1051141033632884 -0.28120570309124832 0 0.095583820749375561 -0.26321772480671651 0 0.1178567090507763 -0.25981103156283653 0 0.095583820749375561 -0.26321772480671651 0 0.1178567090507763 -0.25981103156283653 0 0.097498360319662802 -0.24059347185638769 0 0.1051141033632884 -0.28120570309124832 0 0.1178567090507763 -0.25981103156283653 0 0.1238571776902499 -0.27940968580072589 0 0.12922548004232881 -0.29298096701137188 0 0.1238571776902499 -0.27940968580072589 0 0.1172730364533757 -0.30140319911069879 0 0.1051141033632884 -0.28120570309124832 0 0.1238571776902499 -0.27940968580072589 0 0.1172730364533757 -0.30140319911069879 0 0.088807117075150224 -0.30636292112606739 0 0.1051141033632884 -0.28120570309124832 0 0.088807117075150224 -0.30636292112606739 0 0.1051141033632884 -0.28120570309124832 0 0.1172730364533757 -0.30140319911069879 0 0.088807117075150224 -0.30636292112606739 0 0.1172730364533757 -0.30140319911069879 0 0.109674286601621 -0.32156154091774658 0 0.13006690916062719 -0.31157572849046322 0 0.1172730364533757 -0.30140319911069879 0 0.1208154990584448 -0.31487798322937183 0 0.1282536940425594 -0.32327542887118488 0 0.1208154990584448 -0.31487798322937183 0 0.109674286601621 -0.32156154091774658 0 0.1282536940425594 -0.32327542887118488 0 0.109674286601621 -0.32156154091774658 0 0.11785001665137319 -0.33658958517417942 0 0.1282536940425594 -0.32327542887118488 0 0.109674286601621 -0.32156154091774658 0 0.1172730364533757 -0.30140319911069879 0 0.1208154990584448 -0.31487798322937183 0 0.109674286601621 -0.32156154091774658 0 0.1282536940425594 -0.32327542887118488 0 0.11785001665137319 -0.33658958517417942 0 0.11785001665137319 -0.33658958517417942 0 0.10970692185089061 -0.34701075000725579 0 0.095907675554977118 -0.3343598723449458 0 0.10970692185089061 -0.34701075000725579 0 0.091836128154735588 -0.33957045476148601 0 0.11785001665137319 -0.33658958517417942 0 0.095907675554977118 -0.3343598723449458 0 0.10970692185089061 -0.34701075000725579 0 0.11785001665137319 -0.33658958517417942 0 0.095907675554977118 -0.3343598723449458 0 0.10970692185089061 -0.34701075000725579 0 0.091836128154735588 -0.33957045476148601 0 0.109674286601621 -0.32156154091774658 0 0.11785001665137319 -0.33658958517417942 0 0.095907675554977118 -0.3343598723449458 0 0.088807117075150224 -0.30636292112606739 0 0.109674286601621 -0.32156154091774658 0 0.086084021258154092 -0.32195244377878018 0 0.109674286601621 -0.32156154091774658 0 0.095907675554977118 -0.3343598723449458 0 0.086084021258154092 -0.32195244377878018 0 0.12939449880731591 -0.35520744164390722 0 0.1154636360686058 -0.37892427349644381 0 0.11477829598360639 -0.36257192483756823 0 0.1154636360686058 -0.37892427349644381 0 0.098658877542276979 -0.3813170178932026 0 0.11477829598360639 -0.36257192483756823 0 0.12939449880731591 -0.35520744164390722 0 0.1154636360686058 -0.37892427349644381 0 0.12939449880731591 -0.35520744164390722 0 0.11477829598360639 -0.36257192483756823 0 0.10970692185089061 -0.34701075000725579 0 0.12939449880731591 -0.35520744164390722 0 0.11785001665137319 -0.33658958517417942 0 0.10970692185089061 -0.34701075000725579 0 0.12939449880731591 -0.35520744164390722 0 0.10970692185089061 -0.34701075000725579 0 0.11477829598360639 -0.36257192483756823 0 0.10970692185089061 -0.34701075000725579 0 0.096256120207690976 -0.36422447826356857 0 0.10970692185089061 -0.34701075000725579 0 0.096256120207690976 -0.36422447826356857 0 0.091836128154735588 -0.33957045476148601 0 0.10970692185089061 -0.34701075000725579 0 0.096256120207690976 -0.36422447826356857 0 0.098658877542276979 -0.3813170178932026 0 0.11477829598360639 -0.36257192483756823 0 0.096256120207690976 -0.36422447826356857 0 0.082805318564488459 -0.38143820651987931 0 0.096256120207690976 -0.36422447826356857 0 0.082805318564488459 -0.38143820651987931 0 0.096256120207690976 -0.36422447826356857 0 0.07801076430559141 -0.36218061026844511 0 0.074768684918551723 -0.34452562129247638 0 0.07801076430559141 -0.36218061026844511 0 0.091836128154735588 -0.33957045476148601 0 0.096256120207690976 -0.36422447826356857 0 0.07801076430559141 -0.36218061026844511 0 0.091836128154735588 -0.33957045476148601 0 0.074768684918551723 -0.34452562129247638 0 0.072219696104187978 -0.33195277314582983 0 0.057396553875597688 -0.35482082579619079 0 0.074768684918551723 -0.34452562129247638 0 0.07801076430559141 -0.36218061026844511 0 0.057396553875597688 -0.35482082579619079 0 0.064005905646729186 -0.38376819583773808 0 0.07801076430559141 -0.36218061026844511 0 0.057396553875597688 -0.35482082579619079 0 0.088807117075150224 -0.30636292112606739 0 0.072219696104187978 -0.33195277314582983 0 0.088807117075150224 -0.30636292112606739 0 0.086084021258154092 -0.32195244377878018 0 0.072219696104187978 -0.33195277314582983 0 0.095907675554977118 -0.3343598723449458 0 0.086084021258154092 -0.32195244377878018 0 0.073965334458580667 -0.33213015951571567 0 0.095907675554977118 -0.3343598723449458 0 0.091836128154735588 -0.33957045476148601 0 0.073965334458580667 -0.33213015951571567 0 0.095907675554977118 -0.3343598723449458 0 0.073965334458580667 -0.33213015951571567 0 0.074768684918551723 -0.34452562129247638 0 0.091836128154735588 -0.33957045476148601 0 0.073965334458580667 -0.33213015951571567 0 0.091836128154735588 -0.33957045476148601 0 0.073965334458580667 -0.33213015951571567 0 0.072219696104187978 -0.33195277314582983 0 0.057396553875597688 -0.35482082579619079 0 0.086084021258154092 -0.32195244377878018 0 0.073965334458580667 -0.33213015951571567 0 0.072219696104187978 -0.33195277314582983 0 0.073965334458580667 -0.33213015951571567 0 0.072219696104187978 -0.33195277314582983 0 0.074768684918551723 -0.34452562129247638 0 0.073965334458580667 -0.33213015951571567 0 0.072219696104187978 -0.33195277314582983 0 0.072219696104187978 -0.33195277314582983 0 0.062803215919263369 -0.32224740216150438 0 0.068045279232018446 -0.31317988501387423 0 0.088807117075150224 -0.30636292112606739 0 0.072219696104187978 -0.33195277314582983 0 0.068045279232018446 -0.31317988501387423 0 0.062803215919263369 -0.32224740216150438 0 0.068045279232018446 -0.31317988501387423 0 0.059952746790371922 -0.31779812103964972 0 0.072219696104187978 -0.33195277314582983 0 0.051573850089741212 -0.32280772775763422 0 0.072219696104187978 -0.33195277314582983 0 0.062803215919263369 -0.32224740216150438 0 0.051573850089741212 -0.32280772775763422 0 0.059952746790371922 -0.31779812103964972 0 0.057388641920464653 -0.31295746922558632 0 0.051573850089741212 -0.32280772775763422 0 0.072219696104187978 -0.33195277314582983 0 0.051573850089741212 -0.32280772775763422 0 0.049052440356435453 -0.32959858827867999 0 0.068045279232018446 -0.31317988501387423 0 0.059952746790371922 -0.31779812103964972 0 0.057388641920464653 -0.31295746922558632 0 0.057388641920464653 -0.31295746922558632 0 0.051573850089741212 -0.32280772775763422 0 0.045645295145720272 -0.31021328765860101 0 0.062803215919263369 -0.32224740216150438 0 0.059952746790371922 -0.31779812103964972 0 0.051573850089741212 -0.32280772775763422 0 0.072219696104187978 -0.33195277314582983 0 0.049052440356435453 -0.32959858827867999 0 0.055249838770324557 -0.34040627312664767 0 0.049052440356435453 -0.32959858827867999 0 0.055249838770324557 -0.34040627312664767 0 0.042330664745076553 -0.34525290528589581 0 0.072219696104187978 -0.33195277314582983 0 0.049052440356435453 -0.32959858827867999 0 0.072219696104187978 -0.33195277314582983 0 0.055249838770324557 -0.34040627312664767 0 0.057396553875597688 -0.35482082579619079 0 0.049052440356435453 -0.32959858827867999 0 0.042330664745076553 -0.34525290528589581 0 0.02998704754909963 -0.33314060894674907 0 0.042330664745076553 -0.34525290528589581 0 0.02669506375555394 -0.35201810225481722 0 0.02998704754909963 -0.33314060894674907 0 0.049052440356435453 -0.32959858827867999 0 0.030647569392470111 -0.31409531635438293 0 0.02998704754909963 -0.33314060894674907 0 0.051573850089741212 -0.32280772775763422 0 0.049052440356435453 -0.32959858827867999 0 0.030647569392470111 -0.31409531635438293 0 0.051573850089741212 -0.32280772775763422 0 0.030647569392470111 -0.31409531635438293 0 0.051573850089741212 -0.32280772775763422 0 0.030647569392470111 -0.31409531635438293 0 0.045645295145720272 -0.31021328765860101 0 0.064005905646729186 -0.38376819583773808 0 0.042573411647005219 -0.37768887844655041 0 0.057396553875597688 -0.35482082579619079 0 0.042573411647005219 -0.37768887844655041 0 0.057396553875597688 -0.35482082579619079 0 0.055249838770324557 -0.34040627312664767 0 0.057396553875597688 -0.35482082579619079 0 0.042330664745076553 -0.34525290528589581 0 0.042330664745076553 -0.34525290528589581 0 0.038447810033836391 -0.3604225138661048 0 0.02669506375555394 -0.35201810225481722 0 0.057396553875597688 -0.35482082579619079 0 0.042330664745076553 -0.34525290528589581 0 0.038447810033836391 -0.3604225138661048 0 0.042573411647005219 -0.37768887844655041 0 0.057396553875597688 -0.35482082579619079 0 0.038447810033836391 -0.3604225138661048 0 0.042573411647005219 -0.37768887844655041 0 0.038447810033836391 -0.3604225138661048 0 0.023243356145948559 -0.37233185754706999 0 0.038447810033836391 -0.3604225138661048 0 0.023243356145948559 -0.37233185754706999 0 0.02669506375555394 -0.35201810225481722 0 0.023243356145948559 -0.37233185754706999 0 0.02669506375555394 -0.35201810225481722 0 0.0061206305491817194 -0.3532328979693915 0 0.02669506375555394 -0.35201810225481722 0 0.0061206305491817194 -0.3532328979693915 0 0.02669506375555394 -0.35201810225481722 0 0.0061206305491817194 -0.3532328979693915 0 0.012651692421816451 -0.33653982258075371 0 -0.005094240634022776 -0.36399048738348788 0 0.0061206305491817194 -0.3532328979693915 0 0.0040815130034665562 -0.37227814972297701 0 0.023243356145948559 -0.37233185754706999 0 0.0061206305491817194 -0.3532328979693915 0 0.0040815130034665562 -0.37227814972297701 0 0.030647569392470111 -0.31409531635438293 0 0.02998704754909963 -0.33314060894674907 0 0.01561140537669471 -0.32047615470570789 0 0.02998704754909963 -0.33314060894674907 0 0.012651692421816451 -0.33653982258075371 0 0.01561140537669471 -0.32047615470570789 0 0.02669506375555394 -0.35201810225481722 0 0.02998704754909963 -0.33314060894674907 0 0.012651692421816451 -0.33653982258075371 0 -0.00071537767241249797 -0.32089594914946479 0 -0.0064887875579589431 -0.33914414189327291 0 0.012651692421816451 -0.33653982258075371 0 -0.0064887875579589431 -0.33914414189327291 0 0.0061206305491817194 -0.3532328979693915 0 0.012651692421816451 -0.33653982258075371 0 -0.00071537767241249797 -0.32089594914946479 0 0.012651692421816451 -0.33653982258075371 0 0.01561140537669471 -0.32047615470570789 0 -0.00071537767241249797 -0.32089594914946479 0 0.01561140537669471 -0.32047615470570789 0 0.0106582947817542 -0.30133372407665487 0 -0.0035048592993648111 -0.2831787560597297 0 0.0106582947817542 -0.30133372407665487 0 0.016308953402818099 -0.27888749369892268 0 0.035239062756122069 -0.29497386914030621 0 0.037685208498275342 -0.27286532060858548 0 0.016308953402818099 -0.27888749369892268 0 0.0106582947817542 -0.30133372407665487 0 0.035239062756122069 -0.29497386914030621 0 0.016308953402818099 -0.27888749369892268 0 0.030647569392470111 -0.31409531635438293 0 0.01561140537669471 -0.32047615470570789 0 0.0106582947817542 -0.30133372407665487 0 0.030647569392470111 -0.31409531635438293 0 0.0106582947817542 -0.30133372407665487 0 0.035239062756122069 -0.29497386914030621 0 0.030647569392470111 -0.31409531635438293 0 0.045645295145720272 -0.31021328765860101 0 0.035239062756122069 -0.29497386914030621 0 0.045645295145720272 -0.31021328765860101 0 0.035239062756122069 -0.29497386914030621 0 0.05124754810644893 -0.30006822541712708 0 0.035239062756122069 -0.29497386914030621 0 0.055188196368965742 -0.28463890427986133 0 0.037685208498275342 -0.27286532060858548 0 0.035239062756122069 -0.29497386914030621 0 0.055188196368965742 -0.28463890427986133 0 0.05124754810644893 -0.30006822541712708 0 0.06560596511926628 -0.2981640820819017 0 0.055188196368965742 -0.28463890427986133 0 0.05124754810644893 -0.30006822541712708 0 0.06560596511926628 -0.2981640820819017 0 0.057388641920464653 -0.31295746922558632 0 0.05124754810644893 -0.30006822541712708 0 0.057388641920464653 -0.31295746922558632 0 0.045645295145720272 -0.31021328765860101 0 0.05124754810644893 -0.30006822541712708 0 0.061030032203867338 -0.2657471328650079 0 0.046180772353207403 -0.2546181935128829 0 0.061871376859649663 -0.24574624219232591 0 0.061030032203867338 -0.2657471328650079 0 0.037685208498275342 -0.27286532060858548 0 0.046180772353207403 -0.2546181935128829 0 0.055188196368965742 -0.28463890427986133 0 0.061030032203867338 -0.2657471328650079 0 0.037685208498275342 -0.27286532060858548 0 0.037685208498275342 -0.27286532060858548 0 0.046180772353207403 -0.2546181935128829 0 0.02423404188313899 -0.25829350925182709 0 0.046180772353207403 -0.2546181935128829 0 0.02423404188313899 -0.25829350925182709 0 0.03489192667826306 -0.2422561659024014 0 0.037685208498275342 -0.27286532060858548 0 0.02423404188313899 -0.25829350925182709 0 0.016308953402818099 -0.27888749369892268 0 -0.0035048592993648111 -0.2831787560597297 0 0.016308953402818099 -0.27888749369892268 0 0.00024504688106969801 -0.25583511949747562 0 0.02423404188313899 -0.25829350925182709 0 0.00024504688106969801 -0.25583511949747562 0 0.017994913653490149 -0.24090928649175969 0 0.02423404188313899 -0.25829350925182709 0 0.016308953402818099 -0.27888749369892268 0 0.00024504688106969801 -0.25583511949747562 0 0.00024504688106969801 -0.25583511949747562 0 0.0065068409169212974 -0.22813140075737029 0 0.017994913653490149 -0.24090928649175969 0 0.0065068409169212974 -0.22813140075737029 0 0.017994913653490149 -0.24090928649175969 0 0.018582967374786361 -0.2159077618222795 0 -0.0011397733025324301 -0.21506894674116489 0 0.0065068409169212974 -0.22813140075737029 0 0.018582967374786361 -0.2159077618222795 0 0.017994913653490149 -0.24090928649175969 0 0.034307239936802847 -0.2256113668972253 0 0.017994913653490149 -0.24090928649175969 0 0.018582967374786361 -0.2159077618222795 0 0.034307239936802847 -0.2256113668972253 0 0.017994913653490149 -0.24090928649175969 0 0.03489192667826306 -0.2422561659024014 0 0.034307239936802847 -0.2256113668972253 0 0.02423404188313899 -0.25829350925182709 0 0.017994913653490149 -0.24090928649175969 0 0.03489192667826306 -0.2422561659024014 0 -0.0026434654531786168 -0.19876829564483869 0 0.01225552349487306 -0.1994907983896895 0 0.0012828736885149811 -0.17827542648663261 0 0.01225552349487306 -0.1994907983896895 0 0.019790988183320431 -0.19105681176131711 0 0.0012828736885149811 -0.17827542648663261 0 -0.0011397733025324301 -0.21506894674116489 0 0.01225552349487306 -0.1994907983896895 0 0.018582967374786361 -0.2159077618222795 0 -0.0011397733025324301 -0.21506894674116489 0 -0.0026434654531786168 -0.19876829564483869 0 0.01225552349487306 -0.1994907983896895 0 0.01225552349487306 -0.1994907983896895 0 0.018582967374786361 -0.2159077618222795 0 0.024967705182386821 -0.20219506681924651 0 0.018582967374786361 -0.2159077618222795 0 0.035957359321952251 -0.20961942312900361 0 0.034307239936802847 -0.2256113668972253 0 0.018582967374786361 -0.2159077618222795 0 0.024967705182386821 -0.20219506681924651 0 0.035957359321952251 -0.20961942312900361 0 0.01225552349487306 -0.1994907983896895 0 0.024967705182386821 -0.20219506681924651 0 0.019790988183320431 -0.19105681176131711 0 0.024967705182386821 -0.20219506681924651 0 0.019790988183320431 -0.19105681176131711 0 0.034328856447189901 -0.19422416470382631 0 0.019790988183320431 -0.19105681176131711 0 0.034328856447189901 -0.19422416470382631 0 0.02611998210363738 -0.18109860240719039 0 0.034328856447189901 -0.19422416470382631 0 0.035957359321952251 -0.20961942312900361 0 0.048985106209926382 -0.1892381496132563 0 0.035957359321952251 -0.20961942312900361 0 0.050619566220115528 -0.21031344730269089 0 0.048985106209926382 -0.1892381496132563 0 0.035957359321952251 -0.20961942312900361 0 0.048985106209926382 -0.1892381496132563 0 0.034328856447189901 -0.19422416470382631 0 0.048985106209926382 -0.1892381496132563 0 0.02611998210363738 -0.18109860240719039 0 0.024967705182386821 -0.20219506681924651 0 0.034328856447189901 -0.19422416470382631 0 0.035957359321952251 -0.20961942312900361 0 0.050619566220115528 -0.21031344730269089 0 0.034307239936802847 -0.2256113668972253 0 0.035957359321952251 -0.20961942312900361 0 0.050619566220115528 -0.21031344730269089 0 0.034307239936802847 -0.2256113668972253 0 0.050619566220115528 -0.21031344730269089 0 0.066931892503428791 -0.195015527708157 0 0.050619566220115528 -0.21031344730269089 0 0.048985106209926382 -0.1892381496132563 0 0.066931892503428791 -0.195015527708157 0 0.046180772353207403 -0.2546181935128829 0 0.03489192667826306 -0.2422561659024014 0 0.051742665564675903 -0.23184847335831199 0 0.050619566220115528 -0.21031344730269089 0 0.034307239936802847 -0.2256113668972253 0 0.051742665564675903 -0.23184847335831199 0 0.03489192667826306 -0.2422561659024014 0 0.034307239936802847 -0.2256113668972253 0 0.051742665564675903 -0.23184847335831199 0 0.051742665564675903 -0.23184847335831199 0 0.061871376859649663 -0.24574624219232591 0 0.072460518532455082 -0.2244158618498576 0 0.050619566220115528 -0.21031344730269089 0 0.051742665564675903 -0.23184847335831199 0 0.072460518532455082 -0.2244158618498576 0 0.046180772353207403 -0.2546181935128829 0 0.051742665564675903 -0.23184847335831199 0 0.061871376859649663 -0.24574624219232591 0 0.077989144561480012 -0.25381619599155852 0 0.072460518532455082 -0.2244158618498576 0 0.077989144561480012 -0.25381619599155852 0 0.061871376859649663 -0.24574624219232591 0 0.072460518532455082 -0.2244158618498576 0 0.077989144561480012 -0.25381619599155852 0 0.072460518532455082 -0.2244158618498576 0 0.097498360319662802 -0.24059347185638769 0 0.072460518532455082 -0.2244158618498576 0 0.097078130856589895 -0.2161101436134826 0 0.097498360319662802 -0.24059347185638769 0 0.050619566220115528 -0.21031344730269089 0 0.072460518532455082 -0.2244158618498576 0 0.066931892503428791 -0.195015527708157 0 0.072460518532455082 -0.2244158618498576 0 0.066931892503428791 -0.195015527708157 0 0.072460518532455082 -0.2244158618498576 0 0.066931892503428791 -0.195015527708157 0 0.083319857203269676 -0.20368379473778689 0 0.066931892503428791 -0.195015527708157 0 0.083319857203269676 -0.20368379473778689 0 0.082087651883072058 -0.18080225215462101 0 0.066931892503428791 -0.195015527708157 0 0.082087651883072058 -0.18080225215462101 0 0.083319857203269676 -0.20368379473778689 0 0.097160771059655537 -0.19134956010728549 0 0.082087651883072058 -0.18080225215462101 0 0.083319857203269676 -0.20368379473778689 0 0.097078130856589895 -0.2161101436134826 0 0.097160771059655537 -0.19134956010728549 0 0.072460518532455082 -0.2244158618498576 0 0.083319857203269676 -0.20368379473778689 0 0.097078130856589895 -0.2161101436134826 0 0.097078130856589895 -0.2161101436134826 0 0.1157816149446719 -0.1959956056802907 0 0.12994325916730889 -0.21197294804480379 0 0.097078130856589895 -0.2161101436134826 0 0.097160771059655537 -0.19134956010728549 0 0.097078130856589895 -0.2161101436134826 0 0.097160771059655537 -0.19134956010728549 0 0.1157816149446719 -0.1959956056802907 0 0.097078130856589895 -0.2161101436134826 0 0.1213801429575759 -0.23817277651940541 0 0.12994325916730889 -0.21197294804480379 0 0.1178567090507763 -0.25981103156283653 0 0.1213801429575759 -0.23817277651940541 0 0.097498360319662802 -0.24059347185638769 0 0.097078130856589895 -0.2161101436134826 0 0.1213801429575759 -0.23817277651940541 0 0.097498360319662802 -0.24059347185638769 0 0.1085359187866238 -0.15599871074193949 0 0.097308835937906568 -0.14698649411358569 0 0.1104374801924034 -0.14052532793391409 0 0.097308835937906568 -0.14698649411358569 0 0.1104374801924034 -0.14052532793391409 0 0.097308835937906568 -0.14698649411358569 0 0.097353108134339922 -0.1337216983359463 0 0.088733390663501083 -0.14046412558307261 0 0.097308835937906568 -0.14698649411358569 0 0.097353108134339922 -0.1337216983359463 0 0.097353108134339922 -0.1337216983359463 0 0.1070519594456555 -0.131052785382716 0 0.1105789643288617 -0.1215770834315559 0 0.097353108134339922 -0.1337216983359463 0 0.1070519594456555 -0.131052785382716 0 0.1092874227385939 -0.13559509268469491 0 0.097353108134339922 -0.1337216983359463 0 0.1104374801924034 -0.14052532793391409 0 0.097308835937906568 -0.14698649411358569 0 0.097353108134339922 -0.1337216983359463 0 0.1104374801924034 -0.14052532793391409 0 0.097353108134339922 -0.1337216983359463 0 0.1092874227385939 -0.13559509268469491 0 0.1104374801924034 -0.14052532793391409 0 0.1092874227385939 -0.13559509268469491 0 0.1104374801924034 -0.14052532793391409 0 0.1124924104763859 -0.13951400903494909 0 0.1104374801924034 -0.14052532793391409 0 0.1124924104763859 -0.13951400903494909 0 0.1070519594456555 -0.131052785382716 0 0.1092874227385939 -0.13559509268469491 0 0.1134587551628303 -0.13449548332641079 0 0.1092874227385939 -0.13559509268469491 0 0.1124924104763859 -0.13951400903494909 0 0.1134587551628303 -0.13449548332641079 0 0.1124924104763859 -0.13951400903494909 0 0.1134587551628303 -0.13449548332641079 0 0.1198417338742464 -0.1367213166065748 0 0.1070519594456555 -0.131052785382716 0 0.1134587551628303 -0.13449548332641079 0 0.11862024927926999 -0.1295942129231194 0 0.1070519594456555 -0.131052785382716 0 0.11862024927926999 -0.1295942129231194 0 0.1105789643288617 -0.1215770834315559 0 0.1124924104763859 -0.13951400903494909 0 0.1198417338742464 -0.1367213166065748 0 0.11982842631053291 -0.14540844488279461 0 0.11862024927926999 -0.1295942129231194 0 0.1198417338742464 -0.1367213166065748 0 0.13255121791332231 -0.1334768393240808 0 0.1198417338742464 -0.1367213166065748 0 0.11982842631053291 -0.14540844488279461 0 0.13255121791332231 -0.1334768393240808 0 0.1134587551628303 -0.13449548332641079 0 0.11862024927926999 -0.1295942129231194 0 0.1198417338742464 -0.1367213166065748 0 0.1104374801924034 -0.14052532793391409 0 0.11982842631053291 -0.14540844488279461 0 0.1104374801924034 -0.14052532793391409 0 0.1124924104763859 -0.13951400903494909 0 0.11982842631053291 -0.14540844488279461 0 0.1085359187866238 -0.15599871074193949 0 0.1104374801924034 -0.14052532793391409 0 0.11982842631053291 -0.14540844488279461 0 0.1085359187866238 -0.15599871074193949 0 0.11982842631053291 -0.14540844488279461 0 0.1224074816838322 -0.1593461964104872 0 0.1085359187866238 -0.15599871074193949 0 0.11982842631053291 -0.14540844488279461 0 0.1085359187866238 -0.15599871074193949 0 0.1224074816838322 -0.1593461964104872 0 0.1162195382627632 -0.17477225706567939 0 0.1224074816838322 -0.1593461964104872 0 0.1162195382627632 -0.17477225706567939 0 0.13153036917181299 -0.16639114642623359 0 0.097160771059655537 -0.19134956010728549 0 0.1157816149446719 -0.1959956056802907 0 0.1162195382627632 -0.17477225706567939 0 0.1157816149446719 -0.1959956056802907 0 0.1162195382627632 -0.17477225706567939 0 0.13850637537704191 -0.18577311957020229 0 0.097160771059655537 -0.19134956010728549 0 0.097243411262718502 -0.16658897660108851 0 0.097160771059655537 -0.19134956010728549 0 0.1162195382627632 -0.17477225706567939 0 0.097243411262718502 -0.16658897660108851 0 0.097308835937906568 -0.14698649411358569 0 0.097243411262718502 -0.16658897660108851 0 0.1085359187866238 -0.15599871074193949 0 0.1162195382627632 -0.17477225706567939 0 0.097243411262718502 -0.16658897660108851 0 0.1085359187866238 -0.15599871074193949 0 0.097308835937906568 -0.14698649411358569 0 0.097243411262718502 -0.16658897660108851 0 0.1085359187866238 -0.15599871074193949 0 0.097243411262718502 -0.16658897660108851 0 0.097243411262718502 -0.16658897660108851 0 0.082087651883072058 -0.18080225215462101 0 0.077862411194929315 -0.16663586377834119 0 0.097243411262718502 -0.16658897660108851 0 0.077862411194929315 -0.16663586377834119 0 0.081758991889619131 -0.1546392360506888 0 0.097160771059655537 -0.19134956010728549 0 0.097243411262718502 -0.16658897660108851 0 0.082087651883072058 -0.18080225215462101 0 0.097243411262718502 -0.16658897660108851 0 0.082087651883072058 -0.18080225215462101 0 0.066931892503428791 -0.195015527708157 0 0.062012853097899751 -0.16885687609750849 0 0.066931892503428791 -0.195015527708157 0 0.082087651883072058 -0.18080225215462101 0 0.062012853097899751 -0.16885687609750849 0 0.082087651883072058 -0.18080225215462101 0 0.077862411194929315 -0.16663586377834119 0 0.062012853097899751 -0.16885687609750849 0 0.077862411194929315 -0.16663586377834119 0 0.066209147841334803 -0.16229197798779829 0 0.062012853097899751 -0.16885687609750849 0 0.077862411194929315 -0.16663586377834119 0 0.066209147841334803 -0.16229197798779829 0 0.081758991889619131 -0.1546392360506888 0 0.066209147841334803 -0.16229197798779829 0 0.081758991889619131 -0.1546392360506888 0 0.066209147841334803 -0.16229197798779829 0 0.062012853097899751 -0.16885687609750849 0 0.066209147841334803 -0.16229197798779829 0 0.062012853097899751 -0.16885687609750849 0 0.061238371547195573 -0.16473830915922341 0 0.066209147841334803 -0.16229197798779829 0 0.061238371547195573 -0.16473830915922341 0 0.066209147841334803 -0.16229197798779829 0 0.076946976584020416 -0.14549316953290539 0 0.081758991889619131 -0.1546392360506888 0 0.066209147841334803 -0.16229197798779829 0 0.076946976584020416 -0.14549316953290539 0 0.066209147841334803 -0.16229197798779829 0 0.065486400949409149 -0.14610902597910061 0 0.076946976584020416 -0.14549316953290539 0 0.066209147841334803 -0.16229197798779829 0 0.065486400949409149 -0.14610902597910061 0 0.059517066766025833 -0.155584690256375 0 0.065486400949409149 -0.14610902597910061 0 0.076946976584020416 -0.14549316953290539 0 0.072770459107545024 -0.13432951885223479 0 0.097308835937906568 -0.14698649411358569 0 0.097243411262718502 -0.16658897660108851 0 0.081758991889619131 -0.1546392360506888 0 0.076946976584020416 -0.14549316953290539 0 0.081758991889619131 -0.1546392360506888 0 0.086187048768762431 -0.1468957563200631 0 0.076946976584020416 -0.14549316953290539 0 0.086187048768762431 -0.1468957563200631 0 0.088733390663501083 -0.14046412558307261 0 0.097308835937906568 -0.14698649411358569 0 0.086187048768762431 -0.1468957563200631 0 0.088733390663501083 -0.14046412558307261 0 0.097308835937906568 -0.14698649411358569 0 0.081758991889619131 -0.1546392360506888 0 0.086187048768762431 -0.1468957563200631 0 0.097308835937906568 -0.14698649411358569 0 0.081758991889619131 -0.1546392360506888 0 0.076946976584020416 -0.14549316953290539 0 0.087684805326705056 -0.12869436107801199 0 0.072770459107545024 -0.13432951885223479 0 0.076946976584020416 -0.14549316953290539 0 0.087684805326705056 -0.12869436107801199 0 0.088733390663501083 -0.14046412558307261 0 0.076946976584020416 -0.14549316953290539 0 0.087684805326705056 -0.12869436107801199 0 0.097353108134339922 -0.1337216983359463 0 0.087684805326705056 -0.12869436107801199 0 0.090567766951259857 -0.1241841084678932 0 0.097353108134339922 -0.1337216983359463 0 0.087684805326705056 -0.12869436107801199 0 0.087684805326705056 -0.12869436107801199 0 0.090567766951259857 -0.1241841084678932 0 0.097353108134339922 -0.1337216983359463 0 0.087684805326705056 -0.12869436107801199 0 0.088733390663501083 -0.14046412558307261 0 0.087684805326705056 -0.12869436107801199 0 0.072770459107545024 -0.13432951885223479 0 0.079107183474286413 -0.1242341575882043 0 0.087684805326705056 -0.12869436107801199 0 0.079107183474286413 -0.1242341575882043 0 0.072770459107545024 -0.13432951885223479 0 0.079107183474286413 -0.1242341575882043 0 0.068767644326134456 -0.12478058555352679 0 0.065486400949409149 -0.14610902597910061 0 0.072770459107545024 -0.13432951885223479 0 0.060621967627190278 -0.1338935195937207 0 0.072770459107545024 -0.13432951885223479 0 0.060621967627190278 -0.1338935195937207 0 0.068767644326134456 -0.12478058555352679 0 0.060621967627190278 -0.1338935195937207 0 0.043631081325651772 -0.13852565493362631 0 0.052677589307330262 -0.1249557298126051 0 0.060621967627190278 -0.1338935195937207 0 0.052677589307330262 -0.1249557298126051 0 0.068767644326134456 -0.12478058555352679 0 0.060621967627190278 -0.1338935195937207 0 0.056852787770337712 -0.1450612796515689 0 0.043631081325651772 -0.13852565493362631 0 0.065486400949409149 -0.14610902597910061 0 0.060621967627190278 -0.1338935195937207 0 0.056852787770337712 -0.1450612796515689 0 0.056852787770337712 -0.1450612796515689 0 0.059517066766025833 -0.155584690256375 0 0.049412062288915183 -0.15291601335755911 0 0.065486400949409149 -0.14610902597910061 0 0.056852787770337712 -0.1450612796515689 0 0.059517066766025833 -0.155584690256375 0 0.059517066766025833 -0.155584690256375 0 0.049412062288915183 -0.15291601335755911 0 0.053980287423164103 -0.15903762893254289 0 0.056852787770337712 -0.1450612796515689 0 0.049412062288915183 -0.15291601335755911 0 0.043631081325651772 -0.13852565493362631 0 0.049412062288915183 -0.15291601335755911 0 0.036475026957472872 -0.15467386951179901 0 0.043631081325651772 -0.13852565493362631 0 0.036475026957472872 -0.15467386951179901 0 0.043631081325651772 -0.13852565493362631 0 0.026707117739016451 -0.14352669772215809 0 0.043631081325651772 -0.13852565493362631 0 0.026707117739016451 -0.14352669772215809 0 0.036142949360046923 -0.12314321232802231 0 0.043631081325651772 -0.13852565493362631 0 0.052677589307330262 -0.1249557298126051 0 0.036142949360046923 -0.12314321232802231 0 0.048985106209926382 -0.1892381496132563 0 0.050957090518759747 -0.18392177832774809 0 0.062012853097899751 -0.16885687609750849 0 0.048985106209926382 -0.1892381496132563 0 0.066931892503428791 -0.195015527708157 0 0.062012853097899751 -0.16885687609750849 0 0.050957090518759747 -0.18392177832774809 0 0.062012853097899751 -0.16885687609750849 0 0.037754840270779147 -0.17629555719800721 0 0.048985106209926382 -0.1892381496132563 0 0.062012853097899751 -0.16885687609750849 0 0.062012853097899751 -0.16885687609750849 0 0.061238371547195573 -0.16473830915922341 0 0.037754840270779147 -0.17629555719800721 0 0.061238371547195573 -0.16473830915922341 0 0.037754840270779147 -0.17629555719800721 0 0.061238371547195573 -0.16473830915922341 0 0.045753649090521022 -0.1629115029570137 0 0.037754840270779147 -0.17629555719800721 0 0.062012853097899751 -0.16885687609750849 0 0.061238371547195573 -0.16473830915922341 0 0.066209147841334803 -0.16229197798779829 0 0.059517066766025833 -0.155584690256375 0 0.061238371547195573 -0.16473830915922341 0 0.059517066766025833 -0.155584690256375 0 0.061238371547195573 -0.16473830915922341 0 0.053980287423164103 -0.15903762893254289 0 0.059517066766025833 -0.155584690256375 0 0.061238371547195573 -0.16473830915922341 0 0.049412062288915183 -0.15291601335755911 0 0.053980287423164103 -0.15903762893254289 0 0.045753649090521022 -0.1629115029570137 0 0.061238371547195573 -0.16473830915922341 0 0.053980287423164103 -0.15903762893254289 0 0.045753649090521022 -0.1629115029570137 0 0.049412062288915183 -0.15291601335755911 0 0.036475026957472872 -0.15467386951179901 0 0.045753649090521022 -0.1629115029570137 0 0.036475026957472872 -0.15467386951179901 0 0.045753649090521022 -0.1629115029570137 0 0.034428704619111142 -0.1650021157092009 0 0.036475026957472872 -0.15467386951179901 0 0.034428704619111142 -0.1650021157092009 0 0.024057033016901111 -0.1601837218154113 0 0.034428704619111142 -0.1650021157092009 0 0.037754840270779147 -0.17629555719800721 0 0.028102973759881519 -0.17094592706377351 0 0.045753649090521022 -0.1629115029570137 0 0.034428704619111142 -0.1650021157092009 0 0.037754840270779147 -0.17629555719800721 0 0.050957090518759747 -0.18392177832774809 0 0.037754840270779147 -0.17629555719800721 0 0.02611998210363738 -0.18109860240719039 0 0.048985106209926382 -0.1892381496132563 0 0.050957090518759747 -0.18392177832774809 0 0.02611998210363738 -0.18109860240719039 0 0.050957090518759747 -0.18392177832774809 0 0.02611998210363738 -0.18109860240719039 0 0.019790988183320431 -0.19105681176131711 0 0.02611998210363738 -0.18109860240719039 0 0.0012828736885149811 -0.17827542648663261 0 0.037754840270779147 -0.17629555719800721 0 0.02611998210363738 -0.18109860240719039 0 0.028102973759881519 -0.17094592706377351 0 0.02611998210363738 -0.18109860240719039 0 0.028102973759881519 -0.17094592706377351 0 0.015357373008147979 -0.17025468624307599 0 0.028102973759881519 -0.17094592706377351 0 0.024057033016901111 -0.1601837218154113 0 0.015357373008147979 -0.17025468624307599 0 0.034428704619111142 -0.1650021157092009 0 0.028102973759881519 -0.17094592706377351 0 0.024057033016901111 -0.1601837218154113 0 0.024057033016901111 -0.1601837218154113 0 0.015357373008147979 -0.17025468624307599 0 0.0028690433711086351 -0.15525856831387511 0 0.015357373008147979 -0.17025468624307599 0 0.0012828736885149811 -0.17827542648663261 0 0.0028690433711086351 -0.15525856831387511 0 0.02611998210363738 -0.18109860240719039 0 0.0012828736885149811 -0.17827542648663261 0 0.02611998210363738 -0.18109860240719039 0 0.015357373008147979 -0.17025468624307599 0 0.0012828736885149811 -0.17827542648663261 0 0.017067572402917439 -0.12937515943021519 0 0.026707117739016451 -0.14352669772215809 0 0.036142949360046923 -0.12314321232802231 0 0.036475026957472872 -0.15467386951179901 0 0.024057033016901111 -0.1601837218154113 0 0.026707117739016451 -0.14352669772215809 0 0.024057033016901111 -0.1601837218154113 0 0.026707117739016451 -0.14352669772215809 0 0.0028690433711086351 -0.15525856831387511 0 0.017067572402917439 -0.12937515943021519 0 0.0028690433711086351 -0.15525856831387511 0 0.017067572402917439 -0.12937515943021519 0 0.026707117739016451 -0.14352669772215809 0 0.0028690433711086351 -0.15525856831387511 0 -0.0045266551559220644 -0.13587719985184421 0 0.017067572402917439 -0.12937515943021519 0 0.0028690433711086351 -0.15525856831387511 0 -0.0067497009323723104 -0.11410598435130299 0 -0.0045266551559220644 -0.13587719985184421 0 0.017067572402917439 -0.12937515943021519 0 -0.0067497009323723104 -0.11410598435130299 0 0.017067572402917439 -0.12937515943021519 0 0.012119429364086869 -0.1067101416733385 0 0.017067572402917439 -0.12937515943021519 0 0.012119429364086869 -0.1067101416733385 0 0.031266101434726218 -0.10349175054655541 0 0.017067572402917439 -0.12937515943021519 0 0.036142949360046923 -0.12314321232802231 0 0.031266101434726218 -0.10349175054655541 0 0.017067572402917439 -0.12937515943021519 0 0.031266101434726218 -0.10349175054655541 0 0.012119429364086869 -0.1067101416733385 0 0.016740056198910919 -0.090873658777109872 0 0.031266101434726218 -0.10349175054655541 0 -0.0067497009323723104 -0.11410598435130299 0 0.0022731177162520662 -0.095704155261508966 0 0.012119429364086869 -0.1067101416733385 0 0.0022731177162520662 -0.095704155261508966 0 0.012119429364086869 -0.1067101416733385 0 0.016740056198910919 -0.090873658777109872 0 0.0022731177162520662 -0.095704155261508966 0 0.0037294132351704638 -0.079436910830202309 0 0.016740056198910919 -0.090873658777109872 0 0.0037294132351704638 -0.079436910830202309 0 0.019376024450177179 -0.076211317417137492 0 0.016740056198910919 -0.090873658777109872 0 0.0037294132351704638 -0.079436910830202309 0 0.019376024450177179 -0.076211317417137492 0 0.01214608068858348 -0.058468125646932143 0 -0.0091045694076698595 -0.066017009141148927 0 0.0037294132351704638 -0.079436910830202309 0 0.01214608068858348 -0.058468125646932143 0 0.029507921164251699 -0.065878327175492093 0 0.019376024450177179 -0.076211317417137492 0 0.02913723266701234 -0.083329570240751591 0 0.029507921164251699 -0.065878327175492093 0 0.019376024450177179 -0.076211317417137492 0 0.01214608068858348 -0.058468125646932143 0 0.016740056198910919 -0.090873658777109872 0 0.02913723266701234 -0.083329570240751591 0 0.031266101434726218 -0.10349175054655541 0 0.019376024450177179 -0.076211317417137492 0 0.016740056198910919 -0.090873658777109872 0 0.02913723266701234 -0.083329570240751591 0 0.02913723266701234 -0.083329570240751591 0 0.045464630466535011 -0.077608341662895541 0 0.031266101434726218 -0.10349175054655541 0 0.045464630466535011 -0.077608341662895541 0 0.046062031469666379 -0.096494874651980256 0 0.031266101434726218 -0.10349175054655541 0 0.045464630466535011 -0.077608341662895541 0 0.031266101434726218 -0.10349175054655541 0 0.029507921164251699 -0.065878327175492093 0 0.02913723266701234 -0.083329570240751591 0 0.045464630466535011 -0.077608341662895541 0 0.029507921164251699 -0.065878327175492093 0 0.045464630466535011 -0.077608341662895541 0 0.043050331544634259 -0.057844286495403387 0 0.045464630466535011 -0.077608341662895541 0 0.05696883293493317 -0.087172022723002743 0 0.062220435771509139 -0.062090534694163348 0 0.045464630466535011 -0.077608341662895541 0 0.043050331544634259 -0.057844286495403387 0 0.062220435771509139 -0.062090534694163348 0 0.05696883293493317 -0.087172022723002743 0 0.062220435771509139 -0.062090534694163348 0 0.045464630466535011 -0.077608341662895541 0 0.05696883293493317 -0.087172022723002743 0 0.046062031469666379 -0.096494874651980256 0 0.05696883293493317 -0.087172022723002743 0 0.051717230098357193 -0.1122535107518421 0 0.046062031469666379 -0.096494874651980256 0 0.05696883293493317 -0.087172022723002743 0 0.051717230098357193 -0.1122535107518421 0 0.05696883293493317 -0.087172022723002743 0 0.051717230098357193 -0.1122535107518421 0 0.064499263850690339 -0.10390053671604391 0 0.051717230098357193 -0.1122535107518421 0 0.064356610309520085 -0.1143759648255854 0 0.064499263850690339 -0.10390053671604391 0 0.052677589307330262 -0.1249557298126051 0 0.068767644326134456 -0.12478058555352679 0 0.064356610309520085 -0.1143759648255854 0 0.052677589307330262 -0.1249557298126051 0 0.051717230098357193 -0.1122535107518421 0 0.064356610309520085 -0.1143759648255854 0 0.052677589307330262 -0.1249557298126051 0 0.051717230098357193 -0.1122535107518421 0 0.036142949360046923 -0.12314321232802231 0 0.051717230098357193 -0.1122535107518421 0 0.036142949360046923 -0.12314321232802231 0 0.031266101434726218 -0.10349175054655541 0 0.051717230098357193 -0.1122535107518421 0 0.046062031469666379 -0.096494874651980256 0 0.031266101434726218 -0.10349175054655541 0 -0.0065094997423421836 -0.03131609944167868 0 -0.0068516570942758421 0.0027922451556188291 0 0.01410313854470082 -0.027539188588833509 0 0.01319485230499441 0.0059030625363524917 0 0.028370925747964029 -0.01043531018307757 0 0.01410313854470082 -0.027539188588833509 0 0.028370925747964029 -0.01043531018307757 0 0.01410313854470082 -0.027539188588833509 0 0.027873227168567959 -0.041808321589832387 0 -0.0068516570942758421 0.0027922451556188291 0 0.01319485230499441 0.0059030625363524917 0 0.01410313854470082 -0.027539188588833509 0 0.01410313854470082 -0.027539188588833509 0 0.027873227168567959 -0.041808321589832387 0 0.01214608068858348 -0.058468125646932143 0 -0.0035523121447182762 -0.047781443243352088 0 0.01410313854470082 -0.027539188588833509 0 0.01214608068858348 -0.058468125646932143 0 -0.0065094997423421836 -0.03131609944167868 0 -0.0035523121447182762 -0.047781443243352088 0 0.01410313854470082 -0.027539188588833509 0 0.029507921164251699 -0.065878327175492093 0 0.027873227168567959 -0.041808321589832387 0 0.01214608068858348 -0.058468125646932143 0 0.027873227168567959 -0.041808321589832387 0 0.043050331544634259 -0.057844286495403387 0 0.049099613422037641 -0.042159982892225507 0 0.029507921164251699 -0.065878327175492093 0 0.027873227168567959 -0.041808321589832387 0 0.043050331544634259 -0.057844286495403387 0 0.062220435771509139 -0.062090534694163348 0 0.049099613422037641 -0.042159982892225507 0 0.067472038608085122 -0.037009046665323959 0 0.043050331544634259 -0.057844286495403387 0 0.062220435771509139 -0.062090534694163348 0 0.049099613422037641 -0.042159982892225507 0 0.049099613422037641 -0.042159982892225507 0 0.049699318689751783 -0.019235027814488249 0 0.067472038608085122 -0.037009046665323959 0 0.027873227168567959 -0.041808321589832387 0 0.049099613422037641 -0.042159982892225507 0 0.049699318689751783 -0.019235027814488249 0 0.028370925747964029 -0.01043531018307757 0 0.027873227168567959 -0.041808321589832387 0 0.049699318689751783 -0.019235027814488249 0 0.063125973231280358 0.001453631966744697 0 0.049699318689751783 -0.019235027814488249 0 0.072723641444661119 -0.01192755863648455 0 0.046106769888590513 0.0048247085024532808 0 0.063125973231280358 0.001453631966744697 0 0.049699318689751783 -0.019235027814488249 0 0.046106769888590513 0.0048247085024532808 0 0.028370925747964029 -0.01043531018307757 0 0.049699318689751783 -0.019235027814488249 0 0.082073047877995534 0.0089142551968755535 0 0.089482141183063579 -0.00222485800946197 0 0.072723641444661119 -0.01192755863648455 0 0.089482141183063579 -0.00222485800946197 0 0.072723641444661119 -0.01192755863648455 0 0.091400707987380397 -0.015984438360663499 0 0.049699318689751783 -0.019235027814488249 0 0.072723641444661119 -0.01192755863648455 0 0.067472038608085122 -0.037009046665323959 0 0.072723641444661119 -0.01192755863648455 0 0.089159407026795937 -0.034532147488628782 0 0.067472038608085122 -0.037009046665323959 0 0.072723641444661119 -0.01192755863648455 0 0.067472038608085122 -0.037009046665323959 0 0.072723641444661119 -0.01192755863648455 0 0.091400707987380397 -0.015984438360663499 0 0.089159407026795937 -0.034532147488628782 0 0.089159407026795937 -0.034532147488628782 0 0.067472038608085122 -0.037009046665323959 0 0.078139806669448961 -0.052333219920755472 0 0.062220435771509139 -0.062090534694163348 0 0.078139806669448961 -0.052333219920755472 0 0.085657851505464705 -0.068001247418127936 0 0.062220435771509139 -0.062090534694163348 0 0.067472038608085122 -0.037009046665323959 0 0.062220435771509139 -0.062090534694163348 0 0.067472038608085122 -0.037009046665323959 0 0.078139806669448961 -0.052333219920755472 0 0.089159407026795937 -0.034532147488628782 0 0.078139806669448961 -0.052333219920755472 0 0.097613366982855498 -0.055743175620854887 0 0.078139806669448961 -0.052333219920755472 0 0.097613366982855498 -0.055743175620854887 0 0.085657851505464705 -0.068001247418127936 0 0.097613366982855498 -0.055743175620854887 0 0.1104612946770071 -0.043489971431767367 0 0.1109664154971949 -0.064597030506587619 0 0.1234810980800055 -0.055583630301825358 0 0.1104612946770071 -0.043489971431767367 0 0.1109664154971949 -0.064597030506587619 0 0.1234810980800055 -0.055583630301825358 0 0.1104612946770071 -0.043489971431767367 0 0.1311851456581184 -0.041004009307220202 0 0.1104612946770071 -0.043489971431767367 0 0.1034985718875768 -0.023624305808325651 0 0.11732505760650259 -0.029345500988929091 0 0.1104612946770071 -0.043489971431767367 0 0.11732505760650259 -0.029345500988929091 0 0.1311851456581184 -0.041004009307220202 0 0.089159407026795937 -0.034532147488628782 0 0.097613366982855498 -0.055743175620854887 0 0.1104612946770071 -0.043489971431767367 0 0.089159407026795937 -0.034532147488628782 0 0.1104612946770071 -0.043489971431767367 0 0.1034985718875768 -0.023624305808325651 0 0.091400707987380397 -0.015984438360663499 0 0.1034985718875768 -0.023624305808325651 0 0.1021397783948045 -0.0076133218604165437 0 0.091400707987380397 -0.015984438360663499 0 0.089159407026795937 -0.034532147488628782 0 0.1034985718875768 -0.023624305808325651 0 0.11732505760650259 -0.029345500988929091 0 0.11565552954901551 -0.01489203350566792 0 0.12910567231314379 -0.02345262144435575 0 0.1034985718875768 -0.023624305808325651 0 0.11732505760650259 -0.029345500988929091 0 0.11565552954901551 -0.01489203350566792 0 0.11565552954901551 -0.01489203350566792 0 0.12833812541961651 -0.0066011368827682427 0 0.12910567231314379 -0.02345262144435575 0 0.1135259716724486 0.0012846859507877251 0 0.11565552954901551 -0.01489203350566792 0 0.1021397783948045 -0.0076133218604165437 0 0.1135259716724486 0.0012846859507877251 0 0.11565552954901551 -0.01489203350566792 0 0.12833812541961651 -0.0066011368827682427 0 0.1034985718875768 -0.023624305808325651 0 0.11565552954901551 -0.01489203350566792 0 0.1021397783948045 -0.0076133218604165437 0 0.1005315655444492 0.0094229986521299543 0 0.089482141183063579 -0.00222485800946197 0 0.1021397783948045 -0.0076133218604165437 0 0.089482141183063579 -0.00222485800946197 0 0.091400707987380397 -0.015984438360663499 0 0.1021397783948045 -0.0076133218604165437 0 0.089112099986146942 -0.094751839427681173 0 0.085706032802741874 -0.1109050779086333 0 0.075312875305236934 -0.1033633504700984 0 0.089112099986146942 -0.094751839427681173 0 0.085706032802741874 -0.1109050779086333 0 0.097439755747464996 -0.10776041822232971 0 0.089112099986146942 -0.094751839427681173 0 0.075312875305236934 -0.1033633504700984 0 0.079127850642314382 -0.089653627276792824 0 0.090567766951259857 -0.1241841084678932 0 0.085706032802741874 -0.1109050779086333 0 0.097439755747464996 -0.10776041822232971 0 0.090567766951259857 -0.1241841084678932 0 0.08401049843844953 -0.1207737952309855 0 0.085706032802741874 -0.1109050779086333 0 0.087684805326705056 -0.12869436107801199 0 0.090567766951259857 -0.1241841084678932 0 0.08401049843844953 -0.1207737952309855 0 0.087684805326705056 -0.12869436107801199 0 0.079107183474286413 -0.1242341575882043 0 0.08401049843844953 -0.1207737952309855 0 0.079107183474286413 -0.1242341575882043 0 0.08401049843844953 -0.1207737952309855 0 0.076784557952853896 -0.1159955384705737 0 0.08401049843844953 -0.1207737952309855 0 0.085706032802741874 -0.1109050779086333 0 0.076784557952853896 -0.1159955384705737 0 0.085706032802741874 -0.1109050779086333 0 0.076784557952853896 -0.1159955384705737 0 0.075312875305236934 -0.1033633504700984 0 0.076784557952853896 -0.1159955384705737 0 0.064356610309520085 -0.1143759648255854 0 0.075312875305236934 -0.1033633504700984 0 0.079107183474286413 -0.1242341575882043 0 0.076784557952853896 -0.1159955384705737 0 0.068767644326134456 -0.12478058555352679 0 0.076784557952853896 -0.1159955384705737 0 0.068767644326134456 -0.12478058555352679 0 0.064356610309520085 -0.1143759648255854 0 0.05696883293493317 -0.087172022723002743 0 0.064499263850690339 -0.10390053671604391 0 0.068948749982797444 -0.092586036295102064 0 0.064356610309520085 -0.1143759648255854 0 0.064499263850690339 -0.10390053671604391 0 0.075312875305236934 -0.1033633504700984 0 0.075312875305236934 -0.1033633504700984 0 0.068948749982797444 -0.092586036295102064 0 0.079127850642314382 -0.089653627276792824 0 0.064499263850690339 -0.10390053671604391 0 0.075312875305236934 -0.1033633504700984 0 0.068948749982797444 -0.092586036295102064 0 0.05696883293493317 -0.087172022723002743 0 0.068948749982797444 -0.092586036295102064 0 0.0728612548985971 -0.077599655355976863 0 0.068948749982797444 -0.092586036295102064 0 0.0728612548985971 -0.077599655355976863 0 0.079127850642314382 -0.089653627276792824 0 0.05696883293493317 -0.087172022723002743 0 0.062220435771509139 -0.062090534694163348 0 0.0728612548985971 -0.077599655355976863 0 0.062220435771509139 -0.062090534694163348 0 0.0728612548985971 -0.077599655355976863 0 0.085657851505464705 -0.068001247418127936 0 0.0728612548985971 -0.077599655355976863 0 0.085657851505464705 -0.068001247418127936 0 0.097526403360591735 -0.081799138108713032 0 0.097613366982855498 -0.055743175620854887 0 0.085657851505464705 -0.068001247418127936 0 0.097526403360591735 -0.081799138108713032 0 0.089112099986146942 -0.094751839427681173 0 0.079127850642314382 -0.089653627276792824 0 0.097526403360591735 -0.081799138108713032 0 0.0728612548985971 -0.077599655355976863 0 0.097526403360591735 -0.081799138108713032 0 0.0728612548985971 -0.077599655355976863 0 0.079127850642314382 -0.089653627276792824 0 0.097526403360591735 -0.081799138108713032 0 0.1078698246041485 -0.08016700610509625 0 0.097526403360591735 -0.081799138108713032 0 0.1203233514669924 -0.085680541479763672 0 0.097526403360591735 -0.081799138108713032 0 0.1203233514669924 -0.085680541479763672 0 0.097526403360591735 -0.081799138108713032 0 0.1203233514669924 -0.085680541479763672 0 0.1083046961851406 -0.095292449905907878 0 0.097613366982855498 -0.055743175620854887 0 0.097526403360591735 -0.081799138108713032 0 0.1078698246041485 -0.08016700610509625 0 0.097526403360591735 -0.081799138108713032 0 0.1109664154971949 -0.064597030506587619 0 0.097613366982855498 -0.055743175620854887 0 0.097526403360591735 -0.081799138108713032 0 0.1109664154971949 -0.064597030506587619 0 0.1078698246041485 -0.08016700610509625 0 0.1109664154971949 -0.064597030506587619 0 0.12625975812037329 -0.069300137389782038 0 0.1078698246041485 -0.08016700610509625 0 0.12625975812037329 -0.069300137389782038 0 0.1234810980800055 -0.055583630301825358 0 0.1109664154971949 -0.064597030506587619 0 0.12625975812037329 -0.069300137389782038 0 0.1078698246041485 -0.08016700610509625 0 0.1203233514669924 -0.085680541479763672 0 0.12625975812037329 -0.069300137389782038 0 0.1203233514669924 -0.085680541479763672 0 0.1235518724995366 -0.096900411315638341 0 0.1083046961851406 -0.095292449905907878 0 0.1235518724995366 -0.096900411315638341 0 0.1152520680294309 -0.1076871109848643 0 0.13075894724272599 -0.1062800093568415 0 0.1235518724995366 -0.096900411315638341 0 0.1152520680294309 -0.1076871109848643 0 0.1083046961851406 -0.095292449905907878 0 0.097526403360591735 -0.081799138108713032 0 0.097439755747464996 -0.10776041822232971 0 0.1083046961851406 -0.095292449905907878 0 0.089112099986146942 -0.094751839427681173 0 0.097526403360591735 -0.081799138108713032 0 0.097439755747464996 -0.10776041822232971 0 0.1152520680294309 -0.1076871109848643 0 0.097439755747464996 -0.10776041822232971 0 0.1083046961851406 -0.095292449905907878 0 0.097526403360591735 -0.081799138108713032 0 0.097439755747464996 -0.10776041822232971 0 0.1152520680294309 -0.1076871109848643 0 0.097439755747464996 -0.10776041822232971 0 0.1105789643288617 -0.1215770834315559 0 0.097353108134339922 -0.1337216983359463 0 0.090567766951259857 -0.1241841084678932 0 0.097439755747464996 -0.10776041822232971 0 0.097353108134339922 -0.1337216983359463 0 0.097439755747464996 -0.10776041822232971 0 0.1105789643288617 -0.1215770834315559 0 0.097353108134339922 -0.1337216983359463 0 0.097439755747464996 -0.10776041822232971 0 0.1152520680294309 -0.1076871109848643 0 0.1105789643288617 -0.1215770834315559 0 0.12511173043444199 -0.1195330779220839 0 0.1152520680294309 -0.1076871109848643 0 0.12511173043444199 -0.1195330779220839 0 0.13075894724272599 -0.1062800093568415 0 0.11862024927926999 -0.1295942129231194 0 0.1105789643288617 -0.1215770834315559 0 0.12511173043444199 -0.1195330779220839 0 0.12511173043444199 -0.1195330779220839 0 0.14290893581304129 -0.11858321151204131 0 0.13255121791332231 -0.1334768393240808 0 0.12511173043444199 -0.1195330779220839 0 0.14290893581304129 -0.11858321151204131 0 0.13075894724272599 -0.1062800093568415 0 0.14290893581304129 -0.11858321151204131 0 0.1612217898168781 -0.11627272421450841 0 0.1541456407018266 -0.13792300765505441 0 0.14290893581304129 -0.11858321151204131 0 0.1501723786045947 -0.1041719832002949 0 0.13075894724272599 -0.1062800093568415 0 0.14290893581304129 -0.11858321151204131 0 0.1501723786045947 -0.1041719832002949 0 0.1612217898168781 -0.11627272421450841 0 0.1501723786045947 -0.1041719832002949 0 0.1431202995733932 -0.08956194485081434 0 0.16591724767979399 -0.093443348221864994 0 0.1501723786045947 -0.1041719832002949 0 0.13075894724272599 -0.1062800093568415 0 0.1431202995733932 -0.08956194485081434 0 0.1235518724995366 -0.096900411315638341 0 0.13075894724272599 -0.1062800093568415 0 0.1431202995733932 -0.08956194485081434 0 0.1203233514669924 -0.085680541479763672 0 0.1235518724995366 -0.096900411315638341 0 0.1431202995733932 -0.08956194485081434 0 0.1203233514669924 -0.085680541479763672 0 0.13806862817789431 -0.07420592822238059 0 0.1431202995733932 -0.08956194485081434 0 0.1203233514669924 -0.085680541479763672 0 0.1431202995733932 -0.08956194485081434 0 0.12625975812037329 -0.069300137389782038 0 0.14464969163659819 -0.058433268674467971 0 0.1203233514669924 -0.085680541479763672 0 0.12625975812037329 -0.069300137389782038 0 0.13806862817789431 -0.07420592822238059 0 0.12625975812037329 -0.069300137389782038 0 0.13806862817789431 -0.07420592822238059 0 0.14464969163659819 -0.058433268674467971 0 0.1527688906628559 -0.074434084000377376 0 0.14464969163659819 -0.058433268674467971 0 0.16483032723326299 -0.061149911772500842 0 0.13806862817789431 -0.07420592822238059 0 0.1527688906628559 -0.074434084000377376 0 0.14464969163659819 -0.058433268674467971 0 0.1431202995733932 -0.08956194485081434 0 0.16591724767979399 -0.093443348221864994 0 0.1527688906628559 -0.074434084000377376 0 0.1431202995733932 -0.08956194485081434 0 0.16591724767979399 -0.093443348221864994 0 0.13806862817789431 -0.07420592822238059 0 0.1527688906628559 -0.074434084000377376 0 0.1431202995733932 -0.08956194485081434 0 0.1527688906628559 -0.074434084000377376 0 0.16591724767979399 -0.093443348221864994 0 0.1691511436662283 -0.075706602131993497 0 0.1527688906628559 -0.074434084000377376 0 0.1691511436662283 -0.075706602131993497 0 0.16483032723326299 -0.061149911772500842 0 0.18501096282992791 -0.06386655487053354 0 0.16483032723326299 -0.061149911772500842 0 0.1691511436662283 -0.075706602131993497 0 0.18501096282992791 -0.06386655487053354 0 0.18210096888394431 -0.08293947225534834 0 0.1691511436662283 -0.075706602131993497 0 0.18501096282992791 -0.06386655487053354 0 0.16483032723326299 -0.061149911772500842 0 0.16591724767979399 -0.093443348221864994 0 0.1691511436662283 -0.075706602131993497 0 0.18210096888394431 -0.08293947225534834 0 0.16591724767979399 -0.093443348221864994 0 0.18210096888394431 -0.08293947225534834 0 0.18064770511919601 -0.1092461945484518 0 0.18210096888394431 -0.08293947225534834 0 0.18064770511919601 -0.1092461945484518 0 0.19575781592975361 -0.097029840504253229 0 0.18064770511919601 -0.1092461945484518 0 0.18847425822058331 -0.12757254000602081 0 0.1704795985147195 -0.13192203376589989 0 0.18064770511919601 -0.1092461945484518 0 0.1612217898168781 -0.11627272421450841 0 0.1704795985147195 -0.13192203376589989 0 0.1501723786045947 -0.1041719832002949 0 0.16591724767979399 -0.093443348221864994 0 0.1612217898168781 -0.11627272421450841 0 0.16591724767979399 -0.093443348221864994 0 0.18064770511919601 -0.1092461945484518 0 0.1612217898168781 -0.11627272421450841 0 0.1459417225209636 0.0038304568003534201 0 0.15925525287649669 -0.016735516864993499 0 0.16311415995912609 -0.00057207636211294524 0 0.1459417225209636 0.0038304568003534201 0 0.14201789839634049 -0.016511995924244641 0 0.15925525287649669 -0.016735516864993499 0 0.1459417225209636 0.0038304568003534201 0 0.12833812541961651 -0.0066011368827682427 0 0.14201789839634049 -0.016511995924244641 0 0.12833812541961651 -0.0066011368827682427 0 0.12910567231314379 -0.02345262144435575 0 0.14201789839634049 -0.016511995924244641 0 0.12910567231314379 -0.02345262144435575 0 0.14201789839634049 -0.016511995924244641 0 0.1410285444603788 -0.031748134575941563 0 0.14201789839634049 -0.016511995924244641 0 0.15616473386690921 -0.031611485805143148 0 0.15925525287649669 -0.016735516864993499 0 0.14201789839634049 -0.016511995924244641 0 0.15616473386690921 -0.031611485805143148 0 0.1410285444603788 -0.031748134575941563 0 0.15616473386690921 -0.031611485805143148 0 0.14769302833567141 -0.041789328124837898 0 0.1410285444603788 -0.031748134575941563 0 0.12910567231314379 -0.02345262144435575 0 0.1410285444603788 -0.031748134575941563 0 0.1311851456581184 -0.041004009307220202 0 0.14769302833567141 -0.041789328124837898 0 0.1410285444603788 -0.031748134575941563 0 0.1311851456581184 -0.041004009307220202 0 0.11732505760650259 -0.029345500988929091 0 0.12910567231314379 -0.02345262144435575 0 0.1311851456581184 -0.041004009307220202 0 0.1234810980800055 -0.055583630301825358 0 0.1311851456581184 -0.041004009307220202 0 0.14464969163659819 -0.058433268674467971 0 0.1234810980800055 -0.055583630301825358 0 0.14464969163659819 -0.058433268674467971 0 0.1234810980800055 -0.055583630301825358 0 0.12625975812037329 -0.069300137389782038 0 0.14464969163659819 -0.058433268674467971 0 0.14464969163659819 -0.058433268674467971 0 0.16543702605635249 -0.046149742261416653 0 0.14464969163659819 -0.058433268674467971 0 0.16483032723326299 -0.061149911772500842 0 0.14769302833567141 -0.041789328124837898 0 0.1311851456581184 -0.041004009307220202 0 0.14464969163659819 -0.058433268674467971 0 0.14769302833567141 -0.041789328124837898 0 0.14464969163659819 -0.058433268674467971 0 0.16543702605635249 -0.046149742261416653 0 0.14464969163659819 -0.058433268674467971 0 0.16483032723326299 -0.061149911772500842 0 0.16543702605635249 -0.046149742261416653 0 0.16483032723326299 -0.061149911772500842 0 0.1807427914759443 -0.049778724934584483 0 0.16543702605635249 -0.046149742261416653 0 0.18501096282992791 -0.06386655487053354 0 0.16483032723326299 -0.061149911772500842 0 0.1807427914759443 -0.049778724934584483 0 0.18622436047610691 -0.033866215848365418 0 0.16543702605635249 -0.046149742261416653 0 0.18622436047610691 -0.033866215848365418 0 0.16543702605635249 -0.046149742261416653 0 0.1694101996809709 -0.03034423786054264 0 0.1807427914759443 -0.049778724934584483 0 0.18622436047610691 -0.033866215848365418 0 0.16543702605635249 -0.046149742261416653 0 0.15616473386690921 -0.031611485805143148 0 0.16543702605635249 -0.046149742261416653 0 0.1694101996809709 -0.03034423786054264 0 0.15616473386690921 -0.031611485805143148 0 0.14769302833567141 -0.041789328124837898 0 0.16543702605635249 -0.046149742261416653 0 0.15925525287649669 -0.016735516864993499 0 0.1694101996809709 -0.03034423786054264 0 0.1756522969309256 -0.017528927151309999 0 0.15616473386690921 -0.031611485805143148 0 0.15925525287649669 -0.016735516864993499 0 0.1694101996809709 -0.03034423786054264 0 0.18622436047610691 -0.033866215848365418 0 0.1756522969309256 -0.017528927151309999 0 0.19342451014379361 -0.01658605919344024 0 0.18622436047610691 -0.033866215848365418 0 0.1694101996809709 -0.03034423786054264 0 0.1756522969309256 -0.017528927151309999 0 0.1756522969309256 -0.017528927151309999 0 0.18091424726896541 -5.1894559648335583e-05 0 0.16311415995912609 -0.00057207636211294524 0 0.1756522969309256 -0.017528927151309999 0 0.18091424726896541 -5.1894559648335583e-05 0 0.19342451014379361 -0.01658605919344024 0 0.15925525287649669 -0.016735516864993499 0 0.1756522969309256 -0.017528927151309999 0 0.16311415995912609 -0.00057207636211294524 0 0.2032719831534191 0.00013528078763766491 0 0.21497262643840001 -0.01925266467949675 0 0.22294722486068319 -0.003713435505300284 0 0.2032719831534191 0.00013528078763766491 0 0.19342451014379361 -0.01658605919344024 0 0.21497262643840001 -0.01925266467949675 0 0.2032719831534191 0.00013528078763766491 0 0.21497262643840001 -0.01925266467949675 0 0.2032719831534191 0.00013528078763766491 0 0.18091424726896541 -5.1894559648335583e-05 0 0.19342451014379361 -0.01658605919344024 0 0.18622436047610691 -0.033866215848365418 0 0.19342451014379361 -0.01658605919344024 0 0.20272212088690311 -0.030737111074188951 0 0.19342451014379361 -0.01658605919344024 0 0.20272212088690311 -0.030737111074188951 0 0.21497262643840001 -0.01925266467949675 0 0.20272212088690311 -0.030737111074188951 0 0.21497262643840001 -0.01925266467949675 0 0.22667326972338089 -0.038640610146631157 0 0.20272212088690311 -0.030737111074188951 0 0.2011985274193919 -0.04914588218990476 0 0.22667326972338089 -0.038640610146631157 0 0.1807427914759443 -0.049778724934584483 0 0.18622436047610691 -0.033866215848365418 0 0.2011985274193919 -0.04914588218990476 0 0.18622436047610691 -0.033866215848365418 0 0.20272212088690311 -0.030737111074188951 0 0.2011985274193919 -0.04914588218990476 0 0.18501096282992791 -0.06386655487053354 0 0.1807427914759443 -0.049778724934584483 0 0.2011985274193919 -0.04914588218990476 0 0.18501096282992791 -0.06386655487053354 0 0.2011985274193919 -0.04914588218990476 0 0.20519159842659271 -0.066583197968566238 0 0.2011985274193919 -0.04914588218990476 0 0.22161359783257939 -0.061649735959338328 0 0.20519159842659271 -0.066583197968566238 0 0.2011985274193919 -0.04914588218990476 0 0.22161359783257939 -0.061649735959338328 0 0.22667326972338089 -0.038640610146631157 0 0.22161359783257939 -0.061649735959338328 0 0.2383739130083618 -0.058028555613765548 0 0.23114392702484479 -0.067171273334744402 0 0.2383739130083618 -0.058028555613765548 0 0.22667326972338089 -0.038640610146631157 0 0.22161359783257939 -0.061649735959338328 0 0.2383739130083618 -0.058028555613765548 0 0.22667326972338089 -0.038640610146631157 0 0.2537660316286422 -0.07051991331107621 0 0.2383739130083618 -0.058028555613765548 0 0.24973129387797571 -0.04656734675647161 0 0.2383739130083618 -0.058028555613765548 0 0.24973129387797571 -0.04656734675647161 0 0.22667326972338089 -0.038640610146631157 0 0.24973129387797571 -0.04656734675647161 0 0.2456965561273092 -0.02261478020186693 0 0.24973129387797571 -0.04656734675647161 0 0.22667326972338089 -0.038640610146631157 0 0.2456965561273092 -0.02261478020186693 0 0.21497262643840001 -0.01925266467949675 0 0.22667326972338089 -0.038640610146631157 0 0.23039029910528319 -0.016576740836111489 0 0.21497262643840001 -0.01925266467949675 0 0.22667326972338089 -0.038640610146631157 0 0.22667326972338089 -0.038640610146631157 0 0.23039029910528319 -0.016576740836111489 0 0.2456965561273092 -0.02261478020186693 0 0.24166181837664269 0.0013377863527376729 0 0.2456965561273092 -0.02261478020186693 0 0.24166181837664269 0.0013377863527376729 0 0.23039029910528319 -0.016576740836111489 0 0.2456965561273092 -0.02261478020186693 0 0.24166181837664269 0.0013377863527376729 0 0.25632568119525651 -0.01063847001040636 0 0.2456965561273092 -0.02261478020186693 0 0.24166181837664269 0.0013377863527376729 0 0.23039029910528319 -0.016576740836111489 0 0.22294722486068319 -0.003713435505300284 0 0.21497262643840001 -0.01925266467949675 0 0.23039029910528319 -0.016576740836111489 0 0.22294722486068319 -0.003713435505300284 0 0.20888020529753881 -0.1044049432479454 0 0.21628609654356409 -0.1177295465531402 0 0.22156756106826711 -0.10107512197491909 0 0.20888020529753881 -0.1044049432479454 0 0.19575781592975361 -0.097029840504253229 0 0.2106968096631609 -0.090002415950085887 0 0.20888020529753881 -0.1044049432479454 0 0.2106968096631609 -0.090002415950085887 0 0.22156756106826711 -0.10107512197491909 0 0.21628609654356409 -0.1177295465531402 0 0.19923108952030311 -0.11458282411640799 0 0.20534045601118289 -0.13151387983863699 0 0.20888020529753881 -0.1044049432479454 0 0.21628609654356409 -0.1177295465531402 0 0.19923108952030311 -0.11458282411640799 0 0.18064770511919601 -0.1092461945484518 0 0.19923108952030311 -0.11458282411640799 0 0.18847425822058331 -0.12757254000602081 0 0.19923108952030311 -0.11458282411640799 0 0.20534045601118289 -0.13151387983863699 0 0.18847425822058331 -0.12757254000602081 0 0.18064770511919601 -0.1092461945484518 0 0.19923108952030311 -0.11458282411640799 0 0.19575781592975361 -0.097029840504253229 0 0.20888020529753881 -0.1044049432479454 0 0.19923108952030311 -0.11458282411640799 0 0.19575781592975361 -0.097029840504253229 0 0.18210096888394431 -0.08293947225534834 0 0.19575781592975361 -0.097029840504253229 0 0.1980370957301367 -0.080908351290676583 0 0.19575781592975361 -0.097029840504253229 0 0.1980370957301367 -0.080908351290676583 0 0.2106968096631609 -0.090002415950085887 0 0.18501096282992791 -0.06386655487053354 0 0.18210096888394431 -0.08293947225534834 0 0.1980370957301367 -0.080908351290676583 0 0.18501096282992791 -0.06386655487053354 0 0.20519159842659271 -0.066583197968566238 0 0.18501096282992791 -0.06386655487053354 0 0.1980370957301367 -0.080908351290676583 0 0.20519159842659271 -0.066583197968566238 0 0.1980370957301367 -0.080908351290676583 0 0.20519159842659271 -0.066583197968566238 0 0.2147312698021703 -0.075992831011958389 0 0.22161359783257939 -0.061649735959338328 0 0.20519159842659271 -0.066583197968566238 0 0.2147312698021703 -0.075992831011958389 0 0.1980370957301367 -0.080908351290676583 0 0.2147312698021703 -0.075992831011958389 0 0.2106968096631609 -0.090002415950085887 0 0.2147312698021703 -0.075992831011958389 0 0.2106968096631609 -0.090002415950085887 0 0.22266893257561299 -0.087326114103035465 0 0.2106968096631609 -0.090002415950085887 0 0.22266893257561299 -0.087326114103035465 0 0.22156756106826711 -0.10107512197491909 0 0.2147312698021703 -0.075992831011958389 0 0.22266893257561299 -0.087326114103035465 0 0.22776632045887071 -0.077654895007927868 0 0.23419658776018931 -0.084244030847358056 0 0.22776632045887071 -0.077654895007927868 0 0.23790712591140001 -0.074425316736928884 0 0.22266893257561299 -0.087326114103035465 0 0.23419658776018931 -0.084244030847358056 0 0.22776632045887071 -0.077654895007927868 0 0.22266893257561299 -0.087326114103035465 0 0.23419658776018931 -0.084244030847358056 0 0.2334414328282538 -0.095284899036750081 0 0.22161359783257939 -0.061649735959338328 0 0.22776632045887071 -0.077654895007927868 0 0.23114392702484479 -0.067171273334744402 0 0.22161359783257939 -0.061649735959338328 0 0.2147312698021703 -0.075992831011958389 0 0.22776632045887071 -0.077654895007927868 0 0.22776632045887071 -0.077654895007927868 0 0.23114392702484479 -0.067171273334744402 0 0.23790712591140001 -0.074425316736928884 0 0.2383739130083618 -0.058028555613765548 0 0.23114392702484479 -0.067171273334744402 0 0.23790712591140001 -0.074425316736928884 0 0.25007455629334258 -0.077416501080899897 0 0.2383739130083618 -0.058028555613765548 0 0.25007455629334258 -0.077416501080899897 0 0.2537660316286422 -0.07051991331107621 0 0.2383739130083618 -0.058028555613765548 0 0.25007455629334258 -0.077416501080899897 0 0.2383739130083618 -0.058028555613765548 0 0.23790712591140001 -0.074425316736928884 0 0.25007455629334258 -0.077416501080899897 0 0.23790712591140001 -0.074425316736928884 0 0.24328892752739589 -0.082016641144427596 0 0.23419658776018931 -0.084244030847358056 0 0.24091194181362999 -0.089518921567509138 0 0.2334414328282538 -0.095284899036750081 0 0.24091194181362999 -0.089518921567509138 0 0.2408601342479397 -0.096269899421517258 0 0.2334414328282538 -0.095284899036750081 0 0.23419658776018931 -0.084244030847358056 0 0.23790712591140001 -0.074425316736928884 0 0.24328892752739589 -0.082016641144427596 0 0.23419658776018931 -0.084244030847358056 0 0.24091194181362999 -0.089518921567509138 0 0.24328892752739589 -0.082016641144427596 0 0.25007455629334258 -0.077416501080899897 0 0.24328892752739589 -0.082016641144427596 0 0.24895230400992441 -0.082572269176136595 0 0.24328892752739589 -0.082016641144427596 0 0.24895230400992441 -0.082572269176136595 0 0.24713508377738 -0.087174843542402125 0 0.24091194181362999 -0.089518921567509138 0 0.24328892752739589 -0.082016641144427596 0 0.24713508377738 -0.087174843542402125 0 0.24091194181362999 -0.089518921567509138 0 0.24713508377738 -0.087174843542402125 0 0.24631783240790919 -0.093478230447878577 0 0.24091194181362999 -0.089518921567509138 0 0.24631783240790919 -0.093478230447878577 0 0.2408601342479397 -0.096269899421517258 0 0.25342119993573448 -0.090778745709784364 0 0.24713508377738 -0.087174843542402125 0 0.24631783240790919 -0.093478230447878577 0 0.25138360069796761 -0.096875162065650278 0 0.24631783240790919 -0.093478230447878577 0 0.24588766003713841 -0.1000366880907987 0 0.24631783240790919 -0.093478230447878577 0 0.24588766003713841 -0.1000366880907987 0 0.2408601342479397 -0.096269899421517258 0 0.25299782758473599 -0.1026919658610191 0 0.24588766003713841 -0.1000366880907987 0 0.24390073001419069 -0.10684896634340969 0 0.24588766003713841 -0.1000366880907987 0 0.24390073001419069 -0.10684896634340969 0 0.23961584366598621 -0.1017968770746019 0 0.24390073001419069 -0.10684896634340969 0 0.23961584366598621 -0.1017968770746019 0 0.23357987273718139 -0.1055458956800223 0 0.23961584366598621 -0.1017968770746019 0 0.2334414328282538 -0.095284899036750081 0 0.23357987273718139 -0.1055458956800223 0 0.24588766003713841 -0.1000366880907987 0 0.23961584366598621 -0.1017968770746019 0 0.2408601342479397 -0.096269899421517258 0 0.23961584366598621 -0.1017968770746019 0 0.2408601342479397 -0.096269899421517258 0 0.2334414328282538 -0.095284899036750081 0 0.2334414328282538 -0.095284899036750081 0 0.23357987273718139 -0.1055458956800223 0 0.22156756106826711 -0.10107512197491909 0 0.23357987273718139 -0.1055458956800223 0 0.22156756106826711 -0.10107512197491909 0 0.22807702370472399 -0.1119593032998108 0 0.22266893257561299 -0.087326114103035465 0 0.2334414328282538 -0.095284899036750081 0 0.22156756106826711 -0.10107512197491909 0 0.21628609654356409 -0.1177295465531402 0 0.22156756106826711 -0.10107512197491909 0 0.22807702370472399 -0.1119593032998108 0 0.21628609654356409 -0.1177295465531402 0 0.23386615658368601 -0.11955218228244741 0 0.21628609654356409 -0.1177295465531402 0 0.22807702370472399 -0.1119593032998108 0 0.23386615658368601 -0.11955218228244741 0 0.21628609654356409 -0.1177295465531402 0 0.23386615658368601 -0.11955218228244741 0 0.2318604935595478 -0.12928630112744641 0 0.23357987273718139 -0.1055458956800223 0 0.22807702370472399 -0.1119593032998108 0 0.23508543159092141 -0.1158937700085252 0 0.22807702370472399 -0.1119593032998108 0 0.23386615658368601 -0.11955218228244741 0 0.23508543159092141 -0.1158937700085252 0 0.25144621662380812 -0.1213748180117534 0 0.23386615658368601 -0.11955218228244741 0 0.24240715887044589 -0.12500207583797471 0 0.25548828965611892 -0.11215332433288561 0 0.23508543159092141 -0.1158937700085252 0 0.25144621662380812 -0.1213748180117534 0 0.23386615658368601 -0.11955218228244741 0 0.23508543159092141 -0.1158937700085252 0 0.25548828965611892 -0.11215332433288561 0 0.24390073001419069 -0.10684896634340969 0 0.23508543159092141 -0.1158937700085252 0 0.23386615658368601 -0.11955218228244741 0 0.24240715887044589 -0.12500207583797471 0 0.23813794990364029 -0.12652531440461459 0 0.25548828965611892 -0.11215332433288561 0 0.25144621662380812 -0.1213748180117534 0 0.23508543159092141 -0.1158937700085252 0 0.25144621662380812 -0.1213748180117534 0 0.23386615658368601 -0.11955218228244741 0 0.24390073001419069 -0.10684896634340969 0 0.23357987273718139 -0.1055458956800223 0 0.23508543159092141 -0.1158937700085252 0 0.25144621662380812 -0.1213748180117534 0 0.24240715887044589 -0.12500207583797471 0 0.24148412098460181 -0.13176854789976949 0 0.25144621662380812 -0.1213748180117534 0 0.24148412098460181 -0.13176854789976949 0 0.24059179639249351 -0.14613784598047011 0 0.25144621662380812 -0.1213748180117534 0 0.25378750229977459 -0.13678441467043101 0 0.24059179639249351 -0.14613784598047011 0 0.25144621662380812 -0.1213748180117534 0 0.24059179639249351 -0.14613784598047011 0 0.24148412098460181 -0.13176854789976949 0 0.2318604935595478 -0.12928630112744641 0 0.23401250085432601 -0.13822140487522999 0 0.24148412098460181 -0.13176854789976949 0 0.24059179639249351 -0.14613784598047011 0 0.23401250085432601 -0.13822140487522999 0 0.23386615658368601 -0.11955218228244741 0 0.23813794990364029 -0.12652531440461459 0 0.2318604935595478 -0.12928630112744641 0 0.23813794990364029 -0.12652531440461459 0 0.24148412098460181 -0.13176854789976949 0 0.2318604935595478 -0.12928630112744641 0 0.24240715887044589 -0.12500207583797471 0 0.23813794990364029 -0.12652531440461459 0 0.24148412098460181 -0.13176854789976949 0 0.25165241946205757 -0.15731716043719179 0 0.25097577147138178 -0.14692537127348951 0 0.24717352941244411 -0.15239087349044089 0 0.25097577147138178 -0.14692537127348951 0 0.24717352941244411 -0.15239087349044089 0 0.24059179639249351 -0.14613784598047011 0 0.24717352941244411 -0.15239087349044089 0 0.24059179639249351 -0.14613784598047011 0 0.2448586869581493 -0.15863349021502399 0 0.25165241946205757 -0.15731716043719179 0 0.24717352941244411 -0.15239087349044089 0 0.2448586869581493 -0.15863349021502399 0 0.25378750229977459 -0.13678441467043101 0 0.25097577147138178 -0.14692537127348951 0 0.24059179639249351 -0.14613784598047011 0 0.24059179639249351 -0.14613784598047011 0 0.22447819193924279 -0.1534005869143962 0 0.22725524946594031 -0.1608895777644003 0 0.24059179639249351 -0.14613784598047011 0 0.22665166251245891 -0.14418766462787519 0 0.22447819193924279 -0.1534005869143962 0 0.24059179639249351 -0.14613784598047011 0 0.22665166251245891 -0.14418766462787519 0 0.23401250085432601 -0.13822140487522999 0 0.22665166251245891 -0.14418766462787519 0 0.22150429782303779 -0.1349234040298303 0 0.21267152555319441 -0.14825508133944931 0 0.22665166251245891 -0.14418766462787519 0 0.22447819193924279 -0.1534005869143962 0 0.21267152555319441 -0.14825508133944931 0 0.21628609654356409 -0.1177295465531402 0 0.2318604935595478 -0.12928630112744641 0 0.22150429782303779 -0.1349234040298303 0 0.22665166251245891 -0.14418766462787519 0 0.23401250085432601 -0.13822140487522999 0 0.22150429782303779 -0.1349234040298303 0 0.2318604935595478 -0.12928630112744641 0 0.23401250085432601 -0.13822140487522999 0 0.22150429782303779 -0.1349234040298303 0 0.22150429782303779 -0.1349234040298303 0 0.20534045601118289 -0.13151387983863699 0 0.21267152555319441 -0.14825508133944931 0 0.21628609654356409 -0.1177295465531402 0 0.22150429782303779 -0.1349234040298303 0 0.20534045601118289 -0.13151387983863699 0 0.20534045601118289 -0.13151387983863699 0 0.21267152555319441 -0.14825508133944931 0 0.19613404569132989 -0.14373390807311209 0 0.22447819193924279 -0.1534005869143962 0 0.21267152555319441 -0.14825508133944931 0 0.2171884687465046 -0.1651998562309368 0 0.19613404569132989 -0.14373390807311209 0 0.19661262810130409 -0.16289523643812759 0 0.1775713605703845 -0.14843280274332579 0 0.21267152555319441 -0.14825508133944931 0 0.19613404569132989 -0.14373390807311209 0 0.19661262810130409 -0.16289523643812759 0 0.20534045601118289 -0.13151387983863699 0 0.19613404569132989 -0.14373390807311209 0 0.18847425822058331 -0.12757254000602081 0 0.19605350335778551 -0.185044064231186 0 0.19661262810130409 -0.16289523643812759 0 0.20975918810981639 -0.17660716032882501 0 0.19605350335778551 -0.185044064231186 0 0.19661262810130409 -0.16289523643812759 0 0.17156149747227931 -0.17230867766339431 0 0.21267152555319441 -0.14825508133944931 0 0.19661262810130409 -0.16289523643812759 0 0.2171884687465046 -0.1651998562309368 0 0.19661262810130409 -0.16289523643812759 0 0.2171884687465046 -0.1651998562309368 0 0.20975918810981639 -0.17660716032882501 0 0.19605350335778551 -0.185044064231186 0 0.20975918810981639 -0.17660716032882501 0 0.21888295592987109 -0.195663901917906 0 0.20975918810981639 -0.17660716032882501 0 0.2199696806075305 -0.17543610363477319 0 0.21888295592987109 -0.195663901917906 0 0.2171884687465046 -0.1651998562309368 0 0.20975918810981639 -0.17660716032882501 0 0.2199696806075305 -0.17543610363477319 0 0.23142294314054621 -0.17848188099913401 0 0.23603336036446909 -0.1736583160848752 0 0.2215562946590123 -0.19830504037569979 0 0.2359833109307076 -0.1848420894753324 0 0.23603336036446909 -0.1736583160848752 0 0.2215562946590123 -0.19830504037569979 0 0.22973737616118231 -0.1709008739491881 0 0.21888295592987109 -0.195663901917906 0 0.2199696806075305 -0.17543610363477319 0 0.22973737616118231 -0.1709008739491881 0 0.21888295592987109 -0.195663901917906 0 0.22973737616118231 -0.1709008739491881 0 0.23263183624068329 -0.17182602035819339 0 0.21888295592987109 -0.195663901917906 0 0.23142294314054621 -0.17848188099913401 0 0.23263183624068329 -0.17182602035819339 0 0.2215562946590123 -0.19830504037569979 0 0.23603336036446909 -0.1736583160848752 0 0.2215562946590123 -0.19830504037569979 0 0.23263183624068329 -0.17182602035819339 0 0.2215562946590123 -0.19830504037569979 0 0.23142294314054621 -0.17848188099913401 0 0.23263183624068329 -0.17182602035819339 0 0.23603336036446909 -0.1736583160848752 0 0.23142294314054621 -0.17848188099913401 0 0.23603336036446909 -0.1736583160848752 0 0.24059179639249351 -0.14613784598047011 0 0.22973737616118231 -0.1709008739491881 0 0.22725524946594031 -0.1608895777644003 0 0.22447819193924279 -0.1534005869143962 0 0.2171884687465046 -0.1651998562309368 0 0.22725524946594031 -0.1608895777644003 0 0.2171884687465046 -0.1651998562309368 0 0.2199696806075305 -0.17543610363477319 0 0.2235376937452894 -0.1681066028948246 0 0.2199696806075305 -0.17543610363477319 0 0.2235376937452894 -0.1681066028948246 0 0.22973737616118231 -0.1709008739491881 0 0.2171884687465046 -0.1651998562309368 0 0.2235376937452894 -0.1681066028948246 0 0.22725524946594031 -0.1608895777644003 0 0.22973737616118231 -0.1709008739491881 0 0.2385011650655382 -0.16500352636402979 0 0.23482315557412509 -0.1699793429947285 0 0.2235376937452894 -0.1681066028948246 0 0.22973737616118231 -0.1709008739491881 0 0.22725524946594031 -0.1608895777644003 0 0.22973737616118231 -0.1709008739491881 0 0.23263183624068329 -0.17182602035819339 0 0.23482315557412509 -0.1699793429947285 0 0.25165241946205757 -0.15731716043719179 0 0.23603336036446909 -0.1736583160848752 0 0.25165241946205757 -0.15731716043719179 0 0.2448586869581493 -0.15863349021502399 0 0.23603336036446909 -0.1736583160848752 0 0.24059179639249351 -0.14613784598047011 0 0.22973737616118231 -0.1709008739491881 0 0.25165241946205757 -0.15731716043719179 0 0.24620067143455129 -0.1690729137675954 0 0.23603336036446909 -0.1736583160848752 0 0.24059179639249351 -0.14613784598047011 0 0.2385011650655382 -0.16500352636402979 0 0.2448586869581493 -0.15863349021502399 0 0.24059179639249351 -0.14613784598047011 0 0.22973737616118231 -0.1709008739491881 0 0.2385011650655382 -0.16500352636402979 0 0.2448586869581493 -0.15863349021502399 0 0.23603336036446909 -0.1736583160848752 0 0.2385011650655382 -0.16500352636402979 0 0.23482315557412509 -0.1699793429947285 0 0.23603336036446909 -0.1736583160848752 0 0.2385011650655382 -0.16500352636402979 0 0.2448586869581493 -0.15863349021502399 0 0.23603336036446909 -0.1736583160848752 0 0.23263183624068329 -0.17182602035819339 0 0.23482315557412509 -0.1699793429947285 0 0.23603336036446909 -0.1736583160848752 0 0.24620067143455129 -0.1690729137675954 0 0.24202028786378699 -0.17307480552212509 0 0.24489943058434949 -0.17329951787516501 0 0.25031876860071478 -0.17146752122160769 0 0.24620067143455129 -0.1690729137675954 0 0.24489943058434949 -0.17329951787516501 0 0.25031876860071478 -0.17146752122160769 0 0.25227976173192967 -0.16562016146460759 0 0.24620067143455129 -0.1690729137675954 0 0.2359833109307076 -0.1848420894753324 0 0.24159943279413129 -0.17750149282254829 0 0.2439672271844904 -0.18288912632669069 0 0.2359833109307076 -0.1848420894753324 0 0.2439672271844904 -0.18288912632669069 0 0.237670191100782 -0.19220370717674501 0 0.24620067143455129 -0.1690729137675954 0 0.23603336036446909 -0.1736583160848752 0 0.24202028786378699 -0.17307480552212509 0 0.2359833109307076 -0.1848420894753324 0 0.23603336036446909 -0.1736583160848752 0 0.24159943279413129 -0.17750149282254829 0 0.23603336036446909 -0.1736583160848752 0 0.24202028786378699 -0.17307480552212509 0 0.24159943279413129 -0.17750149282254829 0 0.24159943279413129 -0.17750149282254829 0 0.2483605234221187 -0.17756579387472551 0 0.2439672271844904 -0.18288912632669069 0 0.24159943279413129 -0.17750149282254829 0 0.24489943058434949 -0.17329951787516501 0 0.2483605234221187 -0.17756579387472551 0 0.24202028786378699 -0.17307480552212509 0 0.24159943279413129 -0.17750149282254829 0 0.24489943058434949 -0.17329951787516501 0 0.25031876860071478 -0.17146752122160769 0 0.24489943058434949 -0.17329951787516501 0 0.2483605234221187 -0.17756579387472551 0 0.25364506350098859 -0.1843635255179171 0 0.2439672271844904 -0.18288912632669069 0 0.24630568300509781 -0.19294230823387501 0 0.25364506350098859 -0.1843635255179171 0 0.2483605234221187 -0.17756579387472551 0 0.2439672271844904 -0.18288912632669069 0 0.24630568300509781 -0.19294230823387501 0 0.237670191100782 -0.19220370717674501 0 0.241201200258366 -0.20852002513705209 0 0.2439672271844904 -0.18288912632669069 0 0.24630568300509781 -0.19294230823387501 0 0.237670191100782 -0.19220370717674501 0 0.25504473298086189 -0.19673515701096991 0 0.24630568300509781 -0.19294230823387501 0 0.241201200258366 -0.20852002513705209 0 0.26084610585771723 -0.21873500989840911 0 0.241201200258366 -0.20852002513705209 0 0.24430961509086091 -0.224962264488552 0 0.241201200258366 -0.20852002513705209 0 0.24430961509086091 -0.224962264488552 0 0.22767418626731731 -0.2214295393527379 0 0.241201200258366 -0.20852002513705209 0 0.2215562946590123 -0.19830504037569979 0 0.241201200258366 -0.20852002513705209 0 0.2264818996787214 -0.20921930908384301 0 0.2215562946590123 -0.19830504037569979 0 0.241201200258366 -0.20852002513705209 0 0.2264818996787214 -0.20921930908384301 0 0.22767418626731731 -0.2214295393527379 0 0.2264818996787214 -0.20921930908384301 0 0.22767418626731731 -0.2214295393527379 0 0.21549591753018971 -0.20862263146988219 0 0.2264818996787214 -0.20921930908384301 0 0.2215562946590123 -0.19830504037569979 0 0.21549591753018971 -0.20862263146988219 0 0.237670191100782 -0.19220370717674501 0 0.241201200258366 -0.20852002513705209 0 0.2215562946590123 -0.19830504037569979 0 0.2359833109307076 -0.1848420894753324 0 0.237670191100782 -0.19220370717674501 0 0.2215562946590123 -0.19830504037569979 0 0.23263183624068329 -0.17182602035819339 0 0.2215562946590123 -0.19830504037569979 0 0.21888295592987109 -0.195663901917906 0 0.25054914913674842 -0.25280247024608682 0 0.23759967491846501 -0.24749385189608991 0 0.24632564505351409 -0.23834552986145471 0 0.23759967491846501 -0.24749385189608991 0 0.24632564505351409 -0.23834552986145471 0 0.23474387491930379 -0.2343823326118756 0 0.23474387491930379 -0.2343823326118756 0 0.24430961509086091 -0.224962264488552 0 0.22767418626731731 -0.2214295393527379 0 0.24632564505351409 -0.23834552986145471 0 0.23474387491930379 -0.2343823326118756 0 0.24430961509086091 -0.224962264488552 0 0.25424304294133221 -0.2308757708725192 0 0.24632564505351409 -0.23834552986145471 0 0.24430961509086091 -0.224962264488552 0 0.22767418626731731 -0.2214295393527379 0 0.21209756135782251 -0.23539893531556991 0 0.22767418626731731 -0.2214295393527379 0 0.2240757803059594 -0.2330862075486882 0 0.21209756135782251 -0.23539893531556991 0 0.23474387491930379 -0.2343823326118756 0 0.22767418626731731 -0.2214295393527379 0 0.2240757803059594 -0.2330862075486882 0 0.23474387491930379 -0.2343823326118756 0 0.2240757803059594 -0.2330862075486882 0 0.22450502149858331 -0.2452780979226937 0 0.2240757803059594 -0.2330862075486882 0 0.22450502149858331 -0.2452780979226937 0 0.2170685505511922 -0.24188674331643981 0 0.23759967491846501 -0.24749385189608991 0 0.23474387491930379 -0.2343823326118756 0 0.22450502149858331 -0.2452780979226937 0 0.23020776286794459 -0.25511931681223948 0 0.23759967491846501 -0.24749385189608991 0 0.22450502149858331 -0.2452780979226937 0 0.21209756135782251 -0.23539893531556991 0 0.20600842698925809 -0.2289954813741418 0 0.19652093644832719 -0.24936833127840161 0 0.21209756135782251 -0.23539893531556991 0 0.19652093644832719 -0.24936833127840161 0 0.21085836707491901 -0.24968625092785521 0 0.21209756135782251 -0.23539893531556991 0 0.19652093644832719 -0.24936833127840161 0 0.22450502149858331 -0.2452780979226937 0 0.21085836707491901 -0.24968625092785521 0 0.2170685505511922 -0.24188674331643981 0 0.21085836707491901 -0.24968625092785521 0 0.2170685505511922 -0.24188674331643981 0 0.21209756135782251 -0.23539893531556991 0 0.2240757803059594 -0.2330862075486882 0 0.2170685505511922 -0.24188674331643981 0 0.21209756135782251 -0.23539893531556991 0 0.20076952994452099 -0.23369381799402519 0 0.21549591753018971 -0.20862263146988219 0 0.22767418626731731 -0.2214295393527379 0 0.20600842698925809 -0.2289954813741418 0 0.21549591753018971 -0.20862263146988219 0 0.20600842698925809 -0.2289954813741418 0 0.20076952994452099 -0.23369381799402519 0 0.21549591753018971 -0.20862263146988219 0 0.22767418626731731 -0.2214295393527379 0 0.21209756135782251 -0.23539893531556991 0 0.20600842698925809 -0.2289954813741418 0 0.20600842698925809 -0.2289954813741418 0 0.21549591753018971 -0.20862263146988219 0 0.20076952994452099 -0.23369381799402519 0 0.1917588246436949 -0.20839056648743201 0 0.18030311757582509 -0.22411403295402929 0 0.20600842698925809 -0.2289954813741418 0 0.19652093644832719 -0.24936833127840161 0 0.20600842698925809 -0.2289954813741418 0 0.20076952994452099 -0.23369381799402519 0 0.19652093644832719 -0.24936833127840161 0 0.1860431423588518 -0.25876500451816792 0 0.20076952994452099 -0.23369381799402519 0 0.19652093644832719 -0.24936833127840161 0 0.1860431423588518 -0.25876500451816792 0 0.20076952994452099 -0.23369381799402519 0 0.19605350335778551 -0.185044064231186 0 0.2215562946590123 -0.19830504037569979 0 0.21888295592987109 -0.195663901917906 0 0.2215562946590123 -0.19830504037569979 0 0.20430766201697079 -0.19889723545406701 0 0.21549591753018971 -0.20862263146988219 0 0.19605350335778551 -0.185044064231186 0 0.2215562946590123 -0.19830504037569979 0 0.20430766201697079 -0.19889723545406701 0 0.19605350335778551 -0.185044064231186 0 0.2215562946590123 -0.19830504037569979 0 0.2215562946590123 -0.19830504037569979 0 0.21549591753018971 -0.20862263146988219 0 0.20430766201697079 -0.19889723545406701 0 0.21549591753018971 -0.20862263146988219 0 0.1917588246436949 -0.20839056648743201 0 0.20076952994452099 -0.23369381799402519 0 0.21549591753018971 -0.20862263146988219 0 0.1917588246436949 -0.20839056648743201 0 0.19605350335778551 -0.185044064231186 0 0.20430766201697079 -0.19889723545406701 0 0.1917588246436949 -0.20839056648743201 0 0.19605350335778551 -0.185044064231186 0 0.1917588246436949 -0.20839056648743201 0 0.17713282411053871 -0.19325207292174459 0 0.1917588246436949 -0.20839056648743201 0 0.16733610863774279 -0.21034149473613559 0 0.18030311757582509 -0.22411403295402929 0 0.1917588246436949 -0.20839056648743201 0 0.17713282411053871 -0.19325207292174459 0 0.16733610863774279 -0.21034149473613559 0 0.17713282411053871 -0.19325207292174459 0 0.16733610863774279 -0.21034149473613559 0 0.1589541864411908 -0.19017556149057521 0 0.16733610863774279 -0.21034149473613559 0 0.1589541864411908 -0.19017556149057521 0 0.148146784438035 -0.2049761641648461 0 0.1860431423588518 -0.25876500451816792 0 0.20076952994452099 -0.23369381799402519 0 0.17471693118402931 -0.2431580641854417 0 0.20076952994452099 -0.23369381799402519 0 0.17471693118402931 -0.2431580641854417 0 0.18030311757582509 -0.22411403295402929 0 0.17471693118402931 -0.2431580641854417 0 0.18030311757582509 -0.22411403295402929 0 0.16472118910800421 -0.22957025679975979 0 0.16733610863774279 -0.21034149473613559 0 0.16472118910800421 -0.22957025679975979 0 0.14599399256689061 -0.22661769698251341 0 0.16733610863774279 -0.21034149473613559 0 0.18030311757582509 -0.22411403295402929 0 0.16472118910800421 -0.22957025679975979 0 0.17471693118402931 -0.2431580641854417 0 0.16472118910800421 -0.22957025679975979 0 0.15525579557553351 -0.24361999514067911 0 0.16412914685632579 -0.25362309497899271 0 0.17471693118402931 -0.2431580641854417 0 0.15525579557553351 -0.24361999514067911 0 0.15525579557553351 -0.24361999514067911 0 0.14599399256689061 -0.22661769698251341 0 0.13836737310886571 -0.24893409614863071 0 0.16472118910800421 -0.22957025679975979 0 0.15525579557553351 -0.24361999514067911 0 0.14599399256689061 -0.22661769698251341 0 0.1213801429575759 -0.23817277651940541 0 0.12994325916730889 -0.21197294804480379 0 0.1213801429575759 -0.23817277651940541 0 0.14599399256689061 -0.22661769698251341 0 0.12994325916730889 -0.21197294804480379 0 0.1178567090507763 -0.25981103156283653 0 0.1213801429575759 -0.23817277651940541 0 0.13836737310886571 -0.24893409614863071 0 0.1213801429575759 -0.23817277651940541 0 0.14599399256689061 -0.22661769698251341 0 0.13836737310886571 -0.24893409614863071 0 0.1589541864411908 -0.19017556149057521 0 0.148146784438035 -0.2049761641648461 0 0.13850637537704191 -0.18577311957020229 0 0.14599399256689061 -0.22661769698251341 0 0.148146784438035 -0.2049761641648461 0 0.12994325916730889 -0.21197294804480379 0 0.16733610863774279 -0.21034149473613559 0 0.14599399256689061 -0.22661769698251341 0 0.148146784438035 -0.2049761641648461 0 0.1157816149446719 -0.1959956056802907 0 0.12994325916730889 -0.21197294804480379 0 0.13850637537704191 -0.18577311957020229 0 0.12994325916730889 -0.21197294804480379 0 0.13850637537704191 -0.18577311957020229 0 0.148146784438035 -0.2049761641648461 0 0.12994325916730889 -0.21197294804480379 0 0.13850637537704191 -0.18577311957020229 0 0.1162195382627632 -0.17477225706567939 0 0.13850637537704191 -0.18577311957020229 0 0.13153036917181299 -0.16639114642623359 0 0.13850637537704191 -0.18577311957020229 0 0.15402288771932171 -0.1769576624549431 0 0.1470694915867746 -0.15957329109560039 0 0.1589541864411908 -0.19017556149057521 0 0.13850637537704191 -0.18577311957020229 0 0.15402288771932171 -0.1769576624549431 0 0.13850637537704191 -0.18577311957020229 0 0.1470694915867746 -0.15957329109560039 0 0.13850637537704191 -0.18577311957020229 0 0.1470694915867746 -0.15957329109560039 0 0.13153036917181299 -0.16639114642623359 0 0.1470694915867746 -0.15957329109560039 0 0.13153036917181299 -0.16639114642623359 0 0.13344895894865311 -0.15249086798919889 0 0.1224074816838322 -0.1593461964104872 0 0.13153036917181299 -0.16639114642623359 0 0.13344895894865311 -0.15249086798919889 0 0.11982842631053291 -0.14540844488279461 0 0.1224074816838322 -0.1593461964104872 0 0.13344895894865311 -0.15249086798919889 0 0.11982842631053291 -0.14540844488279461 0 0.13344895894865311 -0.15249086798919889 0 0.13344895894865311 -0.15249086798919889 0 0.13255121791332231 -0.1334768393240808 0 0.1541456407018266 -0.13792300765505441 0 0.11982842631053291 -0.14540844488279461 0 0.13344895894865311 -0.15249086798919889 0 0.13255121791332231 -0.1334768393240808 0 0.1470694915867746 -0.15957329109560039 0 0.13344895894865311 -0.15249086798919889 0 0.11862024927926999 -0.1295942129231194 0 0.12511173043444199 -0.1195330779220839 0 0.13255121791332231 -0.1334768393240808 0 0.11982842631053291 -0.14540844488279461 0 0.13255121791332231 -0.1334768393240808 0 0.14290893581304129 -0.11858321151204131 0 0.13255121791332231 -0.1334768393240808 0 0.1541456407018266 -0.13792300765505441 0 0.1470694915867746 -0.15957329109560039 0 0.1541456407018266 -0.13792300765505441 0 0.16203720149536269 -0.1513367662110621 0 0.1470694915867746 -0.15957329109560039 0 0.1541456407018266 -0.13792300765505441 0 0.1470694915867746 -0.15957329109560039 0 0.13344895894865311 -0.15249086798919889 0 0.1541456407018266 -0.13792300765505441 0 0.16203720149536269 -0.1513367662110621 0 0.1704795985147195 -0.13192203376589989 0 0.1775713605703845 -0.14843280274332579 0 0.1612217898168781 -0.11627272421450841 0 0.1541456407018266 -0.13792300765505441 0 0.1704795985147195 -0.13192203376589989 0 0.1541456407018266 -0.13792300765505441 0 0.16203720149536269 -0.1513367662110621 0 0.1704795985147195 -0.13192203376589989 0 0.1612217898168781 -0.11627272421450841 0 0.1541456407018266 -0.13792300765505441 0 0.18847425822058331 -0.12757254000602081 0 0.1704795985147195 -0.13192203376589989 0 0.1775713605703845 -0.14843280274332579 0 0.19613404569132989 -0.14373390807311209 0 0.18847425822058331 -0.12757254000602081 0 0.1775713605703845 -0.14843280274332579 0 0.19661262810130409 -0.16289523643812759 0 0.1775713605703845 -0.14843280274332579 0 0.17156149747227931 -0.17230867766339431 0 0.19605350335778551 -0.185044064231186 0 0.17713282411053871 -0.19325207292174459 0 0.17156149747227931 -0.17230867766339431 0 0.19605350335778551 -0.185044064231186 0 0.17156149747227931 -0.17230867766339431 0 0.1589541864411908 -0.19017556149057521 0 0.15402288771932171 -0.1769576624549431 0 0.17156149747227931 -0.17230867766339431 0 0.17713282411053871 -0.19325207292174459 0 0.1589541864411908 -0.19017556149057521 0 0.17156149747227931 -0.17230867766339431 0 0.15402288771932171 -0.1769576624549431 0 0.1470694915867746 -0.15957329109560039 0 0.17156149747227931 -0.17230867766339431 0 0.16203720149536269 -0.1513367662110621 0 0.1775713605703845 -0.14843280274332579 0 0.17156149747227931 -0.17230867766339431 0 0.1470694915867746 -0.15957329109560039 0 0.17156149747227931 -0.17230867766339431 0 0.1470694915867746 -0.15957329109560039 0 0.16203720149536269 -0.1513367662110621 0 0.17156149747227931 -0.17230867766339431 0 
</DataArray>
</Points>
<Cells>
<DataArray type="UInt32" Name="connectivity" format="ascii">
0 1 2 3 4 5 6 7 8 9 10 11 12 13 14 15 16 17 18 19 20 21 22 23 24 25 26 27 28 29 30 31 32 33 34 35 36 37 38 39 40 41 42 43 44 45 46 47 48 49 50 51 52 53 54 55 56 57 58 59 60 61 62 63 64 65 66 67 68 69 70 71 72 73 74 75 76 77 78 79 80 81 82 83 84 85 86 87 88 89 90 91 92 93 94 95 96 97 98 99 100 101 102 103 104 105 106 107 108 109 110 111 112 113 114 115 116 117 118 119 120 121 122 123 124 125 126 127 128 129 130 131 132 133 134 135 136 137 138 139 140 141 142 143 144 145 146 147 148 149 150 151 152 153 154 155 156 157 158 159 160 161 162 163 164 165 166 167 168 169 170 171 172 173 174 175 176 177 178 179 180 181 182 183 184 185 186 187 188 189 190 191 192 193 194 195 196 197 198 199 200 201 202 203 204 205 206 207 208 209 210 211 212 213 214 215 216 217 218 219 220 221 222 223 224 225 226 227 228 229 230 231 232 233 234 235 236 237 238 239 240 241 242 243 244 245 246 247 248 249 250 251 252 253 254 255 256 257 258 259 260 261 262 263 264 265 266 267 268 269 270 271 272 273 274 275 276 277 278 279 280 281 282 283 284 285 286 287 288 289 290 291 292 293 294 295 296 297 298 299 300 301 302 303 304 305 306 307 308 309 310 311 312 313 314 315 316 317 318 319 320 321 322 323 324 325 326 327 328 329 330 331 332 333 334 335 336 337 338 339 340 341 342 343 344 345 346 347 348 349 350 351 352 353 354 355 356 357 358 359 360 361 362 363 364 365 366 367 368 369 370 371 372 373 374 375 376 377 378 379 380 381 382 383 384 385 386 387 388 389 390 391 392 393 394 395 396 397 398 399 400 401 402 403 404 405 406 407 408 409 410 411 412 413 414 415 416 417 418 419 420 421 422 423 424 425 426 427 428 429 430 431 432 433 434 435 436 437 438 439 440 441 442 443 444 445 446 447 448 449 450 451 452 453 454 455 456 457 458 459 460 461 462 463 464 465 466 467 468 469 470 471 472 473 474 475 476 477 478 479 480 481 482 483 484 485 486 487 488 489 490 491 492 493 494 495 496 497 498 499 500 501 502 503 504 505 506 507 508 509 510 511 512 513 514 515 516 517 518 519 520 521 522 523 524 525 526 527 528 529 530 531 532 533 534 535 536 537 538 539 540 541 542 543 544 545 546 547 548 549 550 551 552 553 554 555 556 557 558 559 560 561 562 563 564 565 566 567 568 569 570 571 572 573 574 575 576 577 578 579 580 581 582 583 584 585 586 587 588 589 590 591 592 593 594 595 596 597 598 599 600 601 602 603 604 605 606 607 608 609 610 611 612 613 614 615 616 617 618 619 620 621 622 623 624 625 626 627 628 629 630 631 632 633 634 635 636 637 638 639 640 641 642 643 644 645 646 647 648 649 650 651 652 653 654 655 656 657 658 659 660 661 662 663 664 665 666 667 668 669 670 671 672 673 674 675 676 677 678 679 680 681 682 683 684 685 686 687 688 689 690 691 692 693 694 695 696 697 698 699 700 701 702 703 704 705 706 707 708 709 710 711 712 713 714 715 716 717 718 719 720 721 722 723 724 725 726 727 728 729 730 731 732 733 734 735 736 737 738 739 740 741 742 743 744 745 746 747 748 749 750 751 752 753 754 755 756 757 758 759 760 761 762 763 764 765 766 767 768 769 770 771 772 773 774 775 776 777 778 779 780 781 782 783 784 785 786 787 788 789 790 791 792 793 794 795 796 797 798 799 800 801 802 803 804 805 806 807 808 809 810 811 812 813 814 815 816 817 818 819 820 821 822 823 824 825 826 827 828 829 830 831 832 833 834 835 836 837 838 839 840 841 842 843 844 845 846 847 848 849 850 851 852 853 854 855 856 857 858 859 860 861 862 863 864 865 866 867 868 869 870 871 872 873 874 875 876 877 878 879 880 881 882 883 884 885 886 887 888 889 890 891 892 893 894 895 896 897 898 899 900 901 902 903 904 905 906 907 908 909 910 911 912 913 914 915 916 917 918 919 920 921 922 923 924 925 926 927 928 929 930 931 932 933 934 935 936 937 938 939 940 941 942 943 944 945 946 947 948 949 950 951 952 953 954 955 956 957 958 959 960 961 962 963 964 965 966 967 968 969 970 971 972 973 974 975 976 977 978 979 980 981 982 983 984 985 986 987 988 989 990 991 992 993 994 995 996 997 998 999 1000 1001 1002 1003 1004 1005 1006 1007 1008 1009 1010 1011 1012 1013 1014 1015 1016 1017 1018 1019 1020 1021 1022 1023 1024 1025 1026 1027 1028 1029 1030 1031 1032 1033 1034 1035 1036 1037 1038 1039 1040 1041 1042 1043 1044 1045 1046 1047 1048 1049 1050 1051 1052 1053 1054 1055 1056 1057 1058 1059 1060 1061 1062 1063 1064 1065 1066 1067 1068 1069 1070 1071 1072 1073 1074 1075 1076 1077 1078 1079 1080 1081 1082 1083 1084 1085 1086 1087 1088 1089 1090 1091 1092 1093 1094 1095 1096 1097 1098 1099 1100 1101 1102 1103 1104 1105 1106 1107 1108 1109 1110 1111 1112 1113 1114 1115 1116 1117 1118 1119 1120 1121 1122 1123 1124 1125 1126 1127 1128 1129 1130 1131 1132 1133 1134 1135 1136 1137 1138 1139 1140 1141 1142 1143 1144 1145 1146 1147 1148 1149 1150 1151 1152 1153 1154 1155 1156 1157 1158 1159 1160 1161 1162 1163 1164 1165 1166 1167 1168 1169 1170 1171 1172 1173 1174 1175 1176 1177 1178 1179 1180 1181 1182 1183 1184 1185 1186 1187 1188 1189 1190 1191 1192 1193 1194 1195 1196 1197 1198 1199 1200 1201 1202 1203 1204 1205 1206 1207 1208 1209 1210 1211 1212 1213 1214 1215 1216 1217 1218 1219 1220 1221 1222 1223 1224 1225 1226 1227 1228 1229 1230 1231 1232 1233 1234 1235 1236 1237 1238 1239 1240 1241 1242 1243 1244 1245 1246 1247 1248 1249 1250 1251 1252 1253 1254 1255 1256 1257 1258 1259 1260 1261 1262 1263 1264 1265 1266 1267 1268 1269 1270 1271 1272 1273 1274 1275 1276 1277 1278 1279 1280 1281 1282 1283 1284 1285 1286 1287 1288 1289 1290 1291 1292 1293 1294 1295 1296 1297 1298 1299 1300 1301 1302 1303 1304 1305 1306 1307 1308 1309 1310 1311 1312 1313 1314 1315 1316 1317 1318 1319 1320 1321 1322 1323 1324 1325 1326 1327 1328 1329 1330 1331 1332 1333 1334 1335 1336 1337 1338 1339 1340 1341 1342 1343 1344 1345 1346 1347 1348 1349 1350 1351 1352 1353 1354 1355 1356 1357 1358 1359 1360 1361 1362 1363 1364 1365 1366 1367 1368 1369 1370 1371 1372 1373 1374 1375 1376 1377 1378 1379 1380 1381 1382 1383 1384 1385 1386 1387 1388 1389 1390 1391 1392 1393 1394 1395 1396 1397 1398 1399 1400 1401 1402 1403 1404 1405 1406 1407 1408 1409 1410 1411 1412 1413 1414 1415 1416 1417 1418 1419 1420 1421 1422 1423 1424 1425 1426 1427 1428 1429 1430 1431 1432 1433 1434 1435 1436 1437 1438 1439 1440 1441 1442 1443 1444 1445 1446 1447 1448 1449 1450 1451 1452 1453 1454 1455 1456 1457 1458 1459 1460 1461 1462 1463 1464 1465 1466 1467 1468 1469 1470 1471 1472 1473 1474 1475 1476 1477 1478 1479 1480 1481 1482 1483 1484 1485 1486 1487 1488 1489 1490 1491 1492 1493 1494 1495 1496 1497 1498 1499 1500 1501 1502 1503 1504 1505 1506 1507 1508 1509 1510 1511 1512 1513 1514 1515 1516 1517 1518 1519 1520 1521 1522 1523 1524 1525 1526 1527 1528 1529 1530 1531 1532 1533 1534 1535 1536 1537 1538 1539 1540 1541 1542 1543 1544 1545 1546 1547 1548 1549 1550 1551 1552 1553 1554 1555 1556 1557 1558 1559 1560 1561 1562 1563 1564 1565 1566 1567 1568 1569 1570 1571 1572 1573 1574 1575 1576 1577 1578 1579 1580 1581 1582 1583 1584 1585 1586 1587 1588 1589 1590 1591 1592 1593 1594 1595 1596 1597 1598 1599 1600 1601 1602 1603 1604 1605 1606 1607 1608 1609 1610 1611 1612 1613 1614 1615 1616 1617 1618 1619 1620 1621 1622 1623 1624 1625 1626 1627 1628 1629 1630 1631 1632 1633 1634 1635 1636 1637 1638 1639 1640 1641 1642 1643 1644 1645 1646 1647 1648 1649 1650 1651 1652 1653 1654 1655 1656 1657 1658 1659 1660 1661 1662 1663 1664 1665 1666 1667 1668 1669 1670 1671 1672 1673 1674 1675 1676 1677 1678 1679 1680 1681 1682 1683 1684 1685 1686 1687 1688 1689 1690 1691 1692 1693 1694 1695 1696 1697 1698 1699 1700 1701 1702 1703 1704 1705 1706 1707 1708 1709 1710 1711 1712 1713 1714 1715 1716 1717 1718 1719 1720 1721 1722 1723 1724 1725 1726 1727 1728 1729 1730 1731 1732 1733 1734 1735 1736 1737 1738 1739 1740 1741 1742 1743 1744 1745 1746 1747 1748 1749 1750 1751 1752 1753 1754 1755 1756 1757 1758 1759 1760 1761 1762 1763 1764 1765 1766 1767 1768 1769 1770 1771 1772 1773 1774 1775 1776 1777 1778 1779 1780 1781 1782 1783 1784 1785 1786 1787 1788 1789 1790 1791 1792 1793 1794 1795 1796 1797 1798 1799 1800 1801 1802 1803 1804 1805 1806 1807 1808 1809 1810 1811 1812 1813 1814 1815 1816 1817 1818 1819 1820 1821 1822 1823 1824 1825 1826 1827 1828 1829 1830 1831 1832 1833 1834 1835 1836 1837 1838 1839 1840 1841 1842 1843 1844 1845 1846 1847 1848 1849 1850 1851 1852 1853 1854 1855 1856 1857 1858 1859 1860 1861 1862 1863 1864 1865 1866 1867 1868 1869 1870 1871 1872 1873 1874 1875 1876 1877 1878 1879 1880 1881 1882 1883 1884 1885 1886 1887 1888 1889 1890 1891 1892 1893 1894 1895 1896 1897 1898 1899 1900 1901 1902 1903 1904 1905 1906 1907 1908 1909 1910 1911 1912 1913 1914 1915 1916 1917 1918 1919 1920 1921 1922 1923 1924 1925 1926 1927 1928 1929 1930 1931 1932 1933 1934 1935 1936 1937 1938 1939 1940 1941 1942 1943 1944 1945 1946 1947 1948 1949 1950 1951 1952 1953 1954 1955 1956 1957 1958 1959 1960 1961 1962 1963 1964 1965 1966 1967 1968 1969 1970 1971 1972 1973 1974 1975 1976 1977 1978 1979 1980 1981 1982 1983 1984 1985 1986 1987 1988 1989 1990 1991 1992 1993 1994 1995 1996 1997 1998 1999 2000 2001 2002 2003 2004 2005 2006 2007 2008 2009 2010 2011 2012 2013 2014 2015 2016 2017 2018 2019 2020 2021 2022 2023 2024 2025 2026 2027 2028 2029 2030 2031 2032 2033 2034 2035 2036 2037 2038 2039 2040 2041 2042 2043 2044 2045 2046 2047 2048 2049 2050 2051 2052 2053 2054 2055 2056 2057 2058 2059 2060 2061 2062 2063 2064 2065 2066 2067 2068 2069 2070 2071 2072 2073 2074 2075 2076 2077 2078 2079 2080 2081 2082 2083 2084 2085 2086 2087 2088 2089 2090 2091 2092 2093 2094 2095 2096 2097 2098 2099 2100 2101 2102 2103 2104 2105 2106 2107 2108 2109 2110 2111 2112 2113 2114 2115 2116 2117 2118 2119 2120 2121 2122 2123 2124 2125 2126 2127 2128 2129 2130 2131 2132 2133 2134 2135 2136 2137 2138 2139 2140 2141 2142 2143 2144 2145 2146 2147 2148 2149 2150 2151 2152 2153 2154 2155 2156 2157 2158 2159 2160 2161 2162 2163 2164 2165 2166 2167 2168 2169 2170 2171 2172 2173 2174 2175 2176 2177 2178 2179 2180 2181 2182 2183 2184 2185 2186 2187 2188 2189 2190 2191 2192 2193 2194 2195 2196 2197 2198 2199 2200 2201 2202 2203 2204 2205 2206 2207 2208 2209 2210 2211 2212 2213 2214 2215 2216 2217 2218 2219 2220 2221 2222 2223 2224 2225 2226 2227 2228 2229 2230 2231 2232 2233 2234 2235 2236 2237 2238 2239 2240 2241 2242 2243 2244 2245 2246 2247 2248 2249 2250 2251 2252 2253 2254 2255 2256 2257 2258 2259 2260 2261 2262 2263 2264 2265 2266 2267 2268 2269 2270 2271 2272 2273 2274 2275 2276 2277 2278 2279 2280 2281 2282 2283 2284 2285 2286 2287 2288 2289 2290 2291 2292 2293 2294 2295 2296 2297 2298 2299 2300 2301 2302 2303 2304 2305 2306 2307 2308 2309 2310 2311 2312 2313 2314 2315 2316 2317 2318 2319 2320 2321 2322 2323 2324 2325 2326 2327 2328 2329 2330 2331 2332 2333 2334 2335 2336 2337 2338 2339 2340 2341 2342 2343 2344 2345 2346 2347 2348 2349 2350 2351 2352 2353 2354 2355 2356 2357 2358 2359 2360 2361 2362 2363 2364 2365 2366 2367 2368 2369 2370 2371 2372 2373 2374 2375 2376 2377 2378 2379 2380 2381 2382 2383 2384 2385 2386 2387 2388 2389 2390 2391 2392 2393 2394 2395 2396 2397 2398 2399 2400 2401 2402 2403 2404 2405 2406 2407 2408 2409 2410 2411 2412 2413 2414 2415 2416 2417 2418 2419 2420 2421 2422 2423 2424 2425 2426 2427 2428 2429 2430 2431 2432 2433 2434 2435 2436 2437 2438 2439 2440 2441 2442 2443 2444 2445 2446 2447 2448 2449 2450 2451 2452 2453 2454 2455 2456 2457 2458 2459 2460 2461 2462 2463 2464 2465 2466 2467 2468 2469 2470 2471 2472 2473 2474 2475 2476 2477 2478 2479 2480 2481 2482 2483 2484 2485 2486 2487 2488 2489 2490 2491 2492 2493 2494 2495 2496 2497 2498 2499 2500 2501 2502 2503 2504 2505 2506 2507 2508 2509 2510 2511 2512 2513 2514 2515 2516 2517 2518 2519 2520 2521 2522 2523 2524 2525 2526 2527 2528 2529 2530 2531 2532 2533 2534 2535 2536 2537 2538 2539 2540 2541 2542 2543 2544 2545 2546 2547 2548 2549 2550 2551 2552 2553 2554 2555 2556 2557 2558 2559 2560 2561 2562 2563 2564 2565 2566 2567 2568 2569 2570 2571 2572 2573 2574 2575 2576 2577 2578 2579 2580 2581 2582 2583 2584 2585 2586 2587 2588 2589 2590 2591 2592 2593 2594 2595 2596 2597 2598 2599 2600 2601 2602 2603 2604 2605 2606 2607 2608 2609 2610 2611 2612 2613 2614 2615 2616 2617 2618 2619 2620 2621 2622 2623 2624 2625 2626 2627 2628 2629 2630 2631 2632 2633 2634 2635 2636 2637 2638 2639 2640 2641 2642 2643 2644 2645 2646 2647 2648 2649 2650 2651 2652 2653 2654 2655 2656 2657 2658 2659 2660 2661 2662 2663 2664 2665 2666 2667 2668 2669 2670 2671 2672 2673 2674 2675 2676 2677 2678 2679 2680 2681 2682 2683 2684 2685 2686 2687 2688 2689 2690 2691 2692 2693 2694 2695 2696 2697 2698 2699 2700 2701 2702 2703 2704 2705 2706 2707 2708 2709 2710 2711 2712 2713 2714 2715 2716 2717 2718 2719 2720 2721 2722 2723 2724 2725 2726 2727 2728 2729 2730 2731 2732 2733 2734 2735 2736 2737 2738 2739 2740 2741 2742 2743 2744 2745 2746 2747 2748 2749 2750 2751 2752 2753 2754 2755 2756 2757 2758 2759 2760 2761 2762 2763 2764 2765 2766 2767 2768 2769 2770 2771 2772 2773 2774 2775 2776 2777 2778 2779 2780 2781 2782 2783 2784 2785 2786 2787 2788 2789 2790 2791 2792 2793 2794 2795 2796 2797 2798 2799 2800 2801 2802 2803 2804 2805 2806 2807 2808 2809 2810 2811 2812 2813 2814 2815 2816 2817 2818 2819 2820 2821 2822 2823 2824 2825 2826 2827 2828 2829 2830 2831 2832 2833 2834 2835 2836 2837 2838 2839 2840 2841 2842 2843 2844 2845 2846 2847 2848 2849 2850 2851 2852 2853 2854 2855 2856 2857 2858 2859 2860 2861 2862 2863 2864 2865 2866 2867 2868 2869 2870 2871 2872 2873 2874 2875 2876 2877 2878 2879 2880 2881 2882 2883 2884 2885 2886 2887 2888 2889 2890 2891 2892 2893 2894 2895 2896 2897 2898 2899 2900 2901 2902 2903 2904 2905 2906 2907 2908 2909 2910 2911 2912 2913 2914 2915 2916 2917 2918 2919 2920 2921 2922 2923 2924 2925 2926 2927 2928 2929 2930 2931 2932 2933 2934 2935 2936 2937 2938 2939 2940 2941 2942 2943 2944 2945 2946 2947 2948 2949 2950 2951 2952 2953 2954 2955 2956 2957 2958 2959 2960 2961 2962 2963 2964 2965 2966 2967 2968 2969 2970 2971 2972 2973 2974 2975 2976 2977 2978 2979 2980 2981 2982 2983 2984 2985 2986 2987 2988 2989 2990 2991 2992 2993 2994 2995 2996 2997 2998 2999 3000 3001 3002 3003 3004 3005 3006 3007 3008 3009 3010 3011 3012 3013 3014 3015 3016 3017 3018 3019 3020 3021 3022 3023 3024 3025 3026 3027 3028 3029 3030 3031 3032 3033 3034 3035 3036 3037 3038 3039 3040 3041 3042 3043 3044 3045 3046 3047 3048 3049 3050 3051 3052 3053 3054 3055 3056 3057 3058 3059 3060 3061 3062 3063 3064 3065 3066 3067 3068 3069 3070 3071 3072 3073 3074 3075 3076 3077 3078 3079 3080 3081 3082 3083 3084 3085 3086 3087 3088 3089 3090 3091 3092 3093 3094 3095 3096 3097 3098 3099 3100 3101 3102 3103 3104 3105 3106 3107 3108 3109 3110 3111 3112 3113 3114 3115 3116 3117 3118 3119 3120 3121 3122 3123 3124 3125 3126 3127 3128 3129 3130 3131 3132 3133 3134 3135 3136 3137 3138 3139 3140 3141 3142 3143 3144 3145 3146 3147 3148 3149 3150 3151 3152 3153 3154 3155 3156 3157 3158 3159 3160 3161 3162 3163 3164 3165 3166 3167 3168 3169 3170 3171 3172 3173 3174 3175 3176 3177 3178 3179 3180 3181 3182 3183 3184 3185 3186 3187 3188 3189 3190 3191 3192 3193 3194 3195 3196 3197 3198 3199 3200 3201 3202 3203 3204 3205 3206 3207 3208 3209 3210 3211 3212 3213 3214 3215 3216 3217 3218 3219 3220 3221 3222 3223 3224 3225 3226 3227 3228 3229 3230 3231 3232 3233 3234 3235 3236 3237 3238 3239 3240 3241 3242 3243 3244 3245 3246 3247 3248 3249 3250 3251 3252 3253 3254 3255 3256 3257 3258 3259 3260 3261 3262 3263 3264 3265 3266 3267 3268 3269 3270 3271 3272 3273 3274 3275 3276 3277 3278 3279 3280 3281 3282 3283 3284 3285 3286 3287 3288 3289 3290 3291 3292 3293 3294 3295 3296 3297 3298 3299 3300 3301 3302 3303 3304 3305 3306 3307 3308 3309 3310 3311 3312 3313 3314 3315 3316 3317 3318 3319 3320 3321 3322 3323 3324 3325 3326 3327 3328 3329 3330 3331 3332 3333 3334 3335 3336 3337 3338 3339 3340 3341 3342 3343 3344 3345 3346 3347 3348 3349 3350 3351 3352 3353 3354 3355 3356 3357 3358 3359 3360 3361 3362 3363 3364 3365 3366 3367 3368 3369 3370 3371 3372 3373 3374 3375 3376 3377 3378 3379 3380 3381 3382 3383 3384 3385 3386 3387 3388 3389 3390 3391 3392 3393 3394 3395 3396 3397 3398 3399 3400 3401 3402 3403 3404 3405 3406 3407 3408 3409 3410 3411 3412 3413 3414 3415 3416 3417 3418 3419 3420 3421 3422 3423 3424 3425 3426 3427 3428 3429 3430 3431 3432 3433 3434 3435 3436 3437 3438 3439 3440 3441 3442 3443 3444 3445 3446 3447 3448 3449 3450 3451 3452 3453 3454 3455 3456 3457 3458 3459 3460 3461 3462 3463 3464 3465 3466 3467 3468 3469 3470 3471 3472 3473 3474 3475 3476 3477 3478 3479 3480 3481 3482 3483 3484 3485 3486 3487 3488 3489 3490 3491 3492 3493 3494 3495 3496 3497 3498 3499 3500 3501 3502 3503 3504 3505 3506 3507 3508 3509 3510 3511 3512 3513 3514 3515 3516 3517 3518 3519 3520 3521 3522 3523 3524 3525 3526 3527 3528 3529 3530 3531 3532 3533 3534 3535 3536 3537 3538 3539 3540 3541 3542 3543 3544 3545 3546 3547 3548 3549 3550 3551 3552 3553 3554 3555 3556 3557 3558 3559 3560 3561 3562 3563 3564 3565 3566 3567 3568 3569 3570 3571 3572 3573 3574 3575 3576 3577 3578 3579 3580 3581 3582 3583 3584 3585 3586 3587 3588 3589 3590 3591 3592 3593 3594 3595 3596 3597 3598 3599 3600 3601 3602 3603 3604 3605 3606 3607 3608 3609 3610 3611 3612 3613 3614 3615 3616 3617 3618 3619 3620 3621 3622 3623 3624 3625 3626 3627 3628 3629 3630 3631 3632 3633 3634 3635 3636 3637 3638 3639 3640 3641 3642 3643 3644 3645 3646 3647 3648 3649 3650 3651 3652 3653 3654 3655 3656 3657 3658 3659 3660 3661 3662 3663 3664 3665 3666 3667 3668 3669 3670 3671 3672 3673 3674 3675 3676 3677 3678 3679 3680 3681 3682 3683 3684 3685 3686 3687 3688 3689 3690 3691 3692 3693 3694 3695 3696 3697 3698 3699 3700 3701 3702 3703 3704 3705 3706 3707 3708 3709 3710 3711 3712 3713 3714 3715 3716 3717 3718 3719 3720 3721 3722 3723 3724 3725 3726 3727 3728 3729 3730 3731 3732 3733 3734 3735 3736 3737 3738 3739 3740 3741 3742 3743 3744 3745 3746 3747 3748 3749 3750 3751 3752 3753 3754 3755 3756 3757 3758 3759 3760 3761 3762 3763 3764 3765 3766 3767 3768 3769 3770 3771 3772 3773 3774 3775 3776 3777 3778 3779 3780 3781 3782 3783 3784 3785 3786 3787 3788 3789 3790 3791 3792 3793 3794 3795 3796 3797 3798 3799 3800 3801 3802 3803 3804 3805 3806 3807 3808 3809 3810 3811 3812 3813 3814 3815 3816 3817 3818 3819 3820 3821 3822 3823 3824 3825 3826 3827 3828 3829 3830 3831 3832 3833 3834 3835 3836 3837 3838 3839 3840 3841 3842 3843 3844 3845 3846 3847 3848 3849 3850 3851 3852 3853 3854 3855 3856 3857 3858 3859 3860 3861 3862 3863 3864 3865 3866 3867 3868 3869 3870 3871 3872 3873 3874 3875 3876 3877 3878 3879 3880 3881 3882 3883 3884 3885 3886 3887 3888 3889 3890 3891 3892 3893 3894 3895 3896 3897 3898 3899 3900 3901 3902 3903 3904 3905 3906 3907 3908 3909 3910 3911 3912 3913 3914 3915 3916 3917 3918 3919 3920 3921 3922 3923 3924 3925 3926 3927 3928 3929 3930 3931 3932 3933 3934 3935 3936 3937 3938 3939 3940 3941 3942 3943 3944 3945 3946 3947 3948 3949 3950 3951 3952 3953 3954 3955 3956 3957 3958 3959 3960 3961 3962 3963 3964 3965 3966 3967 3968 3969 3970 3971 3972 3973 3974 3975 3976 3977 3978 3979 3980 3981 3982 3983 3984 3985 3986 3987 3988 3989 3990 3991 3992 3993 3994 3995 3996 3997 3998 3999 4000 4001 4002 4003 4004 4005 4006 4007 4008 4009 4010 4011 4012 4013 4014 4015 4016 4017 4018 4019 4020 4021 4022 4023 4024 4025 4026 4027 4028 4029 4030 4031 4032 4033 4034 4035 4036 4037 4038 4039 4040 4041 4042 4043 4044 4045 4046 4047 4048 4049 4050 4051 4052 4053 4054 4055 4056 4057 4058 4059 4060 4061 4062 4063 4064 4065 4066 4067 4068 4069 4070 4071 4072 4073 4074 4075 4076 4077 4078 4079 4080 4081 4082 4083 4084 4085 4086 4087 4088 4089 4090 4091 4092 4093 4094 4095 4096 4097 4098 4099 4100 4101 4102 4103 4104 4105 4106 4107 4108 4109 4110 4111 4112 4113 4114 4115 4116 4117 4118 4119 4120 4121 4122 4123 4124 4125 4126 4127 4128 4129 4130 4131 4132 4133 4134 4135 4136 4137 4138 4139 4140 4141 4142 4143 4144 4145 4146 4147 4148 4149 4150 4151 4152 4153 4154 4155 4156 4157 4158 4159 4160 4161 4162 4163 4164 4165 4166 4167 4168 4169 4170 4171 4172 4173 4174 4175 4176 4177 4178 4179 4180 4181 4182 4183 4184 4185 4186 4187 4188 4189 4190 4191 4192 4193 4194 4195 4196 4197 4198 4199 4200 4201 4202 4203 4204 4205 4206 4207 4208 4209 4210 4211 4212 4213 4214 4215 4216 4217 4218 4219 4220 4221 4222 4223 4224 4225 4226 4227 4228 4229 4230 4231 4232 4233 4234 4235 4236 4237 4238 4239 4240 4241 4242 4243 4244 4245 4246 4247 4248 4249 4250 4251 4252 4253 4254 4255 4256 4257 4258 4259 4260 4261 4262 4263 4264 4265 4266 4267 4268 4269 4270 4271 4272 4273 4274 4275 4276 4277 4278 4279 4280 4281 4282 4283 4284 4285 4286 4287 4288 4289 4290 4291 4292 4293 4294 4295 4296 4297 4298 4299 4300 4301 4302 4303 4304 4305 4306 4307 4308 4309 4310 4311 4312 4313 4314 4315 4316 4317 4318 4319 4320 4321 4322 4323 4324 4325 4326 4327 4328 4329 4330 4331 4332 4333 4334 4335 4336 4337 4338 4339 4340 4341 4342 4343 4344 4345 4346 4347 4348 4349 4350 4351 4352 4353 4354 4355 4356 4357 4358 4359 4360 4361 4362 4363 4364 4365 4366 4367 4368 4369 4370 4371 4372 4373 4374 4375 4376 4377 4378 4379 4380 4381 4382 4383 4384 4385 4386 4387 4388 4389 4390 4391 4392 4393 4394 4395 4396 4397 4398 4399 4400 4401 4402 4403 4404 4405 4406 4407 4408 4409 4410 4411 4412 4413 4414 4415 4416 4417 4418 4419 4420 4421 4422 4423 4424 4425 4426 4427 4428 4429 4430 4431 4432 4433 4434 4435 4436 4437 4438 4439 4440 4441 4442 4443 4444 4445 4446 4447 4448 4449 4450 4451 4452 4453 4454 4455 4456 4457 4458 4459 4460 4461 4462 4463 4464 4465 4466 4467 4468 4469 4470 4471 4472 4473 4474 4475 4476 4477 4478 4479 4480 4481 4482 4483 4484 4485 4486 4487 4488 4489 4490 4491 4492 4493 4494 4495 4496 4497 4498 4499 4500 4501 4502 4503 4504 4505 4506 4507 4508 4509 4510 4511 4512 4513 4514 4515 4516 4517 4518 4519 4520 4521 4522 4523 4524 4525 4526 4527 4528 4529 4530 4531 4532 4533 4534 4535 4536 4537 4538 4539 4540 4541 4542 4543 4544 4545 4546 4547 4548 4549 4550 4551 4552 4553 4554 4555 4556 4557 4558 4559 4560 4561 4562 4563 4564 4565 4566 4567 4568 4569 4570 4571 4572 4573 4574 4575 4576 4577 4578 4579 4580 4581 4582 4583 4584 4585 4586 4587 4588 4589 4590 4591 4592 4593 4594 4595 4596 4597 4598 4599 4600 4601 4602 4603 4604 4605 4606 4607 4608 4609 4610 4611 4612 4613 4614 4615 4616 4617 4618 4619 4620 4621 4622 4623 4624 4625 4626 4627 4628 4629 4630 4631 4632 4633 4634 4635 4636 4637 4638 4639 4640 4641 4642 4643 4644 4645 4646 4647 4648 4649 4650 4651 4652 4653 4654 4655 4656 4657 4658 4659 4660 4661 4662 4663 4664 4665 4666 4667 4668 4669 4670 4671 4672 4673 4674 4675 4676 4677 4678 4679 4680 4681 4682 4683 4684 4685 4686 4687 4688 4689 4690 4691 4692 4693 4694 4695 4696 4697 4698 4699 4700 4701 4702 4703 4704 4705 4706 4707 4708 4709 4710 4711 4712 4713 4714 4715 4716 4717 4718 4719 4720 4721 4722 4723 4724 4725 4726 4727 4728 4729 4730 4731 4732 4733 4734 4735 4736 4737 4738 4739 4740 4741 4742 4743 4744 4745 4746 4747 4748 4749 4750 4751 4752 4753 4754 4755 4756 4757 4758 4759 4760 4761 4762 4763 4764 4765 4766 4767 4768 4769 4770 4771 4772 4773 4774 4775 4776 4777 4778 4779 4780 4781 4782 4783 4784 4785 4786 4787 4788 4789 4790 4791 4792 4793 4794 4795 4796 4797 4798 4799 4800 4801 4802 4803 4804 4805 4806 4807 4808 4809 4810 4811 4812 4813 4814 4815 4816 4817 4818 4819 4820 4821 4822 4823 4824 4825 4826 4827 4828 4829 4830 4831 4832 4833 4834 4835 4836 4837 4838 4839 4840 4841 4842 4843 4844 4845 4846 4847 4848 4849 4850 4851 4852 4853 4854 4855 4856 4857 4858 4859 4860 4861 4862 4863 4864 4865 4866 4867 4868 4869 4870 4871 4872 4873 4874 4875 4876 4877 4878 4879 4880 4881 4882 4883 4884 4885 4886 4887 4888 4889 4890 4891 4892 4893 4894 4895 4896 4897 4898 4899 4900 4901 4902 4903 4904 4905 4906 4907 4908 4909 4910 4911 4912 4913 4914 4915 4916 4917 4918 4919 4920 4921 4922 4923 4924 4925 4926 4927 4928 4929 4930 4931 4932 4933 4934 4935 4936 4937 4938 4939 4940 4941 4942 4943 4944 4945 4946 4947 4948 4949 4950 4951 4952 4953 4954 4955 4956 4957 4958 4959 4960 4961 4962 4963 4964 4965 4966 4967 4968 4969 4970 4971 4972 4973 4974 4975 4976 4977 4978 4979 4980 4981 4982 4983 4984 4985 4986 4987 4988 4989 4990 4991 4992 4993 4994 4995 4996 4997 4998 4999 5000 5001 5002 5003 5004 5005 5006 5007 5008 5009 5010 5011 5012 5013 5014 5015 5016 5017 5018 5019 5020 5021 5022 5023 5024 5025 5026 5027 5028 5029 5030 5031 5032 5033 5034 5035 5036 5037 5038 5039 5040 5041 5042 5043 5044 5045 5046 5047 5048 5049 5050 5051 5052 5053 5054 5055 5056 5057 5058 5059 5060 5061 5062 5063 5064 5065 5066 5067 5068 5069 5070 5071 5072 5073 5074 5075 5076 5077 5078 5079 5080 5081 5082 5083 5084 5085 5086 5087 5088 5089 5090 5091 5092 5093 5094 5095 5096 5097 5098 5099 5100 5101 5102 5103 5104 5105 5106 5107 5108 5109 5110 5111 5112 5113 5114 5115 5116 5117 5118 5119 5120 5121 5122 5123 5124 5125 5126 5127 5128 5129 5130 5131 5132 5133 5134 5135 5136 5137 5138 5139 5140 5141 5142 5143 5144 5145 5146 5147 5148 5149 5150 5151 5152 5153 5154 5155 5156 5157 5158 5159 5160 5161 5162 5163 5164 5165 5166 5167 5168 5169 5170 5171 5172 5173 5174 5175 5176 5177 5178 5179 5180 5181 5182 5183 5184 5185 5186 5187 5188 5189 5190 5191 5192 5193 5194 5195 5196 5197 5198 5199 5200 5201 5202 5203 5204 5205 5206 5207 5208 5209 5210 5211 5212 5213 5214 5215 5216 5217 5218 5219 5220 5221 5222 5223 5224 5225 5226 5227 5228 5229 5230 5231 5232 5233 5234 5235 5236 5237 5238 5239 5240 5241 5242 5243 5244 5245 5246 5247 5248 5249 5250 5251 5252 5253 5254 5255 5256 5257 5258 5259 5260 5261 5262 5263 5264 5265 5266 5267 5268 5269 5270 5271 5272 5273 5274 5275 5276 5277 5278 5279 5280 5281 5282 5283 5284 5285 5286 5287 5288 5289 5290 5291 5292 5293 5294 5295 5296 5297 5298 5299 5300 5301 5302 5303 5304 5305 5306 5307 5308 5309 5310 5311 5312 5313 5314 5315 5316 5317 5318 5319 5320 5321 5322 5323 5324 5325 5326 5327 5328 5329 5330 5331 5332 5333 5334 5335 5336 5337 5338 5339 5340 5341 5342 5343 5344 5345 5346 5347 5348 5349 5350 5351 5352 5353 5354 5355 5356 5357 5358 5359 5360 5361 5362 5363 5364 5365 5366 5367 5368 5369 5370 5371 5372 5373 5374 5375 5376 5377 5378 5379 5380 5381 5382 5383 5384 5385 5386 5387 5388 5389 5390 5391 5392 5393 5394 5395 5396 5397 5398 5399 5400 5401 5402 5403 5404 5405 5406 5407 5408 5409 5410 5411 5412 5413 5414 5415 5416 5417 5418 5419 5420 5421 5422 5423 5424 5425 5426 5427 5428 5429 5430 5431 5432 5433 5434 5435 5436 5437 5438 5439 5440 5441 5442 5443 5444 5445 5446 5447 5448 5449 5450 5451 5452 5453 5454 5455 5456 5457 5458 5459 5460 5461 5462 5463 5464 5465 5466 5467 5468 5469 5470 5471 5472 5473 5474 5475 5476 5477 5478 5479 5480 5481 5482 5483 5484 5485 5486 5487 5488 5489 5490 5491 5492 5493 5494 5495 5496 5497 5498 5499 5500 5501 5502 5503 5504 5505 5506 5507 5508 5509 5510 5511 5512 5513 5514 5515 5516 5517 5518 5519 5520 5521 5522 5523 5524 5525 5526 5527 5528 5529 5530 5531 5532 5533 5534 5535 5536 5537 5538 5539 5540 5541 5542 5543 5544 5545 5546 5547 5548 5549 5550 5551 5552 5553 5554 5555 5556 5557 5558 5559 5560 5561 5562 5563 5564 5565 5566 5567 5568 5569 5570 5571 5572 5573 5574 5575 5576 5577 5578 5579 5580 5581 5582 5583 5584 5585 5586 5587 5588 5589 5590 5591 5592 5593 5594 5595 5596 5597 5598 5599 5600 5601 5602 5603 5604 5605 5606 5607 5608 5609 5610 5611 5612 5613 5614 5615 5616 5617 5618 5619 5620 5621 5622 5623 5624 5625 5626 5627 5628 5629 5630 5631 5632 5633 5634 5635 5636 5637 5638 5639 5640 5641 5642 5643 5644 5645 5646 5647 5648 5649 5650 5651 5652 5653 5654 5655 5656 5657 5658 5659 5660 5661 5662 5663 5664 5665 5666 5667 5668 5669 5670 5671 5672 5673 5674 5675 5676 5677 5678 5679 5680 5681 5682 5683 5684 5685 5686 5687 5688 5689 5690 5691 5692 5693 5694 5695 5696 5697 5698 5699 5700 5701 5702 5703 5704 5705 5706 5707 5708 5709 5710 5711 5712 5713 5714 5715 5716 5717 5718 5719 5720 5721 5722 5723 5724 5725 5726 5727 5728 5729 5730 5731 5732 5733 5734 5735 5736 5737 5738 5739 5740 5741 5742 5743 5744 5745 5746 5747 5748 5749 5750 5751 5752 5753 5754 5755 5756 5757 5758 5759 5760 5761 5762 5763 5764 5765 5766 5767 5768 5769 5770 5771 5772 5773 5774 5775 5776 5777 5778 5779 5780 5781 5782 5783 5784 5785 5786 5787 5788 5789 5790 5791 5792 5793 5794 5795 5796 5797 5798 5799 5800 5801 5802 5803 5804 5805 5806 5807 5808 5809 5810 5811 5812 5813 5814 5815 5816 5817 5818 5819 5820 5821 5822 5823 5824 5825 5826 5827 5828 5829 5830 5831 5832 5833 5834 5835 5836 5837 5838 5839 5840 5841 5842 5843 5844 5845 5846 5847 5848 5849 5850 5851 5852 5853 5854 5855 5856 5857 5858 5859 5860 5861 5862 5863 5864 5865 5866 5867 5868 5869 5870 5871 5872 5873 5874 5875 5876 5877 5878 5879 5880 5881 5882 5883 5884 5885 5886 5887 5888 5889 5890 5891 5892 5893 5894 5895 5896 5897 5898 5899 5900 5901 5902 5903 5904 5905 5906 5907 5908 5909 5910 5911 5912 5913 5914 5915 5916 5917 5918 5919 5920 5921 5922 5923 5924 5925 5926 5927 5928 5929 5930 5931 5932 5933 5934 5935 5936 5937 5938 5939 5940 5941 5942 5943 5944 5945 5946 5947 5948 5949 5950 5951 5952 5953 5954 5955 5956 5957 5958 5959 5960 5961 5962 5963 5964 5965 5966 5967 5968 5969 5970 5971 5972 5973 5974 5975 5976 5977 5978 5979 5980 5981 5982 5983 5984 5985 5986 5987 5988 5989 5990 5991 5992 5993 5994 5995 5996 5997 5998 5999 6000 6001 6002 6003 6004 6005 6006 6007 6008 6009 6010 6011 6012 6013 6014 6015 6016 6017 6018 6019 6020 6021 6022 6023 6024 6025 6026 6027 6028 6029 6030 6031 6032 6033 6034 6035 6036 6037 6038 6039 6040 6041 6042 6043 6044 6045 6046 6047 6048 6049 6050 6051 6052 6053 6054 6055 6056 6057 6058 6059 6060 6061 6062 6063 6064 6065 6066 6067 6068 6069 6070 6071 6072 6073 6074 6075 6076 6077 6078 6079 6080 6081 6082 6083 6084 6085 6086 6087 6088 6089 6090 6091 6092 6093 6094 6095 6096 6097 6098 6099 6100 6101 6102 6103 6104 6105 6106 6107 6108 6109 6110 6111 6112 6113 6114 6115 6116 6117 6118 6119 6120 6121 6122 6123 6124 6125 6126 6127 6128 6129 6130 6131 6132 6133 6134 6135 6136 6137 6138 6139 6140 6141 6142 6143 6144 6145 6146 6147 6148 6149 6150 6151 6152 6153 6154 6155 6156 6157 6158 6159 6160 6161 6162 6163 6164 6165 6166 6167 6168 6169 6170 6171 6172 6173 6174 6175 6176 6177 6178 6179 6180 6181 6182 6183 6184 6185 6186 6187 6188 6189 6190 6191 6192 6193 6194 6195 6196 6197 6198 6199 6200 6201 6202 6203 6204 6205 6206 6207 6208 6209 6210 6211 6212 6213 6214 6215 6216 6217 6218 6219 6220 6221 6222 6223 6224 6225 6226 6227 6228 6229 6230 6231 6232 6233 6234 6235 6236 6237 6238 6239 6240 6241 6242 6243 6244 6245 6246 6247 6248 6249 6250 6251 6252 6253 6254 6255 6256 6257 6258 6259 6260 6261 6262 6263 6264 6265 6266 6267 6268 6269 6270 6271 6272 6273 6274 6275 6276 6277 6278 6279 6280 6281 6282 6283 6284 6285 6286 6287 6288 6289 6290 6291 6292 6293 6294 6295 6296 6297 6298 6299 6300 6301 6302 6303 6304 6305 6306 6307 6308 6309 6310 6311 6312 6313 6314 6315 6316 6317 6318 6319 6320 6321 6322 6323 6324 6325 6326 6327 6328 6329 6330 6331 6332 6333 6334 6335 6336 6337 6338 6339 6340 6341 6342 6343 6344 6345 6346 6347 6348 6349 6350 6351 6352 6353 6354 6355 6356 6357 6358 6359 6360 6361 6362 6363 6364 6365 6366 6367 6368 6369 6370 6371 6372 6373 6374 6375 6376 6377 6378 6379 6380 6381 6382 6383 6384 6385 6386 6387 6388 6389 6390 6391 6392 6393 6394 6395 6396 6397 6398 6399 6400 6401 6402 6403 6404 6405 6406 6407 6408 6409 6410 6411 6412 6413 6414 6415 6416 6417 6418 6419 6420 6421 6422 6423 6424 6425 6426 6427 6428 6429 6430 6431 6432 6433 6434 6435 6436 6437 6438 6439 6440 6441 6442 6443 6444 6445 6446 6447 6448 6449 6450 6451 6452 6453 6454 6455 6456 6457 6458 6459 6460 6461 6462 6463 6464 6465 6466 6467 6468 6469 6470 6471 6472 6473 6474 6475 6476 6477 6478 6479 6480 6481 6482 6483 6484 6485 6486 6487 6488 6489 6490 6491 6492 6493 6494 6495 6496 6497 6498 6499 6500 6501 6502 6503 6504 6505 6506 6507 6508 6509 6510 6511 6512 6513 6514 6515 6516 6517 6518 6519 6520 6521 6522 6523 6524 6525 6526 6527 6528 6529 6530 6531 6532 6533 6534 6535 6536 6537 6538 6539 6540 6541 6542 6543 6544 6545 6546 6547 6548 6549 6550 6551 6552 6553 6554 6555 6556 6557 6558 6559 6560 6561 6562 6563 6564 6565 6566 6567 6568 6569 6570 6571 6572 6573 6574 6575 6576 6577 6578 6579 6580 6581 6582 6583 6584 6585 6586 6587 6588 6589 6590 6591 6592 6593 6594 6595 6596 6597 6598 6599 6600 6601 6602 6603 6604 6605 6606 6607 6608 6609 6610 6611 6612 6613 6614 6615 6616 6617 6618 6619 6620 6621 6622 6623 6624 6625 6626 6627 6628 6629 6630 6631 6632 6633 6634 6635 6636 6637 6638 6639 6640 6641 6642 6643 6644 6645 6646 6647 6648 6649 6650 6651 6652 6653 6654 6655 6656 6657 6658 6659 6660 6661 6662 6663 6664 6665 6666 6667 6668 6669 6670 6671 6672 6673 6674 6675 6676 6677 6678 6679 6680 6681 6682 6683 6684 6685 6686 6687 6688 6689 6690 6691 6692 6693 6694 6695 6696 6697 6698 6699 6700 6701 6702 6703 6704 6705 6706 6707 6708 6709 6710 6711 6712 6713 6714 6715 6716 6717 6718 6719 6720 6721 6722 6723 6724 6725 6726 6727 6728 6729 6730 6731 6732 6733 6734 6735 6736 6737 6738 6739 6740 6741 6742 6743 6744 6745 6746 6747 6748 6749 6750 6751 6752 6753 6754 6755 6756 6757 6758 6759 6760 6761 6762 6763 6764 6765 6766 6767 6768 6769 6770 6771 6772 6773 6774 6775 6776 6777 6778 6779 6780 6781 6782 6783 6784 6785 6786 6787 6788 6789 6790 6791 6792 6793 6794 6795 6796 6797 6798 6799 6800 6801 6802 6803 6804 6805 6806 6807 6808 6809 6810 6811 6812 6813 6814 6815 6816 6817 6818 6819 6820 6821 6822 6823 6824 6825 6826 6827 6828 6829 6830 6831 6832 6833 6834 6835 6836 6837 6838 6839 6840 6841 6842 6843 6844 6845 6846 6847 6848 6849 6850 6851 6852 6853 6854 6855 6856 6857 6858 6859 6860 6861 6862 6863 6864 6865 6866 6867 6868 6869 6870 6871 6872 6873 6874 6875 6876 6877 6878 6879 6880 6881 6882 6883 6884 6885 6886 6887 6888 6889 6890 6891 6892 6893 6894 6895 6896 6897 6898 6899 6900 6901 6902 6903 6904 6905 6906 6907 6908 6909 6910 6911 6912 6913 6914 6915 6916 6917 6918 6919 6920 6921 6922 6923 6924 6925 6926 6927 6928 6929 6930 6931 6932 6933 6934 6935 6936 6937 6938 6939 6940 6941 6942 6943 6944 6945 6946 6947 6948 6949 6950 6951 6952 6953 6954 6955 6956 6957 6958 6959 6960 6961 6962 6963 6964 6965 6966 6967 6968 6969 6970 6971 6972 6973 6974 6975 6976 6977 6978 6979 6980 6981 6982 6983 6984 6985 6986 6987 6988 6989 6990 6991 6992 6993 6994 6995 6996 6997 6998 6999 7000 7001 7002 7003 7004 7005 7006 7007 7008 7009 7010 7011 7012 7013 7014 7015 7016 7017 7018 7019 7020 7021 7022 7023 7024 7025 7026 7027 7028 7029 7030 7031 7032 7033 7034 7035 7036 7037 7038 7039 7040 7041 7042 7043 7044 7045 7046 7047 7048 7049 7050 7051 7052 7053 7054 7055 7056 7057 7058 7059 7060 7061 7062 7063 7064 7065 7066 7067 7068 7069 7070 7071 7072 7073 7074 7075 7076 7077 7078 7079 7080 7081 7082 7083 7084 7085 7086 7087 7088 7089 7090 7091 7092 7093 7094 7095 7096 7097 7098 7099 7100 7101 7102 7103 7104 7105 7106 7107 7108 7109 7110 7111 7112 7113 7114 7115 7116 7117 7118 7119 7120 7121 7122 7123 7124 7125 7126 7127 7128 7129 7130 7131 7132 7133 7134 7135 7136 7137 7138 7139 7140 7141 7142 7143 7144 7145 7146 7147 7148 7149 7150 7151 7152 7153 7154 7155 7156 7157 7158 7159 7160 7161 7162 7163 7164 7165 7166 7167 7168 7169 7170 7171 7172 7173 7174 7175 7176 7177 7178 7179 7180 7181 7182 7183 7184 7185 7186 7187 7188 7189 7190 7191 7192 7193 7194 7195 7196 7197 7198 7199 7200 7201 7202 7203 7204 7205 7206 7207 7208 7209 7210 7211 7212 7213 7214 7215 7216 7217 7218 7219 7220 7221 7222 7223 7224 7225 7226 7227 7228 7229 7230 7231 7232 7233 7234 7235 7236 7237 7238 7239 7240 7241 7242 7243 7244 7245 7246 7247 7248 7249 7250 7251 7252 7253 7254 7255 7256 7257 7258 7259 7260 7261 7262 7263 7264 7265 7266 7267 7268 7269 7270 7271 7272 7273 7274 7275 7276 7277 7278 7279 7280 7281 7282 7283 7284 7285 7286 7287 7288 7289 7290 7291 7292 7293 7294 7295 7296 7297 7298 7299 7300 7301 7302 7303 7304 7305 7306 7307 7308 7309 7310 7311 7312 7313 7314 7315 7316 7317 7318 7319 7320 7321 7322 7323 7324 7325 7326 7327 7328 7329 7330 7331 7332 7333 7334 7335 7336 7337 7338 7339 7340 7341 7342 7343 7344 7345 7346 7347 7348 7349 7350 7351 7352 7353 7354 7355 7356 7357 7358 7359 7360 7361 7362 7363 7364 7365 7366 7367 7368 7369 7370 7371 7372 7373 7374 7375 7376 7377 7378 7379 7380 7381 7382 7383 7384 7385 7386 7387 7388 7389 7390 7391 7392 7393 7394 7395 7396 7397 7398 7399 7400 7401 7402 7403 7404 7405 7406 7407 7408 7409 7410 7411 7412 7413 7414 7415 7416 7417 7418 7419 7420 7421 7422 7423 7424 7425 7426 7427 7428 7429 7430 7431 7432 7433 7434 7435 7436 7437 7438 7439 7440 7441 7442 7443 7444 7445 7446 7447 7448 7449 7450 7451 7452 7453 7454 7455 7456 7457 7458 7459 7460 7461 7462 7463 7464 7465 7466 7467 7468 7469 7470 7471 7472 7473 7474 7475 7476 7477 7478 7479 7480 7481 7482 7483 7484 7485 7486 7487 7488 7489 7490 7491 7492 7493 7494 7495 7496 7497 7498 7499 7500 7501 7502 7503 7504 7505 7506 7507 7508 7509 7510 7511 7512 7513 7514 7515 7516 7517 7518 7519 7520 7521 7522 7523 7524 7525 7526 7527 7528 7529 7530 7531 7532 7533 7534 7535 7536 7537 7538 7539 7540 7541 7542 7543 7544 7545 7546 7547 7548 7549 7550 7551 7552 7553 7554 7555 7556 7557 7558 7559 7560 7561 7562 7563 7564 7565 7566 7567 7568 7569 7570 7571 7572 7573 7574 7575 7576 7577 7578 7579 7580 7581 7582 7583 7584 7585 7586 7587 7588 7589 7590 7591 7592 7593 7594 7595 7596 7597 7598 7599 7600 7601 7602 7603 7604 7605 7606 7607 7608 7609 7610 7611 7612 7613 7614 7615 7616 7617 7618 7619 7620 7621 7622 7623 7624 7625 7626 7627 7628 7629 7630 7631 7632 7633 7634 7635 7636 7637 7638 7639 7640 7641 7642 7643 7644 7645 7646 7647 7648 7649 7650 7651 7652 7653 7654 7655 7656 7657 7658 7659 7660 7661 7662 7663 7664 7665 7666 7667 7668 7669 7670 7671 7672 7673 7674 7675 7676 7677 7678 7679 7680 7681 7682 7683 7684 7685 7686 7687 7688 7689 7690 7691 7692 7693 7694 7695 7696 7697 7698 7699 7700 7701 7702 7703 7704 7705 7706 7707 7708 7709 7710 7711 7712 7713 7714 7715 7716 7717 7718 7719 7720 7721 7722 7723 7724 7725 7726 7727 7728 7729 7730 7731 7732 7733 7734 7735 7736 7737 7738 7739 7740 7741 7742 7743 7744 7745 7746 7747 7748 7749 7750 7751 7752 7753 7754 7755 7756 7757 7758 7759 7760 7761 7762 7763 7764 7765 7766 7767 7768 7769 7770 7771 7772 7773 7774 7775 7776 7777 7778 7779 7780 7781 7782 7783 7784 7785 7786 7787 7788 7789 7790 7791 7792 7793 7794 7795 7796 7797 7798 7799 7800 7801 7802 7803 7804 7805 7806 7807 7808 7809 7810 7811 7812 7813 7814 7815 7816 7817 7818 7819 7820 7821 7822 7823 7824 7825 7826 7827 7828 7829 7830 7831 7832 7833 7834 7835 7836 7837 7838 7839 7840 7841 7842 7843 7844 7845 7846 7847 7848 7849 7850 7851 7852 7853 7854 7855 7856 7857 7858 7859 7860 7861 7862 7863 7864 7865 7866 7867 7868 7869 7870 7871 7872 7873 7874 7875 7876 7877 7878 7879 7880 7881 7882 7883 7884 7885 7886 7887 7888 7889 7890 7891 7892 7893 7894 7895 7896 7897 7898 7899 7900 7901 7902 7903 7904 7905 7906 7907 7908 7909 7910 7911 7912 7913 7914 7915 7916 7917 7918 7919 7920 7921 7922 7923 7924 7925 7926 7927 7928 7929 7930 7931 7932 7933 7934 7935 7936 7937 7938 7939 7940 7941 7942 7943 7944 7945 7946 7947 7948 7949 7950 7951 7952 7953 7954 7955 7956 7957 7958 7959 7960 7961 7962 7963 7964 7965 7966 7967 7968 7969 7970 7971 7972 7973 7974 7975 7976 7977 7978 7979 7980 7981 7982 7983 7984 7985 7986 7987 7988 7989 7990 7991 7992 7993 7994 7995 7996 7997 7998 7999 8000 8001 8002 8003 8004 8005 8006 8007 8008 8009 8010 8011 8012 8013 8014 8015 8016 8017 8018 8019 8020 8021 8022 8023 8024 8025 8026 8027 8028 8029 8030 8031 8032 8033 8034 8035 8036 8037 8038 8039 8040 8041 8042 8043 8044 8045 8046 8047 8048 8049 8050 8051 8052 8053 8054 8055 8056 8057 8058 8059 8060 8061 8062 8063 8064 8065 8066 8067 8068 8069 8070 8071 8072 8073 8074 8075 8076 8077 8078 8079 8080 8081 8082 8083 8084 8085 8086 8087 8088 8089 8090 8091 8092 8093 8094 8095 8096 8097 8098 8099 8100 8101 8102 8103 8104 8105 8106 8107 8108 8109 8110 8111 8112 8113 8114 8115 8116 8117 8118 8119 8120 8121 8122 8123 8124 8125 8126 8127 8128 8129 8130 8131 8132 8133 8134 8135 8136 8137 8138 8139 8140 8141 8142 8143 8144 8145 8146 8147 8148 8149 8150 8151 8152 8153 8154 8155 8156 8157 8158 8159 8160 8161 8162 8163 8164 8165 8166 8167 8168 8169 8170 8171 8172 8173 8174 8175 8176 8177 8178 8179 8180 8181 8182 8183 8184 8185 8186 8187 8188 8189 8190 8191 8192 8193 8194 8195 8196 8197 8198 8199 8200 8201 8202 8203 8204 8205 8206 8207 8208 8209 8210 8211 8212 8213 8214 8215 8216 8217 8218 8219 8220 8221 8222 8223 8224 8225 8226 8227 8228 8229 8230 8231 8232 8233 8234 8235 8236 8237 8238 8239 8240 8241 8242 8243 8244 8245 8246 8247 8248 8249 8250 8251 8252 8253 8254 8255 8256 8257 8258 8259 8260 8261 8262 8263 8264 8265 8266 8267 8268 8269 8270 8271 8272 8273 8274 8275 8276 8277 8278 8279 8280 8281 8282 8283 8284 8285 8286 8287 8288 8289 8290 8291 8292 8293 8294 8295 8296 8297 8298 8299 8300 8301 8302 8303 8304 8305 8306 8307 8308 8309 8310 8311 8312 8313 8314 8315 8316 8317 8318 8319 8320 8321 8322 8323 8324 8325 8326 8327 8328 8329 8330 8331 8332 8333 8334 8335 8336 8337 8338 8339 8340 8341 8342 8343 8344 8345 8346 8347 8348 8349 8350 8351 8352 8353 8354 8355 8356 8357 8358 8359 8360 8361 8362 8363 8364 8365 8366 8367 8368 8369 8370 8371 8372 8373 8374 8375 8376 8377 8378 8379 8380 8381 8382 8383 8384 8385 8386 8387 8388 8389 8390 8391 8392 8393 8394 8395 8396 8397 8398 8399 8400 8401 8402 8403 8404 8405 8406 8407 8408 8409 8410 8411 8412 8413 8414 8415 8416 8417 8418 8419 8420 8421 8422 8423 8424 8425 8426 8427 8428 8429 8430 8431 8432 8433 8434 8435 8436 8437 8438 8439 8440 8441 8442 8443 8444 8445 8446 8447 8448 8449 8450 8451 8452 8453 8454 8455 8456 8457 8458 8459 8460 8461 8462 8463 8464 8465 8466 8467 8468 8469 8470 8471 8472 8473 8474 8475 8476 8477 8478 8479 8480 8481 8482 8483 8484 8485 8486 8487 8488 8489 8490 8491 8492 8493 8494 8495 8496 8497 8498 8499 8500 8501 8502 8503 8504 8505 8506 8507 8508 8509 8510 8511 8512 8513 8514 8515 8516 8517 8518 8519 8520 8521 8522 8523 8524 8525 8526 8527 8528 8529 8530 8531 8532 8533 8534 8535 8536 8537 8538 8539 8540 8541 8542 8543 8544 8545 8546 8547 8548 8549 8550 8551 8552 8553 8554 8555 8556 8557 8558 8559 8560 8561 8562 8563 8564 8565 8566 8567 8568 8569 8570 8571 8572 8573 8574 8575 8576 8577 8578 8579 8580 8581 8582 8583 8584 8585 8586 8587 8588 8589 8590 8591 8592 8593 8594 8595 8596 8597 8598 8599 8600 8601 8602 8603 8604 8605 8606 8607 8608 8609 8610 8611 8612 8613 8614 8615 8616 8617 8618 8619 8620 8621 8622 8623 8624 8625 8626 8627 8628 8629 8630 8631 8632 8633 8634 8635 8636 8637 8638 8639 8640 8641 8642 8643 8644 8645 8646 8647 8648 8649 8650 8651 8652 8653 8654 8655 8656 8657 8658 8659 8660 8661 8662 8663 8664 8665 8666 8667 8668 8669 8670 8671 8672 8673 8674 8675 8676 8677 8678 8679 8680 8681 8682 8683 8684 8685 8686 8687 8688 8689 8690 8691 8692 8693 8694 8695 8696 8697 8698 8699 8700 8701 8702 8703 8704 8705 8706 8707 8708 8709 8710 8711 8712 8713 8714 8715 8716 8717 8718 8719 8720 8721 8722 8723 8724 8725 8726 8727 8728 8729 8730 8731 8732 8733 8734 8735 8736 8737 8738 8739 8740 8741 8742 8743 8744 8745 8746 8747 8748 8749 8750 8751 8752 8753 8754 8755 8756 8757 8758 8759 8760 8761 8762 8763 8764 8765 8766 8767 8768 8769 8770 8771 8772 8773 8774 8775 8776 8777 8778 8779 8780 8781 8782 8783 8784 8785 8786 8787 8788 8789 8790 8791 8792 8793 8794 8795 8796 8797 8798 8799 8800 8801 8802 8803 8804 8805 8806 8807 8808 8809 8810 8811 8812 8813 8814 8815 8816 8817 8818 8819 8820 8821 8822 8823 8824 8825 8826 8827 8828 8829 8830 8831 8832 8833 8834 8835 8836 8837 8838 8839 8840 8841 8842 8843 8844 8845 8846 8847 8848 8849 8850 8851 8852 8853 8854 8855 8856 8857 8858 8859 8860 8861 8862 8863 8864 8865 8866 8867 8868 8869 8870 8871 8872 8873 8874 8875 8876 8877 8878 8879 8880 8881 8882 8883 8884 8885 8886 8887 8888 8889 8890 8891 8892 8893 8894 8895 8896 8897 8898 8899 8900 8901 8902 8903 8904 8905 8906 8907 8908 8909 8910 8911 8912 8913 8914 8915 8916 8917 8918 8919 8920 8921 8922 8923 8924 8925 8926 8927 8928 8929 8930 8931 8932 8933 8934 8935 8936 8937 8938 8939 8940 8941 8942 8943 8944 8945 8946 8947 8948 8949 8950 8951 8952 8953 8954 8955 8956 8957 8958 8959 8960 8961 8962 8963 8964 8965 8966 8967 8968 8969 8970 8971 8972 8973 8974 8975 8976 8977 8978 8979 8980 8981 8982 8983 8984 8985 8986 8987 8988 8989 8990 8991 8992 8993 8994 8995 8996 8997 8998 8999 9000 9001 9002 9003 9004 9005 9006 9007 9008 9009 9010 9011 9012 9013 9014 9015 9016 9017 9018 9019 9020 9021 9022 9023 9024 9025 9026 9027 9028 9029 9030 9031 9032 9033 9034 9035 9036 9037 9038 9039 9040 9041 9042 9043 9044 9045 9046 9047 9048 9049 9050 9051 9052 9053 9054 9055 9056 9057 9058 9059 9060 9061 9062 9063 9064 9065 9066 9067 9068 9069 9070 9071 9072 9073 9074 9075 9076 9077 9078 9079 9080 9081 9082 9083 9084 9085 9086 9087 9088 9089 9090 9091 9092 9093 9094 9095 9096 9097 9098 9099 9100 9101 9102 9103 9104 9105 9106 9107 9108 9109 9110 9111 9112 9113 9114 9115 9116 9117 9118 9119 9120 9121 9122 9123 9124 9125 9126 9127 9128 9129 9130 9131 9132 9133 9134 9135 9136 9137 9138 9139 9140 9141 9142 9143 9144 9145 9146 9147 9148 9149 9150 9151 9152 9153 9154 9155 9156 9157 9158 9159 9160 9161 9162 9163 9164 9165 9166 9167 9168 9169 9170 9171 9172 9173 9174 9175 9176 9177 9178 9179 9180 9181 9182 9183 9184 9185 9186 9187 9188 9189 9190 9191 9192 9193 9194 9195 9196 9197 9198 9199 9200 9201 9202 9203 9204 9205 9206 9207 9208 9209 9210 9211 9212 9213 9214 9215 9216 9217 9218 9219 9220 9221 9222 9223 9224 9225 9226 9227 9228 9229 9230 9231 9232 9233 9234 9235 9236 9237 9238 9239 9240 9241 9242 9243 9244 9245 9246 9247 9248 9249 9250 9251 9252 9253 9254 9255 9256 9257 9258 9259 9260 9261 9262 9263 9264 9265 9266 9267 9268 9269 9270 9271 9272 9273 9274 9275 9276 9277 9278 9279 9280 9281 9282 9283 9284 9285 9286 9287 9288 9289 9290 9291 9292 9293 9294 9295 9296 9297 9298 9299 9300 9301 9302 9303 9304 9305 9306 9307 9308 9309 9310 9311 9312 9313 9314 9315 9316 9317 9318 9319 9320 9321 9322 9323 9324 9325 9326 9327 9328 9329 9330 9331 9332 9333 9334 9335 9336 9337 9338 9339 9340 9341 9342 9343 9344 9345 9346 9347 9348 9349 9350 9351 9352 9353 9354 9355 9356 9357 9358 9359 9360 9361 9362 9363 9364 9365 9366 9367 9368 9369 9370 9371 9372 9373 9374 9375 9376 9377 9378 9379 9380 9381 9382 9383 9384 9385 9386 9387 9388 9389 9390 9391 9392 9393 9394 9395 9396 9397 9398 9399 9400 9401 9402 9403 9404 9405 9406 9407 9408 9409 9410 9411 9412 9413 9414 9415 9416 9417 9418 9419 9420 9421 9422 9423 9424 9425 9426 9427 9428 9429 9430 9431 9432 9433 9434 9435 9436 9437 9438 9439 9440 9441 9442 9443 9444 9445 9446 9447 9448 9449 9450 9451 9452 9453 9454 9455 9456 9457 9458 9459 9460 9461 9462 9463 9464 9465 9466 9467 9468 9469 9470 9471 9472 9473 9474 9475 9476 9477 9478 9479 9480 9481 9482 9483 9484 9485 9486 9487 9488 9489 9490 9491 9492 9493 9494 9495 9496 9497 9498 9499 9500 9501 9502 9503 9504 9505 9506 9507 9508 9509 9510 9511 9512 9513 9514 9515 9516 9517 9518 9519 9520 9521 9522 9523 9524 9525 9526 9527 9528 9529 9530 9531 9532 9533 9534 9535 9536 9537 9538 9539 9540 9541 9542 9543 9544 9545 9546 9547 9548 9549 9550 9551 9552 9553 9554 9555 9556 9557 9558 9559 9560 9561 9562 9563 9564 9565 9566 9567 9568 9569 9570 9571 9572 9573 9574 9575 9576 9577 9578 9579 9580 9581 9582 9583 9584 9585 9586 9587 9588 9589 9590 9591 9592 9593 9594 9595 9596 9597 9598 9599 9600 9601 9602 9603 9604 9605 9606 9607 9608 9609 9610 9611 9612 9613 9614 9615 9616 9617 9618 9619 9620 9621 9622 9623 9624 9625 9626 9627 9628 9629 9630 9631 9632 9633 9634 9635 9636 9637 9638 9639 9640 9641 9642 9643 9644 9645 9646 9647 9648 9649 9650 9651 9652 9653 9654 9655 9656 9657 9658 9659 9660 9661 9662 9663 9664 9665 9666 9667 9668 9669 9670 9671 9672 9673 9674 9675 9676 9677 9678 9679 9680 9681 9682 9683 9684 9685 9686 9687 9688 9689 9690 9691 9692 9693 9694 9695 9696 9697 9698 9699 9700 9701 9702 9703 9704 9705 9706 9707 9708 9709 9710 9711 9712 9713 9714 9715 9716 9717 9718 9719 9720 9721 9722 9723 9724 9725 9726 9727 9728 9729 9730 9731 9732 9733 9734 9735 9736 9737 9738 9739 9740 9741 9742 9743 9744 9745 9746 9747 9748 9749 9750 9751 9752 9753 9754 9755 9756 9757 9758 9759 9760 9761 9762 9763 9764 9765 9766 9767 9768 9769 9770 9771 9772 9773 9774 9775 9776 9777 9778 9779 9780 9781 9782 9783 9784 9785 9786 9787 9788 9789 9790 9791 9792 9793 9794 9795 9796 9797 9798 9799 9800 9801 9802 9803 9804 9805 9806 9807 9808 9809 9810 9811 9812 9813 9814 9815 9816 9817 9818 9819 9820 9821 9822 9823 9824 9825 9826 9827 9828 9829 9830 9831 9832 9833 9834 9835 9836 9837 9838 9839 9840 9841 9842 9843 9844 9845 9846 9847 9848 9849 9850 9851 9852 9853 9854 9855 9856 9857 9858 9859 9860 9861 9862 9863 9864 9865 9866 9867 9868 9869 9870 9871 9872 9873 9874 9875 9876 9877 9878 9879 9880 9881 9882 9883 9884 9885 9886 9887 9888 9889 9890 9891 9892 9893 9894 9895 9896 9897 9898 9899 9900 9901 9902 9903 9904 9905 9906 9907 9908 9909 9910 9911 9912 9913 9914 9915 9916 9917 9918 9919 9920 9921 9922 9923 9924 9925 9926 9927 9928 9929 9930 9931 9932 9933 9934 9935 9936 9937 9938 9939 9940 9941 9942 9943 9944 9945 9946 9947 9948 9949 9950 9951 9952 9953 9954 9955 9956 9957 9958 9959 9960 9961 9962 9963 9964 9965 9966 9967 9968 9969 9970 9971 9972 9973 9974 9975 9976 9977 9978 9979 9980 9981 9982 9983 9984 9985 9986 9987 9988 9989 9990 9991 9992 9993 9994 9995 9996 9997 9998 9999 10000 10001 10002 10003 10004 10005 10006 10007 10008 10009 10010 10011 10012 10013 10014 10015 10016 10017 10018 10019 10020 10021 10022 10023 10024 10025 10026 10027 10028 10029 10030 10031 10032 10033 10034 10035 10036 10037 10038 10039 10040 10041 10042 10043 10044 10045 10046 10047 10048 10049 10050 10051 10052 10053 10054 10055 10056 10057 10058 10059 10060 10061 10062 10063 10064 10065 10066 10067 10068 10069 10070 10071 10072 10073 10074 10075 10076 10077 10078 10079 10080 10081 10082 10083 10084 10085 10086 10087 10088 10089 10090 10091 10092 10093 10094 10095 10096 10097 10098 10099 10100 10101 10102 10103 10104 10105 10106 10107 10108 10109 10110 10111 10112 10113 10114 10115 10116 10117 10118 10119 10120 10121 10122 10123 10124 10125 10126 10127 10128 10129 10130 10131 10132 10133 10134 10135 10136 10137 10138 10139 10140 10141 10142 10143 10144 10145 10146 10147 10148 10149 10150 10151 10152 10153 10154 10155 10156 10157 10158 10159 10160 10161 10162 10163 10164 10165 10166 10167 10168 10169 10170 10171 10172 10173 10174 10175 10176 10177 10178 10179 10180 10181 10182 10183 10184 10185 10186 10187 10188 10189 10190 10191 10192 10193 10194 10195 10196 10197 10198 10199 10200 10201 10202 10203 10204 10205 10206 10207 10208 10209 10210 10211 10212 10213 10214 10215 10216 10217 10218 10219 10220 10221 10222 10223 10224 10225 10226 10227 10228 10229 10230 10231 10232 10233 10234 10235 10236 10237 10238 10239 10240 10241 10242 10243 10244 10245 10246 10247 10248 10249 10250 10251 10252 10253 10254 10255 10256 10257 10258 10259 10260 10261 10262 10263 10264 10265 10266 10267 10268 10269 10270 10271 10272 10273 10274 10275 10276 10277 10278 10279 10280 10281 10282 10283 10284 10285 10286 10287 10288 10289 10290 10291 10292 10293 10294 10295 10296 10297 10298 10299 10300 10301 10302 10303 10304 10305 10306 10307 10308 10309 10310 10311 10312 10313 10314 10315 10316 10317 10318 10319 10320 10321 10322 10323 10324 10325 10326 10327 10328 10329 10330 10331 10332 10333 10334 10335 10336 10337 10338 10339 10340 10341 10342 10343 10344 10345 10346 10347 10348 10349 10350 10351 10352 10353 10354 10355 10356 10357 10358 10359 10360 10361 10362 10363 10364 10365 10366 10367 10368 10369 10370 10371 10372 10373 10374 10375 10376 10377 10378 10379 10380 10381 10382 10383 10384 10385 10386 10387 10388 10389 10390 10391 10392 10393 10394 10395 10396 10397 10398 10399 10400 10401 10402 10403 10404 10405 10406 10407 10408 10409 10410 10411 10412 10413 10414 10415 10416 10417 10418 10419 10420 10421 10422 10423 10424 10425 10426 10427 10428 10429 10430 10431 10432 10433 10434 10435 10436 10437 10438 10439 10440 10441 10442 10443 10444 10445 10446 10447 10448 10449 10450 10451 10452 10453 10454 10455 10456 10457 10458 10459 10460 10461 10462 10463 10464 10465 10466 10467 10468 10469 10470 10471 10472 10473 10474 10475 10476 10477 10478 10479 10480 10481 10482 10483 10484 10485 10486 10487 10488 10489 10490 10491 10492 10493 10494 10495 10496 10497 10498 10499 10500 10501 10502 10503 10504 10505 10506 10507 10508 10509 10510 10511 10512 10513 10514 10515 10516 10517 10518 10519 10520 10521 10522 10523 10524 10525 10526 10527 10528 10529 10530 10531 10532 10533 10534 10535 10536 10537 10538 10539 10540 10541 10542 10543 10544 10545 10546 10547 10548 10549 10550 10551 10552 10553 10554 10555 10556 10557 10558 10559 10560 10561 10562 10563 10564 10565 10566 10567 10568 10569 10570 10571 10572 10573 10574 10575 10576 10577 10578 10579 10580 10581 10582 10583 10584 10585 10586 10587 10588 10589 10590 10591 10592 10593 10594 10595 10596 10597 10598 10599 10600 10601 10602 10603 10604 10605 10606 10607 10608 10609 10610 10611 10612 10613 10614 10615 10616 10617 10618 10619 10620 10621 10622 10623 10624 10625 10626 10627 10628 10629 10630 10631 10632 10633 10634 10635 10636 10637 10638 10639 10640 10641 10642 10643 10644 10645 10646 10647 10648 10649 10650 10651 10652 10653 10654 10655 10656 10657 10658 10659 10660 10661 10662 10663 10664 10665 10666 10667 10668 10669 10670 10671 10672 10673 10674 10675 10676 10677 10678 10679 10680 10681 10682 10683 10684 10685 10686 10687 10688 10689 10690 10691 10692 10693 10694 10695 10696 10697 10698 10699 10700 10701 10702 10703 10704 10705 10706 10707 10708 10709 10710 10711 10712 10713 10714 10715 10716 10717 10718 10719 10720 10721 10722 10723 10724 10725 10726 10727 10728 10729 10730 10731 10732 10733 10734 10735 10736 10737 10738 10739 10740 10741 10742 10743 10744 10745 10746 10747 10748 10749 10750 10751 10752 10753 10754 10755 10756 10757 10758 10759 10760 10761 10762 10763 10764 10765 10766 10767 10768 10769 10770 10771 10772 10773 10774 10775 10776 10777 10778 10779 10780 10781 10782 10783 10784 10785 10786 10787 10788 10789 10790 10791 10792 10793 10794 10795 10796 10797 10798 10799 10800 10801 10802 10803 10804 10805 10806 10807 10808 10809 10810 10811 10812 10813 10814 10815 10816 10817 10818 10819 10820 10821 10822 10823 10824 10825 10826 10827 10828 10829 10830 10831 10832 10833 10834 10835 10836 10837 10838 10839 10840 10841 10842 10843 10844 10845 10846 10847 10848 10849 10850 10851 10852 10853 10854 10855 10856 10857 10858 10859 10860 10861 10862 10863 10864 10865 10866 10867 10868 10869 10870 10871 10872 10873 10874 10875 10876 10877 10878 10879 10880 10881 10882 10883 10884 10885 10886 10887 10888 10889 10890 10891 10892 10893 10894 10895 10896 10897 10898 10899 10900 10901 10902 10903 10904 10905 10906 10907 10908 10909 10910 10911 10912 10913 10914 10915 10916 10917 10918 10919 10920 10921 10922 10923 10924 10925 10926 10927 10928 10929 10930 10931 10932 10933 10934 10935 10936 10937 10938 10939 10940 10941 10942 10943 10944 10945 10946 10947 10948 10949 10950 10951 10952 10953 10954 10955 10956 10957 10958 10959 10960 10961 10962 10963 10964 10965 10966 10967 10968 10969 10970 10971 10972 10973 10974 10975 10976 10977 10978 10979 10980 10981 10982 10983 10984 10985 10986 10987 10988 10989 10990 10991 10992 10993 10994 10995 10996 10997 10998 10999 11000 11001 11002 11003 11004 11005 11006 11007 11008 11009 11010 11011 11012 11013 11014 11015 11016 11017 11018 11019 11020 11021 11022 11023 11024 11025 11026 11027 11028 11029 11030 11031 11032 11033 11034 11035 11036 11037 11038 11039 11040 11041 11042 11043 11044 11045 11046 11047 11048 11049 11050 11051 11052 11053 11054 11055 11056 11057 11058 11059 11060 11061 11062 11063 11064 11065 11066 11067 11068 11069 11070 11071 11072 11073 11074 11075 11076 11077 11078 11079 11080 11081 11082 11083 11084 11085 11086 11087 11088 11089 11090 11091 11092 11093 11094 11095 11096 11097 11098 11099 11100 11101 11102 11103 11104 11105 11106 11107 11108 11109 11110 11111 11112 11113 11114 11115 11116 11117 11118 11119 11120 11121 11122 11123 11124 11125 11126 11127 11128 11129 11130 11131 11132 11133 11134 11135 11136 11137 11138 11139 11140 11141 11142 11143 11144 11145 11146 11147 11148 11149 11150 11151 11152 11153 11154 11155 11156 11157 11158 11159 11160 11161 11162 11163 11164 11165 11166 11167 11168 11169 11170 11171 11172 11173 11174 11175 11176 11177 11178 11179 11180 11181 11182 11183 11184 11185 11186 11187 11188 11189 11190 11191 11192 11193 11194 11195 11196 11197 11198 11199 11200 11201 11202 11203 11204 11205 11206 11207 11208 11209 11210 11211 11212 11213 11214 11215 11216 11217 11218 11219 11220 11221 11222 11223 11224 11225 11226 11227 11228 11229 11230 11231 11232 11233 11234 11235 11236 11237 11238 11239 11240 11241 11242 11243 11244 11245 11246 11247 11248 11249 11250 11251 11252 11253 11254 11255 11256 11257 11258 11259 11260 11261 11262 11263 11264 11265 11266 11267 11268 11269 11270 11271 11272 11273 11274 11275 11276 11277 11278 11279 11280 11281 11282 11283 11284 11285 11286 11287 11288 11289 11290 11291 11292 11293 11294 11295 11296 11297 11298 11299 11300 11301 11302 11303 11304 11305 11306 11307 11308 11309 11310 11311 11312 11313 11314 11315 11316 11317 11318 11319 11320 11321 11322 11323 11324 11325 11326 11327 11328 11329 11330 11331 11332 11333 11334 11335 11336 11337 11338 11339 11340 11341 11342 11343 11344 11345 11346 11347 11348 11349 11350 11351 11352 11353 11354 11355 11356 11357 11358 11359 11360 11361 11362 11363 11364 11365 11366 11367 11368 11369 11370 11371 11372 11373 11374 11375 11376 11377 11378 11379 11380 11381 11382 11383 11384 11385 11386 11387 11388 11389 11390 11391 11392 11393 11394 11395 11396 11397 11398 11399 11400 11401 11402 11403 11404 11405 11406 11407 11408 11409 11410 11411 11412 11413 11414 11415 11416 11417 11418 11419 11420 11421 11422 11423 11424 11425 11426 11427 11428 11429 11430 11431 11432 11433 11434 11435 11436 11437 11438 11439 11440 11441 11442 11443 11444 11445 11446 11447 11448 11449 11450 11451 11452 11453 11454 11455 11456 11457 11458 11459 11460 11461 11462 11463 11464 11465 11466 11467 11468 11469 11470 11471 11472 11473 11474 11475 11476 11477 11478 11479 11480 11481 11482 11483 11484 11485 11486 11487 11488 11489 11490 11491 11492 11493 11494 11495 11496 11497 11498 11499 11500 11501 11502 11503 11504 11505 11506 11507 11508 11509 11510 11511 11512 11513 11514 11515 11516 11517 11518 11519 11520 11521 11522 11523 11524 11525 11526 11527 11528 11529 11530 11531 11532 11533 11534 11535 11536 11537 11538 11539 11540 11541 11542 11543 11544 11545 11546 11547 11548 11549 11550 11551 11552 11553 11554 11555 11556 11557 11558 11559 11560 11561 11562 11563 11564 11565 11566 11567 11568 11569 11570 11571 11572 11573 11574 11575 11576 11577 11578 11579 11580 11581 11582 11583 11584 11585 11586 11587 11588 11589 11590 11591 11592 11593 11594 11595 11596 11597 11598 11599 11600 11601 11602 11603 11604 11605 11606 11607 11608 11609 11610 11611 11612 11613 11614 11615 11616 11617 11618 11619 11620 11621 11622 11623 11624 11625 11626 11627 11628 11629 11630 11631 11632 11633 11634 11635 11636 11637 11638 11639 11640 11641 11642 11643 11644 11645 11646 11647 11648 11649 11650 11651 11652 11653 11654 11655 11656 11657 11658 11659 11660 11661 11662 11663 11664 11665 11666 11667 11668 11669 11670 11671 11672 11673 11674 11675 11676 11677 11678 11679 11680 11681 11682 11683 11684 11685 11686 11687 11688 11689 11690 11691 11692 11693 11694 11695 11696 11697 11698 11699 11700 11701 11702 11703 11704 11705 11706 11707 11708 11709 11710 11711 11712 11713 11714 11715 11716 11717 11718 11719 11720 11721 11722 11723 11724 11725 11726 11727 11728 11729 11730 11731 11732 11733 11734 11735 11736 11737 11738 11739 11740 11741 11742 11743 11744 11745 11746 11747 11748 11749 11750 11751 11752 11753 11754 11755 11756 11757 11758 11759 11760 11761 11762 11763 11764 11765 11766 11767 11768 11769 11770 11771 11772 11773 11774 11775 11776 11777 11778 11779 11780 11781 11782 11783 11784 11785 11786 11787 11788 11789 11790 11791 11792 11793 11794 11795 11796 11797 11798 11799 11800 11801 11802 11803 11804 11805 11806 11807 11808 11809 11810 11811 11812 11813 11814 11815 11816 11817 11818 11819 11820 11821 11822 11823 11824 11825 11826 11827 11828 11829 11830 11831 11832 11833 11834 11835 11836 11837 11838 11839 11840 11841 11842 11843 11844 11845 11846 11847 11848 11849 11850 11851 11852 11853 11854 11855 11856 11857 11858 11859 11860 11861 11862 11863 11864 11865 11866 11867 11868 11869 11870 11871 11872 11873 11874 11875 11876 11877 11878 11879 11880 11881 11882 11883 11884 11885 11886 11887 11888 11889 11890 11891 11892 11893 11894 11895 11896 11897 11898 11899 11900 11901 11902 11903 11904 11905 11906 11907 11908 11909 11910 11911 11912 11913 11914 11915 11916 11917 11918 11919 11920 11921 11922 11923 11924 11925 11926 11927 11928 11929 11930 11931 11932 11933 11934 11935 11936 11937 11938 11939 11940 11941 11942 11943 11944 11945 11946 11947 11948 11949 11950 11951 11952 11953 11954 11955 11956 11957 11958 11959 11960 11961 11962 11963 11964 11965 11966 11967 11968 11969 11970 11971 11972 11973 11974 11975 11976 11977 11978 11979 11980 11981 11982 11983 11984 11985 11986 11987 11988 11989 11990 11991 11992 11993 11994 11995 11996 11997 11998 11999 12000 12001 12002 12003 12004 12005 12006 12007 12008 12009 12010 12011 12012 12013 12014 12015 12016 12017 12018 12019 12020 12021 12022 12023 12024 12025 12026 12027 12028 12029 12030 12031 12032 12033 12034 12035 12036 12037 12038 12039 12040 12041 12042 12043 12044 12045 12046 12047 12048 12049 12050 12051 12052 12053 12054 12055 12056 12057 12058 12059 12060 12061 12062 12063 12064 12065 12066 12067 12068 12069 12070 12071 12072 12073 12074 12075 12076 12077 12078 12079 12080 12081 12082 12083 12084 12085 12086 12087 12088 12089 12090 12091 12092 12093 12094 12095 12096 12097 12098 12099 12100 12101 12102 12103 12104 12105 12106 12107 12108 12109 12110 12111 12112 12113 12114 12115 12116 12117 12118 12119 12120 12121 12122 12123 12124 12125 12126 12127 12128 12129 12130 12131 12132 12133 12134 12135 12136 12137 12138 12139 12140 12141 12142 12143 12144 12145 12146 12147 12148 12149 12150 12151 12152 12153 12154 12155 12156 12157 12158 12159 12160 12161 12162 12163 12164 12165 12166 12167 12168 12169 12170 12171 12172 12173 12174 12175 12176 12177 12178 12179 12180 12181 12182 12183 12184 12185 12186 12187 12188 12189 12190 12191 12192 12193 12194 12195 12196 12197 12198 12199 12200 12201 12202 12203 12204 12205 12206 12207 12208 12209 12210 12211 12212 12213 12214 12215 12216 12217 12218 12219 12220 12221 12222 12223 12224 12225 12226 12227 12228 12229 12230 12231 12232 12233 12234 12235 12236 12237 12238 12239 12240 12241 12242 12243 12244 12245 12246 12247 12248 12249 12250 12251 12252 12253 12254 12255 12256 12257 12258 12259 12260 12261 12262 12263 12264 12265 12266 12267 12268 12269 12270 12271 12272 12273 12274 12275 12276 12277 12278 12279 12280 12281 12282 12283 12284 12285 12286 12287 12288 12289 12290 12291 12292 12293 12294 12295 12296 12297 12298 12299 12300 12301 12302 12303 12304 12305 12306 12307 12308 12309 12310 12311 12312 12313 12314 12315 12316 12317 12318 12319 12320 12321 12322 12323 12324 12325 12326 12327 12328 12329 12330 12331 12332 12333 12334 12335 12336 12337 12338 12339 12340 12341 12342 12343 12344 12345 12346 12347 12348 12349 12350 12351 12352 12353 12354 12355 12356 12357 12358 12359 12360 12361 12362 12363 12364 12365 12366 12367 12368 12369 12370 12371 12372 12373 12374 12375 12376 12377 12378 12379 12380 12381 12382 12383 12384 12385 12386 12387 12388 12389 12390 12391 12392 12393 12394 12395 12396 12397 12398 12399 12400 12401 12402 12403 12404 12405 12406 12407 12408 12409 12410 12411 12412 12413 12414 12415 12416 12417 12418 12419 12420 12421 12422 12423 12424 12425 12426 12427 12428 12429 12430 12431 12432 12433 12434 12435 12436 12437 12438 12439 12440 12441 12442 12443 12444 12445 12446 12447 12448 12449 12450 12451 12452 12453 12454 12455 12456 12457 12458 12459 12460 12461 12462 12463 12464 12465 12466 12467 12468 12469 12470 12471 12472 12473 12474 12475 12476 12477 12478 12479 12480 12481 12482 12483 12484 12485 12486 12487 12488 12489 12490 12491 12492 12493 12494 12495 12496 12497 12498 12499 12500 12501 12502 12503 12504 12505 12506 12507 12508 12509 12510 12511 12512 12513 12514 12515 12516 12517 12518 12519 12520 12521 12522 12523 12524 12525 12526 12527 12528 12529 12530 12531 12532 12533 12534 12535 12536 12537 12538 12539 12540 12541 12542 12543 12544 12545 12546 12547 12548 12549 12550 12551 12552 12553 12554 12555 12556 12557 12558 12559 12560 12561 12562 12563 12564 12565 12566 12567 12568 12569 12570 12571 12572 12573 12574 12575 12576 12577 12578 12579 12580 12581 12582 12583 12584 12585 12586 12587 12588 12589 12590 12591 12592 12593 12594 12595 12596 12597 12598 12599 12600 12601 12602 12603 12604 12605 12606 12607 12608 12609 12610 12611 12612 12613 12614 12615 12616 12617 12618 12619 12620 12621 12622 12623 12624 12625 12626 12627 12628 12629 12630 12631 12632 12633 12634 12635 12636 12637 12638 12639 12640 12641 12642 12643 12644 12645 12646 12647 12648 12649 12650 12651 12652 12653 12654 12655 12656 12657 12658 12659 12660 12661 12662 12663 12664 12665 12666 12667 12668 12669 12670 12671 12672 12673 12674 12675 12676 12677 12678 12679 12680 12681 12682 12683 12684 12685 12686 12687 12688 12689 12690 12691 12692 12693 12694 12695 12696 12697 12698 12699 12700 12701 12702 12703 12704 12705 12706 12707 12708 12709 12710 12711 12712 12713 12714 12715 12716 12717 12718 12719 12720 12721 12722 12723 12724 12725 12726 12727 12728 12729 12730 12731 12732 12733 12734 12735 12736 12737 12738 12739 12740 12741 12742 12743 12744 12745 12746 12747 12748 12749 12750 12751 12752 12753 12754 12755 12756 12757 12758 12759 12760 12761 12762 12763 12764 12765 12766 12767 12768 12769 12770 12771 12772 12773 12774 12775 12776 12777 12778 12779 12780 12781 12782 12783 12784 12785 12786 12787 12788 12789 12790 12791 12792 12793 12794 12795 12796 12797 12798 12799 12800 12801 12802 12803 12804 12805 12806 12807 12808 12809 12810 12811 12812 12813 12814 12815 12816 12817 12818 12819 12820 12821 12822 12823 12824 12825 12826 12827 12828 12829 12830 12831 12832 12833 12834 12835 12836 12837 12838 12839 12840 12841 12842 12843 12844 12845 12846 12847 12848 12849 12850 12851 12852 12853 12854 12855 12856 12857 12858 12859 12860 12861 12862 12863 12864 12865 12866 12867 12868 12869 12870 12871 12872 12873 12874 12875 12876 12877 12878 12879 12880 12881 12882 12883 12884 12885 12886 12887 12888 12889 12890 12891 12892 12893 12894 12895 12896 12897 12898 12899 12900 12901 12902 12903 12904 12905 12906 12907 12908 12909 12910 12911 12912 12913 12914 12915 12916 12917 12918 12919 12920 12921 12922 12923 12924 12925 12926 12927 12928 12929 12930 12931 12932 12933 12934 12935 12936 12937 12938 12939 12940 12941 12942 12943 12944 12945 12946 12947 12948 12949 12950 12951 12952 12953 12954 12955 12956 12957 12958 12959 12960 12961 12962 12963 12964 12965 12966 12967 12968 12969 12970 12971 12972 12973 12974 12975 12976 12977 12978 12979 12980 12981 12982 12983 12984 12985 12986 12987 12988 12989 12990 12991 12992 12993 12994 12995 12996 12997 12998 12999 13000 13001 13002 13003 13004 13005 13006 13007 13008 13009 13010 13011 13012 13013 13014 13015 13016 13017 13018 13019 13020 13021 13022 13023 13024 13025 13026 13027 13028 13029 13030 13031 13032 13033 13034 13035 13036 13037 13038 13039 13040 13041 13042 13043 13044 13045 13046 13047 13048 13049 13050 13051 13052 13053 13054 13055 13056 13057 13058 13059 13060 13061 13062 13063 13064 13065 13066 13067 13068 13069 13070 13071 13072 13073 13074 13075 13076 13077 13078 13079 13080 13081 13082 13083 13084 13085 13086 13087 13088 13089 13090 13091 13092 13093 13094 13095 13096 13097 13098 13099 13100 13101 13102 13103 13104 13105 13106 13107 13108 13109 13110 13111 13112 13113 13114 13115 13116 13117 13118 13119 13120 13121 13122 13123 13124 13125 13126 13127 13128 13129 13130 13131 13132 13133 13134 13135 13136 13137 13138 13139 13140 13141 13142 13143 13144 13145 13146 13147 13148 13149 13150 13151 13152 13153 13154 13155 13156 13157 13158 13159 13160 13161 13162 13163 13164 13165 13166 13167 13168 13169 13170 13171 13172 13173 13174 13175 13176 13177 13178 13179 13180 13181 13182 13183 13184 13185 13186 13187 13188 13189 13190 13191 13192 13193 13194 13195 13196 13197 13198 13199 13200 13201 13202 13203 13204 13205 13206 13207 13208 13209 13210 13211 13212 13213 13214 13215 13216 13217 13218 13219 13220 13221 13222 13223 13224 13225 13226 13227 13228 13229 13230 13231 13232 13233 13234 13235 13236 13237 13238 13239 13240 13241 13242 13243 13244 13245 13246 13247 13248 13249 13250 13251 13252 13253 13254 13255 13256 13257 13258 13259 13260 13261 13262 13263 13264 13265 13266 13267 13268 13269 13270 13271 13272 13273 13274 13275 13276 13277 13278 13279 13280 13281 13282 13283 13284 13285 13286 13287 13288 13289 13290 13291 13292 13293 13294 13295 13296 13297 13298 13299 13300 13301 13302 13303 13304 13305 13306 13307 13308 13309 13310 13311 13312 13313 13314 13315 13316 13317 13318 13319 13320 13321 13322 13323 13324 13325 13326 13327 13328 13329 13330 13331 13332 13333 13334 13335 13336 13337 13338 13339 13340 13341 13342 13343 13344 13345 13346 13347 13348 13349 13350 13351 13352 13353 13354 13355 13356 13357 13358 13359 13360 13361 13362 13363 13364 13365 13366 13367 13368 13369 13370 13371 13372 13373 13374 13375 13376 13377 13378 13379 13380 13381 13382 13383 13384 13385 13386 13387 13388 13389 13390 13391 13392 13393 13394 13395 13396 13397 13398 13399 13400 13401 13402 13403 13404 13405 13406 13407 13408 13409 13410 13411 13412 13413 13414 13415 13416 13417 13418 13419 13420 13421 13422 13423 13424 13425 13426 13427 13428 13429 13430 13431 13432 13433 13434 13435 13436 13437 13438 13439 13440 13441 13442 13443 13444 13445 13446 13447 13448 13449 13450 13451 13452 13453 13454 13455 13456 13457 13458 13459 13460 13461 13462 13463 13464 13465 13466 13467 13468 13469 13470 13471 13472 13473 13474 13475 13476 13477 13478 13479 13480 13481 13482 13483 13484 13485 13486 13487 13488 13489 13490 13491 13492 13493 13494 13495 13496 13497 13498 13499 13500 13501 13502 13503 13504 13505 13506 13507 13508 13509 13510 13511 13512 13513 13514 13515 13516 13517 13518 13519 13520 13521 13522 13523 13524 13525 13526 13527 13528 13529 13530 13531 13532 13533 13534 13535 13536 13537 13538 13539 13540 13541 13542 13543 13544 13545 13546 13547 13548 13549 13550 13551 13552 13553 13554 13555 13556 13557 13558 13559 13560 13561 13562 13563 13564 13565 13566 13567 13568 13569 13570 13571 13572 13573 13574 13575 13576 13577 13578 13579 13580 13581 13582 13583 13584 13585 13586 13587 13588 13589 13590 13591 13592 13593 13594 13595 13596 13597 13598 13599 13600 13601 13602 13603 13604 13605 13606 13607 13608 13609 13610 13611 13612 13613 13614 13615 13616 13617 13618 13619 13620 13621 13622 13623 13624 13625 13626 13627 13628 13629 13630 13631 13632 13633 13634 13635 13636 13637 13638 13639 13640 13641 13642 13643 13644 13645 13646 13647 13648 13649 13650 13651 13652 13653 13654 13655 13656 13657 13658 13659 13660 13661 13662 13663 13664 13665 13666 13667 13668 13669 13670 13671 13672 13673 13674 13675 13676 13677 13678 13679 13680 13681 13682 13683 13684 13685 13686 13687 13688 13689 13690 13691 13692 13693 13694 13695 13696 13697 13698 13699 13700 13701 13702 13703 13704 13705 13706 13707 13708 13709 13710 13711 13712 13713 13714 13715 13716 13717 13718 13719 13720 13721 13722 13723 13724 13725 13726 13727 13728 13729 13730 13731 13732 13733 13734 13735 13736 13737 13738 13739 13740 13741 13742 13743 13744 13745 13746 13747 13748 13749 13750 13751 13752 13753 13754 13755 13756 13757 13758 13759 13760 13761 13762 13763 13764 13765 13766 13767 13768 13769 13770 13771 13772 13773 13774 13775 13776 13777 13778 13779 13780 13781 13782 13783 13784 13785 13786 13787 13788 13789 13790 13791 13792 13793 13794 13795 13796 13797 13798 13799 13800 13801 13802 13803 13804 13805 13806 13807 13808 13809 13810 13811 13812 13813 13814 13815 13816 13817 13818 13819 13820 13821 13822 13823 13824 13825 13826 13827 13828 13829 13830 13831 13832 13833 13834 13835 13836 13837 13838 13839 13840 13841 13842 13843 13844 13845 13846 13847 13848 13849 13850 13851 13852 13853 13854 13855 13856 13857 13858 13859 13860 13861 13862 13863 13864 13865 13866 13867 13868 13869 13870 13871 13872 13873 13874 13875 13876 13877 13878 13879 13880 13881 13882 13883 13884 13885 13886 13887 13888 13889 13890 13891 13892 13893 13894 13895 13896 13897 13898 13899 13900 13901 13902 13903 13904 13905 13906 13907 13908 13909 13910 13911 13912 13913 13914 13915 13916 13917 13918 13919 13920 13921 13922 13923 13924 13925 13926 13927 13928 13929 13930 13931 13932 13933 13934 13935 13936 13937 13938 13939 13940 13941 13942 13943 13944 13945 13946 13947 13948 13949 13950 13951 13952 13953 13954 13955 13956 13957 13958 13959 13960 13961 13962 13963 13964 13965 13966 13967 13968 13969 13970 13971 13972 13973 13974 13975 13976 13977 13978 13979 13980 13981 13982 13983 13984 13985 13986 13987 13988 13989 13990 13991 13992 13993 13994 13995 13996 13997 13998 13999 14000 14001 14002 14003 14004 14005 14006 14007 14008 14009 14010 14011 14012 14013 14014 14015 14016 14017 14018 14019 14020 14021 14022 14023 14024 14025 14026 14027 14028 14029 14030 14031 14032 14033 14034 14035 14036 14037 14038 14039 14040 14041 14042 14043 14044 14045 14046 14047 14048 14049 14050 14051 14052 14053 14054 14055 14056 14057 14058 14059 14060 14061 14062 14063 14064 14065 14066 14067 14068 14069 14070 14071 14072 14073 14074 14075 14076 14077 14078 14079 14080 14081 14082 14083 14084 14085 14086 14087 14088 14089 14090 14091 14092 14093 14094 14095 14096 14097 14098 14099 14100 14101 14102 14103 14104 14105 14106 14107 14108 14109 14110 14111 14112 14113 14114 14115 14116 14117 14118 14119 14120 14121 14122 14123 14124 14125 14126 14127 14128 14129 14130 14131 14132 14133 14134 14135 14136 14137 14138 14139 14140 14141 14142 14143 14144 14145 14146 14147 14148 14149 14150 14151 14152 14153 14154 14155 14156 14157 14158 14159 14160 14161 14162 14163 14164 14165 14166 14167 14168 14169 14170 14171 14172 14173 14174 14175 14176 14177 14178 14179 14180 14181 14182 14183 14184 14185 14186 14187 14188 14189 14190 14191 14192 14193 14194 14195 14196 14197 14198 14199 14200 14201 14202 14203 14204 14205 14206 14207 14208 14209 14210 14211 14212 14213 14214 14215 14216 14217 14218 14219 14220 14221 14222 14223 14224 14225 14226 14227 14228 14229 14230 14231 14232 14233 14234 14235 14236 14237 14238 14239 14240 14241 14242 14243 14244 14245 14246 14247 14248 14249 14250 14251 14252 14253 14254 14255 14256 14257 14258 14259 14260 14261 14262 14263 14264 14265 14266 14267 14268 14269 14270 14271 14272 14273 14274 14275 14276 14277 14278 14279 14280 14281 14282 14283 14284 14285 14286 14287 14288 14289 14290 14291 14292 14293 14294 14295 14296 14297 14298 14299 14300 14301 14302 14303 14304 14305 14306 14307 14308 14309 14310 14311 14312 14313 14314 14315 14316 14317 14318 14319 14320 14321 14322 14323 14324 14325 14326 14327 14328 14329 14330 14331 14332 14333 14334 14335 14336 14337 14338 14339 14340 14341 14342 14343 14344 14345 14346 14347 14348 14349 14350 14351 14352 14353 14354 14355 14356 14357 14358 14359 14360 14361 14362 14363 14364 14365 14366 14367 14368 14369 14370 14371 14372 14373 14374 14375 14376 14377 14378 14379 14380 14381 14382 14383 14384 14385 14386 14387 14388 14389 14390 14391 14392 14393 14394 14395 14396 14397 14398 14399 14400 14401 14402 14403 14404 14405 14406 14407 14408 14409 14410 14411 14412 14413 14414 14415 14416 14417 14418 14419 14420 14421 14422 14423 14424 14425 14426 14427 14428 14429 14430 14431 14432 14433 14434 14435 14436 14437 14438 14439 14440 14441 14442 14443 14444 14445 14446 14447 14448 14449 14450 14451 14452 14453 14454 14455 14456 14457 14458 14459 14460 14461 14462 14463 14464 14465 14466 14467 14468 14469 14470 14471 14472 14473 14474 14475 14476 14477 14478 14479 14480 14481 14482 14483 14484 14485 14486 14487 14488 14489 14490 14491 14492 14493 14494 14495 14496 14497 14498 14499 14500 14501 14502 14503 14504 14505 14506 14507 14508 14509 14510 14511 14512 14513 14514 14515 14516 14517 14518 14519 14520 14521 14522 14523 14524 14525 14526 14527 14528 14529 14530 14531 14532 14533 14534 14535 14536 14537 14538 14539 14540 14541 14542 14543 14544 14545 14546 14547 14548 14549 14550 14551 14552 14553 14554 14555 14556 14557 14558 14559 14560 14561 14562 14563 14564 14565 14566 14567 14568 14569 14570 14571 14572 14573 14574 14575 14576 14577 14578 14579 14580 14581 14582 14583 14584 14585 14586 14587 14588 14589 14590 14591 14592 14593 14594 14595 14596 14597 14598 14599 14600 14601 14602 14603 14604 14605 14606 14607 14608 14609 14610 14611 14612 14613 14614 14615 14616 14617 14618 14619 14620 14621 14622 14623 14624 14625 14626 14627 14628 14629 14630 14631 14632 14633 14634 14635 14636 14637 14638 14639 14640 14641 14642 14643 14644 14645 14646 14647 14648 14649 14650 14651 14652 14653 14654 14655 14656 14657 14658 14659 14660 14661 14662 14663 14664 14665 14666 14667 14668 14669 14670 14671 14672 14673 14674 14675 14676 14677 14678 14679 14680 14681 14682 14683 14684 14685 14686 14687 14688 14689 14690 14691 14692 14693 14694 14695 14696 14697 14698 14699 14700 14701 14702 14703 14704 14705 14706 14707 14708 14709 14710 14711 14712 14713 14714 14715 14716 14717 14718 14719 14720 14721 14722 14723 14724 14725 14726 14727 14728 14729 14730 14731 14732 14733 14734 14735 14736 14737 14738 14739 14740 14741 14742 14743 14744 14745 14746 14747 14748 14749 14750 14751 14752 14753 14754 14755 14756 14757 14758 14759 14760 14761 14762 14763 14764 14765 14766 14767 14768 14769 14770 14771 14772 14773 14774 14775 14776 14777 14778 14779 14780 14781 14782 14783 14784 14785 14786 14787 14788 14789 14790 14791 14792 14793 14794 14795 14796 14797 14798 14799 14800 14801 14802 14803 14804 14805 14806 14807 14808 14809 14810 14811 14812 14813 14814 14815 14816 14817 14818 14819 14820 14821 14822 14823 14824 14825 14826 14827 14828 14829 14830 14831 14832 14833 14834 14835 14836 14837 14838 14839 14840 14841 14842 14843 14844 14845 14846 14847 14848 14849 14850 14851 14852 14853 14854 14855 14856 14857 14858 14859 14860 14861 14862 14863 14864 14865 14866 14867 14868 14869 14870 14871 14872 14873 14874 14875 14876 14877 14878 14879 14880 14881 14882 14883 14884 14885 14886 14887 14888 14889 14890 14891 14892 14893 14894 14895 14896 14897 14898 14899 14900 14901 14902 14903 14904 14905 14906 14907 14908 14909 14910 14911 14912 14913 14914 14915 14916 14917 14918 14919 14920 14921 14922 14923 14924 14925 14926 14927 14928 14929 14930 14931 14932 14933 14934 14935 14936 14937 14938 14939 14940 14941 14942 14943 14944 14945 14946 14947 14948 14949 14950 14951 14952 14953 14954 14955 14956 14957 14958 14959 14960 14961 14962 14963 14964 14965 14966 14967 14968 14969 14970 14971 14972 14973 14974 14975 14976 14977 14978 14979 14980 14981 14982 14983 14984 14985 14986 14987 14988 14989 14990 14991 14992 14993 14994 14995 14996 14997 14998 14999 15000 15001 15002 15003 15004 15005 15006 15007 15008 15009 15010 15011 15012 15013 15014 15015 15016 15017 15018 15019 15020 15021 15022 15023 15024 15025 15026 15027 15028 15029 15030 15031 15032 15033 15034 15035 15036 15037 15038 15039 15040 15041 15042 15043 15044 15045 15046 15047 15048 15049 15050 15051 15052 15053 15054 15055 15056 15057 15058 15059 15060 15061 15062 15063 15064 15065 15066 15067 15068 15069 15070 15071 15072 15073 15074 15075 15076 15077 15078 15079 15080 15081 15082 15083 15084 15085 15086 15087 15088 15089 15090 15091 15092 15093 15094 15095 15096 15097 15098 15099 15100 15101 15102 15103 15104 15105 15106 15107 15108 15109 15110 15111 15112 15113 15114 15115 15116 15117 15118 15119 15120 15121 15122 15123 15124 15125 15126 15127 15128 15129 15130 15131 15132 15133 15134 15135 15136 15137 15138 15139 15140 15141 15142 15143 15144 15145 15146 15147 15148 15149 15150 15151 15152 15153 15154 15155 15156 15157 15158 15159 15160 15161 15162 15163 15164 15165 15166 15167 15168 15169 15170 15171 15172 15173 15174 15175 15176 15177 15178 15179 15180 15181 15182 15183 15184 15185 15186 15187 15188 15189 15190 15191 15192 15193 15194 15195 15196 15197 15198 15199 15200 15201 15202 15203 15204 15205 15206 15207 15208 15209 15210 15211 15212 15213 15214 15215 15216 15217 15218 15219 15220 15221 15222 15223 15224 15225 15226 15227 15228 15229 15230 15231 15232 15233 15234 15235 15236 15237 15238 15239 15240 15241 15242 15243 15244 15245 15246 15247 15248 15249 15250 15251 15252 15253 15254 15255 15256 15257 15258 15259 15260 15261 15262 15263 15264 15265 15266 15267 15268 15269 15270 15271 15272 15273 15274 15275 15276 15277 15278 15279 15280 15281 15282 15283 15284 15285 15286 15287 15288 15289 15290 15291 15292 15293 15294 15295 15296 15297 15298 15299 15300 15301 15302 15303 15304 15305 15306 15307 15308 15309 15310 15311 15312 15313 15314 15315 15316 15317 15318 15319 15320 15321 15322 15323 15324 15325 15326 15327 15328 15329 15330 15331 15332 15333 15334 15335 15336 15337 15338 15339 15340 15341 15342 15343 15344 15345 15346 15347 15348 15349 15350 15351 15352 15353 15354 15355 15356 15357 15358 15359 15360 15361 15362 15363 15364 15365 15366 15367 15368 15369 15370 15371 15372 15373 15374 15375 15376 15377 15378 15379 15380 15381 15382 15383 15384 15385 15386 15387 15388 15389 15390 15391 15392 15393 15394 15395 15396 15397 15398 15399 15400 15401 15402 15403 15404 15405 15406 15407 15408 15409 15410 15411 15412 15413 15414 15415 15416 15417 15418 15419 15420 15421 15422 15423 15424 15425 15426 15427 15428 15429 15430 15431 15432 15433 15434 15435 15436 15437 15438 15439 15440 15441 15442 15443 15444 15445 15446 15447 15448 15449 15450 15451 15452 15453 15454 15455 15456 15457 15458 15459 15460 15461 15462 15463 15464 15465 15466 15467 15468 15469 15470 15471 15472 15473 15474 15475 15476 15477 15478 15479 15480 15481 15482 15483 15484 15485 15486 15487 15488 15489 15490 15491 15492 15493 15494 15495 15496 15497 15498 15499 15500 15501 15502 15503 15504 15505 15506 15507 15508 15509 15510 15511 15512 15513 15514 15515 15516 15517 15518 15519 15520 15521 15522 15523 15524 15525 15526 15527 15528 15529 15530 15531 15532 15533 15534 15535 15536 15537 15538 15539 15540 15541 15542 15543 15544 15545 15546 15547 15548 15549 15550 15551 15552 15553 15554 15555 15556 15557 15558 15559 15560 15561 15562 15563 15564 15565 15566 15567 15568 15569 15570 15571 15572 15573 15574 15575 15576 15577 15578 15579 15580 15581 15582 15583 15584 15585 15586 15587 15588 15589 15590 15591 15592 15593 15594 15595 15596 15597 15598 15599 15600 15601 15602 15603 15604 15605 15606 15607 15608 15609 15610 15611 15612 15613 15614 15615 15616 15617 15618 15619 15620 15621 15622 15623 15624 15625 15626 15627 15628 15629 15630 15631 15632 15633 15634 15635 15636 15637 15638 15639 15640 15641 15642 15643 15644 15645 15646 15647 15648 15649 15650 15651 15652 15653 15654 15655 15656 15657 15658 15659 15660 15661 15662 15663 15664 15665 15666 15667 15668 15669 15670 15671 15672 15673 15674 15675 15676 15677 15678 15679 15680 15681 15682 15683 15684 15685 15686 15687 15688 15689 15690 15691 15692 15693 15694 15695 15696 15697 15698 15699 15700 15701 15702 15703 15704 15705 15706 15707 15708 15709 15710 15711 15712 15713 15714 15715 15716 15717 15718 15719 15720 15721 15722 15723 15724 15725 15726 15727 15728 15729 15730 15731 15732 15733 15734 15735 15736 15737 15738 15739 15740 15741 15742 15743 15744 15745 15746 15747 15748 15749 15750 15751 15752 15753 15754 15755 15756 15757 15758 15759 15760 15761 15762 15763 15764 15765 15766 15767 15768 15769 15770 15771 15772 15773 15774 15775 15776 15777 15778 15779 15780 15781 15782 15783 15784 15785 15786 15787 15788 15789 15790 15791 15792 15793 15794 15795 15796 15797 15798 15799 15800 15801 15802 15803 15804 15805 15806 15807 15808 15809 15810 15811 15812 15813 15814 15815 15816 15817 15818 15819 15820 15821 15822 15823 15824 15825 15826 15827 15828 15829 15830 15831 15832 15833 15834 15835 15836 15837 15838 15839 15840 15841 15842 15843 15844 15845 15846 15847 15848 15849 15850 15851 15852 15853 15854 15855 15856 15857 15858 15859 15860 15861 15862 15863 15864 15865 15866 15867 15868 15869 15870 15871 15872 15873 15874 15875 15876 15877 15878 15879 15880 15881 15882 15883 15884 15885 15886 15887 15888 15889 15890 15891 15892 15893 15894 15895 15896 15897 15898 15899 15900 15901 15902 15903 15904 15905 15906 15907 15908 15909 15910 15911 15912 15913 15914 15915 15916 15917 15918 15919 15920 15921 15922 15923 15924 15925 15926 15927 15928 15929 15930 15931 15932 15933 15934 15935 15936 15937 15938 15939 15940 15941 15942 15943 15944 15945 15946 15947 15948 15949 15950 15951 15952 15953 15954 15955 15956 15957 15958 15959 15960 15961 15962 15963 15964 15965 15966 15967 15968 15969 15970 15971 15972 15973 15974 15975 15976 15977 15978 15979 15980 15981 15982 15983 15984 15985 15986 15987 15988 15989 15990 15991 15992 15993 15994 15995 15996 15997 15998 15999 16000 16001 16002 16003 16004 16005 16006 16007 16008 16009 16010 16011 16012 16013 16014 16015 16016 16017 16018 16019 16020 16021 16022 16023 16024 16025 16026 16027 16028 16029 16030 16031 16032 16033 16034 16035 16036 16037 16038 16039 16040 16041 16042 16043 16044 16045 16046 16047 16048 16049 16050 16051 16052 16053 16054 16055 16056 16057 16058 16059 16060 16061 16062 16063 16064 16065 16066 16067 16068 16069 16070 16071 16072 16073 16074 16075 16076 16077 16078 16079 16080 16081 16082 16083 16084 16085 16086 16087 16088 16089 16090 16091 16092 16093 16094 16095 16096 16097 16098 16099 16100 16101 16102 16103 16104 16105 16106 16107 16108 16109 16110 16111 16112 16113 16114 16115 16116 16117 16118 16119 16120 16121 16122 16123 16124 16125 16126 16127 16128 16129 16130 16131 16132 16133 16134 16135 16136 16137 16138 16139 16140 16141 16142 16143 16144 16145 16146 16147 16148 16149 16150 16151 16152 16153 16154 16155 16156 16157 16158 16159 16160 16161 16162 16163 16164 16165 16166 16167 16168 16169 16170 16171 16172 16173 16174 16175 16176 16177 16178 16179 16180 16181 16182 16183 16184 16185 16186 16187 16188 16189 16190 16191 16192 16193 16194 16195 16196 16197 16198 16199 16200 16201 16202 16203 16204 16205 16206 16207 16208 16209 16210 16211 16212 16213 16214 16215 16216 16217 16218 16219 16220 16221 16222 16223 16224 16225 16226 16227 16228 16229 16230 16231 16232 16233 16234 16235 16236 16237 16238 16239 16240 16241 16242 16243 16244 16245 16246 16247 16248 16249 16250 16251 16252 16253 16254 16255 16256 16257 16258 16259 16260 16261 16262 16263 16264 16265 16266 16267 16268 16269 16270 16271 16272 16273 16274 16275 16276 16277 16278 16279 16280 16281 16282 16283 16284 16285 16286 16287 16288 16289 16290 16291 16292 16293 16294 16295 16296 16297 16298 16299 16300 16301 16302 16303 16304 16305 16306 16307 16308 16309 16310 16311 16312 16313 16314 16315 16316 16317 16318 16319 16320 16321 16322 16323 16324 16325 16326 16327 16328 16329 16330 16331 16332 16333 16334 16335 16336 16337 16338 16339 16340 16341 16342 16343 16344 16345 16346 16347 16348 16349 16350 16351 16352 16353 16354 16355 16356 16357 16358 16359 16360 16361 16362 16363 16364 16365 16366 16367 16368 16369 16370 16371 16372 16373 16374 16375 16376 16377 16378 16379 16380 16381 16382 16383 16384 16385 16386 16387 16388 16389 16390 16391 16392 16393 16394 16395 16396 16397 16398 16399 16400 16401 16402 16403 16404 16405 16406 16407 16408 16409 16410 16411 16412 16413 16414 16415 16416 16417 16418 16419 16420 16421 16422 16423 16424 16425 16426 16427 16428 16429 16430 16431 16432 16433 16434 16435 16436 16437 16438 16439 16440 16441 16442 16443 16444 16445 16446 16447 16448 16449 16450 16451 16452 16453 16454 16455 16456 16457 16458 16459 16460 16461 16462 16463 16464 16465 16466 16467 16468 16469 16470 16471 16472 16473 16474 16475 16476 16477 16478 16479 16480 16481 16482 16483 16484 16485 16486 16487 16488 16489 16490 16491 16492 16493 16494 16495 16496 16497 16498 16499 16500 16501 16502 16503 16504 16505 16506 16507 16508 16509 16510 16511 16512 16513 16514 16515 16516 16517 16518 16519 16520 16521 16522 16523 16524 16525 16526 16527 16528 16529 16530 16531 16532 16533 16534 16535 16536 16537 16538 16539 16540 16541 16542 16543 16544 16545 16546 16547 16548 16549 16550 16551 16552 16553 16554 16555 16556 16557 16558 16559 16560 16561 16562 16563 16564 16565 16566 16567 16568 16569 16570 16571 16572 16573 16574 16575 16576 16577 16578 16579 16580 16581 16582 16583 16584 16585 16586 16587 16588 16589 16590 16591 16592 16593 16594 16595 16596 16597 16598 16599 16600 16601 16602 16603 16604 16605 16606 16607 16608 16609 16610 16611 16612 16613 16614 16615 16616 16617 16618 16619 16620 16621 16622 16623 16624 16625 16626 16627 16628 16629 16630 16631 16632 16633 16634 16635 16636 16637 16638 16639 16640 16641 16642 16643 16644 16645 16646 16647 16648 16649 16650 16651 16652 16653 16654 16655 16656 16657 16658 16659 16660 16661 16662 16663 16664 16665 16666 16667 16668 16669 16670 16671 16672 16673 16674 16675 16676 16677 16678 16679 16680 16681 16682 16683 16684 16685 16686 16687 16688 16689 16690 16691 16692 16693 16694 16695 16696 16697 16698 16699 16700 16701 16702 16703 16704 16705 16706 16707 16708 16709 16710 16711 16712 16713 16714 16715 16716 16717 16718 16719 16720 16721 16722 16723 16724 16725 16726 16727 16728 16729 16730 16731 16732 16733 16734 16735 16736 16737 16738 16739 16740 16741 16742 16743 16744 16745 16746 16747 16748 16749 16750 16751 16752 16753 16754 16755 16756 16757 16758 16759 16760 16761 16762 16763 16764 16765 16766 16767 16768 16769 16770 16771 16772 16773 16774 16775 16776 16777 16778 16779 16780 16781 16782 16783 16784 16785 16786 16787 16788 16789 16790 16791 16792 16793 16794 16795 16796 16797 16798 16799 16800 16801 16802 16803 16804 16805 16806 16807 16808 16809 16810 16811 16812 16813 16814 16815 16816 16817 16818 16819 16820 16821 16822 16823 16824 16825 16826 16827 16828 16829 16830 16831 16832 16833 16834 16835 16836 16837 16838 16839 16840 16841 16842 16843 16844 16845 16846 16847 16848 16849 16850 16851 16852 16853 16854 16855 16856 16857 16858 16859 16860 16861 16862 16863 16864 16865 16866 16867 16868 16869 16870 16871 16872 16873 16874 16875 16876 16877 16878 16879 16880 16881 16882 16883 16884 16885 16886 16887 16888 16889 16890 16891 16892 16893 16894 16895 16896 16897 16898 16899 16900 16901 16902 16903 16904 16905 16906 16907 16908 16909 16910 16911 16912 16913 16914 16915 16916 16917 16918 16919 16920 16921 16922 16923 16924 16925 16926 16927 16928 16929 16930 16931 16932 16933 16934 16935 16936 16937 16938 16939 16940 16941 16942 16943 16944 16945 16946 16947 16948 16949 16950 16951 16952 16953 16954 16955 16956 16957 16958 16959 16960 16961 16962 16963 16964 16965 16966 16967 16968 16969 16970 16971 16972 16973 16974 16975 16976 16977 16978 16979 16980 16981 16982 16983 16984 16985 16986 16987 16988 16989 16990 16991 16992 16993 16994 16995 16996 16997 16998 16999 17000 17001 17002 17003 17004 17005 17006 17007 17008 17009 17010 17011 17012 17013 17014 17015 17016 17017 17018 17019 17020 17021 17022 17023 17024 17025 17026 17027 17028 17029 17030 17031 17032 17033 17034 17035 17036 17037 17038 17039 17040 17041 17042 17043 17044 17045 17046 17047 17048 17049 17050 17051 17052 17053 17054 17055 17056 17057 17058 17059 17060 17061 17062 17063 17064 17065 17066 17067 17068 17069 17070 17071 17072 17073 17074 17075 17076 17077 17078 17079 17080 17081 17082 17083 17084 17085 17086 17087 17088 17089 17090 17091 17092 17093 17094 17095 17096 17097 17098 17099 17100 17101 17102 17103 17104 17105 17106 17107 17108 17109 17110 17111 17112 17113 17114 17115 17116 17117 17118 17119 17120 17121 17122 17123 17124 17125 17126 17127 17128 17129 17130 17131 17132 17133 17134 17135 17136 17137 17138 17139 17140 17141 17142 17143 17144 17145 17146 17147 17148 17149 17150 17151 17152 17153 17154 17155 17156 17157 17158 17159 17160 17161 17162 17163 17164 17165 17166 17167 17168 17169 17170 17171 17172 17173 17174 17175 17176 17177 17178 17179 17180 17181 17182 17183 17184 17185 17186 17187 17188 17189 17190 17191 17192 17193 17194 17195 17196 17197 17198 17199 17200 17201 17202 17203 17204 17205 17206 17207 17208 17209 17210 17211 17212 17213 17214 17215 17216 17217 17218 17219 17220 17221 17222 17223 17224 17225 17226 17227 17228 17229 17230 17231 17232 17233 17234 17235 17236 17237 17238 17239 17240 17241 17242 17243 17244 17245 17246 17247 17248 17249 17250 17251 17252 17253 17254 17255 17256 17257 17258 17259 17260 17261 17262 17263 17264 17265 17266 17267 17268 17269 17270 17271 17272 17273 17274 17275 17276 17277 17278 17279 17280 17281 17282 17283 17284 17285 17286 17287 17288 17289 17290 17291 17292 17293 17294 17295 17296 17297 17298 17299 17300 17301 17302 17303 17304 17305 17306 17307 17308 17309 17310 17311 17312 17313 17314 17315 17316 17317 17318 17319 17320 17321 17322 17323 17324 17325 17326 17327 17328 17329 17330 17331 17332 17333 17334 17335 17336 17337 17338 17339 17340 17341 17342 17343 17344 17345 17346 17347 17348 17349 17350 17351 17352 17353 17354 17355 17356 17357 17358 17359 17360 17361 17362 17363 17364 17365 17366 17367 17368 17369 17370 17371 17372 17373 17374 17375 17376 17377 17378 17379 17380 17381 17382 17383 17384 17385 17386 17387 17388 17389 17390 17391 17392 17393 17394 17395 17396 17397 17398 17399 17400 17401 17402 17403 17404 17405 17406 17407 17408 17409 17410 17411 17412 17413 17414 17415 17416 17417 17418 17419 17420 17421 17422 17423 17424 17425 17426 17427 17428 17429 17430 17431 17432 17433 17434 17435 17436 17437 17438 17439 17440 17441 17442 17443 17444 17445 17446 17447 17448 17449 17450 17451 17452 17453 17454 17455 17456 17457 17458 17459 17460 17461 17462 17463 17464 17465 17466 17467 17468 17469 17470 17471 17472 17473 17474 17475 17476 17477 17478 17479 17480 17481 17482 17483 17484 17485 17486 17487 17488 17489 17490 17491 17492 17493 17494 17495 17496 17497 17498 17499 17500 17501 17502 17503 17504 17505 17506 17507 17508 17509 17510 17511 17512 17513 17514 17515 17516 17517 17518 17519 17520 17521 17522 17523 17524 17525 17526 17527 17528 17529 17530 17531 17532 17533 17534 17535 17536 17537 17538 17539 17540 17541 17542 17543 17544 17545 17546 17547 17548 17549 17550 17551 17552 17553 17554 17555 17556 17557 17558 17559 17560 17561 17562 17563 17564 17565 17566 17567 17568 17569 17570 17571 17572 17573 17574 17575 17576 17577 17578 17579 17580 17581 17582 17583 17584 17585 17586 17587 17588 17589 17590 17591 17592 17593 17594 17595 17596 17597 17598 17599 17600 17601 17602 17603 17604 17605 17606 17607 17608 17609 17610 17611 17612 17613 17614 17615 17616 17617 17618 17619 17620 17621 17622 17623 17624 17625 17626 17627 17628 17629 17630 17631 17632 17633 17634 17635 17636 17637 17638 17639 17640 17641 17642 17643 17644 17645 17646 17647 17648 17649 17650 17651 17652 17653 17654 17655 17656 17657 17658 17659 17660 17661 17662 17663 17664 17665 17666 17667 17668 17669 17670 17671 17672 17673 17674 17675 17676 17677 17678 17679 17680 17681 17682 17683 17684 17685 17686 17687 17688 17689 17690 17691 17692 17693 17694 17695 17696 17697 17698 17699 17700 17701 17702 17703 17704 17705 17706 17707 17708 17709 17710 17711 17712 17713 17714 17715 17716 17717 17718 17719 17720 17721 17722 17723 17724 17725 17726 17727 17728 17729 17730 17731 17732 17733 17734 17735 17736 17737 17738 17739 17740 17741 17742 17743 17744 17745 17746 17747 17748 17749 17750 17751 17752 17753 17754 17755 17756 17757 17758 17759 17760 17761 17762 17763 17764 17765 17766 17767 17768 17769 17770 17771 17772 17773 17774 17775 17776 17777 17778 17779 17780 17781 17782 17783 17784 17785 17786 17787 17788 17789 17790 17791 17792 17793 17794 17795 17796 17797 17798 17799 17800 17801 17802 17803 17804 17805 17806 17807 17808 17809 17810 17811 17812 17813 17814 17815 17816 17817 17818 17819 17820 17821 17822 17823 17824 17825 17826 17827 17828 17829 17830 17831 17832 17833 17834 17835 17836 17837 17838 17839 17840 17841 17842 17843 17844 17845 17846 17847 17848 17849 17850 17851 17852 17853 17854 17855 17856 17857 17858 17859 17860 17861 17862 17863 17864 17865 17866 17867 17868 17869 17870 17871 17872 17873 17874 17875 17876 17877 17878 17879 17880 17881 17882 17883 17884 17885 17886 17887 17888 17889 17890 17891 17892 17893 17894 17895 17896 17897 17898 17899 17900 17901 17902 17903 17904 17905 17906 17907 17908 17909 17910 17911 17912 17913 17914 17915 17916 17917 17918 17919 17920 17921 17922 17923 17924 17925 17926 17927 17928 17929 17930 17931 17932 17933 17934 17935 17936 17937 17938 17939 17940 17941 17942 17943 17944 17945 17946 17947 17948 17949 17950 17951 17952 17953 17954 17955 17956 17957 17958 17959 17960 17961 17962 17963 17964 17965 17966 17967 17968 17969 17970 17971 17972 17973 17974 17975 17976 17977 17978 17979 17980 17981 17982 17983 17984 17985 17986 17987 17988 17989 17990 17991 17992 17993 17994 17995 17996 17997 17998 17999 18000 18001 18002 18003 18004 18005 18006 18007 18008 18009 18010 18011 18012 18013 18014 18015 18016 18017 18018 18019 18020 18021 18022 18023 18024 18025 18026 18027 18028 18029 18030 18031 18032 18033 18034 18035 18036 18037 18038 18039 18040 18041 18042 18043 18044 18045 18046 18047 18048 18049 18050 18051 18052 18053 18054 18055 18056 18057 18058 18059 18060 18061 18062 18063 18064 18065 18066 18067 18068 18069 18070 18071 18072 18073 18074 18075 18076 18077 18078 18079 18080 18081 18082 18083 18084 18085 18086 18087 18088 18089 18090 18091 18092 18093 18094 18095 18096 18097 18098 18099 18100 18101 18102 18103 18104 18105 18106 18107 18108 18109 18110 18111 18112 18113 18114 18115 18116 18117 18118 18119 18120 18121 18122 18123 18124 18125 18126 18127 18128 18129 18130 18131 18132 18133 18134 18135 18136 18137 18138 18139 18140 18141 18142 18143 18144 18145 18146 18147 18148 18149 18150 18151 18152 18153 18154 18155 18156 18157 18158 18159 18160 18161 18162 18163 18164 18165 18166 18167 18168 18169 18170 18171 18172 18173 18174 18175 18176 18177 18178 18179 18180 18181 18182 18183 18184 18185 18186 18187 18188 18189 18190 18191 18192 18193 18194 18195 18196 18197 18198 18199 18200 18201 18202 18203 18204 18205 18206 18207 18208 18209 18210 18211 18212 18213 18214 18215 18216 18217 18218 18219 18220 18221 18222 18223 18224 18225 18226 18227 18228 18229 18230 18231 18232 18233 18234 18235 18236 18237 18238 18239 18240 18241 18242 18243 18244 18245 18246 18247 18248 18249 18250 18251 18252 18253 18254 18255 18256 18257 18258 18259 18260 18261 18262 18263 18264 18265 18266 18267 18268 18269 18270 18271 18272 18273 18274 18275 18276 18277 18278 18279 18280 18281 18282 18283 18284 18285 18286 18287 18288 18289 18290 18291 18292 18293 18294 18295 18296 18297 18298 18299 18300 18301 18302 18303 18304 18305 18306 18307 18308 18309 18310 18311 18312 18313 18314 18315 18316 18317 18318 18319 18320 18321 18322 18323 18324 18325 18326 18327 18328 18329 18330 18331 18332 18333 18334 18335 18336 18337 18338 18339 18340 18341 18342 18343 18344 18345 18346 18347 18348 18349 18350 18351 18352 18353 18354 18355 18356 18357 18358 18359 18360 18361 18362 18363 18364 18365 18366 18367 18368 18369 18370 18371 18372 18373 18374 18375 18376 18377 18378 18379 18380 18381 18382 18383 18384 18385 18386 18387 18388 18389 18390 18391 18392 18393 18394 18395 18396 18397 18398 18399 18400 18401 18402 18403 18404 18405 18406 18407 18408 18409 18410 18411 18412 18413 18414 18415 18416 18417 18418 18419 18420 18421 18422 18423 18424 18425 18426 18427 18428 18429 18430 18431 18432 18433 18434 18435 18436 18437 18438 18439 18440 18441 18442 18443 18444 18445 18446 18447 18448 18449 18450 18451 18452 18453 18454 18455 18456 18457 18458 18459 18460 18461 18462 18463 18464 18465 18466 18467 18468 18469 18470 18471 18472 18473 18474 18475 18476 18477 18478 18479 18480 18481 18482 18483 18484 18485 18486 18487 18488 18489 18490 18491 18492 18493 18494 18495 18496 18497 18498 18499 18500 18501 18502 18503 18504 18505 18506 18507 18508 18509 18510 18511 18512 18513 18514 18515 18516 18517 18518 18519 18520 18521 18522 18523 18524 18525 18526 18527 18528 18529 18530 18531 18532 18533 18534 18535 18536 18537 18538 18539 18540 18541 18542 18543 18544 18545 18546 18547 18548 18549 18550 18551 18552 18553 18554 18555 18556 18557 18558 18559 18560 18561 18562 18563 18564 18565 18566 18567 18568 18569 18570 18571 18572 18573 18574 18575 18576 18577 18578 18579 18580 18581 18582 18583 18584 18585 18586 18587 18588 18589 18590 18591 18592 18593 18594 18595 18596 18597 18598 18599 18600 18601 18602 18603 18604 18605 18606 18607 18608 18609 18610 18611 18612 18613 18614 18615 18616 18617 18618 18619 18620 18621 18622 18623 18624 18625 18626 18627 18628 18629 18630 18631 18632 18633 18634 18635 18636 18637 18638 18639 18640 18641 18642 18643 18644 18645 18646 18647 18648 18649 18650 18651 18652 18653 18654 18655 18656 18657 18658 18659 18660 18661 18662 18663 18664 18665 18666 18667 18668 18669 18670 18671 18672 18673 18674 18675 18676 18677 18678 18679 18680 18681 18682 18683 18684 18685 18686 18687 18688 18689 18690 18691 18692 18693 18694 18695 18696 18697 18698 18699 18700 18701 18702 18703 18704 18705 18706 18707 18708 18709 18710 18711 18712 18713 18714 18715 18716 18717 18718 18719 18720 18721 18722 18723 18724 18725 18726 18727 18728 18729 18730 18731 18732 18733 18734 18735 18736 18737 18738 18739 18740 18741 18742 18743 18744 18745 18746 18747 18748 18749 18750 18751 18752 18753 18754 18755 18756 18757 18758 18759 18760 18761 18762 18763 18764 18765 18766 18767 18768 18769 18770 18771 18772 18773 18774 18775 18776 18777 18778 18779 18780 18781 18782 18783 18784 18785 18786 18787 18788 18789 18790 18791 18792 18793 18794 18795 18796 18797 18798 18799 18800 18801 18802 18803 18804 18805 18806 18807 18808 18809 18810 18811 18812 18813 18814 18815 18816 18817 18818 18819 18820 18821 18822 18823 18824 18825 18826 18827 18828 18829 18830 18831 18832 18833 18834 18835 18836 18837 18838 18839 18840 18841 18842 18843 18844 18845 18846 18847 18848 18849 18850 18851 18852 18853 18854 18855 18856 18857 18858 18859 18860 18861 18862 18863 18864 18865 18866 18867 18868 18869 18870 18871 18872 18873 18874 18875 18876 18877 18878 18879 18880 18881 18882 18883 18884 18885 18886 18887 18888 18889 18890 18891 18892 18893 18894 18895 18896 18897 18898 18899 18900 18901 18902 18903 18904 18905 18906 18907 18908 18909 18910 18911 18912 18913 18914 18915 18916 18917 18918 18919 18920 18921 18922 18923 18924 18925 18926 18927 18928 18929 18930 18931 18932 18933 18934 18935 18936 18937 18938 18939 18940 18941 18942 18943 18944 18945 18946 18947 18948 18949 18950 18951 18952 18953 18954 18955 18956 18957 18958 18959 18960 18961 18962 18963 18964 18965 18966 18967 18968 18969 18970 18971 18972 18973 18974 18975 18976 18977 18978 18979 18980 18981 18982 18983 18984 18985 18986 18987 18988 18989 18990 18991 18992 18993 18994 18995 18996 18997 18998 18999 19000 19001 19002 19003 19004 19005 19006 19007 19008 19009 19010 19011 19012 19013 19014 19015 19016 19017 19018 19019 19020 19021 19022 19023 19024 19025 19026 19027 19028 19029 19030 19031 19032 19033 19034 19035 19036 19037 19038 19039 19040 19041 19042 19043 19044 19045 19046 19047 19048 19049 19050 19051 19052 19053 19054 19055 19056 19057 19058 19059 19060 19061 19062 19063 19064 19065 19066 19067 19068 19069 19070 19071 19072 19073 19074 19075 19076 19077 19078 19079 19080 19081 19082 19083 19084 19085 19086 19087 19088 19089 19090 19091 19092 19093 19094 19095 19096 19097 19098 19099 19100 19101 19102 19103 19104 19105 19106 19107 19108 19109 19110 19111 19112 19113 19114 19115 19116 19117 19118 19119 19120 19121 19122 19123 19124 19125 19126 19127 19128 19129 19130 19131 19132 19133 19134 19135 19136 19137 19138 19139 19140 19141 19142 19143 19144 19145 19146 19147 19148 19149 19150 19151 19152 19153 19154 19155 19156 19157 19158 19159 19160 19161 19162 19163 19164 19165 19166 19167 19168 19169 19170 19171 19172 19173 19174 19175 19176 19177 19178 19179 19180 19181 19182 19183 19184 19185 19186 19187 19188 19189 19190 19191 19192 19193 19194 19195 19196 19197 19198 19199 19200 19201 19202 19203 19204 19205 19206 19207 19208 19209 19210 19211 19212 19213 19214 19215 19216 19217 19218 19219 19220 19221 19222 19223 19224 19225 19226 19227 19228 19229 19230 19231 19232 19233 19234 19235 19236 19237 19238 19239 19240 19241 19242 19243 19244 19245 19246 19247 19248 19249 19250 19251 19252 19253 19254 19255 19256 19257 19258 19259 19260 19261 19262 19263 19264 19265 19266 19267 19268 19269 19270 19271 19272 19273 19274 19275 19276 19277 19278 19279 19280 19281 19282 19283 19284 19285 19286 19287 19288 19289 19290 19291 19292 19293 19294 19295 19296 19297 19298 19299 19300 19301 19302 19303 19304 19305 19306 19307 19308 19309 19310 19311 19312 19313 19314 19315 19316 19317 19318 19319 19320 19321 19322 19323 19324 19325 19326 19327 19328 19329 19330 19331 19332 19333 19334 19335 19336 19337 19338 19339 19340 19341 19342 19343 19344 19345 19346 19347 19348 19349 19350 19351 19352 19353 19354 19355 19356 19357 19358 19359 19360 19361 19362 19363 19364 19365 19366 19367 19368 19369 19370 19371 19372 19373 19374 19375 19376 19377 19378 19379 19380 19381 19382 19383 19384 19385 19386 19387 19388 19389 19390 19391 19392 19393 19394 19395 19396 19397 19398 19399 19400 19401 19402 19403 19404 19405 19406 19407 19408 19409 19410 19411 19412 19413 19414 19415 19416 19417 19418 19419 19420 19421 19422 19423 19424 19425 19426 19427 19428 19429 19430 19431 19432 19433 19434 19435 19436 19437 19438 19439 19440 19441 19442 19443 19444 19445 19446 19447 19448 19449 19450 19451 19452 19453 19454 19455 19456 19457 19458 19459 19460 19461 19462 19463 19464 19465 19466 19467 19468 19469 19470 19471 19472 19473 19474 19475 19476 19477 19478 19479 19480 19481 19482 19483 19484 19485 19486 19487 19488 19489 19490 19491 19492 19493 19494 19495 19496 19497 19498 19499 19500 19501 19502 19503 19504 19505 19506 19507 19508 19509 19510 19511 19512 19513 19514 19515 19516 19517 19518 19519 19520 19521 19522 19523 19524 19525 19526 19527 19528 19529 19530 19531 19532 19533 19534 19535 19536 19537 19538 19539 19540 19541 19542 19543 19544 19545 19546 19547 19548 19549 19550 19551 19552 19553 19554 19555 19556 19557 19558 19559 19560 19561 19562 19563 19564 19565 19566 19567 19568 19569 19570 19571 19572 19573 19574 19575 19576 19577 19578 19579 19580 19581 19582 19583 19584 19585 19586 19587 19588 19589 19590 19591 19592 19593 19594 19595 19596 19597 19598 19599 19600 19601 19602 19603 19604 19605 19606 19607 19608 19609 19610 19611 19612 19613 19614 19615 19616 19617 19618 19619 19620 19621 19622 19623 19624 19625 19626 19627 19628 19629 19630 19631 19632 19633 19634 19635 19636 19637 19638 19639 19640 19641 19642 19643 19644 19645 19646 19647 19648 19649 19650 19651 19652 19653 19654 19655 19656 19657 19658 19659 19660 19661 19662 19663 19664 19665 19666 19667 19668 19669 19670 19671 19672 19673 19674 19675 19676 19677 19678 19679 19680 19681 19682 19683 19684 19685 19686 19687 19688 19689 19690 19691 19692 19693 19694 19695 19696 19697 19698 19699 19700 19701 19702 19703 19704 19705 19706 19707 19708 19709 19710 19711 19712 19713 19714 19715 19716 19717 19718 19719 19720 19721 19722 19723 19724 19725 19726 19727 19728 19729 19730 19731 19732 19733 19734 19735 19736 19737 19738 19739 19740 19741 19742 19743 19744 19745 19746 19747 19748 19749 19750 19751 19752 19753 19754 19755 19756 19757 19758 19759 19760 19761 19762 19763 19764 19765 19766 19767 19768 19769 19770 19771 19772 19773 19774 19775 19776 19777 19778 19779 19780 19781 19782 19783 19784 19785 19786 19787 19788 19789 19790 19791 19792 19793 19794 19795 19796 19797 19798 19799 19800 19801 19802 19803 19804 19805 19806 19807 19808 19809 19810 19811 19812 19813 19814 19815 19816 19817 19818 19819 19820 19821 19822 19823 19824 19825 19826 19827 19828 19829 19830 19831 19832 19833 19834 19835 19836 19837 19838 19839 19840 19841 19842 19843 19844 19845 19846 19847 19848 19849 19850 19851 19852 19853 19854 19855 19856 19857 19858 19859 19860 19861 19862 19863 19864 19865 19866 19867 19868 19869 19870 19871 19872 19873 19874 19875 19876 19877 19878 19879 19880 19881 19882 19883 19884 19885 19886 19887 19888 19889 19890 19891 19892 19893 19894 19895 19896 19897 19898 19899 19900 19901 19902 19903 19904 19905 19906 19907 19908 19909 19910 19911 19912 19913 19914 19915 19916 19917 19918 19919 19920 19921 19922 19923 19924 19925 19926 19927 19928 19929 19930 19931 19932 19933 19934 19935 19936 19937 19938 19939 19940 19941 19942 19943 19944 19945 19946 19947 19948 19949 19950 19951 19952 19953 19954 19955 19956 19957 19958 19959 19960 19961 19962 19963 19964 19965 19966 19967 19968 19969 19970 19971 19972 19973 19974 19975 19976 19977 19978 19979 19980 19981 19982 19983 19984 19985 19986 19987 19988 19989 19990 19991 19992 19993 19994 19995 19996 19997 19998 19999 20000 20001 20002 20003 20004 20005 20006 20007 20008 20009 20010 20011 20012 20013 20014 20015 20016 20017 20018 20019 20020 20021 20022 20023 20024 20025 20026 20027 20028 20029 20030 20031 20032 20033 20034 20035 20036 20037 20038 20039 20040 20041 20042 20043 20044 20045 20046 20047 20048 20049 20050 20051 20052 20053 20054 20055 20056 20057 20058 20059 20060 20061 20062 20063 20064 20065 20066 20067 20068 20069 20070 20071 20072 20073 20074 20075 20076 20077 20078 20079 20080 20081 20082 20083 20084 20085 20086 20087 20088 20089 20090 20091 20092 20093 20094 20095 20096 20097 20098 20099 20100 20101 20102 20103 20104 20105 20106 20107 20108 20109 20110 20111 20112 20113 20114 20115 20116 20117 20118 20119 20120 20121 20122 20123 20124 20125 20126 20127 20128 20129 20130 20131 20132 20133 20134 20135 20136 20137 20138 20139 20140 20141 20142 20143 20144 20145 20146 20147 20148 20149 20150 20151 20152 20153 20154 20155 20156 20157 20158 20159 20160 20161 20162 20163 20164 20165 20166 20167 20168 20169 20170 20171 20172 20173 20174 20175 20176 20177 20178 20179 20180 20181 20182 20183 20184 20185 20186 20187 20188 20189 20190 20191 20192 20193 20194 20195 20196 20197 20198 20199 20200 20201 20202 20203 20204 20205 20206 20207 20208 20209 20210 20211 20212 20213 20214 20215 20216 20217 20218 20219 20220 20221 20222 20223 20224 20225 20226 20227 20228 20229 20230 20231 20232 20233 20234 20235 20236 20237 20238 20239 20240 20241 20242 20243 20244 20245 20246 20247 20248 20249 20250 20251 20252 20253 20254 20255 20256 20257 20258 20259 20260 20261 20262 20263 20264 20265 20266 20267 20268 20269 20270 20271 20272 20273 20274 20275 20276 20277 20278 20279 20280 20281 20282 20283 20284 20285 20286 20287 20288 20289 20290 20291 20292 20293 20294 20295 20296 20297 20298 20299 20300 20301 20302 20303 20304 20305 20306 20307 20308 20309 20310 20311 20312 20313 20314 20315 20316 20317 20318 20319 20320 20321 20322 20323 20324 20325 20326 20327 20328 20329 20330 20331 20332 20333 20334 20335 20336 20337 20338 20339 20340 20341 20342 20343 20344 20345 20346 20347 20348 20349 20350 20351 20352 20353 20354 20355 20356 20357 20358 20359 20360 20361 20362 20363 20364 20365 20366 20367 20368 20369 20370 20371 20372 20373 20374 20375 20376 20377 20378 20379 20380 20381 20382 20383 20384 20385 20386 20387 20388 20389 20390 20391 20392 20393 20394 20395 20396 20397 20398 20399 20400 20401 20402 20403 20404 20405 20406 20407 20408 20409 20410 20411 20412 20413 20414 20415 20416 20417 20418 20419 20420 20421 20422 20423 20424 20425 20426 20427 20428 20429 20430 20431 20432 20433 20434 20435 20436 20437 20438 20439 20440 20441 20442 20443 20444 20445 20446 20447 20448 20449 20450 20451 20452 20453 20454 20455 20456 20457 20458 20459 20460 20461 20462 20463 20464 20465 20466 20467 20468 20469 20470 20471 20472 20473 20474 20475 20476 20477 20478 20479 20480 20481 20482 20483 20484 20485 20486 20487 20488 20489 20490 20491 20492 20493 20494 20495 20496 20497 20498 20499 20500 20501 20502 20503 20504 20505 20506 20507 20508 20509 20510 20511 20512 20513 20514 20515 20516 20517 20518 20519 20520 20521 20522 20523 20524 20525 20526 20527 20528 20529 20530 20531 20532 20533 20534 20535 20536 20537 20538 20539 20540 20541 20542 20543 20544 20545 20546 20547 20548 20549 20550 20551 20552 20553 20554 20555 20556 20557 20558 20559 20560 20561 20562 20563 20564 20565 20566 20567 20568 20569 20570 20571 20572 20573 20574 20575 20576 20577 20578 20579 20580 20581 20582 20583 20584 20585 20586 20587 20588 20589 20590 20591 20592 20593 20594 20595 20596 20597 20598 20599 20600 20601 20602 20603 20604 20605 20606 20607 20608 20609 20610 20611 20612 20613 20614 20615 20616 20617 20618 20619 20620 20621 20622 20623 20624 20625 20626 20627 20628 20629 20630 20631 20632 20633 20634 20635 20636 20637 20638 20639 20640 20641 20642 20643 20644 20645 20646 20647 20648 20649 20650 20651 20652 20653 20654 20655 20656 20657 20658 20659 20660 20661 20662 20663 20664 20665 20666 20667 20668 20669 20670 20671 20672 20673 20674 20675 20676 20677 20678 20679 20680 20681 20682 20683 20684 20685 20686 20687 20688 20689 20690 20691 20692 20693 20694 20695 20696 20697 20698 20699 20700 20701 20702 20703 20704 20705 20706 20707 20708 20709 20710 20711 20712 20713 20714 20715 20716 20717 20718 20719 20720 20721 20722 20723 20724 20725 20726 20727 20728 20729 20730 20731 20732 20733 20734 20735 20736 20737 20738 20739 20740 20741 20742 20743 20744 20745 20746 20747 20748 20749 20750 20751 20752 20753 20754 20755 20756 20757 20758 20759 20760 20761 20762 20763 20764 20765 20766 20767 20768 20769 20770 20771 20772 20773 20774 20775 20776 20777 20778 20779 20780 20781 20782 20783 20784 20785 20786 20787 20788 20789 20790 20791 20792 20793 20794 20795 20796 20797 20798 20799 20800 20801 20802 20803 20804 20805 20806 20807 20808 20809 20810 20811 20812 20813 20814 20815 20816 20817 20818 20819 20820 20821 20822 20823 20824 20825 20826 20827 20828 20829 20830 20831 20832 20833 20834 20835 20836 20837 20838 20839 20840 20841 20842 20843 20844 20845 20846 20847 20848 20849 20850 20851 20852 20853 20854 20855 20856 20857 20858 20859 20860 20861 20862 20863 20864 20865 20866 20867 20868 20869 20870 20871 20872 20873 20874 20875 20876 20877 20878 20879 20880 20881 20882 20883 20884 20885 20886 20887 20888 20889 20890 20891 20892 20893 20894 20895 20896 20897 20898 20899 20900 20901 20902 20903 20904 20905 20906 20907 20908 20909 20910 20911 20912 20913 20914 20915 20916 20917 20918 20919 20920 20921 20922 20923 20924 20925 20926 20927 20928 20929 20930 20931 20932 20933 20934 20935 20936 20937 20938 20939 20940 20941 20942 20943 20944 20945 20946 20947 20948 20949 20950 20951 20952 20953 20954 20955 20956 20957 20958 20959 20960 20961 20962 20963 20964 20965 20966 20967 20968 20969 20970 20971 20972 20973 20974 20975 20976 20977 20978 20979 20980 20981 20982 20983 20984 20985 20986 20987 20988 20989 20990 20991 20992 20993 20994 20995 20996 20997 20998 20999 21000 21001 21002 21003 21004 21005 21006 21007 21008 21009 21010 21011 21012 21013 21014 21015 21016 21017 21018 21019 21020 21021 21022 21023 21024 21025 21026 21027 21028 21029 21030 21031 21032 21033 21034 21035 21036 21037 21038 21039 21040 21041 21042 21043 21044 21045 21046 21047 21048 21049 21050 21051 21052 21053 21054 21055 21056 21057 21058 21059 21060 21061 21062 21063 21064 21065 21066 21067 21068 21069 21070 21071 21072 21073 21074 21075 21076 21077 21078 21079 21080 21081 21082 21083 21084 21085 21086 21087 21088 21089 21090 21091 21092 21093 21094 21095 21096 21097 21098 21099 21100 21101 21102 21103 21104 21105 21106 21107 21108 21109 21110 21111 21112 21113 21114 21115 21116 21117 21118 21119 21120 21121 21122 21123 21124 21125 21126 21127 21128 21129 21130 21131 21132 21133 21134 21135 21136 21137 21138 21139 21140 21141 21142 21143 21144 21145 21146 21147 21148 21149 21150 21151 21152 21153 21154 21155 21156 21157 21158 21159 21160 21161 21162 21163 21164 21165 21166 21167 21168 21169 21170 21171 21172 21173 21174 21175 21176 21177 21178 21179 21180 21181 21182 21183 21184 21185 21186 21187 21188 21189 21190 21191 21192 21193 21194 21195 21196 21197 21198 21199 21200 21201 21202 21203 21204 21205 21206 21207 21208 21209 21210 21211 21212 21213 21214 21215 21216 21217 21218 21219 21220 21221 21222 21223 21224 21225 21226 21227 21228 21229 21230 21231 21232 21233 21234 21235 21236 21237 21238 21239 21240 21241 21242 21243 21244 21245 21246 21247 21248 21249 21250 21251 21252 21253 21254 21255 21256 21257 21258 21259 21260 21261 21262 21263 21264 21265 21266 21267 21268 21269 21270 21271 21272 21273 21274 21275 21276 21277 21278 21279 21280 21281 21282 21283 21284 21285 21286 21287 21288 21289 21290 21291 21292 21293 21294 21295 21296 21297 21298 21299 21300 21301 21302 21303 21304 21305 21306 21307 21308 21309 21310 21311 21312 21313 21314 21315 21316 21317 21318 21319 21320 21321 21322 21323 21324 21325 21326 21327 21328 21329 21330 21331 21332 21333 21334 21335 21336 21337 21338 21339 21340 21341 21342 21343 21344 21345 21346 21347 21348 21349 21350 21351 21352 21353 21354 21355 21356 21357 21358 21359 21360 21361 21362 21363 21364 21365 21366 21367 21368 21369 21370 21371 21372 21373 21374 21375 21376 21377 21378 21379 21380 21381 21382 21383 21384 21385 21386 21387 21388 21389 21390 21391 21392 21393 21394 21395 21396 21397 21398 21399 21400 21401 21402 21403 21404 21405 21406 21407 21408 21409 21410 21411 21412 21413 21414 21415 21416 21417 21418 21419 21420 21421 21422 21423 21424 21425 21426 21427 21428 21429 21430 21431 21432 21433 21434 21435 21436 21437 21438 21439 21440 21441 21442 21443 21444 21445 21446 21447 21448 21449 21450 21451 21452 21453 21454 21455 21456 21457 21458 21459 21460 21461 21462 21463 21464 21465 21466 21467 21468 21469 21470 21471 21472 21473 21474 21475 21476 21477 21478 21479 21480 21481 21482 21483 21484 21485 21486 21487 21488 21489 21490 21491 21492 21493 21494 21495 21496 21497 21498 21499 21500 21501 21502 21503 21504 21505 21506 21507 21508 21509 21510 21511 21512 21513 21514 21515 21516 21517 21518 21519 21520 21521 21522 21523 21524 21525 21526 21527 21528 21529 21530 21531 21532 21533 21534 21535 21536 21537 21538 21539 21540 21541 21542 21543 21544 21545 21546 21547 21548 21549 21550 21551 21552 21553 21554 21555 21556 21557 21558 21559 21560 21561 21562 21563 21564 21565 21566 21567 21568 21569 21570 21571 21572 21573 21574 21575 21576 21577 21578 21579 21580 21581 21582 21583 21584 21585 21586 21587 21588 21589 21590 21591 21592 21593 21594 21595 21596 21597 21598 21599 21600 21601 21602 21603 21604 21605 21606 21607 21608 21609 21610 21611 21612 21613 21614 21615 21616 21617 21618 21619 21620 21621 21622 21623 21624 21625 21626 21627 21628 21629 21630 21631 21632 21633 21634 21635 21636 21637 21638 21639 21640 21641 21642 21643 21644 21645 21646 21647 21648 21649 21650 21651 21652 21653 21654 21655 21656 21657 21658 21659 21660 21661 21662 21663 21664 21665 21666 21667 21668 21669 21670 21671 21672 21673 21674 21675 21676 21677 21678 21679 21680 21681 21682 21683 21684 21685 21686 21687 21688 21689 21690 21691 21692 21693 21694 21695 21696 21697 21698 21699 21700 21701 21702 21703 21704 21705 21706 21707 21708 21709 21710 21711 21712 21713 21714 21715 21716 21717 21718 21719 21720 21721 21722 21723 21724 21725 21726 21727 21728 21729 21730 21731 21732 21733 21734 21735 21736 21737 21738 21739 21740 21741 21742 21743 21744 21745 21746 21747 21748 21749 21750 21751 21752 21753 21754 21755 21756 21757 21758 21759 21760 21761 21762 21763 21764 21765 21766 21767 21768 21769 21770 21771 21772 21773 21774 21775 21776 21777 21778 21779 21780 21781 21782 21783 21784 21785 21786 21787 21788 21789 21790 21791 21792 21793 21794 21795 21796 21797 21798 21799 21800 21801 21802 21803 21804 21805 21806 21807 21808 21809 21810 21811 21812 21813 21814 21815 21816 21817 21818 21819 21820 21821 21822 21823 21824 21825 21826 21827 21828 21829 21830 21831 21832 21833 21834 21835 21836 21837 21838 21839 21840 21841 21842 21843 21844 21845 21846 21847 21848 21849 21850 21851 21852 21853 21854 21855 21856 21857 21858 21859 21860 21861 21862 21863 21864 21865 21866 21867 21868 21869 21870 21871 21872 21873 21874 21875 21876 21877 21878 21879 21880 21881 21882 21883 21884 21885 21886 21887 21888 21889 21890 21891 21892 21893 21894 21895 21896 21897 21898 21899 21900 21901 21902 21903 21904 21905 21906 21907 21908 21909 21910 21911 21912 21913 21914 21915 21916 21917 21918 21919 21920 21921 21922 21923 21924 21925 21926 21927 21928 21929 21930 21931 21932 21933 21934 21935 21936 21937 21938 21939 21940 21941 21942 21943 21944 21945 21946 21947 21948 21949 21950 21951 21952 21953 21954 21955 21956 21957 21958 21959 21960 21961 21962 21963 21964 21965 21966 21967 21968 21969 21970 21971 21972 21973 21974 21975 21976 21977 21978 21979 21980 21981 21982 21983 21984 21985 21986 21987 21988 21989 21990 21991 21992 21993 21994 21995 21996 21997 21998 21999 22000 22001 22002 22003 22004 22005 22006 22007 22008 22009 22010 22011 22012 22013 22014 22015 22016 22017 22018 22019 22020 22021 22022 22023 22024 22025 22026 22027 22028 22029 22030 22031 22032 22033 22034 22035 22036 22037 22038 22039 22040 22041 22042 22043 22044 22045 22046 22047 22048 22049 22050 22051 22052 22053 22054 22055 22056 22057 22058 22059 22060 22061 22062 22063 22064 22065 22066 22067 22068 22069 22070 22071 22072 22073 22074 22075 22076 22077 22078 22079 22080 22081 22082 22083 22084 22085 22086 22087 22088 22089 22090 22091 22092 22093 22094 22095 22096 22097 22098 22099 22100 22101 22102 22103 22104 22105 22106 22107 22108 22109 22110 22111 22112 22113 22114 22115 22116 22117 22118 22119 22120 22121 22122 22123 22124 22125 22126 22127 22128 22129 22130 22131 22132 22133 22134 22135 22136 22137 22138 22139 22140 22141 22142 22143 22144 22145 22146 22147 22148 22149 22150 22151 22152 22153 22154 22155 22156 22157 22158 22159 22160 22161 22162 22163 22164 22165 22166 22167 22168 22169 22170 22171 22172 22173 22174 22175 22176 22177 22178 22179 22180 22181 22182 22183 22184 22185 22186 22187 22188 22189 22190 22191 22192 22193 22194 22195 22196 22197 22198 22199 22200 22201 22202 22203 22204 22205 22206 22207 22208 22209 22210 22211 22212 22213 22214 22215 22216 22217 22218 22219 22220 22221 22222 22223 22224 22225 22226 22227 22228 22229 22230 22231 22232 22233 22234 22235 22236 22237 22238 22239 22240 22241 22242 22243 22244 22245 22246 22247 22248 22249 22250 22251 22252 22253 22254 22255 22256 22257 22258 22259 22260 22261 22262 22263 22264 22265 22266 22267 22268 22269 22270 22271 22272 22273 22274 22275 22276 22277 22278 22279 22280 22281 22282 22283 22284 22285 22286 22287 22288 22289 22290 22291 22292 22293 22294 22295 22296 22297 22298 22299 22300 22301 22302 22303 22304 22305 22306 22307 22308 22309 22310 22311 22312 22313 22314 22315 22316 22317 22318 22319 22320 22321 22322 22323 22324 22325 22326 22327 22328 22329 22330 22331 22332 22333 22334 22335 22336 22337 22338 22339 22340 22341 22342 22343 22344 22345 22346 22347 22348 22349 22350 22351 22352 22353 22354 22355 22356 22357 22358 22359 22360 22361 22362 22363 22364 22365 22366 22367 22368 22369 22370 22371 22372 22373 22374 22375 22376 22377 22378 22379 22380 22381 22382 22383 22384 22385 22386 22387 22388 22389 22390 22391 22392 22393 22394 22395 22396 22397 22398 22399 22400 22401 22402 22403 22404 22405 22406 22407 22408 22409 22410 22411 22412 22413 22414 22415 22416 22417 22418 22419 22420 22421 22422 22423 22424 22425 22426 22427 22428 22429 22430 22431 22432 22433 22434 22435 22436 22437 22438 22439 22440 22441 22442 22443 22444 22445 22446 22447 22448 22449 22450 22451 22452 22453 22454 22455 22456 22457 22458 22459 22460 22461 22462 22463 22464 22465 22466 22467 22468 22469 22470 22471 22472 22473 22474 22475 22476 22477 22478 22479 22480 22481 22482 22483 22484 22485 22486 22487 22488 22489 22490 22491 22492 22493 22494 22495 22496 22497 22498 22499 22500 22501 22502 22503 22504 22505 22506 22507 22508 22509 22510 22511 22512 22513 22514 22515 22516 22517 22518 22519 22520 22521 22522 22523 22524 22525 22526 22527 22528 22529 22530 22531 22532 22533 22534 22535 22536 22537 22538 22539 22540 22541 22542 22543 22544 22545 22546 22547 22548 22549 22550 22551 22552 22553 22554 22555 22556 22557 22558 22559 22560 22561 22562 22563 22564 22565 22566 22567 22568 22569 22570 22571 22572 22573 22574 22575 22576 22577 22578 22579 22580 22581 22582 22583 22584 22585 22586 22587 22588 22589 22590 22591 22592 22593 22594 22595 22596 22597 22598 22599 22600 22601 22602 22603 22604 22605 22606 22607 22608 22609 22610 22611 22612 22613 22614 22615 22616 22617 22618 22619 22620 22621 22622 22623 22624 22625 22626 22627 22628 22629 22630 22631 22632 22633 22634 22635 22636 22637 22638 22639 22640 22641 22642 22643 22644 22645 22646 22647 22648 22649 22650 22651 22652 22653 22654 22655 22656 22657 22658 22659 22660 22661 22662 22663 22664 22665 22666 22667 22668 22669 22670 22671 22672 22673 22674 22675 22676 22677 22678 22679 22680 22681 22682 22683 22684 22685 22686 22687 22688 22689 22690 22691 22692 22693 22694 22695 22696 22697 22698 22699 22700 22701 22702 22703 22704 22705 22706 22707 22708 22709 22710 22711 22712 22713 22714 22715 22716 22717 22718 22719 22720 22721 22722 22723 22724 22725 22726 22727 22728 22729 22730 22731 22732 22733 22734 22735 22736 22737 22738 22739 22740 22741 22742 22743 22744 22745 22746 22747 22748 22749 22750 22751 22752 22753 22754 22755 22756 22757 22758 22759 22760 22761 22762 22763 22764 22765 22766 22767 22768 22769 22770 22771 22772 22773 22774 22775 22776 22777 22778 22779 22780 22781 22782 22783 22784 22785 22786 22787 22788 22789 22790 22791 22792 22793 22794 22795 22796 22797 22798 22799 22800 22801 22802 22803 22804 22805 22806 22807 22808 22809 22810 22811 22812 22813 22814 22815 22816 22817 22818 22819 22820 22821 22822 22823 22824 22825 22826 22827 22828 22829 22830 22831 22832 22833 22834 22835 22836 22837 22838 22839 22840 22841 22842 22843 22844 22845 22846 22847 22848 22849 22850 22851 22852 22853 22854 22855 22856 22857 22858 22859 22860 22861 22862 22863 22864 22865 22866 22867 22868 22869 22870 22871 22872 22873 22874 22875 22876 22877 22878 22879 22880 22881 22882 22883 22884 22885 22886 22887 22888 22889 22890 22891 22892 22893 22894 22895 22896 22897 22898 22899 22900 22901 22902 22903 22904 22905 22906 22907 22908 22909 22910 22911 22912 22913 22914 22915 22916 22917 22918 22919 22920 22921 22922 22923 22924 22925 22926 22927 22928 22929 22930 22931 22932 22933 22934 22935 22936 22937 22938 22939 22940 22941 22942 22943 22944 22945 22946 22947 22948 22949 22950 22951 22952 22953 22954 22955 22956 22957 22958 22959 22960 22961 22962 22963 22964 22965 22966 22967 22968 22969 22970 22971 22972 22973 22974 22975 22976 22977 22978 22979 22980 22981 22982 22983 22984 22985 22986 22987 22988 22989 22990 22991 22992 22993 22994 22995 22996 22997 22998 22999 23000 23001 23002 23003 23004 23005 23006 23007 23008 23009 23010 23011 23012 23013 23014 23015 23016 23017 23018 23019 23020 23021 23022 23023 23024 23025 23026 23027 23028 23029 23030 23031 23032 23033 23034 23035 23036 23037 23038 23039 23040 23041 23042 23043 23044 23045 23046 23047 23048 23049 23050 23051 23052 23053 23054 23055 23056 23057 23058 23059 23060 23061 23062 23063 23064 23065 23066 23067 23068 23069 23070 23071 23072 23073 23074 23075 23076 23077 23078 23079 23080 23081 23082 23083 23084 23085 23086 23087 23088 23089 23090 23091 23092 23093 23094 23095 23096 23097 23098 23099 23100 23101 23102 23103 23104 23105 23106 23107 23108 23109 23110 23111 23112 23113 23114 23115 23116 23117 23118 23119 23120 23121 23122 23123 23124 23125 23126 23127 23128 23129 23130 23131 23132 23133 23134 23135 23136 23137 23138 23139 23140 23141 23142 23143 23144 23145 23146 23147 23148 23149 23150 23151 23152 23153 23154 23155 23156 23157 23158 23159 23160 23161 23162 23163 23164 23165 23166 23167 23168 23169 23170 23171 23172 23173 23174 23175 23176 23177 23178 23179 23180 23181 23182 23183 23184 23185 23186 23187 23188 23189 23190 23191 23192 23193 23194 23195 23196 23197 23198 23199 23200 23201 23202 23203 23204 23205 23206 23207 23208 23209 23210 23211 23212 23213 23214 23215 23216 23217 23218 23219 23220 23221 23222 23223 23224 23225 23226 23227 23228 23229 23230 23231 23232 23233 23234 23235 23236 23237 23238 23239 23240 23241 23242 23243 23244 23245 23246 23247 23248 23249 23250 23251 23252 23253 23254 23255 23256 23257 23258 23259 23260 23261 23262 23263 23264 23265 23266 23267 23268 23269 23270 23271 23272 23273 23274 23275 23276 23277 23278 23279 23280 23281 23282 23283 23284 23285 23286 23287 23288 23289 23290 23291 23292 23293 23294 23295 23296 23297 23298 23299 23300 23301 23302 23303 23304 23305 23306 23307 23308 23309 23310 23311 23312 23313 23314 23315 23316 23317 23318 23319 23320 23321 23322 23323 23324 23325 23326 23327 23328 23329 23330 23331 23332 23333 23334 23335 23336 23337 23338 23339 23340 23341 23342 23343 23344 23345 23346 23347 23348 23349 23350 23351 23352 23353 23354 23355 23356 23357 23358 23359 23360 23361 23362 23363 23364 23365 23366 23367 23368 23369 23370 23371 23372 23373 23374 23375 23376 23377 23378 23379 23380 23381 23382 23383 23384 23385 23386 23387 23388 23389 23390 23391 23392 23393 23394 23395 23396 23397 23398 23399 23400 23401 23402 23403 23404 23405 23406 23407 23408 23409 23410 23411 23412 23413 23414 23415 23416 23417 23418 23419 23420 23421 23422 23423 23424 23425 23426 23427 23428 23429 23430 23431 23432 23433 23434 23435 23436 23437 23438 23439 23440 23441 23442 23443 23444 23445 23446 23447 23448 23449 23450 23451 23452 23453 23454 23455 23456 23457 23458 23459 23460 23461 23462 23463 23464 23465 23466 23467 23468 23469 23470 23471 23472 23473 23474 23475 23476 23477 23478 23479 23480 23481 23482 23483 23484 23485 23486 23487 23488 23489 23490 23491 23492 23493 23494 23495 23496 23497 23498 23499 23500 23501 23502 23503 23504 23505 23506 23507 23508 23509 23510 23511 23512 23513 23514 23515 23516 23517 23518 23519 23520 23521 23522 23523 23524 23525 23526 23527 23528 23529 23530 23531 23532 23533 23534 23535 23536 23537 23538 23539 23540 23541 23542 23543 23544 23545 23546 23547 23548 23549 23550 23551 23552 23553 23554 23555 23556 23557 23558 23559 23560 23561 23562 23563 23564 23565 23566 23567 23568 23569 23570 23571 23572 23573 23574 23575 23576 23577 23578 23579 23580 23581 23582 23583 23584 23585 23586 23587 23588 23589 23590 23591 23592 23593 23594 23595 23596 23597 23598 23599 23600 23601 23602 23603 23604 23605 23606 23607 23608 23609 23610 23611 23612 23613 23614 23615 23616 23617 23618 23619 23620 23621 23622 23623 23624 23625 23626 23627 23628 23629 23630 23631 23632 23633 23634 23635 23636 23637 23638 23639 23640 23641 23642 23643 23644 23645 23646 23647 23648 23649 23650 23651 23652 23653 23654 23655 23656 23657 23658 23659 23660 23661 23662 23663 23664 23665 23666 23667 23668 23669 23670 23671 23672 23673 23674 23675 23676 23677 23678 23679 23680 23681 23682 23683 23684 23685 23686 23687 23688 23689 23690 23691 23692 23693 23694 23695 23696 23697 23698 23699 23700 23701 23702 23703 23704 23705 23706 23707 23708 23709 23710 23711 23712 23713 23714 23715 23716 23717 23718 23719 23720 23721 23722 23723 23724 23725 23726 23727 23728 23729 23730 23731 23732 23733 23734 23735 23736 23737 23738 23739 23740 23741 23742 23743 23744 23745 23746 23747 23748 23749 23750 23751 23752 23753 23754 23755 23756 23757 23758 23759 23760 23761 23762 23763 23764 23765 23766 23767 23768 23769 23770 23771 23772 23773 23774 23775 23776 23777 23778 23779 23780 23781 23782 23783 23784 23785 23786 23787 23788 23789 23790 23791 23792 23793 23794 23795 23796 23797 23798 23799 23800 23801 23802 23803 23804 23805 23806 23807 23808 23809 23810 23811 23812 23813 23814 23815 23816 23817 23818 23819 23820 23821 23822 23823 23824 23825 23826 23827 23828 23829 23830 23831 23832 23833 23834 23835 23836 23837 23838 23839 23840 23841 23842 23843 23844 23845 23846 23847 23848 23849 23850 23851 23852 23853 23854 23855 23856 23857 23858 23859 23860 23861 23862 23863 23864 23865 23866 23867 23868 23869 23870 23871 23872 23873 23874 23875 23876 23877 23878 23879 23880 23881 23882 23883 23884 23885 23886 23887 23888 23889 23890 23891 23892 23893 23894 23895 23896 23897 23898 23899 23900 23901 23902 23903 23904 23905 23906 23907 23908 23909 23910 23911 23912 23913 23914 23915 23916 23917 23918 23919 23920 23921 23922 23923 23924 23925 23926 23927 23928 23929 23930 23931 23932 23933 23934 23935 23936 23937 23938 23939 23940 23941 23942 23943 23944 23945 23946 23947 23948 23949 23950 23951 23952 23953 23954 23955 23956 23957 23958 23959 23960 23961 23962 23963 23964 23965 23966 23967 23968 23969 23970 23971 23972 23973 23974 23975 23976 23977 23978 23979 23980 23981 23982 23983 23984 23985 23986 23987 23988 23989 23990 23991 23992 23993 23994 23995 23996 23997 23998 23999 24000 24001 24002 24003 24004 24005 24006 24007 24008 24009 24010 24011 24012 24013 24014 24015 24016 24017 24018 24019 24020 24021 24022 24023 24024 24025 24026 24027 24028 24029 24030 24031 24032 24033 24034 24035 24036 24037 24038 24039 24040 24041 24042 24043 24044 24045 24046 24047 24048 24049 24050 24051 24052 24053 24054 24055 24056 24057 24058 24059 24060 24061 24062 24063 24064 24065 24066 24067 24068 24069 24070 24071 24072 24073 24074 24075 24076 24077 24078 24079 24080 24081 24082 24083 24084 24085 24086 24087 24088 24089 24090 24091 24092 24093 24094 24095 24096 24097 24098 24099 24100 24101 24102 24103 24104 24105 24106 24107 24108 24109 24110 24111 24112 24113 24114 24115 24116 24117 24118 24119 24120 24121 24122 24123 24124 24125 24126 24127 24128 24129 24130 24131 24132 24133 24134 24135 24136 24137 24138 24139 24140 24141 24142 24143 24144 24145 24146 24147 24148 24149 24150 24151 24152 24153 24154 24155 24156 24157 24158 24159 24160 24161 24162 24163 24164 24165 24166 24167 24168 24169 24170 24171 24172 24173 24174 24175 24176 24177 24178 24179 24180 24181 24182 24183 24184 24185 24186 24187 24188 24189 24190 24191 24192 24193 24194 24195 24196 24197 24198 24199 24200 24201 24202 24203 24204 24205 24206 24207 24208 24209 24210 24211 24212 24213 24214 24215 24216 24217 24218 24219 24220 24221 24222 24223 24224 24225 24226 24227 24228 24229 24230 24231 24232 24233 24234 24235 24236 24237 24238 24239 24240 24241 24242 24243 24244 24245 24246 24247 24248 24249 24250 24251 24252 24253 24254 24255 24256 24257 24258 24259 24260 24261 24262 24263 24264 24265 24266 24267 24268 24269 24270 24271 24272 24273 24274 24275 24276 24277 24278 24279 24280 24281 24282 24283 24284 24285 24286 24287 24288 24289 24290 24291 24292 24293 24294 24295 24296 24297 24298 24299 24300 24301 24302 24303 24304 24305 24306 24307 24308 24309 24310 24311 24312 24313 24314 24315 24316 24317 24318 24319 24320 24321 24322 24323 24324 24325 24326 24327 24328 24329 24330 24331 24332 24333 24334 24335 24336 24337 24338 24339 24340 24341 24342 24343 24344 24345 24346 24347 24348 24349 24350 24351 24352 24353 24354 24355 24356 24357 24358 24359 24360 24361 24362 24363 24364 24365 24366 24367 24368 24369 24370 24371 24372 24373 24374 24375 24376 24377 24378 24379 24380 24381 24382 24383 24384 24385 24386 24387 24388 24389 24390 24391 24392 24393 24394 24395 24396 24397 24398 24399 24400 24401 24402 24403 24404 24405 24406 24407 24408 24409 24410 24411 24412 24413 24414 24415 24416 24417 24418 24419 24420 24421 24422 24423 24424 24425 24426 24427 24428 24429 24430 24431 24432 24433 24434 24435 24436 24437 24438 24439 24440 24441 24442 24443 24444 24445 24446 24447 24448 24449 24450 24451 24452 24453 24454 24455 24456 24457 24458 24459 24460 24461 24462 24463 24464 24465 24466 24467 24468 24469 24470 24471 24472 24473 24474 24475 24476 24477 24478 24479 24480 24481 24482 24483 24484 24485 24486 24487 24488 24489 24490 24491 24492 24493 24494 24495 24496 24497 24498 24499 24500 24501 24502 24503 24504 24505 24506 24507 24508 24509 24510 24511 24512 24513 24514 24515 24516 24517 24518 24519 24520 24521 24522 24523 24524 24525 24526 24527 24528 24529 24530 24531 24532 24533 24534 24535 24536 24537 24538 24539 24540 24541 24542 24543 24544 24545 24546 24547 24548 24549 24550 24551 24552 24553 24554 24555 24556 24557 24558 24559 24560 24561 24562 24563 24564 24565 24566 24567 24568 24569 24570 24571 24572 24573 24574 24575 24576 24577 24578 24579 24580 24581 24582 24583 24584 24585 24586 24587 24588 24589 24590 24591 24592 24593 24594 24595 24596 24597 24598 24599 24600 24601 24602 24603 24604 24605 24606 24607 24608 24609 24610 24611 24612 24613 24614 24615 24616 24617 24618 24619 24620 24621 24622 24623 24624 24625 24626 24627 24628 24629 24630 24631 24632 24633 24634 24635 24636 24637 24638 24639 24640 24641 24642 24643 24644 24645 24646 24647 24648 24649 24650 24651 24652 24653 24654 24655 24656 24657 24658 24659 24660 24661 24662 24663 24664 24665 24666 24667 24668 24669 24670 24671 24672 24673 24674 24675 24676 24677 24678 24679 24680 24681 24682 24683 24684 24685 24686 24687 24688 24689 24690 24691 24692 24693 24694 24695 24696 24697 24698 24699 24700 24701 24702 24703 24704 24705 24706 24707 24708 24709 24710 24711 24712 24713 24714 24715 24716 24717 24718 24719 24720 24721 24722 24723 24724 24725 24726 24727 24728 24729 24730 24731 24732 24733 24734 24735 24736 24737 24738 24739 24740 24741 24742 24743 24744 24745 24746 24747 24748 24749 24750 24751 24752 24753 24754 24755 24756 24757 24758 24759 24760 24761 24762 24763 24764 24765 24766 24767 24768 24769 24770 24771 24772 24773 24774 24775 24776 24777 24778 24779 24780 24781 24782 24783 24784 24785 24786 24787 24788 24789 24790 24791 24792 24793 24794 24795 24796 24797 24798 24799 24800 24801 24802 24803 24804 24805 24806 24807 24808 24809 24810 24811 24812 24813 24814 24815 24816 24817 24818 24819 24820 24821 24822 24823 24824 24825 24826 24827 24828 24829 24830 24831 24832 24833 24834 24835 24836 24837 24838 24839 24840 24841 24842 24843 24844 24845 24846 24847 24848 24849 24850 24851 24852 24853 24854 24855 24856 24857 24858 24859 24860 24861 24862 24863 24864 24865 24866 24867 24868 24869 24870 24871 24872 24873 24874 24875 24876 24877 24878 24879 24880 24881 24882 24883 24884 24885 24886 24887 24888 24889 24890 24891 24892 24893 24894 24895 24896 24897 24898 24899 24900 24901 24902 24903 24904 24905 24906 24907 24908 24909 24910 24911 24912 24913 24914 24915 24916 24917 24918 24919 24920 24921 24922 24923 24924 24925 24926 24927 24928 24929 24930 24931 24932 24933 24934 24935 24936 24937 24938 24939 24940 24941 24942 24943 24944 24945 24946 24947 24948 24949 24950 24951 24952 24953 24954 24955 24956 24957 24958 24959 24960 24961 24962 24963 24964 24965 24966 24967 24968 24969 24970 24971 24972 24973 24974 24975 24976 24977 24978 24979 24980 24981 24982 24983 24984 24985 24986 24987 24988 24989 24990 24991 24992 24993 24994 24995 24996 24997 24998 24999 25000 25001 25002 25003 25004 25005 25006 25007 25008 25009 25010 25011 25012 25013 25014 25015 25016 25017 25018 25019 25020 25021 25022 25023 25024 25025 25026 25027 25028 25029 25030 25031 25032 25033 25034 25035 25036 25037 25038 25039 25040 25041 25042 25043 25044 25045 25046 25047 25048 25049 25050 25051 25052 25053 25054 25055 25056 25057 25058 25059 25060 25061 25062 25063 25064 25065 25066 25067 25068 25069 25070 25071 25072 25073 25074 25075 25076 25077 25078 25079 25080 25081 25082 25083 25084 25085 25086 25087 25088 25089 25090 25091 25092 25093 25094 25095 25096 25097 25098 25099 25100 25101 25102 25103 25104 25105 25106 25107 25108 25109 25110 25111 25112 25113 25114 25115 25116 25117 25118 25119 25120 25121 25122 25123 25124 25125 25126 25127 25128 25129 25130 25131 25132 25133 25134 25135 25136 25137 25138 25139 25140 25141 25142 25143 25144 25145 25146 25147 25148 25149 25150 25151 25152 25153 25154 25155 25156 25157 25158 25159 25160 25161 25162 25163 25164 25165 25166 25167 25168 25169 25170 25171 25172 25173 25174 25175 25176 25177 25178 25179 25180 25181 25182 25183 25184 25185 25186 25187 25188 25189 25190 25191 25192 25193 25194 25195 25196 25197 25198 25199 25200 25201 25202 25203 25204 25205 25206 25207 25208 25209 25210 25211 25212 25213 25214 25215 25216 25217 25218 25219 25220 25221 25222 25223 25224 25225 25226 25227 25228 25229 25230 25231 25232 25233 25234 25235 25236 25237 25238 25239 25240 25241 25242 25243 25244 25245 25246 25247 25248 25249 25250 25251 25252 25253 25254 25255 25256 25257 25258 25259 25260 25261 25262 25263 25264 25265 25266 25267 25268 25269 25270 25271 25272 25273 25274 25275 25276 25277 25278 25279 25280 25281 25282 25283 25284 25285 25286 25287 25288 25289 25290 25291 25292 25293 25294 25295 25296 25297 25298 25299 25300 25301 25302 25303 25304 25305 25306 25307 25308 25309 25310 25311 25312 25313 25314 25315 25316 25317 25318 25319 25320 25321 25322 25323 25324 25325 25326 25327 25328 25329 25330 25331 25332 25333 25334 25335 25336 25337 25338 25339 25340 25341 25342 25343 25344 25345 25346 25347 25348 25349 25350 25351 25352 25353 25354 25355 25356 25357 25358 25359 25360 25361 25362 25363 25364 25365 25366 25367 25368 25369 25370 25371 25372 25373 25374 25375 25376 25377 25378 25379 25380 25381 25382 25383 25384 25385 25386 25387 25388 25389 25390 25391 25392 25393 25394 25395 25396 25397 25398 25399 25400 25401 25402 25403 25404 25405 25406 25407 25408 25409 25410 25411 25412 25413 25414 25415 25416 25417 25418 25419 25420 25421 25422 25423 25424 25425 25426 25427 25428 25429 25430 25431 25432 25433 25434 25435 25436 25437 25438 25439 25440 25441 25442 25443 25444 25445 25446 25447 25448 25449 25450 25451 25452 25453 25454 25455 25456 25457 25458 25459 25460 25461 25462 25463 25464 25465 25466 25467 25468 25469 25470 25471 25472 25473 25474 25475 25476 25477 25478 25479 25480 25481 25482 25483 25484 25485 25486 25487 25488 25489 25490 25491 25492 25493 25494 25495 25496 25497 25498 25499 25500 25501 25502 25503 25504 25505 25506 25507 25508 25509 25510 25511 25512 25513 25514 25515 25516 25517 25518 25519 25520 25521 25522 25523 25524 25525 25526 25527 25528 25529 25530 25531 25532 25533 25534 25535 25536 25537 25538 25539 25540 25541 25542 25543 25544 25545 25546 25547 25548 25549 25550 25551 25552 25553 25554 25555 25556 25557 25558 25559 25560 25561 25562 25563 25564 25565 25566 25567 25568 25569 25570 25571 25572 25573 25574 25575 25576 25577 25578 25579 25580 25581 25582 25583 25584 25585 25586 25587 25588 25589 25590 25591 25592 25593 25594 25595 25596 25597 25598 25599 25600 25601 25602 25603 25604 25605 25606 25607 25608 25609 25610 25611 25612 25613 25614 25615 25616 25617 25618 25619 25620 25621 25622 25623 25624 25625 25626 25627 25628 25629 25630 25631 25632 25633 25634 25635 25636 25637 25638 25639 25640 25641 25642 25643 25644 25645 25646 25647 25648 25649 25650 25651 25652 25653 25654 25655 25656 25657 25658 25659 25660 25661 25662 25663 25664 25665 25666 25667 25668 25669 25670 25671 25672 25673 25674 25675 25676 25677 25678 25679 25680 25681 25682 25683 25684 25685 25686 25687 25688 25689 25690 25691 25692 25693 25694 25695 25696 25697 25698 25699 25700 25701 25702 25703 25704 25705 25706 25707 25708 25709 25710 25711 25712 25713 25714 25715 25716 25717 25718 25719 25720 25721 25722 25723 25724 25725 25726 25727 25728 25729 25730 25731 25732 25733 25734 25735 25736 25737 25738 25739 25740 25741 25742 25743 25744 25745 25746 25747 25748 25749 25750 25751 25752 25753 25754 25755 25756 25757 25758 25759 25760 25761 25762 25763 25764 25765 25766 25767 25768 25769 25770 25771 25772 25773 25774 25775 25776 25777 25778 25779 25780 25781 25782 25783 25784 25785 25786 25787 25788 25789 25790 25791 25792 25793 25794 25795 25796 25797 25798 25799 25800 25801 25802 25803 25804 25805 25806 25807 25808 25809 25810 25811 25812 25813 25814 25815 25816 25817 25818 25819 25820 25821 25822 25823 25824 25825 25826 25827 25828 25829 25830 25831 25832 25833 25834 25835 25836 25837 25838 25839 25840 25841 25842 25843 25844 25845 25846 25847 25848 25849 25850 25851 25852 25853 25854 25855 25856 25857 25858 25859 25860 25861 25862 25863 25864 25865 25866 25867 25868 25869 25870 25871 25872 25873 25874 25875 25876 25877 25878 25879 25880 25881 25882 25883 25884 25885 25886 25887 25888 25889 25890 25891 25892 25893 25894 25895 25896 25897 25898 25899 25900 25901 25902 25903 25904 25905 25906 25907 25908 25909 25910 25911 25912 25913 25914 25915 25916 25917 25918 25919 25920 25921 25922 25923 25924 25925 25926 25927 25928 25929 25930 25931 25932 25933 25934 25935 25936 25937 25938 25939 25940 25941 25942 25943 25944 25945 25946 25947 25948 25949 25950 25951 25952 25953 25954 25955 25956 25957 25958 25959 25960 25961 25962 25963 25964 25965 25966 25967 25968 25969 25970 25971 25972 25973 25974 25975 25976 25977 25978 25979 25980 25981 25982 25983 25984 25985 25986 25987 25988 25989 25990 25991 25992 25993 25994 25995 25996 25997 25998 25999 26000 26001 26002 26003 26004 26005 26006 26007 26008 26009 26010 26011 26012 26013 26014 26015 26016 26017 26018 26019 26020 26021 26022 26023 26024 26025 26026 26027 26028 26029 26030 26031 26032 26033 26034 26035 26036 26037 26038 26039 26040 26041 26042 26043 26044 26045 26046 26047 26048 26049 26050 26051 26052 26053 26054 26055 26056 26057 26058 26059 26060 26061 26062 26063 26064 26065 26066 26067 26068 26069 26070 26071 26072 26073 26074 26075 26076 26077 26078 26079 26080 26081 26082 26083 26084 26085 26086 26087 26088 26089 26090 26091 26092 26093 26094 26095 26096 26097 26098 26099 26100 26101 26102 26103 26104 26105 26106 26107 26108 26109 26110 26111 26112 26113 26114 26115 26116 26117 26118 26119 26120 26121 26122 26123 26124 26125 26126 26127 26128 26129 26130 26131 26132 26133 26134 26135 26136 26137 26138 26139 26140 26141 26142 26143 26144 26145 26146 26147 26148 26149 26150 26151 26152 26153 26154 26155 26156 26157 26158 26159 26160 26161 26162 26163 26164 26165 26166 26167 26168 26169 26170 26171 26172 26173 26174 26175 26176 26177 26178 26179 26180 26181 26182 26183 26184 26185 26186 26187 26188 26189 26190 26191 26192 26193 26194 26195 26196 26197 26198 26199 26200 26201 26202 26203 26204 26205 26206 26207 26208 26209 26210 26211 26212 26213 26214 26215 26216 26217 26218 26219 26220 26221 26222 26223 26224 26225 26226 26227 26228 26229 26230 26231 26232 26233 26234 26235 26236 26237 26238 26239 26240 26241 26242 26243 26244 26245 26246 26247 26248 26249 26250 26251 26252 26253 26254 26255 26256 26257 26258 26259 26260 26261 26262 26263 26264 26265 26266 26267 26268 26269 26270 26271 26272 26273 26274 26275 26276 26277 26278 26279 26280 26281 26282 26283 26284 26285 26286 26287 26288 26289 26290 26291 26292 26293 26294 26295 26296 26297 26298 26299 26300 26301 26302 26303 26304 26305 26306 26307 26308 26309 26310 26311 26312 26313 26314 26315 26316 26317 26318 26319 26320 26321 26322 26323 26324 26325 26326 26327 26328 26329 26330 26331 26332 26333 26334 26335 26336 26337 26338 26339 26340 26341 26342 26343 26344 26345 26346 26347 26348 26349 26350 26351 26352 26353 26354 26355 26356 26357 26358 26359 26360 26361 26362 26363 26364 26365 26366 26367 26368 26369 26370 26371 26372 26373 26374 26375 26376 26377 26378 26379 26380 26381 26382 26383 26384 26385 26386 26387 26388 26389 26390 26391 26392 26393 26394 26395 26396 26397 26398 26399 26400 26401 26402 26403 26404 26405 26406 26407 26408 26409 26410 26411 26412 26413 26414 26415 26416 26417 26418 26419 26420 26421 26422 26423 26424 26425 26426 26427 26428 26429 26430 26431 26432 26433 26434 26435 26436 26437 26438 26439 26440 26441 26442 26443 26444 26445 26446 26447 26448 26449 26450 26451 26452 26453 26454 26455 26456 26457 26458 26459 26460 26461 26462 26463 26464 26465 26466 26467 26468 26469 26470 26471 26472 26473 26474 26475 26476 26477 26478 26479 26480 26481 26482 26483 26484 26485 26486 26487 26488 26489 26490 26491 26492 26493 26494 26495 26496 26497 26498 26499 26500 26501 26502 26503 26504 26505 26506 26507 26508 26509 26510 26511 26512 26513 26514 26515 26516 26517 26518 26519 26520 26521 26522 26523 26524 26525 26526 26527 26528 26529 26530 26531 26532 26533 26534 26535 26536 26537 26538 26539 26540 26541 26542 26543 26544 26545 26546 26547 26548 26549 26550 26551 26552 26553 26554 26555 26556 26557 26558 26559 26560 26561 26562 26563 26564 26565 26566 26567 26568 26569 26570 26571 26572 26573 26574 26575 26576 26577 26578 26579 26580 26581 26582 26583 26584 26585 26586 26587 26588 26589 26590 26591 26592 26593 26594 26595 26596 26597 26598 26599 26600 26601 26602 26603 26604 26605 26606 26607 26608 26609 26610 26611 26612 26613 26614 26615 26616 26617 26618 26619 26620 26621 26622 26623 26624 26625 26626 26627 26628 26629 26630 26631 26632 26633 26634 26635 26636 26637 26638 26639 26640 26641 26642 26643 26644 26645 26646 26647 26648 26649 26650 26651 26652 26653 26654 26655 26656 26657 26658 26659 26660 26661 26662 26663 26664 26665 26666 26667 26668 26669 26670 26671 26672 26673 26674 26675 26676 26677 26678 26679 26680 26681 26682 26683 26684 26685 26686 26687 26688 26689 26690 26691 26692 26693 26694 26695 26696 26697 26698 26699 26700 26701 26702 26703 26704 26705 26706 26707 26708 26709 26710 26711 26712 26713 26714 26715 26716 26717 26718 26719 26720 26721 26722 26723 26724 26725 26726 26727 26728 26729 26730 26731 26732 26733 26734 26735 26736 26737 26738 26739 26740 26741 26742 26743 26744 26745 26746 26747 26748 26749 26750 26751 26752 26753 26754 26755 26756 26757 26758 26759 26760 26761 26762 26763 26764 26765 26766 26767 26768 26769 26770 26771 26772 26773 26774 26775 26776 26777 26778 26779 26780 26781 26782 26783 26784 26785 26786 26787 26788 26789 26790 26791 26792 26793 26794 26795 26796 26797 26798 26799 26800 26801 26802 26803 26804 26805 26806 26807 26808 26809 26810 26811 26812 26813 26814 26815 26816 26817 26818 26819 26820 26821 26822 26823 26824 26825 26826 26827 26828 26829 26830 26831 26832 26833 26834 26835 26836 26837 26838 26839 26840 26841 26842 26843 26844 26845 26846 26847 26848 26849 26850 26851 26852 26853 26854 26855 26856 26857 26858 26859 26860 26861 26862 26863 26864 26865 26866 26867 26868 26869 26870 26871 26872 26873 26874 26875 26876 26877 26878 26879 26880 26881 26882 26883 26884 26885 26886 26887 26888 26889 26890 26891 26892 26893 26894 26895 26896 26897 26898 26899 26900 26901 26902 26903 26904 26905 26906 26907 26908 26909 26910 26911 26912 26913 26914 26915 26916 26917 26918 26919 26920 26921 26922 26923 26924 26925 26926 26927 26928 26929 26930 26931 26932 26933 26934 26935 26936 26937 26938 26939 26940 26941 26942 26943 26944 26945 26946 26947 26948 26949 26950 26951 26952 26953 26954 26955 26956 26957 26958 26959 26960 26961 26962 26963 26964 26965 26966 26967 26968 26969 26970 26971 26972 26973 26974 26975 26976 26977 26978 26979 26980 26981 26982 26983 26984 26985 26986 26987 26988 26989 26990 26991 26992 26993 26994 26995 26996 26997 26998 26999 27000 27001 27002 27003 27004 27005 27006 27007 27008 27009 27010 27011 27012 27013 27014 27015 27016 27017 27018 27019 27020 27021 27022 27023 27024 27025 27026 27027 27028 27029 27030 27031 27032 27033 27034 27035 27036 27037 27038 27039 27040 27041 27042 27043 27044 27045 27046 27047 27048 27049 27050 27051 27052 27053 27054 27055 27056 27057 27058 27059 27060 27061 27062 27063 27064 27065 27066 27067 27068 27069 27070 27071 27072 27073 27074 27075 27076 27077 27078 27079 27080 27081 27082 27083 27084 27085 27086 27087 27088 27089 27090 27091 27092 27093 27094 27095 27096 27097 27098 27099 27100 27101 27102 27103 27104 27105 27106 27107 27108 27109 27110 27111 27112 27113 27114 27115 27116 27117 27118 27119 27120 27121 27122 27123 27124 27125 27126 27127 27128 27129 27130 27131 27132 27133 27134 27135 27136 27137 27138 27139 27140 27141 27142 27143 27144 27145 27146 27147 27148 27149 27150 27151 27152 27153 27154 27155 27156 27157 27158 27159 27160 27161 27162 27163 27164 27165 27166 27167 27168 27169 27170 27171 27172 27173 27174 27175 27176 27177 27178 27179 27180 27181 27182 27183 27184 27185 27186 27187 27188 27189 27190 27191 27192 27193 27194 27195 27196 27197 27198 27199 27200 27201 27202 27203 27204 27205 27206 27207 27208 27209 27210 27211 27212 27213 27214 27215 27216 27217 27218 27219 27220 27221 27222 27223 27224 27225 27226 27227 27228 27229 27230 27231 27232 27233 27234 27235 27236 27237 27238 27239 27240 27241 27242 27243 27244 27245 27246 27247 27248 27249 27250 27251 27252 27253 27254 27255 27256 27257 27258 27259 27260 27261 27262 27263 27264 27265 27266 27267 27268 27269 27270 27271 27272 27273 27274 27275 27276 27277 27278 27279 27280 27281 27282 27283 27284 27285 27286 27287 27288 27289 27290 27291 27292 27293 27294 27295 27296 27297 27298 27299 27300 27301 27302 27303 27304 27305 27306 27307 27308 27309 27310 27311 27312 27313 27314 27315 27316 27317 27318 27319 27320 27321 27322 27323 27324 27325 27326 27327 27328 27329 27330 27331 27332 27333 27334 27335 27336 27337 27338 27339 27340 27341 27342 27343 27344 27345 27346 27347 27348 27349 27350 27351 27352 27353 27354 27355 27356 27357 27358 27359 27360 27361 27362 27363 27364 27365 27366 27367 27368 27369 27370 27371 27372 27373 27374 27375 27376 27377 27378 27379 27380 27381 27382 27383 27384 27385 27386 27387 27388 27389 27390 27391 27392 27393 27394 27395 27396 27397 27398 27399 27400 27401 27402 27403 27404 27405 27406 27407 27408 27409 27410 27411 27412 27413 27414 27415 27416 27417 27418 27419 27420 27421 27422 27423 27424 27425 27426 27427 27428 27429 27430 27431 27432 27433 27434 27435 27436 27437 27438 27439 27440 27441 27442 27443 27444 27445 27446 27447 27448 27449 27450 27451 27452 27453 27454 27455 27456 27457 27458 27459 27460 27461 27462 27463 27464 27465 27466 27467 27468 27469 27470 27471 27472 27473 27474 27475 27476 27477 27478 27479 27480 27481 27482 27483 27484 27485 27486 27487 27488 27489 27490 27491 27492 27493 27494 27495 27496 27497 27498 27499 27500 27501 27502 27503 27504 27505 27506 27507 27508 27509 27510 27511 27512 27513 27514 27515 27516 27517 27518 27519 27520 27521 27522 27523 27524 27525 27526 27527 27528 27529 27530 27531 27532 27533 27534 27535 27536 27537 27538 27539 27540 27541 27542 27543 27544 27545 27546 27547 27548 27549 27550 27551 27552 27553 27554 27555 27556 27557 27558 27559 27560 27561 27562 27563 27564 27565 27566 27567 27568 27569 27570 27571 27572 27573 27574 27575 27576 27577 27578 27579 27580 27581 27582 27583 27584 27585 27586 27587 27588 27589 27590 27591 27592 27593 27594 27595 27596 27597 27598 27599 27600 27601 27602 27603 27604 27605 27606 27607 27608 27609 27610 27611 27612 27613 27614 27615 27616 27617 27618 27619 27620 27621 27622 27623 27624 27625 27626 27627 27628 27629 27630 27631 27632 27633 27634 27635 27636 27637 27638 27639 27640 27641 27642 27643 27644 27645 27646 27647 27648 27649 27650 27651 27652 27653 27654 27655 27656 27657 27658 27659 27660 27661 27662 27663 27664 27665 27666 27667 27668 27669 27670 27671 27672 27673 27674 27675 27676 27677 27678 27679 27680 27681 27682 27683 27684 27685 27686 27687 27688 27689 27690 27691 27692 27693 27694 27695 27696 27697 27698 27699 27700 27701 27702 27703 27704 27705 27706 27707 27708 27709 27710 27711 27712 27713 27714 27715 27716 27717 27718 27719 27720 27721 27722 27723 27724 27725 27726 27727 27728 27729 27730 27731 27732 27733 27734 27735 27736 27737 27738 27739 27740 27741 27742 27743 27744 27745 27746 27747 27748 27749 27750 27751 27752 27753 27754 27755 27756 27757 27758 27759 27760 27761 27762 27763 27764 27765 27766 27767 27768 27769 27770 27771 27772 27773 27774 27775 27776 27777 27778 27779 27780 27781 27782 27783 27784 27785 27786 27787 27788 27789 27790 27791 27792 27793 27794 27795 27796 27797 27798 27799 27800 27801 27802 27803 27804 27805 27806 27807 27808 27809 27810 27811 27812 27813 27814 27815 27816 27817 27818 27819 27820 27821 27822 27823 27824 27825 27826 27827 27828 27829 27830 27831 27832 27833 27834 27835 27836 27837 27838 27839 27840 27841 27842 27843 27844 27845 27846 27847 27848 27849 27850 27851 27852 27853 27854 27855 27856 27857 27858 27859 27860 27861 27862 27863 27864 27865 27866 27867 27868 27869 27870 27871 27872 27873 27874 27875 27876 27877 27878 27879 27880 27881 27882 27883 27884 27885 27886 27887 27888 27889 27890 27891 27892 27893 27894 27895 27896 27897 27898 27899 27900 27901 27902 27903 27904 27905 27906 27907 27908 27909 27910 27911 27912 27913 27914 27915 27916 27917 27918 27919 27920 27921 27922 27923 27924 27925 27926 27927 27928 27929 27930 27931 27932 27933 27934 27935 27936 27937 27938 27939 27940 27941 27942 27943 27944 27945 27946 27947 27948 27949 27950 27951 27952 27953 27954 27955 27956 27957 27958 27959 27960 27961 27962 27963 27964 27965 27966 27967 27968 27969 27970 27971 27972 27973 27974 27975 27976 27977 27978 27979 27980 27981 27982 27983 27984 27985 27986 27987 27988 27989 27990 27991 27992 27993 27994 27995 27996 27997 27998 27999 28000 28001 28002 28003 28004 28005 28006 28007 28008 28009 28010 28011 28012 28013 28014 28015 28016 28017 28018 28019 28020 28021 28022 28023 28024 28025 28026 28027 28028 28029 28030 28031 28032 28033 28034 28035 28036 28037 28038 28039 28040 28041 28042 28043 28044 28045 28046 28047 28048 28049 28050 28051 28052 28053 28054 28055 28056 28057 28058 28059 28060 28061 28062 28063 28064 28065 28066 28067 28068 28069 28070 28071 28072 28073 28074 28075 28076 28077 28078 28079 28080 28081 28082 28083 28084 28085 28086 28087 28088 28089 28090 28091 28092 28093 28094 28095 28096 28097 28098 28099 28100 28101 28102 28103 28104 28105 28106 28107 28108 28109 28110 28111 28112 28113 28114 28115 28116 28117 28118 28119 28120 28121 28122 28123 28124 28125 28126 28127 28128 28129 28130 28131 28132 28133 28134 28135 28136 28137 28138 28139 28140 28141 28142 28143 28144 28145 28146 28147 28148 28149 28150 28151 28152 28153 28154 28155 28156 28157 28158 28159 28160 28161 28162 28163 28164 28165 28166 28167 28168 28169 28170 28171 28172 28173 28174 28175 28176 28177 28178 28179 28180 28181 28182 28183 28184 28185 28186 28187 28188 28189 28190 28191 28192 28193 28194 28195 28196 28197 28198 28199 28200 28201 28202 28203 28204 28205 28206 28207 28208 28209 28210 28211 28212 28213 28214 28215 28216 28217 28218 28219 28220 28221 28222 28223 28224 28225 28226 28227 28228 28229 28230 28231 28232 28233 28234 28235 28236 28237 28238 28239 28240 28241 28242 28243 28244 28245 28246 28247 28248 28249 28250 28251 28252 28253 28254 28255 28256 28257 28258 28259 28260 28261 28262 28263 28264 28265 28266 28267 28268 28269 28270 28271 28272 28273 28274 28275 28276 28277 28278 28279 28280 28281 28282 28283 28284 28285 28286 28287 28288 28289 28290 28291 28292 28293 28294 28295 28296 28297 28298 28299 28300 28301 28302 28303 28304 28305 28306 28307 28308 28309 28310 28311 28312 28313 28314 28315 28316 28317 28318 28319 28320 28321 28322 28323 28324 28325 28326 28327 28328 28329 28330 28331 28332 28333 28334 28335 28336 28337 28338 28339 28340 28341 28342 28343 28344 28345 28346 28347 28348 28349 28350 28351 28352 28353 28354 28355 28356 28357 28358 28359 28360 28361 28362 28363 28364 28365 28366 28367 28368 28369 28370 28371 28372 28373 28374 28375 28376 28377 28378 28379 28380 28381 28382 28383 28384 28385 28386 28387 28388 28389 28390 28391 28392 28393 28394 28395 28396 28397 28398 28399 28400 28401 28402 28403 28404 28405 28406 28407 28408 28409 28410 28411 28412 28413 28414 28415 28416 28417 28418 28419 28420 28421 28422 28423 28424 28425 28426 28427 28428 28429 28430 28431 28432 28433 28434 28435 28436 28437 28438 28439 28440 28441 28442 28443 28444 28445 28446 28447 28448 28449 28450 28451 28452 28453 28454 28455 28456 28457 28458 28459 28460 28461 28462 28463 28464 28465 28466 28467 28468 28469 28470 28471 28472 28473 28474 28475 28476 28477 28478 28479 28480 28481 28482 28483 28484 28485 28486 28487 28488 28489 28490 28491 28492 28493 28494 28495 28496 28497 28498 28499 28500 28501 28502 28503 28504 28505 28506 28507 28508 28509 28510 28511 28512 28513 28514 28515 28516 28517 28518 28519 28520 28521 28522 28523 28524 28525 28526 28527 28528 28529 28530 28531 28532 28533 28534 28535 28536 28537 28538 28539 28540 28541 28542 28543 28544 28545 28546 28547 28548 28549 28550 28551 28552 28553 28554 28555 28556 28557 28558 28559 28560 28561 28562 28563 28564 28565 28566 28567 28568 28569 28570 28571 28572 28573 28574 28575 28576 28577 28578 28579 28580 28581 28582 28583 28584 28585 28586 28587 28588 28589 28590 28591 28592 28593 28594 28595 28596 28597 28598 28599 28600 28601 28602 28603 28604 28605 28606 28607 28608 28609 28610 28611 28612 28613 28614 28615 28616 28617 28618 28619 28620 28621 28622 28623 28624 28625 28626 28627 28628 28629 28630 28631 28632 28633 28634 28635 28636 28637 28638 28639 28640 28641 28642 28643 28644 28645 28646 28647 28648 28649 28650 28651 28652 28653 28654 28655 28656 28657 28658 28659 28660 28661 28662 28663 28664 28665 28666 28667 28668 28669 28670 28671 28672 28673 28674 28675 28676 28677 28678 28679 28680 28681 28682 28683 28684 28685 28686 28687 28688 28689 28690 28691 28692 28693 28694 28695 28696 28697 28698 28699 28700 28701 28702 28703 28704 28705 28706 28707 28708 28709 28710 28711 28712 28713 28714 28715 28716 28717 28718 28719 28720 28721 28722 28723 28724 28725 28726 28727 28728 28729 28730 28731 28732 28733 28734 28735 28736 28737 28738 28739 28740 28741 28742 28743 28744 28745 28746 28747 28748 28749 28750 28751 28752 28753 28754 28755 28756 28757 28758 28759 28760 28761 28762 28763 28764 28765 28766 28767 28768 28769 28770 28771 28772 28773 28774 28775 28776 28777 28778 28779 28780 28781 28782 28783 28784 28785 28786 28787 28788 28789 28790 28791 28792 28793 28794 28795 28796 28797 28798 28799 28800 28801 28802 28803 28804 28805 28806 28807 28808 28809 28810 28811 28812 28813 28814 28815 28816 28817 28818 28819 28820 28821 28822 28823 28824 28825 28826 28827 28828 28829 28830 28831 28832 28833 28834 28835 28836 28837 28838 28839 28840 28841 28842 28843 28844 28845 28846 28847 28848 28849 28850 28851 28852 28853 28854 28855 28856 28857 28858 28859 28860 28861 28862 28863 28864 28865 28866 28867 28868 28869 28870 28871 28872 28873 28874 28875 28876 28877 28878 28879 28880 28881 28882 28883 28884 28885 28886 28887 28888 28889 28890 28891 28892 28893 28894 28895 28896 28897 28898 28899 28900 28901 28902 28903 28904 28905 28906 28907 28908 28909 28910 28911 28912 28913 28914 28915 28916 28917 28918 28919 28920 28921 28922 28923 28924 28925 28926 28927 28928 28929 28930 28931 28932 28933 28934 28935 28936 28937 28938 28939 28940 28941 28942 28943 28944 28945 28946 28947 28948 28949 28950 28951 28952 28953 28954 28955 28956 28957 28958 28959 28960 28961 28962 28963 28964 28965 28966 28967 28968 28969 28970 28971 28972 28973 28974 28975 28976 28977 28978 28979 28980 28981 28982 28983 28984 28985 28986 28987 28988 28989 28990 28991 28992 28993 28994 28995 28996 28997 28998 28999 29000 29001 29002 29003 29004 29005 29006 29007 29008 29009 29010 29011 29012 29013 29014 29015 29016 29017 29018 29019 29020 29021 29022 29023 29024 29025 29026 29027 29028 29029 29030 29031 29032 29033 29034 29035 29036 29037 29038 29039 29040 29041 29042 29043 29044 29045 29046 29047 29048 29049 29050 29051 29052 29053 29054 29055 29056 29057 29058 29059 29060 29061 29062 29063 29064 29065 29066 29067 29068 29069 29070 29071 29072 29073 29074 29075 29076 29077 29078 29079 29080 29081 29082 29083 29084 29085 29086 29087 29088 29089 29090 29091 29092 29093 29094 29095 29096 29097 29098 29099 29100 29101 29102 29103 29104 29105 29106 29107 29108 29109 29110 29111 29112 29113 29114 29115 29116 29117 29118 29119 29120 29121 29122 29123 29124 29125 29126 29127 29128 29129 29130 29131 29132 29133 29134 29135 29136 29137 29138 29139 29140 29141 29142 29143 29144 29145 29146 29147 29148 29149 29150 29151 29152 29153 29154 29155 29156 29157 29158 29159 29160 29161 29162 29163 29164 29165 29166 29167 29168 29169 29170 29171 29172 29173 29174 29175 29176 29177 29178 29179 29180 29181 29182 29183 29184 29185 29186 29187 29188 29189 29190 29191 29192 29193 29194 29195 29196 29197 29198 29199 29200 29201 29202 29203 29204 29205 29206 29207 29208 29209 29210 29211 29212 29213 29214 29215 29216 29217 29218 29219 29220 29221 29222 29223 29224 29225 29226 29227 29228 29229 29230 29231 29232 29233 29234 29235 29236 29237 29238 29239 29240 29241 29242 29243 29244 29245 29246 29247 29248 29249 29250 29251 29252 29253 29254 29255 29256 29257 29258 29259 29260 29261 29262 29263 29264 29265 29266 29267 29268 29269 29270 29271 29272 29273 29274 29275 29276 29277 29278 29279 29280 29281 29282 29283 29284 29285 29286 29287 29288 29289 29290 29291 29292 29293 29294 29295 29296 29297 29298 29299 29300 29301 29302 29303 29304 29305 29306 29307 29308 29309 29310 29311 29312 29313 29314 29315 29316 29317 29318 29319 29320 29321 29322 29323 29324 29325 29326 29327 29328 29329 29330 29331 29332 29333 29334 29335 29336 29337 29338 29339 29340 29341 29342 29343 29344 29345 29346 29347 29348 29349 29350 29351 29352 29353 29354 29355 29356 29357 29358 29359 29360 29361 29362 29363 29364 29365 29366 29367 29368 29369 29370 29371 29372 29373 29374 29375 29376 29377 29378 29379 29380 29381 29382 29383 29384 29385 29386 29387 29388 29389 29390 29391 29392 29393 29394 29395 29396 29397 29398 29399 29400 29401 29402 29403 29404 29405 29406 29407 29408 29409 29410 29411 29412 29413 29414 29415 29416 29417 29418 29419 29420 29421 29422 29423 29424 29425 29426 29427 29428 29429 29430 29431 29432 29433 29434 29435 29436 29437 29438 29439 29440 29441 29442 29443 29444 29445 29446 29447 29448 29449 29450 29451 29452 29453 29454 29455 29456 29457 29458 29459 29460 29461 29462 29463 29464 29465 29466 29467 29468 29469 29470 29471 29472 29473 29474 29475 29476 29477 29478 29479 29480 29481 29482 29483 29484 29485 29486 29487 29488 29489 29490 29491 29492 29493 29494 29495 29496 29497 29498 29499 29500 29501 29502 29503 29504 29505 29506 29507 29508 29509 29510 29511 29512 29513 29514 29515 29516 29517 29518 29519 29520 29521 29522 29523 29524 29525 29526 29527 29528 29529 29530 29531 29532 29533 29534 29535 29536 29537 29538 29539 29540 29541 29542 29543 29544 29545 29546 29547 29548 29549 29550 29551 29552 29553 29554 29555 29556 29557 29558 29559 29560 29561 29562 29563 29564 29565 29566 29567 29568 29569 29570 29571 29572 29573 29574 29575 29576 29577 29578 29579 29580 29581 29582 29583 29584 29585 29586 29587 29588 29589 29590 29591 29592 29593 29594 29595 29596 29597 29598 29599 29600 29601 29602 29603 29604 29605 29606 29607 29608 29609 29610 29611 29612 29613 29614 29615 29616 29617 29618 29619 29620 29621 29622 29623 29624 29625 29626 29627 29628 29629 29630 29631 29632 29633 29634 29635 29636 29637 29638 29639 29640 29641 29642 29643 29644 29645 29646 29647 29648 29649 29650 29651 29652 29653 29654 29655 29656 29657 29658 29659 29660 29661 29662 29663 29664 29665 29666 29667 29668 29669 29670 29671 29672 29673 29674 29675 29676 29677 29678 29679 29680 29681 29682 29683 29684 29685 29686 29687 29688 29689 29690 29691 29692 29693 29694 29695 29696 29697 29698 29699 29700 29701 29702 29703 29704 29705 29706 29707 29708 29709 29710 29711 29712 29713 29714 29715 29716 29717 29718 29719 29720 29721 29722 29723 29724 29725 29726 29727 29728 29729 29730 29731 29732 29733 29734 29735 29736 29737 29738 29739 29740 29741 29742 29743 29744 29745 29746 29747 29748 29749 29750 29751 29752 29753 29754 29755 29756 29757 29758 29759 29760 29761 29762 29763 29764 29765 29766 29767 29768 29769 29770 29771 29772 29773 29774 29775 29776 29777 29778 29779 29780 29781 29782 29783 29784 29785 29786 29787 29788 29789 29790 29791 29792 29793 29794 29795 29796 29797 29798 29799 29800 29801 29802 29803 29804 29805 29806 29807 29808 29809 29810 29811 29812 29813 29814 29815 29816 29817 29818 29819 29820 29821 29822 29823 29824 29825 29826 29827 29828 29829 29830 29831 29832 29833 29834 29835 29836 29837 29838 29839 29840 29841 29842 29843 29844 29845 29846 29847 29848 29849 29850 29851 29852 29853 29854 29855 29856 29857 29858 29859 29860 29861 29862 29863 29864 29865 29866 29867 29868 29869 29870 29871 29872 29873 29874 29875 29876 29877 29878 29879 29880 29881 29882 29883 29884 29885 29886 29887 29888 29889 29890 29891 29892 29893 29894 29895 29896 29897 29898 29899 29900 29901 29902 29903 29904 29905 29906 29907 29908 29909 29910 29911 29912 29913 29914 29915 29916 29917 29918 29919 29920 29921 29922 29923 29924 29925 29926 29927 29928 29929 29930 29931 29932 29933 29934 29935 29936 29937 29938 29939 29940 29941 29942 29943 29944 29945 29946 29947 29948 29949 29950 29951 29952 29953 29954 29955 29956 29957 29958 29959 29960 29961 29962 29963 29964 29965 29966 29967 29968 29969 29970 29971 29972 29973 29974 29975 29976 29977 29978 29979 29980 29981 29982 29983 29984 29985 29986 29987 29988 29989 29990 29991 29992 
</DataArray>
<DataArray type="UInt32" Name="offsets" format="ascii">
3 6 9 11 14 17 20 22 25 28 31 34 37 40 43 46 49 52 55 58 61 64 67 70 73 76 79 82 85 88 90 93 96 99 102 105 107 110 113 116 119 122 125 128 131 134 137 140 143 145 148 151 154 157 160 162 165 168 171 174 177 180 183 186 189 192 195 198 201 204 206 209 212 215 218 221 223 226 229 232 235 238 241 244 246 249 252 254 257 260 263 266 269 271 274 277 279 282 285 288 291 293 296 299 302 305 307 310 313 315 317 320 323 326 329 331 334 337 340 343 346 349 352 355 358 361 364 367 370 373 376 379 382 385 388 391 394 397 400 403 406 409 412 415 418 421 423 426 429 432 435 438 440 443 446 449 452 455 458 461 464 467 470 473 476 478 481 484 486 489 491 493 496 499 502 505 508 511 514 517 520 523 526 528 531 534 537 540 543 546 549 552 555 558 561 564 566 568 571 574 577 580 582 585 588 591 593 595 598 601 604 607 610 613 615 618 621 624 627 630 633 636 639 641 644 647 650 652 655 658 661 664 667 670 673 676 679 682 685 688 691 694 697 700 703 706 709 712 715 718 721 724 726 729 732 735 738 741 744 747 750 753 756 759 761 764 767 770 772 775 778 781 784 787 790 793 796 799 801 804 807 810 813 816 819 822 825 828 831 833 836 839 842 845 848 851 854 857 860 862 865 868 871 874 876 879 882 885 888 891 894 896 899 902 905 907 910 913 916 919 922 925 928 931 934 936 939 941 944 947 949 951 954 957 960 963 965 968 971 973 976 979 982 985 988 990 993 995 998 1001 1004 1006 1008 1011 1014 1017 1020 1023 1026 1029 1032 1035 1038 1041 1044 1047 1050 1053 1056 1059 1062 1065 1068 1071 1074 1077 1080 1083 1086 1089 1092 1095 1098 1100 1103 1106 1109 1112 1115 1118 1121 1124 1127 1130 1133 1136 1139 1142 1145 1148 1151 1154 1157 1160 1163 1166 1169 1172 1175 1178 1181 1184 1187 1190 1193 1196 1199 1202 1205 1208 1211 1214 1216 1219 1222 1225 1228 1231 1234 1237 1240 1243 1246 1249 1252 1255 1258 1261 1264 1267 1270 1272 1275 1278 1281 1284 1286 1289 1292 1295 1298 1301 1304 1307 1310 1313 1316 1319 1322 1325 1327 1330 1333 1336 1338 1341 1344 1347 1350 1353 1356 1359 1362 1365 1368 1371 1374 1377 1380 1383 1386 1389 1392 1395 1398 1401 1404 1407 1410 1412 1415 1418 1421 1424 1427 1429 1432 1435 1438 1440 1443 1446 1449 1451 1454 1457 1460 1463 1466 1469 1472 1474 1477 1479 1481 1484 1487 1489 1492 1495 1497 1500 1503 1505 1508 1511 1513 1515 1518 1521 1524 1526 1529 1532 1535 1537 1540 1543 1546 1549 1552 1554 1556 1559 1562 1564 1566 1568 1571 1573 1576 1579 1582 1585 1588 1590 1593 1595 1597 1600 1602 1605 1608 1610 1613 1616 1619 1622 1625 1628 1631 1634 1636 1639 1642 1645 1648 1651 1654 1657 1659 1662 1665 1668 1670 1673 1676 1679 1682 1684 1687 1690 1693 1695 1698 1701 1704 1707 1710 1713 1715 1718 1721 1724 1727 1729 1732 1735 1738 1740 1742 1745 1748 1751 1754 1757 1760 1763 1766 1769 1771 1774 1777 1780 1783 1786 1789 1792 1795 1798 1801 1803 1806 1809 1812 1815 1818 1821 1824 1827 1829 1832 1835 1838 1841 1844 1847 1850 1853 1856 1859 1861 1864 1867 1870 1873 1875 1878 1881 1884 1887 1890 1893 1896 1899 1902 1905 1908 1911 1914 1916 1919 1922 1925 1927 1930 1933 1935 1938 1941 1943 1946 1949 1951 1954 1957 1960 1963 1966 1969 1972 1974 1977 1980 1983 1986 1989 1992 1995 1998 2000 2003 2005 2007 2010 2013 2016 2018 2021 2024 2026 2029 2031 2034 2037 2039 2042 2045 2048 2051 2054 2057 2060 2063 2066 2069 2072 2075 2078 2081 2084 2087 2089 2092 2095 2098 2101 2103 2106 2108 2111 2114 2117 2120 2123 2126 2129 2132 2135 2138 2141 2144 2147 2150 2153 2156 2159 2162 2165 2168 2171 2174 2177 2180 2183 2185 2188 2191 2194 2197 2200 2202 2205 2208 2211 2214 2217 2220 2223 2226 2228 2231 2234 2237 2240 2243 2246 2249 2252 2255 2258 2261 2264 2267 2270 2273 2276 2279 2282 2285 2288 2291 2294 2297 2300 2303 2306 2309 2312 2315 2318 2321 2324 2327 2330 2333 2336 2339 2342 2345 2348 2350 2353 2356 2359 2362 2365 2368 2371 2374 2377 2380 2383 2386 2389 2392 2395 2398 2401 2404 2407 2410 2413 2416 2419 2422 2425 2428 2431 2434 2437 2439 2442 2445 2448 2451 2454 2457 2460 2463 2466 2469 2472 2475 2478 2481 2484 2487 2490 2493 2496 2499 2502 2505 2508 2511 2514 2517 2520 2522 2525 2528 2531 2534 2537 2539 2542 2545 2548 2551 2553 2556 2559 2562 2565 2568 2571 2574 2577 2580 2582 2585 2588 2591 2594 2597 2600 2602 2605 2608 2611 2613 2616 2619 2622 2625 2628 2631 2634 2637 2640 2642 2645 2648 2650 2653 2656 2659 2661 2663 2665 2668 2671 2674 2677 2680 2683 2686 2689 2692 2695 2697 2700 2703 2706 2709 2712 2715 2718 2721 2724 2727 2729 2732 2735 2738 2741 2744 2747 2750 2753 2756 2758 2761 2764 2766 2769 2772 2774 2777 2780 2783 2786 2789 2792 2795 2798 2801 2803 2806 2809 2812 2815 2818 2821 2824 2826 2828 2831 2834 2837 2840 2843 2846 2849 2852 2855 2858 2861 2863 2866 2869 2872 2875 2878 2881 2884 2887 2890 2893 2896 2899 2901 2904 2907 2910 2913 2916 2919 2922 2925 2928 2931 2934 2937 2940 2943 2946 2949 2952 2955 2958 2961 2964 2967 2970 2973 2976 2979 2982 2985 2988 2991 2994 2997 3000 3003 3006 3009 3012 3015 3018 3021 3024 3027 3030 3033 3036 3039 3042 3044 3047 3050 3053 3056 3059 3062 3065 3068 3071 3074 3077 3080 3082 3085 3088 3091 3094 3097 3100 3102 3105 3108 3111 3114 3117 3119 3122 3125 3128 3131 3134 3137 3139 3142 3145 3148 3151 3154 3157 3159 3162 3165 3167 3170 3173 3176 3179 3182 3184 3187 3190 3193 3195 3198 3201 3203 3206 3209 3212 3215 3218 3220 3223 3225 3228 3231 3234 3236 3239 3242 3244 3247 3250 3253 3256 3259 3262 3265 3267 3270 3273 3276 3279 3281 3284 3287 3290 3292 3295 3298 3301 3304 3307 3310 3313 3316 3319 3322 3325 3328 3331 3334 3337 3340 3343 3346 3349 3352 3355 3358 3360 3363 3366 3369 3372 3375 3378 3380 3383 3386 3389 3392 3395 3398 3401 3404 3407 3410 3413 3416 3419 3422 3424 3427 3430 3433 3436 3439 3442 3445 3448 3451 3454 3457 3460 3463 3466 3469 3472 3474 3477 3480 3483 3485 3488 3491 3493 3496 3499 3502 3505 3508 3510 3513 3516 3519 3522 3525 3528 3531 3534 3537 3539 3542 3545 3548 3551 3554 3557 3560 3563 3566 3569 3572 3575 3577 3580 3583 3586 3589 3592 3595 3598 3601 3604 3606 3609 3612 3614 3617 3620 3622 3625 3628 3631 3634 3636 3639 3642 3645 3648 3651 3654 3657 3660 3663 3666 3669 3672 3675 3678 3681 3684 3686 3689 3692 3695 3698 3701 3704 3707 3710 3713 3716 3719 3722 3725 3728 3730 3733 3736 3739 3742 3745 3748 3751 3754 3757 3760 3762 3764 3767 3770 3773 3775 3778 3781 3784 3787 3790 3793 3796 3799 3802 3805 3808 3811 3814 3817 3819 3822 3825 3827 3830 3833 3836 3839 3842 3845 3848 3851 3854 3856 3859 3862 3865 3868 3871 3874 3877 3880 3883 3886 3889 3891 3894 3897 3900 3903 3906 3909 3912 3915 3918 3921 3923 3925 3928 3931 3934 3937 3939 3942 3945 3948 3951 3953 3956 3959 3961 3963 3966 3969 3972 3975 3977 3980 3983 3985 3988 3991 3994 3996 3998 4001 4004 4007 4010 4013 4016 4019 4022 4025 4028 4031 4034 4037 4040 4043 4046 4049 4052 4055 4057 4060 4063 4066 4069 4072 4075 4078 4081 4084 4087 4090 4093 4096 4099 4102 4105 4107 4109 4112 4115 4117 4119 4122 4125 4128 4131 4134 4137 4140 4143 4146 4149 4151 4154 4157 4160 4163 4166 4168 4171 4174 4177 4180 4183 4186 4189 4191 4194 4197 4199 4202 4205 4208 4211 4214 4216 4219 4222 4225 4228 4231 4233 4236 4239 4242 4244 4246 4249 4251 4254 4257 4260 4263 4266 4269 4272 4275 4278 4281 4284 4286 4289 4291 4294 4297 4300 4303 4306 4309 4311 4313 4316 4319 4322 4325 4328 4331 4334 4337 4340 4343 4346 4349 4352 4355 4358 4361 4364 4367 4369 4372 4375 4377 4380 4383 4386 4389 4392 4395 4398 4400 4403 4405 4408 4410 4413 4415 4418 4421 4424 4426 4428 4431 4434 4437 4439 4442 4445 4448 4451 4454 4457 4460 4463 4466 4469 4472 4474 4477 4480 4482 4485 4488 4491 4493 4496 4499 4501 4504 4507 4509 4512 4514 4517 4520 4523 4526 4529 4532 4535 4538 4541 4544 4547 4550 4553 4556 4559 4562 4565 4568 4570 4573 4576 4578 4581 4584 4587 4590 4592 4595 4598 4601 4604 4607 4609 4612 4615 4618 4621 4624 4627 4630 4633 4636 4639 4642 4645 4648 4651 4654 4657 4660 4663 4666 4669 4672 4675 4678 4681 4684 4687 4690 4693 4696 4699 4702 4704 4707 4710 4713 4716 4719 4722 4725 4728 4731 4733 4736 4739 4742 4745 4748 4751 4754 4757 4760 4763 4765 4768 4771 4774 4777 4779 4781 4784 4787 4790 4793 4796 4799 4802 4805 4808 4811 4814 4817 4820 4823 4826 4829 4832 4835 4838 4840 4843 4846 4849 4852 4855 4858 4861 4864 4867 4870 4873 4876 4879 4882 4885 4888 4891 4894 4897 4900 4903 4905 4908 4911 4914 4917 4920 4923 4926 4929 4932 4935 4937 4940 4943 4946 4949 4951 4954 4957 4960 4962 4965 4968 4971 4974 4977 4980 4983 4986 4989 4991 4994 4996 4999 5001 5004 5006 5009 5012 5015 5017 5020 5023 5026 5029 5032 5035 5038 5041 5044 5047 5049 5052 5054 5057 5060 5063 5065 5068 5071 5074 5076 5079 5082 5085 5087 5090 5092 5094 5097 5099 5102 5105 5108 5110 5112 5115 5118 5120 5123 5126 5129 5132 5135 5137 5139 5142 5145 5147 5150 5153 5155 5157 5160 5163 5165 5168 5170 5173 5176 5179 5181 5183 5186 5189 5192 5195 5198 5201 5204 5206 5209 5212 5215 5218 5221 5224 5227 5230 5233 5235 5238 5241 5243 5245 5248 5251 5254 5257 5260 5263 5265 5268 5271 5273 5276 5278 5281 5284 5286 5289 5291 5294 5297 5300 5303 5306 5309 5312 5315 5318 5321 5324 5327 5330 5333 5336 5339 5342 5345 5348 5351 5354 5357 5359 5362 5364 5367 5370 5373 5376 5379 5382 5385 5388 5390 5393 5396 5399 5402 5405 5408 5411 5414 5417 5420 5423 5425 5428 5431 5434 5437 5440 5442 5445 5448 5451 5453 5456 5459 5462 5464 5467 5470 5473 5476 5479 5482 5485 5488 5491 5494 5497 5500 5503 5506 5509 5512 5515 5518 5521 5524 5527 5530 5533 5536 5539 5542 5545 5548 5551 5554 5557 5560 5563 5566 5568 5571 5574 5577 5580 5583 5586 5589 5592 5595 5598 5601 5604 5607 5610 5613 5616 5618 5621 5624 5627 5630 5633 5635 5638 5641 5643 5646 5649 5652 5655 5658 5660 5662 5665 5668 5671 5674 5677 5680 5683 5686 5689 5692 5695 5698 5701 5704 5707 5710 5713 5716 5719 5722 5725 5728 5731 5734 5737 5740 5743 5746 5749 5752 5755 5758 5761 5764 5767 5770 5772 5774 5777 5780 5782 5785 5788 5791 5793 5795 5798 5800 5802 5805 5808 5811 5813 5816 5819 5822 5824 5827 5830 5833 5835 5838 5841 5844 5847 5850 5853 5856 5859 5862 5864 5867 5870 5873 5876 5879 5882 5885 5887 5890 5893 5896 5898 5901 5903 5906 5909 5912 5915 5918 5921 5924 5927 5930 5933 5936 5939 5942 5945 5947 5950 5953 5956 5959 5961 5963 5966 5969 5971 5974 5977 5980 5982 5985 5988 5991 5994 5997 6000 6002 6005 6008 6010 6012 6015 6018 6021 6024 6027 6030 6032 6034 6037 6040 6043 6046 6049 6052 6055 6058 6061 6064 6066 6069 6072 6074 6077 6080 6083 6086 6088 6091 6093 6096 6098 6101 6104 6106 6109 6112 6115 6118 6121 6123 6126 6129 6132 6135 6138 6141 6144 6147 6150 6152 6155 6158 6161 6164 6167 6170 6173 6176 6179 6182 6184 6187 6190 6193 6196 6199 6201 6204 6206 6209 6211 6214 6217 6220 6223 6226 6229 6232 6235 6238 6241 6244 6247 6250 6252 6255 6258 6261 6264 6267 6270 6273 6276 6279 6282 6285 6288 6291 6294 6297 6300 6303 6305 6308 6311 6314 6317 6320 6323 6326 6329 6332 6335 6338 6341 6344 6347 6350 6353 6356 6359 6361 6364 6367 6369 6372 6375 6378 6381 6384 6387 6390 6393 6396 6399 6402 6405 6408 6411 6414 6417 6420 6423 6426 6429 6431 6434 6437 6440 6443 6446 6449 6452 6455 6458 6461 6464 6467 6470 6473 6476 6479 6482 6485 6488 6491 6494 6497 6500 6503 6506 6509 6512 6515 6518 6520 6523 6526 6529 6531 6534 6537 6540 6543 6546 6549 6552 6555 6558 6561 6564 6566 6569 6572 6574 6577 6580 6583 6586 6589 6592 6595 6598 6601 6604 6607 6610 6613 6616 6619 6622 6625 6628 6631 6634 6637 6640 6643 6646 6648 6651 6654 6657 6660 6663 6666 6669 6672 6675 6678 6681 6684 6687 6690 6693 6696 6698 6701 6704 6707 6710 6713 6716 6719 6722 6725 6728 6731 6734 6737 6740 6743 6746 6749 6752 6755 6758 6761 6764 6767 6770 6773 6776 6779 6782 6785 6788 6790 6793 6796 6799 6802 6805 6808 6811 6814 6817 6819 6822 6825 6828 6831 6834 6837 6840 6843 6845 6848 6851 6853 6856 6859 6861 6864 6867 6869 6872 6875 6878 6881 6884 6887 6890 6893 6896 6899 6901 6904 6907 6910 6913 6916 6919 6922 6924 6927 6929 6932 6935 6938 6941 6944 6947 6950 6953 6955 6958 6961 6963 6965 6968 6971 6973 6976 6979 6982 6984 6986 6989 6992 6995 6998 7001 7004 7007 7010 7013 7016 7019 7022 7025 7028 7031 7034 7037 7040 7043 7046 7049 7052 7054 7057 7060 7063 7066 7069 7072 7075 7078 7081 7084 7087 7090 7093 7096 7099 7102 7105 7108 7111 7113 7115 7118 7121 7124 7126 7128 7130 7133 7136 7139 7142 7145 7148 7151 7154 7157 7160 7163 7166 7169 7172 7175 7177 7180 7183 7186 7189 7192 7195 7197 7200 7203 7205 7208 7211 7214 7217 7219 7222 7225 7228 7230 7233 7236 7239 7242 7245 7248 7251 7254 7256 7259 7262 7265 7267 7269 7272 7275 7278 7281 7283 7285 7288 7290 7293 7296 7299 7302 7305 7308 7310 7313 7316 7319 7322 7325 7327 7329 7332 7335 7338 7341 7344 7347 7350 7353 7355 7357 7360 7362 7365 7368 7370 7373 7376 7378 7381 7384 7387 7389 7391 7393 7396 7399 7402 7405 7408 7411 7413 7416 7419 7422 7424 7427 7430 7433 7436 7438 7441 7444 7446 7449 7451 7453 7456 7459 7462 7465 7468 7470 7473 7475 7477 7480 7483 7485 7488 7491 7494 7496 7499 7502 7505 7508 7511 7513 7515 7518 7521 7524 7527 7529 7531 7533 7536 7538 7541 7544 7546 7549 7552 7555 7557 7560 7562 7565 7568 7571 7573 7576 7579 7582 7584 7587 7589 7592 7595 7597 7600 7603 7606 7608 7610 7613 7616 7618 7621 7624 7626 7629 7632 7635 7638 7640 7642 7645 7648 7651 7654 7657 7660 7662 7665 7668 7671 7674 7677 7680 7683 7686 7689 7691 7694 7697 7700 7703 7705 7708 7711 7714 7717 7720 7723 7726 7729 7732 7735 7738 7741 7743 7746 7749 7752 7754 7757 7760 7763 7766 7769 7772 7775 7778 7781 7784 7787 7789 7792 7795 7798 7800 7802 7805 7808 7810 7813 7816 7819 7822 7825 7828 7831 7834 7837 7840 7843 7845 7848 7851 7854 7857 7860 7863 7865 7867 7870 7873 7876 7879 7881 7883 7886 7889 7892 7895 7897 7900 7903 7906 7909 7912 7915 7918 7921 7924 7927 7929 7932 7935 7938 7941 7943 7946 7949 7952 7955 7958 7961 7964 7967 7970 7973 7976 7979 7982 7985 7988 7991 7994 7997 8000 8003 8006 8009 8012 8015 8018 8021 8024 8027 8030 8033 8035 8038 8041 8044 8047 8050 8053 8055 8058 8060 8063 8065 8068 8071 8074 8077 8080 8083 8086 8088 8091 8094 8097 8100 8103 8106 8109 8112 8114 8117 8120 8123 8126 8129 8132 8134 8137 8140 8143 8145 8148 8151 8154 8157 8160 8163 8166 8169 8172 8175 8177 8179 8182 8185 8188 8191 8194 8197 8200 8203 8206 8209 8212 8215 8218 8221 8224 8227 8230 8232 8235 8238 8240 8243 8246 8249 8252 8255 8258 8261 8264 8267 8270 8273 8275 8278 8281 8284 8287 8290 8293 8295 8298 8301 8304 8307 8310 8313 8316 8319 8322 8325 8328 8330 8333 8336 8339 8342 8344 8347 8350 8353 8355 8358 8361 8364 8367 8370 8373 8376 8379 8381 8384 8387 8390 8393 8396 8399 8402 8405 8407 8410 8413 8415 8418 8421 8424 8427 8430 8433 8436 8439 8442 8445 8448 8451 8454 8456 8459 8462 8465 8468 8470 8473 8476 8479 8482 8485 8488 8491 8494 8496 8499 8501 8503 8506 8509 8512 8515 8518 8521 8524 8527 8530 8533 8536 8539 8542 8545 8547 8549 8552 8555 8558 8561 8563 8565 8568 8570 8573 8576 8578 8581 8583 8585 8588 8591 8593 8596 8599 8601 8604 8607 8609 8611 8614 8616 8619 8622 8625 8628 8631 8633 8636 8638 8641 8644 8647 8650 8653 8656 8658 8661 8663 8666 8669 8671 8674 8677 8680 8682 8684 8687 8690 8692 8695 8697 8700 8702 8705 8708 8711 8714 8716 8719 8722 8724 8727 8730 8733 8736 8739 8742 8745 8748 8751 8754 8757 8759 8761 8764 8767 8770 8773 8775 8778 8781 8784 8787 8790 8792 8795 8798 8801 8804 8807 8810 8812 8815 8818 8821 8823 8826 8829 8832 8835 8838 8841 8844 8847 8850 8853 8856 8859 8862 8865 8868 8870 8873 8876 8878 8881 8884 8887 8889 8892 8895 8898 8901 8903 8906 8909 8911 8914 8916 8919 8922 8925 8928 8930 8933 8936 8939 8942 8945 8947 8950 8953 8956 8959 8962 8964 8967 8970 8973 8976 8979 8982 8985 8988 8991 8994 8997 9000 9003 9006 9009 9012 9015 9017 9020 9023 9026 9029 9031 9034 9037 9039 9042 9045 9047 9050 9053 9055 9058 9061 9063 9066 9069 9072 9075 9078 9081 9084 9087 9090 9093 9096 9099 9101 9104 9107 9110 9112 9115 9118 9121 9124 9127 9130 9133 9136 9139 9142 9145 9147 9149 9152 9155 9158 9161 9164 9166 9169 9172 9175 9178 9180 9183 9186 9188 9191 9194 9197 9200 9203 9206 9209 9212 9215 9218 9221 9224 9227 9230 9233 9236 9239 9242 9244 9247 9250 9253 9256 9258 9261 9264 9267 9270 9273 9276 9279 9282 9284 9286 9289 9292 9295 9298 9301 9304 9307 9310 9313 9316 9319 9322 9325 9328 9330 9333 9336 9339 9341 9344 9347 9349 9352 9355 9358 9361 9364 9367 9370 9373 9376 9379 9382 9385 9388 9391 9394 9397 9400 9403 9406 9409 9412 9415 9418 9421 9424 9426 9429 9432 9435 9438 9441 9444 9447 9450 9453 9456 9459 9462 9465 9468 9471 9474 9477 9480 9483 9486 9489 9491 9494 9497 9500 9503 9506 9508 9511 9514 9517 9519 9521 9524 9527 9530 9532 9535 9538 9541 9544 9547 9550 9553 9556 9559 9562 9565 9568 9571 9573 9576 9579 9582 9585 9588 9591 9594 9597 9600 9602 9605 9608 9611 9614 9617 9620 9623 9626 9629 9632 9635 9637 9640 9643 9646 9649 9652 9655 9658 9661 9664 9667 9669 9672 9675 9678 9680 9683 9686 9689 9692 9695 9698 9701 9704 9707 9710 9713 9715 9718 9721 9724 9727 9729 9732 9734 9737 9740 9743 9746 9748 9751 9754 9756 9758 9761 9764 9766 9769 9772 9775 9777 9780 9783 9786 9789 9792 9794 9797 9800 9803 9806 9808 9811 9814 9817 9820 9823 9826 9829 9832 9835 9838 9841 9844 9847 9850 9853 9856 9859 9861 9864 9867 9870 9873 9876 9879 9882 9885 9888 9891 9894 9897 9900 9903 9906 9909 9911 9914 9917 9920 9923 9926 9929 9931 9933 9936 9939 9942 9945 9948 9951 9954 9956 9959 9962 9965 9968 9971 9974 9976 9979 9982 9984 9987 9990 9993 9996 9998 10001 10003 10006 10009 10012 10015 10017 10020 10023 10026 10029 10032 10035 10038 10041 10043 10046 10049 10052 10055 10057 10060 10063 10065 10068 10070 10073 10076 10079 10082 10085 10088 10091 10094 10097 10100 10103 10106 10109 10112 10114 10117 10120 10122 10125 10127 10130 10132 10135 10137 10140 10142 10145 10148 10151 10154 10157 10160 10163 10166 10169 10172 10175 10178 10180 10183 10186 10188 10191 10193 10196 10199 10201 10204 10207 10210 10212 10215 10218 10220 10223 10226 10229 10232 10235 10238 10241 10244 10247 10250 10253 10255 10257 10260 10263 10266 10269 10272 10275 10277 10280 10283 10286 10289 10291 10294 10297 10300 10303 10306 10309 10312 10315 10318 10320 10323 10326 10329 10331 10334 10337 10340 10343 10346 10349 10352 10355 10358 10361 10364 10367 10369 10372 10375 10378 10381 10383 10386 10389 10392 10395 10398 10401 10404 10407 10410 10413 10416 10419 10422 10424 10426 10429 10432 10435 10437 10440 10443 10446 10449 10452 10455 10458 10461 10464 10467 10470 10473 10476 10479 10482 10485 10488 10491 10494 10496 10499 10502 10504 10507 10510 10513 10516 10519 10522 10525 10528 10531 10534 10537 10540 10543 10546 10549 10552 10555 10558 10561 10564 10567 10570 10573 10576 10579 10582 10585 10588 10591 10594 10597 10600 10603 10606 10609 10612 10615 10618 10621 10624 10627 10630 10633 10636 10639 10642 10644 10647 10649 10652 10655 10658 10661 10664 10667 10670 10673 10676 10679 10682 10685 10688 10691 10694 10697 10700 10703 10706 10709 10712 10715 10718 10721 10724 10727 10730 10733 10736 10739 10742 10745 10748 10751 10754 10757 10760 10763 10765 10768 10771 10774 10777 10780 10783 10786 10788 10791 10794 10797 10799 10802 10805 10808 10811 10813 10816 10819 10822 10825 10828 10831 10834 10837 10840 10843 10846 10849 10852 10855 10858 10861 10864 10867 10870 10873 10876 10879 10882 10885 10888 10891 10894 10897 10900 10903 10906 10909 10912 10915 10917 10919 10922 10925 10927 10930 10933 10935 10938 10941 10944 10946 10949 10952 10955 10958 10961 10963 10966 10969 10972 10974 10977 10980 10983 10986 10989 10992 10995 10998 11001 11004 11007 11010 11013 11015 11018 11021 11024 11027 11030 11032 11035 11038 11041 11044 11047 11050 11053 11055 11058 11061 11064 11066 11069 11071 11074 11077 11079 11082 11085 11088 11090 11092 11095 11097 11099 11102 11104 11107 11110 11113 11115 11118 11120 11123 11126 11128 11131 11134 11137 11140 11143 11146 11149 11151 11154 11157 11160 11163 11166 11169 11172 11174 11177 11180 11183 11186 11189 11192 11195 11198 11201 11204 11207 11209 11212 11215 11218 11221 11224 11227 11230 11233 11236 11238 11241 11244 11247 11250 11252 11255 11258 11261 11264 11267 11270 11273 11276 11279 11281 11284 11287 11290 11293 11296 11299 11302 11305 11308 11310 11313 11316 11318 11321 11324 11326 11329 11332 11335 11338 11341 11343 11346 11349 11352 11355 11358 11361 11364 11367 11370 11373 11376 11379 11382 11385 11388 11391 11394 11397 11400 11403 11406 11409 11412 11415 11417 11420 11423 11426 11429 11432 11435 11438 11441 11444 11447 11450 11453 11456 11459 11462 11464 11467 11470 11473 11476 11479 11482 11485 11487 11490 11493 11496 11498 11501 11504 11507 11510 11513 11516 11519 11522 11525 11528 11531 11534 11537 11540 11543 11546 11549 11552 11554 11556 11559 11562 11565 11568 11571 11574 11577 11579 11582 11585 11588 11591 11594 11597 11600 11603 11606 11608 11611 11614 11616 11619 11622 11625 11628 11631 11634 11637 11640 11642 11645 11648 11651 11654 11657 11660 11663 11666 11669 11671 11674 11677 11680 11683 11686 11689 11692 11694 11696 11699 11701 11704 11707 11710 11713 11716 11719 11722 11725 11728 11730 11733 11736 11739 11742 11745 11748 11751 11754 11757 11760 11762 11765 11768 11771 11774 11777 11780 11782 11785 11788 11791 11794 11797 11800 11802 11805 11808 11811 11814 11817 11819 11822 11825 11827 11830 11833 11835 11838 11840 11843 11846 11848 11851 11854 11857 11860 11863 11866 11869 11871 11874 11877 11880 11883 11886 11889 11892 11895 11897 11899 11902 11905 11908 11911 11914 11917 11920 11923 11926 11929 11932 11935 11938 11941 11944 11947 11950 11952 11954 11957 11960 11963 11966 11969 11972 11975 11978 11981 11984 11986 11989 11991 11993 11996 11999 12002 12005 12008 12010 12013 12015 12018 12021 12024 12026 12029 12032 12035 12038 12041 12044 12046 12049 12052 12055 12058 12061 12064 12067 12069 12072 12075 12077 12080 12083 12086 12089 12092 12095 12098 12100 12103 12106 12109 12112 12115 12118 12121 12124 12127 12130 12133 12136 12139 12142 12145 12148 12151 12154 12157 12160 12163 12166 12169 12172 12175 12178 12181 12184 12187 12189 12191 12194 12197 12200 12202 12205 12208 12211 12214 12216 12219 12222 12225 12228 12231 12233 12235 12238 12241 12244 12247 12249 12252 12255 12257 12260 12263 12266 12269 12272 12275 12278 12281 12284 12287 12290 12293 12296 12299 12302 12305 12308 12311 12314 12317 12319 12322 12325 12328 12330 12333 12336 12339 12342 12345 12348 12351 12354 12357 12360 12363 12366 12369 12371 12374 12377 12380 12383 12386 12389 12392 12395 12398 12400 12403 12406 12408 12411 12414 12417 12420 12423 12425 12428 12430 12433 12436 12439 12442 12445 12448 12451 12454 12457 12459 12462 12465 12468 12471 12474 12476 12479 12482 12484 12486 12489 12492 12495 12498 12500 12503 12506 12509 12512 12515 12518 12521 12524 12527 12530 12533 12536 12539 12542 12545 12548 12551 12554 12557 12560 12563 12566 12569 12572 12575 12578 12581 12584 12587 12590 12593 12595 12598 12601 12604 12607 12610 12613 12616 12619 12622 12625 12628 12631 12633 12636 12639 12642 12645 12648 12651 12654 12657 12660 12662 12665 12668 12671 12674 12677 12680 12683 12686 12689 12692 12695 12698 12701 12703 12706 12709 12712 12715 12718 12721 12724 12727 12730 12733 12736 12739 12742 12744 12747 12750 12752 12754 12757 12760 12763 12766 12769 12772 12775 12778 12781 12784 12787 12790 12793 12795 12798 12801 12804 12806 12809 12812 12815 12817 12819 12821 12824 12827 12830 12833 12836 12838 12841 12844 12846 12849 12851 12853 12856 12859 12862 12865 12868 12871 12874 12877 12880 12883 12886 12889 12892 12895 12898 12901 12904 12907 12910 12913 12916 12919 12921 12924 12927 12929 12932 12935 12938 12940 12943 12946 12949 12952 12955 12958 12961 12964 12967 12970 12973 12976 12979 12982 12985 12988 12991 12994 12997 13000 13003 13006 13009 13012 13015 13018 13021 13024 13027 13030 13033 13036 13039 13042 13045 13048 13051 13054 13057 13060 13063 13066 13069 13072 13075 13078 13081 13084 13087 13090 13093 13096 13098 13101 13103 13106 13109 13111 13114 13117 13120 13122 13124 13127 13130 13133 13136 13139 13142 13145 13148 13151 13154 13156 13159 13162 13165 13167 13169 13172 13175 13178 13181 13184 13187 13190 13192 13195 13198 13201 13204 13207 13210 13213 13216 13219 13221 13224 13227 13230 13233 13236 13239 13242 13245 13248 13251 13254 13257 13260 13263 13266 13269 13272 13275 13278 13281 13284 13287 13290 13293 13296 13299 13302 13305 13308 13311 13314 13317 13320 13323 13326 13329 13332 13335 13338 13341 13344 13347 13350 13353 13356 13359 13362 13365 13368 13371 13374 13377 13380 13383 13386 13389 13392 13394 13397 13400 13403 13406 13409 13412 13415 13418 13421 13424 13427 13430 13432 13435 13438 13441 13444 13447 13450 13453 13456 13459 13462 13465 13468 13471 13474 13477 13480 13483 13486 13489 13492 13495 13498 13501 13504 13507 13510 13513 13516 13519 13522 13525 13528 13531 13534 13537 13540 13543 13546 13549 13552 13555 13558 13561 13564 13567 13570 13573 13576 13579 13582 13585 13588 13591 13594 13597 13600 13603 13606 13609 13612 13615 13618 13621 13624 13627 13629 13632 13635 13638 13641 13644 13647 13650 13653 13656 13659 13662 13665 13668 13671 13674 13677 13680 13683 13686 13689 13692 13695 13698 13701 13704 13707 13710 13713 13715 13718 13721 13724 13727 13730 13733 13736 13739 13742 13745 13748 13751 13753 13756 13759 13762 13765 13768 13771 13774 13777 13780 13783 13785 13788 13791 13794 13797 13800 13803 13805 13808 13811 13814 13817 13820 13823 13826 13829 13832 13835 13838 13841 13844 13847 13850 13852 13855 13857 13860 13863 13865 13868 13871 13874 13877 13880 13883 13885 13888 13891 13894 13897 13900 13903 13906 13909 13912 13915 13917 13920 13923 13926 13929 13932 13935 13938 13941 13944 13947 13950 13952 13955 13958 13961 13964 13967 13970 13973 13976 13979 13982 13985 13988 13991 13993 13996 13999 14002 14004 14007 14010 14013 14016 14019 14022 14025 14028 14031 14034 14037 14040 14043 14046 14049 14052 14055 14058 14061 14064 14067 14070 14073 14076 14079 14082 14085 14088 14090 14092 14095 14098 14101 14103 14106 14109 14111 14114 14117 14120 14123 14125 14128 14131 14133 14136 14139 14141 14144 14147 14150 14153 14156 14158 14161 14164 14167 14170 14173 14176 14179 14182 14185 14188 14191 14194 14197 14200 14203 14206 14209 14212 14215 14218 14221 14224 14227 14230 14232 14234 14237 14240 14243 14246 14249 14252 14255 14258 14260 14263 14266 14269 14272 14275 14278 14281 14283 14286 14289 14292 14295 14297 14300 14302 14305 14307 14310 14313 14316 14319 14322 14325 14328 14330 14333 14336 14339 14341 14344 14347 14350 14353 14356 14359 14362 14364 14367 14370 14373 14375 14378 14381 14384 14386 14389 14392 14395 14397 14399 14402 14405 14408 14411 14414 14417 14419 14421 14424 14426 14429 14432 14435 14437 14440 14442 14445 14447 14450 14453 14456 14459 14462 14465 14467 14470 14473 14476 14479 14482 14485 14488 14490 14493 14496 14499 14502 14505 14507 14510 14513 14516 14519 14521 14523 14526 14528 14531 14534 14537 14540 14543 14546 14549 14552 14555 14558 14561 14564 14567 14570 14572 14575 14578 14581 14583 14586 14589 14592 14595 14598 14601 14604 14607 14610 14613 14616 14619 14622 14625 14627 14630 14633 14636 14639 14642 14645 14647 14650 14653 14656 14658 14661 14664 14667 14670 14673 14676 14679 14682 14685 14688 14691 14694 14697 14700 14703 14706 14709 14711 14714 14716 14719 14722 14725 14728 14731 14734 14737 14740 14743 14745 14748 14751 14754 14756 14759 14762 14765 14768 14770 14773 14776 14779 14781 14784 14787 14790 14793 14795 14798 14801 14804 14807 14810 14813 14816 14819 14822 14825 14828 14831 14833 14836 14839 14842 14845 14848 14851 14854 14857 14860 14863 14866 14869 14872 14875 14878 14881 14884 14886 14889 14892 14895 14897 14900 14903 14906 14909 14912 14915 14918 14920 14923 14926 14929 14932 14934 14936 14939 14942 14944 14946 14949 14952 14955 14958 14961 14963 14966 14969 14972 14975 14978 14980 14983 14986 14989 14992 14994 14996 14999 15002 15004 15006 15009 15011 15014 15017 15019 15021 15024 15026 15029 15032 15034 15037 15040 15043 15046 15049 15051 15054 15056 15059 15062 15065 15068 15070 15073 15076 15078 15081 15084 15086 15088 15090 15092 15095 15098 15100 15103 15106 15108 15111 15114 15117 15120 15123 15126 15128 15131 15134 15136 15139 15141 15143 15145 15148 15150 15153 15156 15159 15162 15164 15167 15170 15173 15176 15178 15181 15183 15186 15189 15191 15194 15197 15199 15202 15205 15207 15210 15213 15216 15219 15222 15225 15227 15230 15233 15236 15239 15241 15244 15247 15250 15253 15256 15259 15262 15265 15268 15271 15274 15277 15280 15282 15284 15287 15290 15292 15295 15298 15301 15304 15307 15310 15313 15315 15318 15321 15324 15327 15330 15332 15335 15338 15341 15344 15346 15349 15352 15355 15358 15361 15364 15367 15370 15373 15376 15379 15382 15385 15388 15391 15394 15397 15400 15403 15406 15409 15412 15415 15418 15421 15424 15427 15430 15433 15436 15439 15442 15445 15448 15451 15454 15457 15460 15463 15466 15469 15472 15475 15478 15481 15484 15487 15490 15493 15496 15499 15502 15505 15508 15510 15513 15516 15519 15522 15525 15528 15531 15534 15536 15539 15542 15545 15548 15551 15554 15557 15560 15563 15566 15569 15572 15575 15577 15580 15582 15585 15588 15590 15593 15596 15599 15602 15604 15607 15610 15613 15616 15619 15622 15625 15628 15631 15634 15637 15640 15643 15646 15649 15651 15654 15657 15660 15663 15666 15668 15671 15674 15677 15680 15683 15686 15689 15692 15695 15698 15701 15704 15707 15710 15713 15716 15719 15722 15725 15728 15731 15734 15737 15740 15743 15746 15749 15752 15755 15758 15761 15764 15767 15770 15773 15776 15779 15782 15785 15788 15791 15794 15797 15800 15803 15806 15809 15811 15814 15817 15820 15822 15825 15828 15830 15833 15835 15838 15841 15844 15847 15850 15853 15856 15859 15861 15864 15867 15870 15872 15875 15878 15881 15884 15887 15890 15893 15896 15899 15902 15905 15907 15910 15913 15916 15918 15921 15924 15927 15930 15933 15935 15938 15941 15943 15946 15949 15952 15955 15958 15961 15964 15967 15970 15973 15976 15979 15982 15985 15988 15991 15994 15997 16000 16003 16006 16009 16012 16015 16018 16020 16023 16026 16029 16032 16035 16038 16041 16044 16047 16049 16052 16055 16058 16061 16064 16066 16069 16072 16075 16078 16081 16084 16086 16089 16092 16095 16098 16101 16104 16107 16110 16113 16116 16119 16122 16125 16128 16130 16133 16136 16139 16141 16144 16147 16150 16153 16156 16158 16161 16164 16166 16169 16172 16175 16178 16181 16184 16187 16190 16192 16195 16198 16200 16203 16205 16207 16210 16213 16216 16219 16222 16225 16228 16231 16234 16237 16240 16243 16246 16249 16252 16255 16258 16261 16264 16267 16270 16272 16275 16278 16280 16283 16286 16288 16291 16294 16297 16300 16303 16306 16309 16312 16314 16317 16320 16323 16326 16329 16332 16335 16338 16341 16344 16347 16350 16353 16356 16359 16362 16365 16368 16371 16374 16377 16380 16383 16386 16389 16392 16395 16398 16401 16404 16407 16409 16412 16415 16417 16420 16423 16426 16429 16431 16434 16437 16440 16443 16446 16449 16452 16455 16458 16461 16464 16467 16470 16473 16476 16479 16482 16485 16488 16491 16494 16497 16500 16503 16506 16509 16512 16515 16518 16521 16524 16526 16529 16532 16535 16538 16541 16544 16547 16550 16553 16556 16558 16561 16564 16567 16570 16573 16576 16578 16581 16584 16587 16590 16593 16596 16598 16601 16604 16607 16610 16613 16616 16619 16622 16625 16628 16631 16634 16636 16639 16642 16645 16648 16651 16654 16657 16660 16663 16666 16669 16672 16675 16678 16681 16684 16687 16690 16693 16696 16699 16702 16705 16708 16711 16714 16717 16720 16723 16726 16729 16732 16735 16738 16741 16744 16747 16750 16753 16755 16758 16761 16763 16766 16769 16771 16774 16777 16779 16782 16785 16788 16791 16794 16797 16800 16803 16806 16809 16812 16815 16818 16821 16824 16827 16830 16833 16836 16839 16842 16845 16848 16851 16854 16857 16860 16863 16866 16869 16872 16874 16877 16880 16882 16885 16888 16890 16893 16896 16899 16901 16904 16907 16910 16913 16916 16919 16922 16924 16926 16929 16932 16935 16938 16941 16944 16946 16949 16951 16954 16957 16960 16963 16966 16968 16971 16974 16977 16980 16983 16986 16989 16992 16995 16998 17001 17004 17007 17010 17013 17016 17019 17022 17024 17027 17029 17032 17035 17038 17041 17044 17047 17050 17053 17056 17059 17062 17064 17067 17070 17073 17076 17079 17082 17085 17088 17091 17094 17097 17100 17103 17106 17109 17112 17115 17118 17121 17124 17127 17130 17133 17136 17139 17142 17145 17148 17151 17154 17157 17160 17163 17166 17169 17172 17175 17178 17181 17184 17187 17190 17193 17196 17199 17202 17205 17208 17211 17214 17217 17220 17223 17226 17229 17232 17235 17238 17241 17244 17247 17250 17252 17255 17258 17261 17263 17266 17269 17272 17274 17277 17280 17282 17285 17288 17291 17294 17296 17299 17302 17305 17308 17311 17314 17316 17318 17321 17324 17326 17329 17332 17335 17338 17341 17344 17347 17350 17353 17356 17359 17362 17365 17368 17371 17374 17377 17380 17383 17386 17389 17392 17395 17398 17401 17404 17407 17410 17413 17416 17419 17422 17425 17428 17431 17433 17436 17439 17442 17445 17448 17450 17452 17454 17457 17459 17462 17465 17467 17470 17473 17476 17478 17481 17484 17487 17490 17493 17495 17498 17501 17504 17507 17510 17513 17516 17519 17522 17525 17528 17531 17534 17537 17540 17543 17546 17549 17552 17555 17558 17561 17564 17567 17570 17573 17576 17579 17582 17585 17588 17591 17594 17597 17600 17603 17606 17609 17612 17615 17617 17620 17623 17626 17628 17631 17634 17636 17639 17641 17643 17646 17649 17652 17655 17658 17661 17664 17667 17670 17673 17676 17679 17682 17684 17687 17690 17693 17695 17698 17701 17704 17706 17709 17711 17714 17716 17718 17721 17724 17727 17730 17733 17736 17739 17742 17745 17748 17751 17754 17757 17760 17763 17766 17769 17772 17775 17778 17781 17784 17787 17790 17793 17796 17799 17801 17804 17806 17809 17812 17815 17818 17821 17823 17826 17829 17832 17835 17838 17841 17843 17846 17849 17852 17855 17858 17861 17863 17866 17869 17872 17875 17878 17881 17884 17886 17889 17892 17895 17898 17900 17903 17906 17909 17912 17915 17918 17921 17924 17927 17930 17933 17935 17938 17940 17943 17946 17949 17952 17954 17957 17960 17963 17966 17969 17972 17975 17977 17980 17983 17986 17988 17991 17994 17997 18000 18003 18006 18009 18012 18015 18018 18021 18024 18027 18030 18033 18036 18039 18042 18045 18048 18051 18054 18057 18060 18063 18066 18069 18072 18075 18078 18081 18084 18087 18090 18093 18096 18099 18102 18105 18108 18111 18114 18117 18120 18123 18126 18129 18132 18135 18138 18141 18144 18147 18150 18153 18156 18159 18162 18165 18167 18170 18173 18176 18179 18182 18185 18188 18191 18194 18197 18200 18202 18205 18208 18211 18214 18217 18220 18222 18225 18228 18230 18232 18235 18238 18240 18242 18245 18248 18251 18254 18256 18258 18261 18264 18266 18269 18271 18274 18277 18280 18282 18285 18287 18290 18292 18295 18297 18300 18303 18306 18308 18310 18312 18315 18318 18321 18324 18327 18330 18332 18335 18337 18339 18342 18345 18348 18351 18353 18356 18359 18362 18365 18368 18371 18374 18377 18380 18382 18385 18388 18391 18394 18396 18399 18402 18405 18408 18411 18414 18417 18420 18423 18426 18429 18431 18434 18437 18439 18442 18445 18448 18451 18454 18457 18460 18463 18466 18469 18472 18475 18478 18481 18484 18487 18490 18493 18496 18499 18502 18505 18508 18511 18514 18517 18520 18523 18526 18529 18532 18535 18538 18541 18544 18547 18550 18553 18556 18559 18562 18565 18568 18571 18574 18577 18580 18583 18586 18589 18592 18595 18598 18601 18604 18607 18610 18613 18616 18618 18621 18624 18627 18629 18632 18635 18638 18641 18644 18647 18650 18652 18655 18657 18660 18663 18666 18669 18672 18675 18678 18681 18684 18686 18689 18691 18694 18697 18700 18703 18706 18708 18710 18713 18716 18719 18721 18724 18727 18730 18733 18736 18738 18741 18744 18747 18750 18753 18756 18759 18762 18764 18767 18769 18772 18774 18777 18780 18783 18786 18788 18791 18794 18797 18800 18803 18805 18807 18810 18813 18816 18818 18821 18824 18827 18830 18833 18835 18838 18840 18843 18846 18849 18852 18855 18858 18861 18864 18867 18870 18873 18876 18879 18882 18885 18888 18891 18894 18897 18900 18903 18906 18909 18912 18914 18917 18920 18923 18926 18929 18932 18935 18937 18940 18942 18945 18948 18951 18954 18956 18959 18962 18965 18968 18971 18974 18977 18980 18982 18985 18988 18991 18993 18996 18999 19002 19005 19008 19010 19013 19016 19019 19022 19025 19028 19031 19034 19036 19039 19042 19045 19048 19051 19054 19057 19060 19063 19065 19068 19070 19073 19076 19079 19082 19085 19088 19091 19094 19097 19100 19103 19106 19109 19112 19115 19117 19120 19123 19126 19128 19131 19134 19137 19140 19142 19145 19148 19151 19154 19157 19160 19163 19165 19168 19171 19174 19177 19180 19183 19186 19189 19192 19195 19198 19201 19204 19207 19210 19213 19216 19219 19222 19225 19228 19231 19234 19237 19240 19243 19246 19249 19252 19255 19257 19260 19262 19265 19268 19270 19273 19276 19279 19282 19285 19288 19291 19294 19297 19299 19302 19305 19308 19311 19314 19317 19320 19323 19325 19328 19331 19334 19337 19340 19343 19346 19348 19351 19354 19357 19360 19363 19366 19369 19372 19374 19376 19379 19381 19383 19386 19389 19392 19394 19397 19400 19403 19405 19408 19411 19413 19416 19419 19422 19425 19428 19431 19433 19436 19438 19441 19444 19446 19449 19452 19455 19457 19459 19462 19465 19468 19471 19474 19477 19480 19483 19486 19489 19492 19495 19497 19499 19502 19505 19508 19511 19514 19517 19520 19523 19526 19529 19532 19535 19538 19541 19543 19546 19549 19552 19555 19558 19561 19564 19567 19570 19573 19576 19579 19582 19584 19587 19590 19593 19596 19599 19602 19605 19608 19611 19614 19617 19620 19623 19626 19629 19632 19635 19638 19641 19643 19646 19649 19652 19655 19658 19661 19664 19667 19670 19673 19676 19679 19682 19685 19688 19691 19694 19697 19700 19703 19706 19709 19712 19715 19718 19720 19723 19726 19729 19732 19735 19738 19741 19744 19747 19749 19752 19755 19758 19760 19763 19766 19769 19771 19774 19777 19780 19783 19786 19789 19792 19795 19798 19801 19804 19807 19810 19813 19816 19819 19822 19824 19827 19830 19833 19836 19838 19840 19843 19846 19849 19852 19855 19858 19861 19864 19867 19870 19873 19876 19879 19882 19884 19887 19890 19893 19896 19899 19902 19905 19908 19911 19914 19916 19919 19922 19925 19927 19930 19933 19936 19939 19942 19945 19948 19950 19953 19956 19958 19960 19963 19966 19968 19971 19974 19976 19978 19981 19984 19987 19990 19992 19995 19998 20001 20004 20007 20010 20012 20015 20018 20021 20024 20026 20029 20032 20035 20038 20041 20044 20046 20049 20051 20054 20057 20059 20062 20065 20067 20070 20072 20075 20078 20081 20083 20085 20088 20090 20093 20096 20099 20102 20105 20108 20111 20114 20117 20120 20123 20125 20128 20131 20133 20135 20138 20141 20143 20146 20149 20152 20155 20158 20161 20164 20167 20170 20172 20175 20178 20181 20184 20187 20190 20192 20195 20198 20200 20203 20206 20209 20212 20215 20218 20221 20224 20227 20230 20232 20235 20238 20241 20244 20247 20250 20253 20256 20259 20261 20264 20267 20270 20273 20276 20279 20282 20285 20288 20291 20294 20297 20300 20303 20306 20309 20311 20314 20316 20319 20322 20325 20328 20331 20334 20337 20340 20343 20346 20349 20352 20354 20357 20360 20363 20366 20368 20371 20374 20377 20380 20383 20386 20389 20392 20394 20397 20400 20403 20405 20408 20411 20414 20417 20420 20423 20426 20429 20432 20434 20437 20440 20443 20446 20448 20451 20454 20457 20460 20463 20466 20468 20471 20474 20477 20480 20483 20486 20488 20491 20493 20495 20498 20500 20503 20506 20509 20512 20515 20518 20521 20524 20527 20530 20533 20536 20539 20542 20545 20548 20551 20554 20557 20560 20563 20566 20569 20572 20575 20578 20581 20584 20587 20590 20593 20596 20599 20602 20605 20608 20610 20613 20616 20619 20622 20625 20628 20631 20634 20637 20640 20643 20645 20648 20651 20654 20657 20660 20663 20666 20669 20672 20675 20678 20681 20684 20687 20690 20693 20696 20699 20702 20705 20708 20711 20714 20717 20720 20723 20726 20729 20732 20735 20738 20741 20744 20747 20750 20753 20756 20759 20762 20765 20768 20771 20774 20776 20779 20782 20785 20788 20791 20793 20796 20799 20802 20805 20807 20810 20812 20815 20818 20821 20823 20826 20828 20831 20834 20837 20839 20842 20845 20848 20850 20852 20855 20858 20861 20864 20866 20869 20872 20875 20878 20881 20884 20887 20890 20893 20896 20899 20902 20905 20908 20911 20914 20917 20920 20923 20926 20929 20932 20935 20938 20941 20944 20947 20950 20953 20956 20958 20960 20962 20965 20968 20971 20974 20977 20980 20982 20985 20988 20991 20994 20997 21000 21003 21006 21009 21012 21015 21018 21021 21023 21026 21029 21032 21035 21038 21041 21044 21047 21050 21053 21056 21059 21062 21065 21068 21071 21074 21077 21080 21083 21086 21089 21092 21095 21098 21101 21103 21106 21109 21111 21114 21117 21120 21123 21125 21128 21131 21134 21136 21139 21141 21144 21146 21149 21152 21155 21158 21161 21164 21167 21170 21173 21176 21178 21181 21183 21186 21189 21192 21195 21198 21201 21204 21207 21210 21213 21216 21219 21222 21225 21228 21231 21234 21237 21240 21243 21246 21249 21252 21255 21258 21261 21264 21267 21270 21273 21276 21279 21282 21285 21288 21291 21294 21297 21300 21303 21306 21309 21312 21315 21318 21321 21324 21327 21330 21333 21336 21339 21342 21345 21348 21351 21354 21357 21360 21363 21366 21369 21372 21375 21378 21381 21384 21387 21390 21393 21396 21399 21402 21405 21408 21411 21414 21417 21420 21423 21426 21429 21431 21434 21437 21440 21443 21445 21448 21450 21453 21456 21459 21462 21465 21468 21471 21474 21477 21480 21483 21486 21489 21492 21495 21498 21500 21503 21505 21508 21511 21513 21516 21519 21522 21524 21527 21529 21531 21534 21537 21539 21542 21544 21547 21549 21552 21555 21558 21561 21564 21567 21570 21573 21576 21579 21582 21585 21588 21590 21593 21595 21598 21601 21603 21606 21609 21612 21615 21617 21619 21622 21624 21627 21630 21633 21636 21639 21642 21644 21646 21649 21652 21654 21657 21660 21663 21666 21669 21672 21675 21678 21681 21684 21686 21689 21692 21695 21698 21701 21704 21707 21710 21713 21716 21719 21722 21724 21727 21729 21732 21735 21738 21741 21744 21746 21749 21752 21755 21758 21760 21763 21766 21768 21771 21774 21776 21778 21781 21784 21787 21790 21792 21795 21798 21801 21804 21806 21809 21812 21815 21818 21821 21823 21826 21829 21832 21835 21838 21841 21843 21846 21849 21851 21854 21857 21860 21863 21866 21869 21871 21874 21877 21879 21882 21885 21887 21889 21892 21894 21897 21900 21903 21906 21909 21912 21914 21917 21919 21922 21925 21927 21930 21933 21935 21937 21940 21943 21945 21948 21950 21952 21955 21958 21961 21964 21967 21970 21972 21974 21977 21980 21982 21985 21987 21989 21992 21995 21998 22001 22003 22006 22009 22011 22014 22017 22020 22023 22026 22029 22032 22034 22037 22040 22042 22045 22048 22051 22054 22056 22058 22061 22064 22067 22070 22073 22075 22078 22081 22084 22087 22090 22093 22096 22099 22102 22105 22108 22111 22114 22117 22120 22123 22126 22129 22132 22135 22138 22141 22144 22147 22150 22152 22154 22157 22160 22163 22166 22169 22172 22175 22178 22181 22183 22185 22188 22191 22194 22196 22199 22202 22205 22207 22209 22212 22215 22218 22220 22223 22226 22228 22231 22233 22236 22239 22242 22245 22247 22249 22252 22255 22257 22260 22262 22265 22268 22271 22273 22275 22277 22280 22282 22285 22288 22290 22293 22296 22299 22302 22305 22308 22310 22313 22316 22319 22322 22325 22328 22331 22333 22336 22338 22341 22344 22347 22350 22353 22356 22359 22362 22365 22367 22370 22373 22376 22379 22382 22385 22387 22390 22393 22396 22399 22402 22405 22408 22411 22414 22417 22420 22423 22425 22428 22431 22434 22437 22440 22443 22446 22449 22451 22454 22457 22460 22463 22466 22468 22470 22473 22476 22479 22482 22485 22488 22491 22494 22497 22500 22503 22506 22509 22512 22515 22518 22521 22524 22527 22530 22532 22535 22538 22541 22543 22546 22548 22551 22554 22557 22560 22563 22566 22569 22572 22575 22578 22581 22584 22587 22590 22593 22596 22599 22602 22605 22608 22611 22614 22616 22619 22622 22625 22628 22631 22634 22637 22640 22643 22646 22649 22652 22655 22658 22661 22664 22667 22670 22673 22675 22677 22679 22681 22684 22686 22689 22692 22695 22698 22701 22704 22706 22709 22712 22715 22718 22721 22724 22727 22730 22733 22736 22739 22742 22745 22748 22751 22754 22757 22760 22763 22766 22769 22772 22774 22777 22780 22783 22786 22788 22790 22793 22796 22798 22801 22803 22805 22808 22810 22813 22816 22818 22821 22824 22826 22829 22832 22835 22837 22840 22843 22846 22849 22851 22854 22856 22859 22862 22864 22867 22870 22873 22876 22878 22880 22883 22886 22889 22892 22895 22898 22901 22904 22907 22910 22913 22916 22919 22922 22925 22927 22930 22933 22935 22938 22941 22944 22947 22950 22952 22955 22957 22960 22963 22966 22968 22971 22974 22977 22980 22983 22986 22988 22991 22993 22996 22999 23001 23004 23007 23009 23012 23015 23018 23020 23022 23025 23028 23031 23034 23037 23039 23042 23045 23048 23051 23053 23056 23058 23061 23064 23067 23070 23073 23076 23079 23081 23083 23085 23088 23091 23094 23097 23100 23103 23106 23109 23111 23114 23117 23120 23123 23126 23129 23131 23134 23137 23140 23143 23146 23148 23151 23154 23157 23160 23162 23165 23167 23170 23172 23174 23177 23180 23183 23186 23189 23192 23195 23197 23200 23203 23206 23209 23212 23215 23218 23221 23224 23227 23230 23233 23236 23239 23242 23245 23248 23251 23254 23257 23259 23262 23265 23268 23271 23274 23277 23280 23283 23286 23288 23291 23294 23297 23300 23303 23306 23309 23312 23315 23318 23321 23324 23327 23329 23332 23335 23338 23341 23344 23346 23348 23351 23354 23357 23360 23362 23365 23368 23371 23374 23377 23380 23382 23385 23388 23390 23393 23396 23399 23402 23405 23407 23410 23413 23415 23418 23421 23423 23425 23428 23431 23434 23437 23440 23443 23446 23448 23451 23454 23457 23460 23463 23466 23469 23472 23474 23477 23480 23482 23485 23487 23489 23492 23494 23497 23500 23503 23506 23508 23511 23514 23517 23520 23523 23526 23529 23531 23534 23537 23539 23542 23545 23548 23551 23554 23556 23559 23562 23565 23568 23571 23574 23577 23580 23583 23586 23589 23592 23595 23598 23601 23604 23606 23609 23612 23615 23618 23621 23624 23627 23630 23633 23636 23639 23642 23645 23647 23650 23653 23656 23659 23662 23665 23668 23671 23674 23677 23680 23683 23686 23689 23692 23695 23698 23701 23704 23707 23710 23712 23715 23717 23720 23722 23724 23727 23730 23732 23734 23737 23740 23743 23745 23748 23750 23752 23755 23758 23761 23764 23767 23769 23772 23774 23777 23780 23783 23786 23789 23791 23794 23797 23800 23803 23806 23809 23812 23815 23818 23821 23824 23827 23829 23832 23835 23838 23840 23843 23846 23849 23852 23855 23857 23859 23861 23863 23866 23869 23872 23875 23877 23880 23882 23884 23887 23890 23893 23896 23898 23901 23903 23906 23909 23912 23915 23918 23921 23924 23927 23930 23933 23936 23939 23941 23944 23947 23950 23953 23956 23959 23962 23965 23968 23971 23974 23977 23980 23983 23986 23989 23992 23995 23998 24001 24004 24007 24010 24013 24016 24019 24022 24025 24028 24031 24034 24037 24040 24043 24046 24049 24052 24055 24058 24061 24064 24067 24069 24072 24075 24077 24080 24083 24085 24088 24091 24094 24097 24100 24103 24106 24109 24112 24115 24118 24121 24124 24127 24130 24133 24136 24139 24142 24145 24148 24151 24154 24157 24160 24163 24166 24169 24172 24175 24178 24180 24183 24185 24187 24190 24193 24195 24198 24201 24204 24207 24210 24213 24216 24218 24221 24223 24225 24228 24231 24234 24237 24240 24243 24246 24249 24252 24255 24258 24261 24264 24266 24269 24272 24274 24276 24279 24282 24285 24288 24291 24294 24297 24300 24303 24305 24308 24311 24314 24317 24320 24323 24326 24329 24332 24335 24338 24341 24344 24346 24349 24352 24355 24357 24360 24363 24366 24369 24372 24375 24378 24381 24384 24387 24390 24393 24396 24399 24402 24404 24407 24410 24413 24416 24419 24422 24425 24428 24431 24434 24437 24440 24443 24446 24449 24451 24454 24457 24460 24463 24466 24469 24471 24474 24477 24480 24483 24486 24489 24492 24495 24498 24501 24504 24507 24510 24513 24516 24518 24521 24524 24527 24530 24533 24536 24538 24541 24543 24546 24549 24552 24555 24557 24560 24563 24565 24568 24571 24574 24577 24580 24583 24586 24589 24592 24595 24597 24600 24602 24605 24608 24610 24612 24615 24618 24621 24624 24627 24629 24632 24635 24638 24640 24643 24646 24648 24651 24654 24657 24660 24663 24666 24669 24672 24675 24678 24681 24683 24686 24689 24692 24695 24698 24700 24703 24706 24709 24711 24714 24717 24719 24722 24725 24728 24731 24734 24736 24739 24742 24745 24748 24751 24754 24756 24759 24762 24764 24767 24770 24773 24776 24779 24782 24785 24788 24791 24794 24797 24800 24803 24806 24809 24812 24815 24818 24821 24824 24827 24830 24833 24836 24839 24842 24845 24848 24851 24854 24857 24859 24862 24865 24868 24871 24874 24877 24880 24883 24886 24889 24892 24895 24898 24901 24904 24907 24910 24913 24916 24919 24922 24924 24927 24930 24933 24936 24939 24941 24944 24947 24949 24952 24954 24957 24960 24963 24966 24969 24971 24974 24976 24979 24982 24985 24988 24991 24994 24996 24999 25001 25004 25007 25010 25013 25016 25019 25022 25025 25028 25031 25034 25037 25039 25042 25045 25048 25051 25054 25056 25059 25062 25065 25068 25071 25074 25076 25079 25082 25085 25088 25091 25094 25097 25100 25103 25105 25108 25111 25113 25116 25119 25122 25125 25128 25131 25133 25136 25139 25142 25145 25148 25151 25154 25157 25159 25162 25165 25168 25171 25174 25177 25180 25183 25186 25188 25191 25194 25197 25200 25202 25205 25208 25211 25214 25217 25220 25223 25226 25228 25231 25234 25237 25240 25243 25246 25249 25252 25254 25257 25259 25262 25265 25268 25270 25273 25276 25279 25282 25284 25287 25290 25293 25295 25298 25301 25304 25306 25309 25312 25315 25318 25320 25323 25326 25329 25332 25334 25337 25340 25343 25346 25349 25351 25354 25357 25360 25363 25366 25369 25372 25375 25378 25381 25384 25387 25390 25393 25396 25399 25401 25404 25407 25410 25413 25416 25418 25421 25424 25427 25430 25433 25436 25438 25441 25444 25447 25450 25453 25456 25459 25462 25464 25467 25470 25473 25476 25479 25482 25485 25487 25490 25493 25496 25499 25502 25505 25508 25511 25514 25517 25520 25523 25525 25528 25531 25534 25537 25540 25543 25546 25549 25552 25555 25558 25561 25564 25567 25570 25573 25576 25578 25581 25584 25587 25590 25593 25595 25598 25600 25603 25606 25609 25612 25614 25617 25620 25622 25625 25628 25631 25633 25636 25639 25642 25645 25648 25651 25654 25657 25660 25663 25665 25668 25671 25674 25676 25679 25682 25685 25688 25691 25694 25697 25700 25703 25706 25709 25712 25715 25718 25721 25724 25727 25730 25733 25735 25737 25740 25743 25746 25748 25751 25753 25756 25759 25762 25765 25768 25771 25774 25777 25779 25782 25785 25788 25791 25794 25797 25800 25802 25805 25808 25811 25814 25817 25819 25822 25824 25827 25830 25833 25836 25839 25842 25845 25848 25851 25854 25857 25860 25863 25866 25869 25872 25875 25878 25881 25884 25887 25890 25893 25896 25899 25902 25905 25908 25911 25914 25917 25920 25923 25926 25929 25932 25935 25938 25941 25944 25947 25950 25953 25956 25959 25962 25965 25968 25971 25974 25977 25980 25983 25986 25989 25992 25995 25998 26001 26004 26007 26010 26013 26016 26019 26022 26025 26028 26031 26034 26037 26040 26043 26045 26048 26051 26054 26056 26059 26062 26065 26068 26071 26074 26077 26080 26083 26086 26089 26092 26095 26098 26101 26104 26107 26110 26113 26116 26118 26121 26124 26127 26130 26132 26135 26138 26141 26143 26146 26149 26152 26155 26157 26160 26163 26166 26169 26171 26174 26177 26180 26183 26186 26189 26192 26195 26198 26201 26204 26207 26210 26213 26216 26219 26222 26225 26228 26230 26232 26235 26238 26241 26244 26247 26250 26253 26256 26259 26262 26265 26268 26271 26274 26277 26280 26283 26286 26289 26292 26295 26298 26301 26304 26307 26310 26313 26316 26319 26322 26325 26328 26331 26334 26337 26340 26343 26346 26349 26352 26354 26357 26360 26363 26366 26369 26371 26374 26377 26379 26382 26385 26388 26391 26394 26397 26400 26403 26406 26409 26412 26415 26418 26421 26424 26427 26430 26433 26436 26439 26442 26445 26448 26451 26454 26457 26460 26463 26465 26468 26471 26474 26477 26480 26483 26486 26489 26492 26495 26498 26501 26504 26507 26510 26513 26516 26519 26522 26525 26528 26531 26534 26537 26540 26543 26546 26549 26552 26555 26558 26561 26564 26567 26570 26573 26576 26579 26582 26585 26587 26590 26593 26596 26599 26602 26605 26608 26611 26614 26617 26620 26622 26625 26628 26631 26634 26637 26640 26643 26646 26648 26651 26654 26657 26660 26663 26665 26668 26671 26674 26676 26679 26682 26685 26688 26690 26693 26695 26698 26701 26704 26706 26709 26711 26714 26717 26720 26723 26726 26729 26732 26735 26738 26741 26744 26747 26750 26753 26756 26759 26762 26765 26768 26771 26774 26777 26780 26783 26786 26789 26792 26795 26798 26801 26804 26807 26809 26812 26815 26817 26820 26823 26826 26829 26832 26834 26837 26839 26842 26845 26848 26851 26854 26857 26860 26863 26866 26869 26871 26874 26877 26880 26883 26886 26889 26892 26895 26898 26901 26904 26907 26910 26913 26915 26918 26921 26923 26926 26929 26932 26935 26938 26941 26944 26947 26950 26953 26955 26958 26961 26964 26967 26969 26972 26975 26978 26981 26984 26987 26990 26992 26995 26998 27000 27003 27005 27008 27011 27014 27017 27020 27023 27025 27028 27030 27033 27036 27039 27042 27044 27047 27049 27052 27055 27058 27060 27062 27065 27067 27070 27073 27076 27079 27082 27085 27087 27090 27092 27095 27097 27100 27103 27106 27109 27112 27115 27118 27121 27124 27127 27130 27133 27136 27139 27142 27145 27148 27151 27154 27157 27160 27163 27166 27169 27172 27175 27178 27180 27183 27186 27189 27191 27194 27197 27199 27202 27205 27208 27211 27214 27217 27219 27222 27225 27227 27230 27233 27236 27239 27242 27245 27248 27251 27254 27257 27260 27263 27266 27269 27272 27275 27278 27281 27284 27287 27290 27293 27296 27299 27302 27305 27308 27311 27314 27317 27319 27322 27325 27328 27330 27333 27336 27339 27342 27345 27348 27351 27354 27357 27360 27363 27366 27369 27372 27375 27378 27381 27384 27387 27390 27393 27396 27399 27402 27405 27408 27411 27414 27417 27420 27423 27426 27429 27432 27435 27438 27441 27444 27447 27450 27453 27456 27459 27462 27465 27468 27471 27474 27477 27480 27483 27486 27489 27492 27495 27498 27501 27504 27507 27510 27513 27516 27519 27522 27524 27527 27530 27533 27536 27539 27542 27545 27548 27551 27554 27557 27560 27563 27565 27568 27571 27574 27577 27580 27583 27586 27589 27591 27594 27596 27599 27602 27605 27608 27611 27614 27617 27620 27623 27625 27628 27630 27633 27636 27639 27642 27645 27648 27651 27654 27657 27660 27663 27666 27669 27672 27675 27678 27681 27684 27687 27690 27693 27696 27698 27701 27704 27707 27709 27712 27715 27718 27720 27723 27726 27729 27732 27735 27738 27741 27744 27747 27750 27753 27755 27758 27761 27764 27766 27769 27772 27774 27777 27780 27783 27786 27789 27792 27795 27798 27801 27804 27807 27810 27813 27816 27819 27822 27825 27828 27831 27834 27837 27840 27843 27846 27849 27852 27855 27858 27860 27863 27866 27869 27872 27875 27877 27880 27882 27884 27887 27890 27892 27894 27897 27900 27903 27906 27909 27911 27914 27917 27919 27922 27925 27927 27930 27932 27935 27938 27941 27944 27947 27950 27952 27955 27958 27961 27963 27966 27968 27970 27973 27975 27978 27981 27984 27987 27989 27992 27995 27998 28001 28004 28007 28010 28013 28015 28018 28021 28024 28027 28030 28032 28035 28038 28040 28043 28046 28049 28052 28055 28058 28061 28063 28066 28069 28072 28075 28078 28081 28084 28087 28090 28093 28096 28099 28102 28105 28108 28111 28114 28117 28120 28123 28126 28129 28132 28135 28138 28141 28144 28147 28150 28153 28156 28159 28162 28165 28167 28170 28173 28176 28179 28182 28185 28188 28191 28194 28197 28200 28203 28206 28209 28212 28214 28217 28220 28222 28225 28227 28230 28233 28236 28239 28242 28245 28248 28250 28253 28256 28259 28262 28264 28267 28270 28272 28275 28278 28281 28284 28286 28289 28292 28295 28298 28301 28303 28306 28308 28311 28314 28316 28319 28322 28325 28327 28330 28333 28336 28339 28342 28345 28348 28351 28354 28356 28359 28362 28365 28367 28370 28373 28376 28379 28381 28384 28386 28389 28392 28394 28397 28400 28403 28405 28407 28410 28413 28416 28419 28421 28423 28426 28428 28431 28433 28436 28439 28442 28445 28448 28451 28454 28457 28459 28462 28465 28467 28470 28472 28474 28477 28480 28482 28485 28488 28491 28494 28497 28500 28503 28506 28509 28512 28515 28518 28521 28524 28527 28530 28533 28536 28538 28541 28543 28546 28548 28551 28554 28556 28559 28562 28565 28568 28571 28574 28577 28580 28583 28585 28588 28591 28594 28597 28600 28603 28606 28608 28611 28614 28617 28620 28622 28625 28628 28631 28634 28637 28640 28642 28645 28648 28651 28654 28657 28660 28663 28666 28669 28672 28675 28678 28681 28683 28686 28689 28692 28695 28697 28700 28703 28705 28708 28711 28714 28717 28720 28723 28726 28729 28732 28735 28738 28741 28744 28747 28750 28753 28756 28759 28762 28765 28768 28771 28774 28777 28780 28783 28786 28789 28792 28794 28797 28800 28803 28805 28808 28811 28814 28817 28820 28823 28826 28829 28832 28835 28838 28841 28844 28847 28850 28853 28856 28859 28862 28865 28868 28871 28874 28877 28880 28883 28886 28889 28892 28895 28898 28901 28904 28907 28910 28913 28916 28919 28922 28925 28928 28931 28934 28937 28939 28942 28945 28947 28950 28952 28955 28958 28961 28963 28966 28969 28972 28975 28978 28981 28984 28987 28989 28992 28995 28998 29000 29003 29006 29009 29012 29015 29018 29021 29024 29027 29030 29033 29036 29039 29041 29043 29046 29049 29052 29055 29057 29060 29063 29066 29069 29071 29074 29077 29080 29083 29086 29089 29092 29095 29098 29101 29104 29107 29110 29113 29116 29119 29122 29125 29128 29131 29134 29136 29139 29141 29143 29146 29149 29152 29155 29158 29160 29163 29166 29169 29172 29175 29178 29181 29184 29187 29190 29193 29196 29199 29201 29204 29207 29210 29213 29216 29219 29222 29225 29228 29231 29234 29237 29239 29242 29245 29248 29250 29253 29256 29258 29261 29263 29266 29269 29272 29275 29278 29281 29284 29287 29290 29293 29296 29299 29302 29305 29308 29311 29313 29316 29319 29322 29325 29328 29331 29334 29337 29340 29343 29346 29349 29352 29355 29357 29360 29363 29366 29369 29372 29375 29378 29381 29384 29387 29390 29393 29396 29399 29402 29405 29408 29411 29414 29417 29420 29423 29426 29429 29432 29434 29437 29440 29443 29446 29449 29451 29454 29457 29460 29463 29465 29468 29471 29474 29477 29479 29482 29485 29488 29491 29494 29497 29500 29503 29506 29509 29512 29515 29518 29521 29524 29527 29530 29533 29536 29539 29542 29545 29548 29551 29554 29557 29560 29563 29566 29569 29572 29575 29578 29581 29583 29586 29589 29592 29594 29596 29599 29601 29604 29607 29610 29613 29616 29619 29622 29625 29627 29630 29632 29635 29638 29641 29643 29646 29649 29652 29655 29658 29661 29664 29667 29670 29673 29676 29679 29682 29685 29688 29691 29694 29697 29700 29703 29706 29709 29711 29714 29717 29720 29723 29726 29729 29732 29735 29738 29741 29744 29747 29749 29752 29755 29758 29761 29764 29767 29770 29772 29775 29778 29781 29784 29786 29789 29792 29795 29797 29800 29802 29805 29808 29810 29813 29816 29819 29821 29823 29826 29829 29832 29835 29838 29841 29844 29847 29850 29853 29856 29859 29862 29865 29868 29871 29874 29876 29879 29882 29885 29888 29891 29894 29897 29899 29902 29905 29908 29911 29913 29916 29919 29922 29925 29927 29930 29933 29935 29938 29940 29943 29946 29948 29951 29954 29957 29960 29962 29965 29968 29971 29974 29976 29979 29982 29985 29988 29990 29993 
</DataArray>
<DataArray type="UInt32" Name="types" format="ascii">
5 5 5 3 5 5 5 3 5 5 5 5 5 5 5 5 5 5 5 5 5 5 5 5 5 5 5 5 5 5 3 5 5 5 5 5 3 5 5 5 5 5 5 5 5 5 5 5 5 3 5 5 5 5 5 3 5 5 5 5 5 5 5 5 5 5 5 5 5 5 3 5 5 5 5 5 3 5 5 5 5 5 5 5 3 5 5 3 5 5 5 5 5 3 5 5 3 5 5 5 5 3 5 5 5 5 3 5 5 3 3 5 5 5 5 3 5 5 5 5 5 5 5 5 5 5 5 5 5 5 5 5 5 5 5 5 5 5 5 5 5 5 5 5 5 5 3 5 5 5 5 5 3 5 5 5 5 5 5 5 5 5 5 5 5 3 5 5 3 5 3 3 5 5 5 5 5 5 5 5 5 5 5 3 5 5 5 5 5 5 5 5 5 5 5 5 3 3 5 5 5 5 3 5 5 5 3 3 5 5 5 5 5 5 3 5 5 5 5 5 5 5 5 3 5 5 5 3 5 5 5 5 5 5 5 5 5 5 5 5 5 5 5 5 5 5 5 5 5 5 5 5 3 5 5 5 5 5 5 5 5 5 5 5 3 5 5 5 3 5 5 5 5 5 5 5 5 5 3 5 5 5 5 5 5 5 5 5 5 3 5 5 5 5 5 5 5 5 5 3 5 5 5 5 3 5 5 5 5 5 5 3 5 5 5 3 5 5 5 5 5 5 5 5 5 3 5 3 5 5 3 3 5 5 5 5 3 5 5 3 5 5 5 5 5 3 5 3 5 5 5 3 3 5 5 5 5 5 5 5 5 5 5 5 5 5 5 5 5 5 5 5 5 5 5 5 5 5 5 5 5 5 5 3 5 5 5 5 5 5 5 5 5 5 5 5 5 5 5 5 5 5 5 5 5 5 5 5 5 5 5 5 5 5 5 5 5 5 5 5 5 5 3 5 5 5 5 5 5 5 5 5 5 5 5 5 5 5 5 5 5 3 5 5 5 5 3 5 5 5 5 5 5 5 5 5 5 5 5 5 3 5 5 5 3 5 5 5 5 5 5 5 5 5 5 5 5 5 5 5 5 5 5 5 5 5 5 5 5 3 5 5 5 5 5 3 5 5 5 3 5 5 5 3 5 5 5 5 5 5 5 3 5 3 3 5 5 3 5 5 3 5 5 3 5 5 3 3 5 5 5 3 5 5 5 3 5 5 5 5 5 3 3 5 5 3 3 3 5 3 5 5 5 5 5 3 5 3 3 5 3 5 5 3 5 5 5 5 5 5 5 5 3 5 5 5 5 5 5 5 3 5 5 5 3 5 5 5 5 3 5 5 5 3 5 5 5 5 5 5 3 5 5 5 5 3 5 5 5 3 3 5 5 5 5 5 5 5 5 5 3 5 5 5 5 5 5 5 5 5 5 3 5 5 5 5 5 5 5 5 3 5 5 5 5 5 5 5 5 5 5 3 5 5 5 5 3 5 5 5 5 5 5 5 5 5 5 5 5 5 3 5 5 5 3 5 5 3 5 5 3 5 5 3 5 5 5 5 5 5 5 3 5 5 5 5 5 5 5 5 3 5 3 3 5 5 5 3 5 5 3 5 3 5 5 3 5 5 5 5 5 5 5 5 5 5 5 5 5 5 5 5 3 5 5 5 5 3 5 3 5 5 5 5 5 5 5 5 5 5 5 5 5 5 5 5 5 5 5 5 5 5 5 5 5 3 5 5 5 5 5 3 5 5 5 5 5 5 5 5 3 5 5 5 5 5 5 5 5 5 5 5 5 5 5 5 5 5 5 5 5 5 5 5 5 5 5 5 5 5 5 5 5 5 5 5 5 5 5 5 5 3 5 5 5 5 5 5 5 5 5 5 5 5 5 5 5 5 5 5 5 5 5 5 5 5 5 5 5 5 5 3 5 5 5 5 5 5 5 5 5 5 5 5 5 5 5 5 5 5 5 5 5 5 5 5 5 5 5 3 5 5 5 5 5 3 5 5 5 5 3 5 5 5 5 5 5 5 5 5 3 5 5 5 5 5 5 3 5 5 5 3 5 5 5 5 5 5 5 5 5 3 5 5 3 5 5 5 3 3 3 5 5 5 5 5 5 5 5 5 5 3 5 5 5 5 5 5 5 5 5 5 3 5 5 5 5 5 5 5 5 5 3 5 5 3 5 5 3 5 5 5 5 5 5 5 5 5 3 5 5 5 5 5 5 5 3 3 5 5 5 5 5 5 5 5 5 5 5 3 5 5 5 5 5 5 5 5 5 5 5 5 3 5 5 5 5 5 5 5 5 5 5 5 5 5 5 5 5 5 5 5 5 5 5 5 5 5 5 5 5 5 5 5 5 5 5 5 5 5 5 5 5 5 5 5 5 5 5 5 3 5 5 5 5 5 5 5 5 5 5 5 5 3 5 5 5 5 5 5 3 5 5 5 5 5 3 5 5 5 5 5 5 3 5 5 5 5 5 5 3 5 5 3 5 5 5 5 5 3 5 5 5 3 5 5 3 5 5 5 5 5 3 5 3 5 5 5 3 5 5 3 5 5 5 5 5 5 5 3 5 5 5 5 3 5 5 5 3 5 5 5 5 5 5 5 5 5 5 5 5 5 5 5 5 5 5 5 5 5 5 3 5 5 5 5 5 5 3 5 5 5 5 5 5 5 5 5 5 5 5 5 5 3 5 5 5 5 5 5 5 5 5 5 5 5 5 5 5 5 3 5 5 5 3 5 5 3 5 5 5 5 5 3 5 5 5 5 5 5 5 5 5 3 5 5 5 5 5 5 5 5 5 5 5 5 3 5 5 5 5 5 5 5 5 5 3 5 5 3 5 5 3 5 5 5 5 3 5 5 5 5 5 5 5 5 5 5 5 5 5 5 5 5 3 5 5 5 5 5 5 5 5 5 5 5 5 5 5 3 5 5 5 5 5 5 5 5 5 5 3 3 5 5 5 3 5 5 5 5 5 5 5 5 5 5 5 5 5 5 3 5 5 3 5 5 5 5 5 5 5 5 5 3 5 5 5 5 5 5 5 5 5 5 5 3 5 5 5 5 5 5 5 5 5 5 3 3 5 5 5 5 3 5 5 5 5 3 5 5 3 3 5 5 5 5 3 5 5 3 5 5 5 3 3 5 5 5 5 5 5 5 5 5 5 5 5 5 5 5 5 5 5 5 3 5 5 5 5 5 5 5 5 5 5 5 5 5 5 5 5 3 3 5 5 3 3 5 5 5 5 5 5 5 5 5 5 3 5 5 5 5 5 3 5 5 5 5 5 5 5 3 5 5 3 5 5 5 5 5 3 5 5 5 5 5 3 5 5 5 3 3 5 3 5 5 5 5 5 5 5 5 5 5 5 3 5 3 5 5 5 5 5 5 3 3 5 5 5 5 5 5 5 5 5 5 5 5 5 5 5 5 5 5 3 5 5 3 5 5 5 5 5 5 5 3 5 3 5 3 5 3 5 5 5 3 3 5 5 5 3 5 5 5 5 5 5 5 5 5 5 5 3 5 5 3 5 5 5 3 5 5 3 5 5 3 5 3 5 5 5 5 5 5 5 5 5 5 5 5 5 5 5 5 5 5 3 5 5 3 5 5 5 5 3 5 5 5 5 5 3 5 5 5 5 5 5 5 5 5 5 5 5 5 5 5 5 5 5 5 5 5 5 5 5 5 5 5 5 5 5 5 3 5 5 5 5 5 5 5 5 5 3 5 5 5 5 5 5 5 5 5 5 3 5 5 5 5 3 3 5 5 5 5 5 5 5 5 5 5 5 5 5 5 5 5 5 5 5 3 5 5 5 5 5 5 5 5 5 5 5 5 5 5 5 5 5 5 5 5 5 3 5 5 5 5 5 5 5 5 5 5 3 5 5 5 5 3 5 5 5 3 5 5 5 5 5 5 5 5 5 3 5 3 5 3 5 3 5 5 5 3 5 5 5 5 5 5 5 5 5 5 3 5 3 5 5 5 3 5 5 5 3 5 5 5 3 5 3 3 5 3 5 5 5 3 3 5 5 3 5 5 5 5 5 3 3 5 5 3 5 5 3 3 5 5 3 5 3 5 5 5 3 3 5 5 5 5 5 5 5 3 5 5 5 5 5 5 5 5 5 3 5 5 3 3 5 5 5 5 5 5 3 5 5 3 5 3 5 5 3 5 3 5 5 5 5 5 5 5 5 5 5 5 5 5 5 5 5 5 5 5 5 5 5 3 5 3 5 5 5 5 5 5 5 5 3 5 5 5 5 5 5 5 5 5 5 5 3 5 5 5 5 5 3 5 5 5 3 5 5 5 3 5 5 5 5 5 5 5 5 5 5 5 5 5 5 5 5 5 5 5 5 5 5 5 5 5 5 5 5 5 5 5 5 5 5 3 5 5 5 5 5 5 5 5 5 5 5 5 5 5 5 5 3 5 5 5 5 5 3 5 5 3 5 5 5 5 5 3 3 5 5 5 5 5 5 5 5 5 5 5 5 5 5 5 5 5 5 5 5 5 5 5 5 5 5 5 5 5 5 5 5 5 5 5 5 3 3 5 5 3 5 5 5 3 3 5 3 3 5 5 5 3 5 5 5 3 5 5 5 3 5 5 5 5 5 5 5 5 5 3 5 5 5 5 5 5 5 3 5 5 5 3 5 3 5 5 5 5 5 5 5 5 5 5 5 5 5 5 3 5 5 5 5 3 3 5 5 3 5 5 5 3 5 5 5 5 5 5 3 5 5 3 3 5 5 5 5 5 5 3 3 5 5 5 5 5 5 5 5 5 5 3 5 5 3 5 5 5 5 3 5 3 5 3 5 5 3 5 5 5 5 5 3 5 5 5 5 5 5 5 5 5 3 5 5 5 5 5 5 5 5 5 5 3 5 5 5 5 5 3 5 3 5 3 5 5 5 5 5 5 5 5 5 5 5 5 5 3 5 5 5 5 5 5 5 5 5 5 5 5 5 5 5 5 5 3 5 5 5 5 5 5 5 5 5 5 5 5 5 5 5 5 5 5 3 5 5 3 5 5 5 5 5 5 5 5 5 5 5 5 5 5 5 5 5 5 5 5 3 5 5 5 5 5 5 5 5 5 5 5 5 5 5 5 5 5 5 5 5 5 5 5 5 5 5 5 5 5 3 5 5 5 3 5 5 5 5 5 5 5 5 5 5 5 3 5 5 3 5 5 5 5 5 5 5 5 5 5 5 5 5 5 5 5 5 5 5 5 5 5 5 5 3 5 5 5 5 5 5 5 5 5 5 5 5 5 5 5 5 3 5 5 5 5 5 5 5 5 5 5 5 5 5 5 5 5 5 5 5 5 5 5 5 5 5 5 5 5 5 5 3 5 5 5 5 5 5 5 5 5 3 5 5 5 5 5 5 5 5 3 5 5 3 5 5 3 5 5 3 5 5 5 5 5 5 5 5 5 5 3 5 5 5 5 5 5 5 3 5 3 5 5 5 5 5 5 5 5 3 5 5 3 3 5 5 3 5 5 5 3 3 5 5 5 5 5 5 5 5 5 5 5 5 5 5 5 5 5 5 5 5 5 5 3 5 5 5 5 5 5 5 5 5 5 5 5 5 5 5 5 5 5 5 3 3 5 5 5 3 3 3 5 5 5 5 5 5 5 5 5 5 5 5 5 5 5 3 5 5 5 5 5 5 3 5 5 3 5 5 5 5 3 5 5 5 3 5 5 5 5 5 5 5 5 3 5 5 5 3 3 5 5 5 5 3 3 5 3 5 5 5 5 5 5 3 5 5 5 5 5 3 3 5 5 5 5 5 5 5 5 3 3 5 3 5 5 3 5 5 3 5 5 5 3 3 3 5 5 5 5 5 5 3 5 5 5 3 5 5 5 5 3 5 5 3 5 3 3 5 5 5 5 5 3 5 3 3 5 5 3 5 5 5 3 5 5 5 5 5 3 3 5 5 5 5 3 3 3 5 3 5 5 3 5 5 5 3 5 3 5 5 5 3 5 5 5 3 5 3 5 5 3 5 5 5 3 3 5 5 3 5 5 3 5 5 5 5 3 3 5 5 5 5 5 5 3 5 5 5 5 5 5 5 5 5 3 5 5 5 5 3 5 5 5 5 5 5 5 5 5 5 5 5 3 5 5 5 3 5 5 5 5 5 5 5 5 5 5 5 3 5 5 5 3 3 5 5 3 5 5 5 5 5 5 5 5 5 5 5 3 5 5 5 5 5 5 3 3 5 5 5 5 3 3 5 5 5 5 3 5 5 5 5 5 5 5 5 5 5 3 5 5 5 5 3 5 5 5 5 5 5 5 5 5 5 5 5 5 5 5 5 5 5 5 5 5 5 5 5 5 5 5 5 5 5 3 5 5 5 5 5 5 3 5 3 5 3 5 5 5 5 5 5 5 3 5 5 5 5 5 5 5 5 3 5 5 5 5 5 5 3 5 5 5 3 5 5 5 5 5 5 5 5 5 5 3 3 5 5 5 5 5 5 5 5 5 5 5 5 5 5 5 5 5 3 5 5 3 5 5 5 5 5 5 5 5 5 5 5 3 5 5 5 5 5 5 3 5 5 5 5 5 5 5 5 5 5 5 3 5 5 5 5 3 5 5 5 3 5 5 5 5 5 5 5 5 3 5 5 5 5 5 5 5 5 3 5 5 3 5 5 5 5 5 5 5 5 5 5 5 5 5 3 5 5 5 5 3 5 5 5 5 5 5 5 5 3 5 3 3 5 5 5 5 5 5 5 5 5 5 5 5 5 5 3 3 5 5 5 5 3 3 5 3 5 5 3 5 3 3 5 5 3 5 5 3 5 5 3 3 5 3 5 5 5 5 5 3 5 3 5 5 5 5 5 5 3 5 3 5 5 3 5 5 5 3 3 5 5 3 5 3 5 3 5 5 5 5 3 5 5 3 5 5 5 5 5 5 5 5 5 5 5 3 3 5 5 5 5 3 5 5 5 5 5 3 5 5 5 5 5 5 3 5 5 5 3 5 5 5 5 5 5 5 5 5 5 5 5 5 5 5 3 5 5 3 5 5 5 3 5 5 5 5 3 5 5 3 5 3 5 5 5 5 3 5 5 5 5 5 3 5 5 5 5 5 3 5 5 5 5 5 5 5 5 5 5 5 5 5 5 5 5 5 3 5 5 5 5 3 5 5 3 5 5 3 5 5 3 5 5 3 5 5 5 5 5 5 5 5 5 5 5 5 3 5 5 5 3 5 5 5 5 5 5 5 5 5 5 5 3 3 5 5 5 5 5 3 5 5 5 5 3 5 5 3 5 5 5 5 5 5 5 5 5 5 5 5 5 5 5 5 5 5 3 5 5 5 5 3 5 5 5 5 5 5 5 5 3 3 5 5 5 5 5 5 5 5 5 5 5 5 5 5 3 5 5 5 3 5 5 3 5 5 5 5 5 5 5 5 5 5 5 5 5 5 5 5 5 5 5 5 5 5 5 5 5 3 5 5 5 5 5 5 5 5 5 5 5 5 5 5 5 5 5 5 5 5 5 3 5 5 5 5 5 3 5 5 5 3 3 5 5 5 3 5 5 5 5 5 5 5 5 5 5 5 5 5 3 5 5 5 5 5 5 5 5 5 3 5 5 5 5 5 5 5 5 5 5 5 3 5 5 5 5 5 5 5 5 5 5 3 5 5 5 3 5 5 5 5 5 5 5 5 5 5 5 3 5 5 5 5 3 5 3 5 5 5 5 3 5 5 3 3 5 5 3 5 5 5 3 5 5 5 5 5 3 5 5 5 5 3 5 5 5 5 5 5 5 5 5 5 5 5 5 5 5 5 5 3 5 5 5 5 5 5 5 5 5 5 5 5 5 5 5 5 3 5 5 5 5 5 5 3 3 5 5 5 5 5 5 5 3 5 5 5 5 5 5 3 5 5 3 5 5 5 5 3 5 3 5 5 5 5 3 5 5 5 5 5 5 5 5 3 5 5 5 5 3 5 5 3 5 3 5 5 5 5 5 5 5 5 5 5 5 5 5 5 3 5 5 3 5 3 5 3 5 3 5 3 5 5 5 5 5 5 5 5 5 5 5 5 3 5 5 3 5 3 5 5 3 5 5 5 3 5 5 3 5 5 5 5 5 5 5 5 5 5 5 3 3 5 5 5 5 5 5 3 5 5 5 5 3 5 5 5 5 5 5 5 5 5 3 5 5 5 3 5 5 5 5 5 5 5 5 5 5 5 5 3 5 5 5 5 3 5 5 5 5 5 5 5 5 5 5 5 5 5 3 3 5 5 5 3 5 5 5 5 5 5 5 5 5 5 5 5 5 5 5 5 5 5 5 3 5 5 3 5 5 5 5 5 5 5 5 5 5 5 5 5 5 5 5 5 5 5 5 5 5 5 5 5 5 5 5 5 5 5 5 5 5 5 5 5 5 5 5 5 5 5 5 5 5 3 5 3 5 5 5 5 5 5 5 5 5 5 5 5 5 5 5 5 5 5 5 5 5 5 5 5 5 5 5 5 5 5 5 5 5 5 5 5 5 5 3 5 5 5 5 5 5 5 3 5 5 5 3 5 5 5 5 3 5 5 5 5 5 5 5 5 5 5 5 5 5 5 5 5 5 5 5 5 5 5 5 5 5 5 5 5 5 5 5 5 5 5 3 3 5 5 3 5 5 3 5 5 5 3 5 5 5 5 5 3 5 5 5 3 5 5 5 5 5 5 5 5 5 5 5 5 5 3 5 5 5 5 5 3 5 5 5 5 5 5 5 3 5 5 5 3 5 3 5 5 3 5 5 5 3 3 5 3 3 5 3 5 5 5 3 5 3 5 5 3 5 5 5 5 5 5 5 3 5 5 5 5 5 5 5 3 5 5 5 5 5 5 5 5 5 5 5 3 5 5 5 5 5 5 5 5 5 3 5 5 5 5 3 5 5 5 5 5 5 5 5 5 3 5 5 5 5 5 5 5 5 5 3 5 5 3 5 5 3 5 5 5 5 5 3 5 5 5 5 5 5 5 5 5 5 5 5 5 5 5 5 5 5 5 5 5 5 5 5 3 5 5 5 5 5 5 5 5 5 5 5 5 5 5 5 3 5 5 5 5 5 5 5 3 5 5 5 3 5 5 5 5 5 5 5 5 5 5 5 5 5 5 5 5 5 5 3 3 5 5 5 5 5 5 5 3 5 5 5 5 5 5 5 5 5 3 5 5 3 5 5 5 5 5 5 5 5 3 5 5 5 5 5 5 5 5 5 3 5 5 5 5 5 5 5 3 3 5 3 5 5 5 5 5 5 5 5 5 3 5 5 5 5 5 5 5 5 5 5 3 5 5 5 5 5 5 3 5 5 5 5 5 5 3 5 5 5 5 5 3 5 5 3 5 5 3 5 3 5 5 3 5 5 5 5 5 5 5 3 5 5 5 5 5 5 5 5 3 3 5 5 5 5 5 5 5 5 5 5 5 5 5 5 5 5 5 3 3 5 5 5 5 5 5 5 5 5 5 3 5 3 3 5 5 5 5 5 3 5 3 5 5 5 3 5 5 5 5 5 5 3 5 5 5 5 5 5 5 3 5 5 3 5 5 5 5 5 5 5 3 5 5 5 5 5 5 5 5 5 5 5 5 5 5 5 5 5 5 5 5 5 5 5 5 5 5 5 5 5 3 3 5 5 5 3 5 5 5 5 3 5 5 5 5 5 3 3 5 5 5 5 3 5 5 3 5 5 5 5 5 5 5 5 5 5 5 5 5 5 5 5 5 5 5 5 3 5 5 5 3 5 5 5 5 5 5 5 5 5 5 5 5 5 3 5 5 5 5 5 5 5 5 5 3 5 5 3 5 5 5 5 5 3 5 3 5 5 5 5 5 5 5 5 5 3 5 5 5 5 5 3 5 5 3 3 5 5 5 5 3 5 5 5 5 5 5 5 5 5 5 5 5 5 5 5 5 5 5 5 5 5 5 5 5 5 5 5 5 5 5 5 3 5 5 5 5 5 5 5 5 5 5 5 5 3 5 5 5 5 5 5 5 5 5 3 5 5 5 5 5 5 5 5 5 5 5 5 5 3 5 5 5 5 5 5 5 5 5 5 5 5 5 3 5 5 3 3 5 5 5 5 5 5 5 5 5 5 5 5 5 3 5 5 5 3 5 5 5 3 3 3 5 5 5 5 5 3 5 5 3 5 3 3 5 5 5 5 5 5 5 5 5 5 5 5 5 5 5 5 5 5 5 5 5 5 3 5 5 3 5 5 5 3 5 5 5 5 5 5 5 5 5 5 5 5 5 5 5 5 5 5 5 5 5 5 5 5 5 5 5 5 5 5 5 5 5 5 5 5 5 5 5 5 5 5 5 5 5 5 5 5 5 5 5 5 3 5 3 5 5 3 5 5 5 3 3 5 5 5 5 5 5 5 5 5 5 3 5 5 5 3 3 5 5 5 5 5 5 5 3 5 5 5 5 5 5 5 5 5 3 5 5 5 5 5 5 5 5 5 5 5 5 5 5 5 5 5 5 5 5 5 5 5 5 5 5 5 5 5 5 5 5 5 5 5 5 5 5 5 5 5 5 5 5 5 5 5 5 5 5 5 5 5 5 5 5 5 3 5 5 5 5 5 5 5 5 5 5 5 5 3 5 5 5 5 5 5 5 5 5 5 5 5 5 5 5 5 5 5 5 5 5 5 5 5 5 5 5 5 5 5 5 5 5 5 5 5 5 5 5 5 5 5 5 5 5 5 5 5 5 5 5 5 5 5 5 5 5 5 5 5 5 5 5 5 5 3 5 5 5 5 5 5 5 5 5 5 5 5 5 5 5 5 5 5 5 5 5 5 5 5 5 5 5 5 3 5 5 5 5 5 5 5 5 5 5 5 5 3 5 5 5 5 5 5 5 5 5 5 3 5 5 5 5 5 5 3 5 5 5 5 5 5 5 5 5 5 5 5 5 5 5 3 5 3 5 5 3 5 5 5 5 5 5 3 5 5 5 5 5 5 5 5 5 5 3 5 5 5 5 5 5 5 5 5 5 5 3 5 5 5 5 5 5 5 5 5 5 5 5 5 3 5 5 5 3 5 5 5 5 5 5 5 5 5 5 5 5 5 5 5 5 5 5 5 5 5 5 5 5 5 5 5 5 3 3 5 5 5 3 5 5 3 5 5 5 5 3 5 5 3 5 5 3 5 5 5 5 5 3 5 5 5 5 5 5 5 5 5 5 5 5 5 5 5 5 5 5 5 5 5 5 5 5 3 3 5 5 5 5 5 5 5 5 3 5 5 5 5 5 5 5 3 5 5 5 5 3 5 3 5 3 5 5 5 5 5 5 5 3 5 5 5 3 5 5 5 5 5 5 5 3 5 5 5 3 5 5 5 3 5 5 5 3 3 5 5 5 5 5 5 3 3 5 3 5 5 5 3 5 3 5 3 5 5 5 5 5 5 3 5 5 5 5 5 5 5 3 5 5 5 5 5 3 5 5 5 5 3 3 5 3 5 5 5 5 5 5 5 5 5 5 5 5 5 5 3 5 5 5 3 5 5 5 5 5 5 5 5 5 5 5 5 5 5 3 5 5 5 5 5 5 3 5 5 5 3 5 5 5 5 5 5 5 5 5 5 5 5 5 5 5 5 5 3 5 3 5 5 5 5 5 5 5 5 5 3 5 5 5 3 5 5 5 5 3 5 5 5 3 5 5 5 5 3 5 5 5 5 5 5 5 5 5 5 5 5 3 5 5 5 5 5 5 5 5 5 5 5 5 5 5 5 5 5 3 5 5 5 3 5 5 5 5 5 5 5 3 5 5 5 5 3 3 5 5 3 3 5 5 5 5 5 3 5 5 5 5 5 3 5 5 5 5 3 3 5 5 3 3 5 3 5 5 3 3 5 3 5 5 3 5 5 5 5 5 3 5 3 5 5 5 5 3 5 5 3 5 5 3 3 3 3 5 5 3 5 5 3 5 5 5 5 5 5 3 5 5 3 5 3 3 3 5 3 5 5 5 5 3 5 5 5 5 3 5 3 5 5 3 5 5 3 5 5 3 5 5 5 5 5 5 3 5 5 5 5 3 5 5 5 5 5 5 5 5 5 5 5 5 5 3 3 5 5 3 5 5 5 5 5 5 5 3 5 5 5 5 5 3 5 5 5 5 3 5 5 5 5 5 5 5 5 5 5 5 5 5 5 5 5 5 5 5 5 5 5 5 5 5 5 5 5 5 5 5 5 5 5 5 5 5 5 5 5 5 5 5 5 5 5 5 5 5 5 5 5 5 5 3 5 5 5 5 5 5 5 5 3 5 5 5 5 5 5 5 5 5 5 5 5 5 3 5 3 5 5 3 5 5 5 5 3 5 5 5 5 5 5 5 5 5 5 5 5 5 5 5 3 5 5 5 5 5 3 5 5 5 5 5 5 5 5 5 5 5 5 5 5 5 5 5 5 5 5 5 5 5 5 5 5 5 5 5 5 5 5 5 5 5 5 5 5 5 5 5 5 5 5 5 5 5 3 5 5 5 3 5 5 3 5 3 5 5 5 5 5 5 5 5 3 5 5 5 3 5 5 5 5 5 5 5 5 5 5 5 3 5 5 5 3 5 5 5 5 5 3 5 5 3 5 5 5 5 5 5 5 5 5 5 5 5 5 5 5 5 5 5 5 5 5 5 5 5 5 3 5 5 5 5 5 5 5 5 5 3 5 5 5 5 5 3 5 5 5 5 5 5 3 5 5 5 5 5 5 5 5 5 5 5 5 5 5 3 5 5 5 3 5 5 5 5 5 3 5 5 3 5 5 5 5 5 5 5 5 3 5 5 3 5 3 3 5 5 5 5 5 5 5 5 5 5 5 5 5 5 5 5 5 5 5 5 5 3 5 5 3 5 5 3 5 5 5 5 5 5 5 5 3 5 5 5 5 5 5 5 5 5 5 5 5 5 5 5 5 5 5 5 5 5 5 5 5 5 5 5 5 5 5 5 3 5 5 3 5 5 5 5 3 5 5 5 5 5 5 5 5 5 5 5 5 5 5 5 5 5 5 5 5 5 5 5 5 5 5 5 5 5 5 5 3 5 5 5 5 5 5 5 5 5 5 3 5 5 5 5 5 5 3 5 5 5 5 5 5 3 5 5 5 5 5 5 5 5 5 5 5 5 3 5 5 5 5 5 5 5 5 5 5 5 5 5 5 5 5 5 5 5 5 5 5 5 5 5 5 5 5 5 5 5 5 5 5 5 5 5 5 5 3 5 5 3 5 5 3 5 5 3 5 5 5 5 5 5 5 5 5 5 5 5 5 5 5 5 5 5 5 5 5 5 5 5 5 5 5 5 5 5 5 3 5 5 3 5 5 3 5 5 5 3 5 5 5 5 5 5 5 3 3 5 5 5 5 5 5 3 5 3 5 5 5 5 5 3 5 5 5 5 5 5 5 5 5 5 5 5 5 5 5 5 5 5 3 5 3 5 5 5 5 5 5 5 5 5 5 5 3 5 5 5 5 5 5 5 5 5 5 5 5 5 5 5 5 5 5 5 5 5 5 5 5 5 5 5 5 5 5 5 5 5 5 5 5 5 5 5 5 5 5 5 5 5 5 5 5 5 5 5 5 5 5 5 5 5 5 5 5 5 5 3 5 5 5 3 5 5 5 3 5 5 3 5 5 5 5 3 5 5 5 5 5 5 3 3 5 5 3 5 5 5 5 5 5 5 5 5 5 5 5 5 5 5 5 5 5 5 5 5 5 5 5 5 5 5 5 5 5 5 5 5 5 5 3 5 5 5 5 5 3 3 3 5 3 5 5 3 5 5 5 3 5 5 5 5 5 3 5 5 5 5 5 5 5 5 5 5 5 5 5 5 5 5 5 5 5 5 5 5 5 5 5 5 5 5 5 5 5 5 5 5 5 5 5 5 5 5 3 5 5 5 3 5 5 3 5 3 3 5 5 5 5 5 5 5 5 5 5 5 5 5 3 5 5 5 3 5 5 5 3 5 3 5 3 3 5 5 5 5 5 5 5 5 5 5 5 5 5 5 5 5 5 5 5 5 5 5 5 5 5 5 5 3 5 3 5 5 5 5 5 3 5 5 5 5 5 5 3 5 5 5 5 5 5 3 5 5 5 5 5 5 5 3 5 5 5 5 3 5 5 5 5 5 5 5 5 5 5 5 3 5 3 5 5 5 5 3 5 5 5 5 5 5 5 3 5 5 5 3 5 5 5 5 5 5 5 5 5 5 5 5 5 5 5 5 5 5 5 5 5 5 5 5 5 5 5 5 5 5 5 5 5 5 5 5 5 5 5 5 5 5 5 5 5 5 5 5 5 5 5 5 5 5 5 5 5 5 5 3 5 5 5 5 5 5 5 5 5 5 5 3 5 5 5 5 5 5 3 5 5 3 3 5 5 3 3 5 5 5 5 3 3 5 5 3 5 3 5 5 5 3 5 3 5 3 5 3 5 5 5 3 3 3 5 5 5 5 5 5 3 5 3 3 5 5 5 5 3 5 5 5 5 5 5 5 5 5 3 5 5 5 5 3 5 5 5 5 5 5 5 5 5 5 5 3 5 5 3 5 5 5 5 5 5 5 5 5 5 5 5 5 5 5 5 5 5 5 5 5 5 5 5 5 5 5 5 5 5 5 5 5 5 5 5 5 5 5 5 5 5 5 5 5 5 5 5 5 5 5 5 5 5 5 5 5 5 5 3 5 5 5 3 5 5 5 5 5 5 5 3 5 3 5 5 5 5 5 5 5 5 5 3 5 3 5 5 5 5 5 3 3 5 5 5 3 5 5 5 5 5 3 5 5 5 5 5 5 5 5 3 5 3 5 3 5 5 5 5 3 5 5 5 5 5 3 3 5 5 5 3 5 5 5 5 5 3 5 3 5 5 5 5 5 5 5 5 5 5 5 5 5 5 5 5 5 5 5 5 5 5 5 5 3 5 5 5 5 5 5 5 3 5 3 5 5 5 5 3 5 5 5 5 5 5 5 5 3 5 5 5 3 5 5 5 5 5 3 5 5 5 5 5 5 5 5 3 5 5 5 5 5 5 5 5 5 3 5 3 5 5 5 5 5 5 5 5 5 5 5 5 5 5 5 3 5 5 5 3 5 5 5 5 3 5 5 5 5 5 5 5 3 5 5 5 5 5 5 5 5 5 5 5 5 5 5 5 5 5 5 5 5 5 5 5 5 5 5 5 5 5 5 3 5 3 5 5 3 5 5 5 5 5 5 5 5 5 3 5 5 5 5 5 5 5 5 3 5 5 5 5 5 5 5 3 5 5 5 5 5 5 5 5 3 3 5 3 3 5 5 5 3 5 5 5 3 5 5 3 5 5 5 5 5 5 3 5 3 5 5 3 5 5 5 3 3 5 5 5 5 5 5 5 5 5 5 5 5 3 3 5 5 5 5 5 5 5 5 5 5 5 5 5 5 3 5 5 5 5 5 5 5 5 5 5 5 5 5 3 5 5 5 5 5 5 5 5 5 5 5 5 5 5 5 5 5 5 5 3 5 5 5 5 5 5 5 5 5 5 5 5 5 5 5 5 5 5 5 5 5 5 5 5 5 3 5 5 5 5 5 5 5 5 5 3 5 5 5 3 5 5 5 3 5 5 5 5 5 5 5 5 5 5 5 5 5 5 5 5 5 3 5 5 5 5 3 3 5 5 5 5 5 5 5 5 5 5 5 5 5 5 3 5 5 5 5 5 5 5 5 5 5 3 5 5 5 3 5 5 5 5 5 5 5 3 5 5 3 3 5 5 3 5 5 3 3 5 5 5 5 3 5 5 5 5 5 5 3 5 5 5 5 3 5 5 5 5 5 5 3 5 3 5 5 3 5 5 3 5 3 5 5 5 3 3 5 3 5 5 5 5 5 5 5 5 5 5 5 3 5 5 3 3 5 5 3 5 5 5 5 5 5 5 5 5 3 5 5 5 5 5 5 3 5 5 3 5 5 5 5 5 5 5 5 5 5 3 5 5 5 5 5 5 5 5 5 3 5 5 5 5 5 5 5 5 5 5 5 5 5 5 5 5 3 5 3 5 5 5 5 5 5 5 5 5 5 5 5 3 5 5 5 5 3 5 5 5 5 5 5 5 5 3 5 5 5 3 5 5 5 5 5 5 5 5 5 3 5 5 5 5 3 5 5 5 5 5 5 3 5 5 5 5 5 5 3 5 3 3 5 3 5 5 5 5 5 5 5 5 5 5 5 5 5 5 5 5 5 5 5 5 5 5 5 5 5 5 5 5 5 5 5 5 5 5 5 5 3 5 5 5 5 5 5 5 5 5 5 5 3 5 5 5 5 5 5 5 5 5 5 5 5 5 5 5 5 5 5 5 5 5 5 5 5 5 5 5 5 5 5 5 5 5 5 5 5 5 5 5 5 5 5 5 3 5 5 5 5 5 3 5 5 5 5 3 5 3 5 5 5 3 5 3 5 5 5 3 5 5 5 3 3 5 5 5 5 3 5 5 5 5 5 5 5 5 5 5 5 5 5 5 5 5 5 5 5 5 5 5 5 5 5 5 5 5 5 5 3 3 3 5 5 5 5 5 5 3 5 5 5 5 5 5 5 5 5 5 5 5 5 3 5 5 5 5 5 5 5 5 5 5 5 5 5 5 5 5 5 5 5 5 5 5 5 5 5 5 3 5 5 3 5 5 5 5 3 5 5 5 3 5 3 5 3 5 5 5 5 5 5 5 5 5 5 3 5 3 5 5 5 5 5 5 5 5 5 5 5 5 5 5 5 5 5 5 5 5 5 5 5 5 5 5 5 5 5 5 5 5 5 5 5 5 5 5 5 5 5 5 5 5 5 5 5 5 5 5 5 5 5 5 5 5 5 5 5 5 5 5 5 5 5 5 5 5 5 5 5 5 5 5 5 5 5 5 5 5 5 5 3 5 5 5 5 3 5 3 5 5 5 5 5 5 5 5 5 5 5 5 5 5 5 5 3 5 3 5 5 3 5 5 5 3 5 3 3 5 5 3 5 3 5 3 5 5 5 5 5 5 5 5 5 5 5 5 5 3 5 3 5 5 3 5 5 5 5 3 3 5 3 5 5 5 5 5 5 3 3 5 5 3 5 5 5 5 5 5 5 5 5 5 3 5 5 5 5 5 5 5 5 5 5 5 5 3 5 3 5 5 5 5 5 3 5 5 5 5 3 5 5 3 5 5 3 3 5 5 5 5 3 5 5 5 5 3 5 5 5 5 5 3 5 5 5 5 5 5 3 5 5 3 5 5 5 5 5 5 3 5 5 3 5 5 3 3 5 3 5 5 5 5 5 5 3 5 3 5 5 3 5 5 3 3 5 5 3 5 3 3 5 5 5 5 5 5 3 3 5 5 3 5 3 3 5 5 5 5 3 5 5 3 5 5 5 5 5 5 5 3 5 5 3 5 5 5 5 3 3 5 5 5 5 5 3 5 5 5 5 5 5 5 5 5 5 5 5 5 5 5 5 5 5 5 5 5 5 5 5 5 3 3 5 5 5 5 5 5 5 5 5 3 3 5 5 5 3 5 5 5 3 3 5 5 5 3 5 5 3 5 3 5 5 5 5 3 3 5 5 3 5 3 5 5 5 3 3 3 5 3 5 5 3 5 5 5 5 5 5 3 5 5 5 5 5 5 5 3 5 3 5 5 5 5 5 5 5 5 5 3 5 5 5 5 5 5 3 5 5 5 5 5 5 5 5 5 5 5 5 3 5 5 5 5 5 5 5 5 3 5 5 5 5 5 3 3 5 5 5 5 5 5 5 5 5 5 5 5 5 5 5 5 5 5 5 5 3 5 5 5 3 5 3 5 5 5 5 5 5 5 5 5 5 5 5 5 5 5 5 5 5 5 5 5 5 3 5 5 5 5 5 5 5 5 5 5 5 5 5 5 5 5 5 5 5 3 3 3 3 5 3 5 5 5 5 5 5 3 5 5 5 5 5 5 5 5 5 5 5 5 5 5 5 5 5 5 5 5 5 5 3 5 5 5 5 3 3 5 5 3 5 3 3 5 3 5 5 3 5 5 3 5 5 5 3 5 5 5 5 3 5 3 5 5 3 5 5 5 5 3 3 5 5 5 5 5 5 5 5 5 5 5 5 5 5 5 3 5 5 3 5 5 5 5 5 3 5 3 5 5 5 3 5 5 5 5 5 5 3 5 3 5 5 3 5 5 3 5 5 5 3 3 5 5 5 5 5 3 5 5 5 5 3 5 3 5 5 5 5 5 5 5 3 3 3 5 5 5 5 5 5 5 5 3 5 5 5 5 5 5 3 5 5 5 5 5 3 5 5 5 5 3 5 3 5 3 3 5 5 5 5 5 5 5 3 5 5 5 5 5 5 5 5 5 5 5 5 5 5 5 5 5 5 5 5 3 5 5 5 5 5 5 5 5 5 3 5 5 5 5 5 5 5 5 5 5 5 5 5 3 5 5 5 5 5 3 3 5 5 5 5 3 5 5 5 5 5 5 3 5 5 3 5 5 5 5 5 3 5 5 3 5 5 3 3 5 5 5 5 5 5 5 3 5 5 5 5 5 5 5 5 3 5 5 3 5 3 3 5 3 5 5 5 5 3 5 5 5 5 5 5 5 3 5 5 3 5 5 5 5 5 3 5 5 5 5 5 5 5 5 5 5 5 5 5 5 5 5 3 5 5 5 5 5 5 5 5 5 5 5 5 5 3 5 5 5 5 5 5 5 5 5 5 5 5 5 5 5 5 5 5 5 5 5 3 5 3 5 3 3 5 5 3 3 5 5 5 3 5 3 3 5 5 5 5 5 3 5 3 5 5 5 5 5 3 5 5 5 5 5 5 5 5 5 5 5 5 3 5 5 5 3 5 5 5 5 5 3 3 3 3 5 5 5 5 3 5 3 3 5 5 5 5 3 5 3 5 5 5 5 5 5 5 5 5 5 5 5 3 5 5 5 5 5 5 5 5 5 5 5 5 5 5 5 5 5 5 5 5 5 5 5 5 5 5 5 5 5 5 5 5 5 5 5 5 5 5 5 5 5 5 3 5 5 3 5 5 3 5 5 5 5 5 5 5 5 5 5 5 5 5 5 5 5 5 5 5 5 5 5 5 5 5 5 5 5 5 5 5 3 5 3 3 5 5 3 5 5 5 5 5 5 5 3 5 3 3 5 5 5 5 5 5 5 5 5 5 5 5 5 3 5 5 3 3 5 5 5 5 5 5 5 5 5 3 5 5 5 5 5 5 5 5 5 5 5 5 5 3 5 5 5 3 5 5 5 5 5 5 5 5 5 5 5 5 5 5 5 3 5 5 5 5 5 5 5 5 5 5 5 5 5 5 5 3 5 5 5 5 5 5 3 5 5 5 5 5 5 5 5 5 5 5 5 5 5 5 3 5 5 5 5 5 5 3 5 3 5 5 5 5 3 5 5 3 5 5 5 5 5 5 5 5 5 5 3 5 3 5 5 3 3 5 5 5 5 5 3 5 5 5 3 5 5 3 5 5 5 5 5 5 5 5 5 5 5 3 5 5 5 5 5 3 5 5 5 3 5 5 3 5 5 5 5 5 3 5 5 5 5 5 5 3 5 5 3 5 5 5 5 5 5 5 5 5 5 5 5 5 5 5 5 5 5 5 5 5 5 5 5 5 5 5 5 5 5 5 3 5 5 5 5 5 5 5 5 5 5 5 5 5 5 5 5 5 5 5 5 5 3 5 5 5 5 5 3 5 5 3 5 3 5 5 5 5 5 3 5 3 5 5 5 5 5 5 3 5 3 5 5 5 5 5 5 5 5 5 5 5 5 3 5 5 5 5 5 3 5 5 5 5 5 5 3 5 5 5 5 5 5 5 5 5 3 5 5 3 5 5 5 5 5 5 3 5 5 5 5 5 5 5 5 3 5 5 5 5 5 5 5 5 5 3 5 5 5 5 3 5 5 5 5 5 5 5 5 3 5 5 5 5 5 5 5 5 3 5 3 5 5 5 3 5 5 5 5 3 5 5 5 3 5 5 5 3 5 5 5 5 3 5 5 5 5 3 5 5 5 5 5 3 5 5 5 5 5 5 5 5 5 5 5 5 5 5 5 5 3 5 5 5 5 5 3 5 5 5 5 5 5 3 5 5 5 5 5 5 5 5 3 5 5 5 5 5 5 5 3 5 5 5 5 5 5 5 5 5 5 5 5 3 5 5 5 5 5 5 5 5 5 5 5 5 5 5 5 5 5 3 5 5 5 5 5 3 5 3 5 5 5 5 3 5 5 3 5 5 5 3 5 5 5 5 5 5 5 5 5 5 3 5 5 5 3 5 5 5 5 5 5 5 5 5 5 5 5 5 5 5 5 5 5 5 3 3 5 5 5 3 5 3 5 5 5 5 5 5 5 5 3 5 5 5 5 5 5 5 3 5 5 5 5 5 3 5 3 5 5 5 5 5 5 5 5 5 5 5 5 5 5 5 5 5 5 5 5 5 5 5 5 5 5 5 5 5 5 5 5 5 5 5 5 5 5 5 5 5 5 5 5 5 5 5 5 5 5 5 5 5 5 5 5 5 5 5 5 5 5 5 5 5 5 5 5 5 5 5 5 5 3 5 5 5 3 5 5 5 5 5 5 5 5 5 5 5 5 5 5 5 5 5 5 5 5 3 5 5 5 5 3 5 5 5 3 5 5 5 5 3 5 5 5 5 3 5 5 5 5 5 5 5 5 5 5 5 5 5 5 5 5 5 5 5 3 3 5 5 5 5 5 5 5 5 5 5 5 5 5 5 5 5 5 5 5 5 5 5 5 5 5 5 5 5 5 5 5 5 5 5 5 5 5 5 5 5 3 5 5 5 5 5 3 5 5 3 5 5 5 5 5 5 5 5 5 5 5 5 5 5 5 5 5 5 5 5 5 5 5 5 5 5 5 5 3 5 5 5 5 5 5 5 5 5 5 5 5 5 5 5 5 5 5 5 5 5 5 5 5 5 5 5 5 5 5 5 5 5 5 5 5 5 5 5 5 3 5 5 5 5 5 5 5 5 5 5 5 3 5 5 5 5 5 5 5 5 3 5 5 5 5 5 3 5 5 5 3 5 5 5 5 3 5 3 5 5 5 3 5 3 5 5 5 5 5 5 5 5 5 5 5 5 5 5 5 5 5 5 5 5 5 5 5 5 5 5 5 5 5 5 5 5 3 5 5 3 5 5 5 5 5 3 5 3 5 5 5 5 5 5 5 5 5 5 3 5 5 5 5 5 5 5 5 5 5 5 5 5 5 3 5 5 3 5 5 5 5 5 5 5 5 5 5 3 5 5 5 5 3 5 5 5 5 5 5 5 3 5 5 3 5 3 5 5 5 5 5 5 3 5 3 5 5 5 5 3 5 3 5 5 5 3 3 5 3 5 5 5 5 5 5 3 5 3 5 3 5 5 5 5 5 5 5 5 5 5 5 5 5 5 5 5 5 5 5 5 5 5 5 5 5 5 5 3 5 5 5 3 5 5 3 5 5 5 5 5 5 3 5 5 3 5 5 5 5 5 5 5 5 5 5 5 5 5 5 5 5 5 5 5 5 5 5 5 5 5 5 5 5 5 5 3 5 5 5 3 5 5 5 5 5 5 5 5 5 5 5 5 5 5 5 5 5 5 5 5 5 5 5 5 5 5 5 5 5 5 5 5 5 5 5 5 5 5 5 5 5 5 5 5 5 5 5 5 5 5 5 5 5 5 5 5 5 5 5 5 5 5 5 5 3 5 5 5 5 5 5 5 5 5 5 5 5 5 3 5 5 5 5 5 5 5 5 3 5 3 5 5 5 5 5 5 5 5 5 3 5 3 5 5 5 5 5 5 5 5 5 5 5 5 5 5 5 5 5 5 5 5 5 5 3 5 5 5 3 5 5 5 3 5 5 5 5 5 5 5 5 5 5 5 3 5 5 5 3 5 5 3 5 5 5 5 5 5 5 5 5 5 5 5 5 5 5 5 5 5 5 5 5 5 5 5 5 5 5 5 3 5 5 5 5 5 3 5 3 3 5 5 3 3 5 5 5 5 5 3 5 5 3 5 5 3 5 3 5 5 5 5 5 5 3 5 5 5 3 5 3 3 5 3 5 5 5 5 3 5 5 5 5 5 5 5 5 3 5 5 5 5 5 3 5 5 3 5 5 5 5 5 5 5 3 5 5 5 5 5 5 5 5 5 5 5 5 5 5 5 5 5 5 5 5 5 5 5 5 5 5 5 5 5 5 5 5 5 5 3 5 5 5 5 5 5 5 5 5 5 5 5 5 5 5 3 5 5 3 5 3 5 5 5 5 5 5 5 3 5 5 5 5 3 5 5 3 5 5 5 5 3 5 5 5 5 5 3 5 3 5 5 3 5 5 5 3 5 5 5 5 5 5 5 5 5 3 5 5 5 3 5 5 5 5 3 5 3 5 5 3 5 5 5 3 3 5 5 5 5 3 3 5 3 5 3 5 5 5 5 5 5 5 5 3 5 5 3 5 3 3 5 5 3 5 5 5 5 5 5 5 5 5 5 5 5 5 5 5 5 5 5 3 5 3 5 3 5 5 3 5 5 5 5 5 5 5 5 5 3 5 5 5 5 5 5 5 3 5 5 5 5 3 5 5 5 5 5 5 3 5 5 5 5 5 5 5 5 5 5 5 5 5 3 5 5 5 5 3 5 5 3 5 5 5 5 5 5 5 5 5 5 5 5 5 5 5 5 5 5 5 5 5 5 5 5 5 5 5 5 5 3 5 5 5 3 5 5 5 5 5 5 5 5 5 5 5 5 5 5 5 5 5 5 5 5 5 5 5 5 5 5 5 5 5 5 5 5 5 5 5 5 5 5 5 5 5 5 5 5 3 5 5 3 5 3 5 5 5 3 5 5 5 5 5 5 5 5 3 5 5 5 3 5 5 5 5 5 5 5 5 5 5 5 5 5 3 3 5 5 5 5 3 5 5 5 5 3 5 5 5 5 5 5 5 5 5 5 5 5 5 5 5 5 5 5 5 5 5 3 5 3 3 5 5 5 5 5 3 5 5 5 5 5 5 5 5 5 5 5 5 5 3 5 5 5 5 5 5 5 5 5 5 5 5 3 5 5 5 3 5 5 3 5 3 5 5 5 5 5 5 5 5 5 5 5 5 5 5 5 5 3 5 5 5 5 5 5 5 5 5 5 5 5 5 5 3 5 5 5 5 5 5 5 5 5 5 5 5 5 5 5 5 5 5 5 5 5 5 5 5 5 3 5 5 5 5 5 3 5 5 5 5 3 5 5 5 5 3 5 5 5 5 5 5 5 5 5 5 5 5 5 5 5 5 5 5 5 5 5 5 5 5 5 5 5 5 5 5 5 5 5 5 3 5 5 5 3 3 5 3 5 5 5 5 5 5 5 5 3 5 3 5 5 5 3 5 5 5 5 5 5 5 5 5 5 5 5 5 5 5 5 5 5 5 5 5 5 3 5 5 5 5 5 5 5 5 5 5 5 5 3 5 5 5 5 5 5 5 3 5 5 5 5 3 5 5 5 3 5 3 5 5 3 5 5 5 3 3 5 5 5 5 5 5 5 5 5 5 5 5 5 5 5 5 5 3 5 5 5 5 5 5 5 3 5 5 5 5 3 5 5 5 5 3 5 5 3 5 3 5 5 3 5 5 5 5 3 5 5 5 5 3 5 5 5 5 3 5 
</DataArray>
</Cells>
<PointData Scalars="" Vectors="displacement," Tensors="">
<DataArray type="Float64" Name="displacement" NumberOfComponents="3" format="ascii">
-0.014999726701757074 -0.014999467183551338 0 -0.014744101272325279 -0.014977967358897322 0 -0.014088146013372082 -0.014999901534098897 0 -0.014999726701757074 -0.014999467183551338 0 -0.014744101272325279 -0.014977967358897322 0 -0.014999735212636752 -0.014315086407799641 0 -0.014427893443885497 -0.014447068732891689 0 -0.014087305703976405 -0.014998857568912911 0 -0.014059143240823305 -0.014792275405397782 0 -0.014584254562839601 -0.014704207827993759 0 -0.014087603379815869 -0.014999852229034759 0 -0.014427893443885497 -0.014447068732891689 0 -0.014344972884842655 -0.014367445239983059 0 -0.014059143240823305 -0.014792275405397782 0 -0.014427893443885497 -0.014447068732891689 0 -0.014344972884842655 -0.014367445239983059 0 -0.014709639449092841 -0.01402938695581739 0 -0.014427893443885497 -0.014447068732891689 0 -0.014998990052166867 -0.014313097466326223 0 -0.014709639449092841 -0.01402938695581739 0 -0.014584254562839601 -0.014704207827993759 0 -0.014999758621404603 -0.014314118703595452 0 -0.014999677534871976 -0.013639569650622484 0 -0.014709639449092841 -0.01402938695581739 0 -0.014957420577012746 -0.013418328543365464 0 -0.014998990052166867 -0.014313097466326223 0 -0.014999677534871976 -0.013639569650622484 0 -0.014709639449092841 -0.01402938695581739 0 -0.014709639449092841 -0.01402938695581739 0 -0.014724807287152038 -0.013625925859843272 0 -0.014500763540998133 -0.013980124796230693 0 -0.014344972884842655 -0.014367445239983059 0 -0.014709639449092841 -0.01402938695581739 0 -0.014500763540998133 -0.013980124796230693 0 -0.014724807287152038 -0.013625925859843272 0 -0.014957420577012746 -0.013418328543365464 0 -0.015173301317984958 -0.012978703912331115 0 -0.014709639449092841 -0.01402938695581739 0 -0.014724807287152038 -0.013625925859843272 0 -0.014957420577012746 -0.013418328543365464 0 -0.014999677534871976 -0.013639569650622484 0 -0.014957420577012746 -0.013418328543365464 0 -0.014999659576318188 -0.012964485683261261 0 -0.014717524386951843 -0.013551328476219498 0 -0.014673306055709233 -0.013470319569539998 0 -0.014519219899373449 -0.013936846252497958 0 -0.014717524386951843 -0.013551328476219498 0 -0.014519219899373449 -0.013936846252497958 0 -0.014807136640351395 -0.013793913314656082 0 -0.014673306055709233 -0.013470319569539998 0 -0.014500763540998133 -0.013980124796230693 0 -0.014519219899373449 -0.013936846252497958 0 -0.014724807287152038 -0.013625925859843272 0 -0.014673306055709233 -0.013470319569539998 0 -0.014764452788260485 -0.013295800582024696 0 -0.014724807287152038 -0.013625925859843272 0 -0.014673306055709233 -0.013470319569539998 0 -0.014500763540998133 -0.013980124796230693 0 -0.014344972884842655 -0.014367445239983059 0 -0.014500763540998133 -0.013980124796230693 0 -0.014253808946444582 -0.014410657092057065 0 -0.014500763540998133 -0.013980124796230693 0 -0.014519219899373449 -0.013936846252497958 0 -0.014253808946444582 -0.014410657092057065 0 -0.014519219899373449 -0.013936846252497958 0 -0.014478368630489477 -0.014215228331147963 0 -0.014253808946444582 -0.014410657092057065 0 -0.014519219899373449 -0.013936846252497958 0 -0.014478368630489477 -0.014215228331147963 0 -0.014807136640351395 -0.013793913314656082 0 -0.014478368630489477 -0.014215228331147963 0 -0.013931488187613755 -0.014929152939676177 0 -0.014253808946444582 -0.014410657092057065 0 -0.013931488187613755 -0.014929152939676177 0 -0.014253808946444582 -0.014410657092057065 0 -0.014059143240823305 -0.014792275405397782 0 -0.014344972884842655 -0.014367445239983059 0 -0.014253808946444582 -0.014410657092057065 0 -0.014059143240823305 -0.014792275405397782 0 -0.014087305703976405 -0.014998857568912911 0 -0.014059143240823305 -0.014792275405397782 0 -0.013540340069739167 -0.015000023518177048 0 -0.013931488187613755 -0.014929152939676177 0 -0.013540340069739167 -0.015000023518177048 0 -0.012994037623599361 -0.014999069652207991 0 -0.013931488187613755 -0.014929152939676177 0 -0.014059143240823305 -0.014792275405397782 0 -0.013540340069739167 -0.015000023518177048 0 -0.012992518684414237 -0.014999989464258415 0 -0.012855484887395968 -0.015321963704055513 0 -0.013931488187613755 -0.014929152939676177 0 -0.012994037623599361 -0.014999069652207991 0 -0.013082940411476096 -0.0151013622667281 0 -0.012992346402234492 -0.014999965076396336 0 -0.012664178086198713 -0.015508274549908755 0 -0.012114810613201995 -0.014999888623193722 0 -0.012664178086198713 -0.015508274549908755 0 -0.012114810613201995 -0.014999888623193722 0 -0.0119967581698393 -0.015533212636289409 0 -0.012357966648503095 -0.01568697113113382 0 -0.012664178086198713 -0.015508274549908755 0 -0.012499908868224333 -0.015987338272158386 0 -0.012357966648503095 -0.01568697113113382 0 -0.012664178086198713 -0.015508274549908755 0 -0.0119967581698393 -0.015533212636289409 0 -0.013971213240708108 -0.014930606753194561 0 -0.014050114141133184 -0.014947442812430276 0 -0.014478368630489477 -0.014215228331147963 0 -0.013931488187613755 -0.014929152939676177 0 -0.015170795624826792 -0.014075703831992369 0 -0.013931488187613755 -0.014929152939676177 0 -0.013082940411476096 -0.0151013622667281 0 -0.012977683138939163 -0.015861511036322461 0 -0.0119967581698393 -0.015533212636289409 0 -0.011367371030892168 -0.015806435579175233 0 -0.011237115753984729 -0.01499994063747777 0 -0.012114810613201995 -0.014999888623193722 0 -0.0119967581698393 -0.015533212636289409 0 -0.011237115753984729 -0.01499994063747777 0 -0.011367371030892168 -0.015806435579175233 0 -0.011969648396214455 -0.015972108513323587 0 -0.011527212581120688 -0.016418761675748444 0 -0.0119967581698393 -0.015533212636289409 0 -0.011367371030892168 -0.015806435579175233 0 -0.011969648396214455 -0.015972108513323587 0 -0.012357966648503095 -0.01568697113113382 0 -0.0119967581698393 -0.015533212636289409 0 -0.011969648396214455 -0.015972108513323587 0 -0.011969648396214455 -0.015972108513323587 0 -0.012108799475176313 -0.016493700318518236 0 -0.012499908868224333 -0.015987338272158386 0 -0.011969648396214455 -0.015972108513323587 0 -0.012108799475176313 -0.016493700318518236 0 -0.011527212581120688 -0.016418761675748444 0 -0.011367371030892168 -0.015806435579175233 0 -0.011527212581120688 -0.016418761675748444 0 -0.010919439025981007 -0.016395953991786203 0 -0.014478368630489477 -0.014215228331147963 0 -0.015170795624826792 -0.014075703831992369 0 -0.014807136640351395 -0.013793913314656082 0 -0.015170795624826792 -0.014075703831992369 0 -0.015138832086712581 -0.013702867557013415 0 -0.014807136640351395 -0.013793913314656082 0 -0.012855484887395968 -0.015321963704055513 0 -0.012530779640900236 -0.015953820372287146 0 -0.013082940411476096 -0.0151013622667281 0 -0.012977683138939163 -0.015861511036322461 0 -0.012499908868224333 -0.015987338272158386 0 -0.012108799475176313 -0.016493700318518236 0 -0.012977683138939163 -0.015861511036322461 0 -0.012499908868224333 -0.015987338272158386 0 -0.012357966648503095 -0.01568697113113382 0 -0.011969648396214455 -0.015972108513323587 0 -0.012499908868224333 -0.015987338272158386 0 -0.015481831096412994 -0.013486974193420147 0 -0.015170795624826792 -0.014075703831992369 0 -0.015138832086712581 -0.013702867557013415 0 -0.015481831096412994 -0.013486974193420147 0 -0.015023748483400528 -0.013469623295427766 0 -0.015138832086712581 -0.013702867557013415 0 -0.013809204630067306 -0.014999796206160664 0 -0.014050114141133184 -0.014947442812430276 0 -0.014717524386951843 -0.013551328476219498 0 -0.015023748483400528 -0.013469623295427766 0 -0.014837935769392656 -0.013267737581834792 0 -0.014717524386951843 -0.013551328476219498 0 -0.015023748483400528 -0.013469623295427766 0 -0.014807136640351395 -0.013793913314656082 0 -0.015023748483400528 -0.013469623295427766 0 -0.015138832086712581 -0.013702867557013415 0 -0.014807136640351395 -0.013793913314656082 0 -0.015023748483400528 -0.013469623295427766 0 -0.015018384254669974 -0.013115714159905697 0 -0.015317401376370401 -0.013126569665722648 0 -0.015018384254669974 -0.013115714159905697 0 -0.014837935769392656 -0.013267737581834792 0 -0.014852505832122539 -0.012978049431846271 0 -0.015023748483400528 -0.013469623295427766 0 -0.015018384254669974 -0.013115714159905697 0 -0.014837935769392656 -0.013267737581834792 0 -0.015481831096412994 -0.013486974193420147 0 -0.015023748483400528 -0.013469623295427766 0 -0.015317401376370401 -0.013126569665722648 0 -0.015018384254669974 -0.013115714159905697 0 -0.015317401376370401 -0.013126569665722648 0 -0.015185545827347944 -0.01298129858566963 0 -0.015185545827347944 -0.01298129858566963 0 -0.015022070217618168 -0.012809961969254477 0 -0.015416634276295757 -0.012706270098948766 0 -0.015317401376370401 -0.013126569665722648 0 -0.015185545827347944 -0.01298129858566963 0 -0.015416634276295757 -0.012706270098948766 0 -0.015022070217618168 -0.012809961969254477 0 -0.014786536344926663 -0.012738561359368891 0 -0.014852505832122539 -0.012978049431846271 0 -0.015018384254669974 -0.013115714159905697 0 -0.015022070217618168 -0.012809961969254477 0 -0.014852505832122539 -0.012978049431846271 0 -0.015018384254669974 -0.013115714159905697 0 -0.015185545827347944 -0.01298129858566963 0 -0.015022070217618168 -0.012809961969254477 0 -0.011527212581120688 -0.016418761675748444 0 -0.011524859716319422 -0.017012314558493478 0 -0.010919439025981007 -0.016395953991786203 0 -0.013809204630067306 -0.014999796206160664 0 -0.013646976947490532 -0.014980339269233877 0 -0.012108799475176313 -0.016493700318518236 0 -0.011527212581120688 -0.016418761675748444 0 -0.011524859716319422 -0.017012314558493478 0 -0.015481831096412994 -0.013486974193420147 0 -0.015317401376370401 -0.013126569665722648 0 -0.015819780875663481 -0.012986290426069125 0 -0.015317401376370401 -0.013126569665722648 0 -0.015416634276295757 -0.012706270098948766 0 -0.015819780875663481 -0.012986290426069125 0 -0.015416634276295757 -0.012706270098948766 0 -0.015819780875663481 -0.012986290426069125 0 -0.015797274621725026 -0.012393128405516615 0 -0.015819780875663481 -0.012986290426069125 0 -0.015797274621725026 -0.012393128405516615 0 -0.016220278758491555 -0.012433586868470906 0 -0.013646976947490532 -0.014980339269233877 0 -0.01372159149316393 -0.015234126917145456 0 -0.015797274621725026 -0.012393128405516615 0 -0.015433690965863037 -0.012132308298892136 0 -0.015725176264150608 -0.011919950521123417 0 -0.015416634276295757 -0.012706270098948766 0 -0.015797274621725026 -0.012393128405516615 0 -0.015433690965863037 -0.012132308298892136 0 -0.015433690965863037 -0.012132308298892136 0 -0.015269371371324397 -0.011700414240421503 0 -0.015485732950816476 -0.011519819710829184 0 -0.015433690965863037 -0.012132308298892136 0 -0.015725176264150608 -0.011919950521123417 0 -0.015485732950816476 -0.011519819710829184 0 -0.015797274621725026 -0.012393128405516615 0 -0.015725176264150608 -0.011919950521123417 0 -0.016089837780547001 -0.011972028394298785 0 -0.015725176264150608 -0.011919950521123417 0 -0.015806913701789757 -0.011612601696771297 0 -0.015485732950816476 -0.011519819710829184 0 -0.015725176264150608 -0.011919950521123417 0 -0.016089837780547001 -0.011972028394298785 0 -0.015806913701789757 -0.011612601696771297 0 -0.015146901592828188 -0.012214380818314568 0 -0.014779741737437275 -0.012355526191851056 0 -0.015022070217618168 -0.012809961969254477 0 -0.015038951288444572 -0.012486306890104009 0 -0.014786536344926663 -0.012738561359368891 0 -0.015416634276295757 -0.012706270098948766 0 -0.015433690965863037 -0.012132308298892136 0 -0.015038951288444572 -0.012486306890104009 0 -0.015433497969533907 -0.012143817192682085 0 -0.015146901592828188 -0.012214380818314568 0 -0.015022070217618168 -0.012809961969254477 0 -0.015416634276295757 -0.012706270098948766 0 -0.015038951288444572 -0.012486306890104009 0 -0.015433690965863037 -0.012132308298892136 0 -0.015158932053475287 -0.011941930847889469 0 -0.015269371371324397 -0.011700414240421503 0 -0.015158932053475287 -0.011941930847889469 0 -0.014904680826732006 -0.011940349158629076 0 -0.015065032915590942 -0.011600390216406202 0 -0.015158932053475287 -0.011941930847889469 0 -0.015269371371324397 -0.011700414240421503 0 -0.015065032915590942 -0.011600390216406202 0 -0.014904680826732006 -0.011940349158629076 0 -0.014705029797517899 -0.011647440083682009 0 -0.015065032915590942 -0.011600390216406202 0 -0.014779741737437275 -0.012355526191851056 0 -0.014993966708871103 -0.012194377961512863 0 -0.014786536344926663 -0.012738561359368891 0 -0.014648915222248843 -0.012900481000995131 0 -0.014736295754110834 -0.012977496206936201 0 -0.014904680826732006 -0.011940349158629076 0 -0.014602116624202934 -0.011966282414052752 0 -0.014705029797517899 -0.011647440083682009 0 -0.014993966708871103 -0.012194377961512863 0 -0.015192059718207923 -0.011342696390281062 0 -0.015613719203678258 -0.011701780428353698 0 -0.015655275387281353 -0.011166604929504172 0 -0.015343223091779972 -0.011357604310359369 0 -0.015343223091779972 -0.011357604310359369 0 -0.014999930335973641 -0.011364854706281135 0 -0.015175852658359777 -0.01163742978000468 0 -0.015343223091779972 -0.011357604310359369 0 -0.015175852658359777 -0.01163742978000468 0 -0.015315424176955817 -0.011805781722220451 0 -0.014999930335973641 -0.011364854706281135 0 -0.015175852658359777 -0.01163742978000468 0 -0.014999893933196331 -0.012030859466176935 0 -0.014999876705873041 -0.012031280043988388 0 -0.015192913185311791 -0.01203210820610017 0 -0.015000225964079756 -0.012032126602375031 0 -0.014946779251585813 -0.012292078628283644 0 -0.014872128375655016 -0.012527239827010784 0 -0.015175852658359777 -0.01163742978000468 0 -0.014999893933196331 -0.012030859466176935 0 -0.015315424176955817 -0.011805781722220451 0 -0.015613719203678258 -0.011701780428353698 0 -0.015343223091779972 -0.011357604310359369 0 -0.015315424176955817 -0.011805781722220451 0 -0.015285599242259879 -0.012248379723043393 0 -0.014946779251585813 -0.012292078628283644 0 -0.014872128375655016 -0.012527239827010784 0 -0.014993966708871103 -0.012194377961512863 0 -0.015192913185311791 -0.01203210820610017 0 -0.014872128375655016 -0.012527239827010784 0 -0.014667528291059037 -0.012979426769242988 0 -0.01481095131907666 -0.013034614754993432 0 -0.015285599242259879 -0.012248379723043393 0 -0.014872128375655016 -0.012527239827010784 0 -0.01481095131907666 -0.013034614754993432 0 -0.014993966708871103 -0.012194377961512863 0 -0.014800195791346287 -0.013154377961012789 0 -0.014999952314365506 -0.012289568226203841 0 -0.014910911994070531 -0.012996921256337545 0 -0.014999099826421444 -0.012289025977872847 0 -0.014872128375655016 -0.012527239827010784 0 -0.014667528291059037 -0.012979426769242988 0 -0.015000225964079756 -0.012032126602375031 0 -0.014999099826421444 -0.012289025977872847 0 -0.014872128375655016 -0.012527239827010784 0 -0.015000119308329151 -0.012289335379450718 0 -0.015173301317984958 -0.012978703912331115 0 -0.014999659576318188 -0.012964485683261261 0 -0.014957420577012746 -0.013418328543365464 0 -0.015173301317984958 -0.012978703912331115 0 -0.014999659576318188 -0.012964485683261261 0 -0.014791828379225783 -0.013499761680703314 0 -0.014910911994070531 -0.012996921256337545 0 -0.014724807287152038 -0.013625925859843272 0 -0.014667528291059037 -0.012979426769242988 0 -0.014764452788260485 -0.013295800582024696 0 -0.014667528291059037 -0.012979426769242988 0 -0.01481095131907666 -0.013034614754993432 0 -0.014764452788260485 -0.013295800582024696 0 -0.01481095131907666 -0.013034614754993432 0 -0.014764452788260485 -0.013295800582024696 0 -0.014729804405358704 -0.01308804453516302 0 -0.014673306055709233 -0.013470319569539998 0 -0.014764452788260485 -0.013295800582024696 0 -0.014729804405358704 -0.01308804453516302 0 -0.014673306055709233 -0.013470319569539998 0 -0.014729804405358704 -0.01308804453516302 0 -0.01474822607625656 -0.013197173834193648 0 -0.014717524386951843 -0.013551328476219498 0 -0.014673306055709233 -0.013470319569539998 0 -0.01474822607625656 -0.013197173834193648 0 -0.014717524386951843 -0.013551328476219498 0 -0.014837935769392656 -0.013267737581834792 0 -0.01474822607625656 -0.013197173834193648 0 -0.014837935769392656 -0.013267737581834792 0 -0.01474822607625656 -0.013197173834193648 0 -0.014852505832122539 -0.012978049431846271 0 -0.01474822607625656 -0.013197173834193648 0 -0.014852505832122539 -0.012978049431846271 0 -0.014736295754110834 -0.012977496206936201 0 -0.014786536344926663 -0.012738561359368891 0 -0.014852505832122539 -0.012978049431846271 0 -0.014736295754110834 -0.012977496206936201 0 -0.014648915222248843 -0.012900481000995131 0 -0.01481095131907666 -0.013034614754993432 0 -0.014729804405358704 -0.01308804453516302 0 -0.014648915222248843 -0.012900481000995131 0 -0.014729804405358704 -0.01308804453516302 0 -0.014736295754110834 -0.012977496206936201 0 -0.014729804405358704 -0.01308804453516302 0 -0.01474822607625656 -0.013197173834193648 0 -0.014736295754110834 -0.012977496206936201 0 -0.0078569255320769509 -0.015994002991574895 0 -0.0080140172424950033 -0.016093915822395749 0 -0.0077811064601358898 -0.01611429606207988 0 -0.0078569255320769509 -0.015994002991574895 0 -0.0076754018740292224 -0.015856411296699579 0 -0.0076402523518521483 -0.01601478384647128 0 -0.0078569255320769509 -0.015994002991574895 0 -0.0077811064601358898 -0.01611429606207988 0 -0.0076402523518521483 -0.01601478384647128 0 -0.0080140172424950033 -0.016093915822395749 0 -0.0080361742027760721 -0.015836567907325717 0 -0.0082373767732466067 -0.016026626562555369 0 -0.0078569255320769509 -0.015994002991574895 0 -0.0080140172424950033 -0.016093915822395749 0 -0.0080361742027760721 -0.015836567907325717 0 -0.0080361742027760721 -0.015836567907325717 0 -0.0078458188703619484 -0.015691695103806393 0 -0.0080487978796686434 -0.015481575271408421 0 -0.0080361742027760721 -0.015836567907325717 0 -0.0078458188703619484 -0.015691695103806393 0 -0.0076754018740292224 -0.015856411296699579 0 -0.0078458188703619484 -0.015691695103806393 0 -0.0076754018740292224 -0.015856411296699579 0 -0.0076267209234332015 -0.015536527812168743 0 -0.0078569255320769509 -0.015994002991574895 0 -0.0080361742027760721 -0.015836567907325717 0 -0.0076754018740292224 -0.015856411296699579 0 -0.0078458188703619484 -0.015691695103806393 0 -0.0076267209234332015 -0.015536527812168743 0 -0.0080487978796686434 -0.015481575271408421 0 -0.0076267209234332015 -0.015536527812168743 0 -0.0077933177262568803 -0.01499991107104127 0 -0.0080487978796686434 -0.015481575271408421 0 -0.0076267209234332015 -0.015536527812168743 0 -0.0077933177262568803 -0.01499991107104127 0 -0.0072171743275195885 -0.015356474954504852 0 -0.0077933177262568803 -0.01499991107104127 0 -0.0080487978796686434 -0.015481575271408421 0 -0.0086033061554027374 -0.015000022279139064 0 -0.0080361742027760721 -0.015836567907325717 0 -0.0080487978796686434 -0.015481575271408421 0 -0.0084139624383224899 -0.015518585553362269 0 -0.0080487978796686434 -0.015481575271408421 0 -0.0084139624383224899 -0.015518585553362269 0 -0.0086033061554027374 -0.015000022279139064 0 -0.0084139624383224899 -0.015518585553362269 0 -0.0087159441027733729 -0.015401043594921993 0 -0.0085560815182856367 -0.015624392604720247 0 -0.0084139624383224899 -0.015518585553362269 0 -0.0086033061554027374 -0.015000022279139064 0 -0.0087159441027733729 -0.015401043594921993 0 -0.0086039965760694292 -0.015000031183928821 0 -0.0089496032858910595 -0.015502444055233112 0 -0.0086040320235937513 -0.015000000721877425 0 -0.0091542904583472792 -0.015567928284996011 0 -0.0094817272548291063 -0.014999969105625262 0 -0.0087159441027733729 -0.015401043594921993 0 -0.0085560815182856367 -0.015624392604720247 0 -0.0087419558702309195 -0.015800404758911039 0 -0.0085560815182856367 -0.015624392604720247 0 -0.0087419558702309195 -0.015800404758911039 0 -0.008368530279845493 -0.015802164680647962 0 -0.0087159441027733729 -0.015401043594921993 0 -0.0087419558702309195 -0.015800404758911039 0 -0.0090428145492177422 -0.015778663354666066 0 -0.00860974526936935 -0.015676781497735923 0 -0.008368530279845493 -0.015802164680647962 0 -0.0084596964001343242 -0.015916588172765023 0 -0.0086467199734137565 -0.015744267440514163 0 -0.008430465047247121 -0.01578252307990375 0 -0.0080361742027760721 -0.015836567907325717 0 -0.0084139624383224899 -0.015518585553362269 0 -0.008368530279845493 -0.015802164680647962 0 -0.0084139624383224899 -0.015518585553362269 0 -0.0085560815182856367 -0.015624392604720247 0 -0.008368530279845493 -0.015802164680647962 0 -0.008368530279845493 -0.015802164680647962 0 -0.0082373767732466067 -0.016026626562555369 0 -0.0084596964001343242 -0.015916588172765023 0 -0.0080361742027760721 -0.015836567907325717 0 -0.008368530279845493 -0.015802164680647962 0 -0.0082373767732466067 -0.016026626562555369 0 -0.0082373767732466067 -0.016026626562555369 0 -0.0084596964001343242 -0.015916588172765023 0 -0.0084215990195489494 -0.016166347857289806 0 -0.0088253785553491296 -0.015972535870861077 0 -0.0086941215798984565 -0.016294485516748981 0 -0.0084215990195489494 -0.016166347857289806 0 -0.0084596964001343242 -0.015916588172765023 0 -0.0088253785553491296 -0.015972535870861077 0 -0.0084215990195489494 -0.016166347857289806 0 -0.00860974526936935 -0.015676781497735923 0 -0.0084596964001343242 -0.015916588172765023 0 -0.0088253785553491296 -0.015972535870861077 0 -0.0088253785553491296 -0.015972535870861077 0 -0.009125385282255349 -0.016311548999255208 0 -0.0086941215798984565 -0.016294485516748981 0 -0.0088253785553491296 -0.015972535870861077 0 -0.0096277988821003198 -0.016060926315951993 0 -0.009125385282255349 -0.016311548999255208 0 -0.0088253785553491296 -0.015972535870861077 0 -0.0096277988821003198 -0.016060926315951993 0 -0.0091000337486817073 -0.015550023643435126 0 -0.0096277988821003198 -0.016060926315951993 0 -0.010243333224374677 -0.016301174029287158 0 -0.0096163354701140121 -0.016661459161550072 0 -0.0095133944670416064 -0.01594303623551268 0 -0.0093260033063687162 -0.015798753658797897 0 -0.0096277988821003198 -0.016060926315951993 0 -0.0092028639718159128 -0.015584198655543941 0 -0.01028402911605261 -0.015594994122754712 0 -0.0096913872610410699 -0.016125379211629536 0 -0.010258619245344424 -0.015603207318155864 0 -0.010548540832876553 -0.016018429453205797 0 -0.0093260033063687162 -0.015798753658797897 0 -0.010441415567303554 -0.015819138221691974 0 -0.00860974526936935 -0.015676781497735923 0 -0.0088253785553491296 -0.015972535870861077 0 -0.0091000337486817073 -0.015550023643435126 0 -0.0086467199734137565 -0.015744267440514163 0 -0.0093260033063687162 -0.015798753658797897 0 -0.0089496032858910595 -0.015502444055233112 0 -0.0093260033063687162 -0.015798753658797897 0 -0.0091542904583472792 -0.015567928284996011 0 -0.0096913872610410699 -0.016125379211629536 0 -0.0098011000215087879 -0.01545278662431205 0 -0.0091542904583472792 -0.015567928284996011 0 -0.0098011000215087879 -0.01545278662431205 0 -0.0094817272548291063 -0.014999969105625262 0 -0.0098011000215087879 -0.01545278662431205 0 -0.010258619245344424 -0.015603207318155864 0 -0.010359442793112659 -0.014999940966216169 0 -0.0098011000215087879 -0.01545278662431205 0 -0.0094817272548291063 -0.014999969105625262 0 -0.010359442793112659 -0.014999940966216169 0 -0.0096913872610410699 -0.016125379211629536 0 -0.0098011000215087879 -0.01545278662431205 0 -0.010258619245344424 -0.015603207318155864 0 -0.011367371030892168 -0.015806435579175233 0 -0.010789034562271163 -0.015468829074423308 0 -0.011237115753984729 -0.01499994063747777 0 -0.010258619245344424 -0.015603207318155864 0 -0.010789034562271163 -0.015468829074423308 0 -0.010548540832876553 -0.016018429453205797 0 -0.010258619245344424 -0.015603207318155864 0 -0.010789034562271163 -0.015468829074423308 0 -0.010359442793112659 -0.014999940966216169 0 -0.010789034562271163 -0.015468829074423308 0 -0.010359442793112659 -0.014999940966216169 0 -0.011237115753984729 -0.01499994063747777 0 -0.011367371030892168 -0.015806435579175233 0 -0.010789034562271163 -0.015468829074423308 0 -0.010548540832876553 -0.016018429453205797 0 -0.011367371030892168 -0.015806435579175233 0 -0.01028402911605261 -0.015594994122754712 0 -0.010919439025981007 -0.016395953991786203 0 -0.011287032898090786 -0.015797705165691015 0 -0.010441415567303554 -0.015819138221691974 0 -0.0096277988821003198 -0.016060926315951993 0 -0.01028402911605261 -0.015594994122754712 0 -0.010243333224374677 -0.016301174029287158 0 -0.01028402911605261 -0.015594994122754712 0 -0.010243333224374677 -0.016301174029287158 0 -0.010919439025981007 -0.016395953991786203 0 -0.011524859716319422 -0.017012314558493478 0 -0.010919439025981007 -0.016395953991786203 0 -0.010832144676042444 -0.017034578672401417 0 -0.010243333224374677 -0.016301174029287158 0 -0.010919439025981007 -0.016395953991786203 0 -0.010832144676042444 -0.017034578672401417 0 -0.010243333224374677 -0.016301174029287158 0 -0.010113505683083239 -0.017001184045654455 0 -0.010832144676042444 -0.017034578672401417 0 -0.010113505683083239 -0.017001184045654455 0 -0.010832144676042444 -0.017034578672401417 0 -0.010150977220526075 -0.017707413305986869 0 -0.010832144676042444 -0.017034578672401417 0 -0.010868421013831037 -0.017675257015484697 0 -0.010150977220526075 -0.017707413305986869 0 -0.011524859716319422 -0.017012314558493478 0 -0.010832144676042444 -0.017034578672401417 0 -0.010868421013831037 -0.017675257015484697 0 -0.015797274621725026 -0.012393128405516615 0 -0.016220278758491555 -0.012433586868470906 0 -0.016089837780547001 -0.011972028394298785 0 -0.016220278758491555 -0.012433586868470906 0 -0.016089837780547001 -0.011972028394298785 0 -0.016691255246452708 -0.011891313365658945 0 -0.016089837780547001 -0.011972028394298785 0 -0.016691255246452708 -0.011891313365658945 0 -0.016266776407173063 -0.011561305581196708 0 -0.016089837780547001 -0.011972028394298785 0 -0.016266776407173063 -0.011561305581196708 0 -0.015806913701789757 -0.011612601696771297 0 -0.012027995240368712 -0.013767906800637608 0 -0.015739930644446995 -0.010832709856607765 0 -0.01372159149316393 -0.015234126917145456 0 -0.012027995240368712 -0.013767906800637608 0 -0.010868421013831037 -0.017675257015484697 0 -0.010164117828325093 -0.01838579461062512 0 -0.010150977220526075 -0.017707413305986869 0 -0.010150977220526075 -0.017707413305986869 0 -0.0094856016493460663 -0.018017423534148095 0 -0.0095468808339413957 -0.017327125253957618 0 -0.010164117828325093 -0.01838579461062512 0 -0.010150977220526075 -0.017707413305986869 0 -0.0094856016493460663 -0.018017423534148095 0 -0.0082378584222754098 -0.015447741862112537 0 -0.0080763775462298019 -0.015388700587777537 0 -0.0080233499796819457 -0.015505296683678099 0 -0.012027995240368712 -0.013767906800637608 0 -0.0085418796728534575 -0.016808872542296713 0 -0.0080763775462298019 -0.015388700587777537 0 -0.0080233499796819457 -0.015505296683678099 0 -0.007889044701860427 -0.015513656817990886 0 -0.0094856016493460663 -0.018017423534148095 0 -0.0088014197734557539 -0.01762326663833785 0 -0.0095468808339413957 -0.017327125253957618 0 -0.0080763775462298019 -0.015388700587777537 0 -0.0079569979560263192 -0.015329534352073222 0 -0.007889044701860427 -0.015513656817990886 0 -0.0085418796728534575 -0.016808872542296713 0 -0.0083997309450193833 -0.016521961752622407 0 -0.0083997309450193833 -0.016521961752622407 0 -0.0088796803706000307 -0.016812761415787723 0 -0.0088014197734557539 -0.01762326663833785 0 -0.0089856865231879857 -0.017012513812309553 0 -0.0095468808339413957 -0.017327125253957618 0 -0.010113505683083239 -0.017001184045654455 0 -0.0095468808339413957 -0.017327125253957618 0 -0.0096163354701140121 -0.016661459161550072 0 -0.0089856865231879857 -0.017012513812309553 0 -0.0095468808339413957 -0.017327125253957618 0 -0.0096163354701140121 -0.016661459161550072 0 -0.010113505683083239 -0.017001184045654455 0 -0.010150977220526075 -0.017707413305986869 0 -0.0095468808339413957 -0.017327125253957618 0 -0.010243333224374677 -0.016301174029287158 0 -0.010113505683083239 -0.017001184045654455 0 -0.0096163354701140121 -0.016661459161550072 0 -0.0096277988821003198 -0.016060926315951993 0 -0.0096163354701140121 -0.016661459161550072 0 -0.009125385282255349 -0.016311548999255208 0 -0.0088796803706000307 -0.016812761415787723 0 -0.0090998472646576026 -0.01629730339270714 0 -0.0088004450428316918 -0.016462450500011914 0 -0.009125385282255349 -0.016311548999255208 0 -0.0086941215798984565 -0.016294485516748981 0 -0.0089856865231879857 -0.017012513812309553 0 -0.0096163354701140121 -0.016661459161550072 0 -0.009125385282255349 -0.016311548999255208 0 -0.0086941215798984565 -0.016294485516748981 0 -0.0084215990195489494 -0.016166347857289806 0 -0.0081759101152881226 -0.016443568948884373 0 -0.0082373767732466067 -0.016026626562555369 0 -0.0084215990195489494 -0.016166347857289806 0 -0.0081688272497908825 -0.016214320351371964 0 -0.0084215990195489494 -0.016166347857289806 0 -0.0081688272497908825 -0.016214320351371964 0 -0.0081759101152881226 -0.016443568948884373 0 -0.0080140172424950033 -0.016093915822395749 0 -0.0082373767732466067 -0.016026626562555369 0 -0.0081688272497908825 -0.016214320351371964 0 -0.0081688272497908825 -0.016214320351371964 0 -0.0081759101152881226 -0.016443568948884373 0 -0.0080282261380384395 -0.01627927144349935 0 -0.0081759101152881226 -0.016443568948884373 0 -0.0080636584823043558 -0.016316543979942925 0 -0.0080282261380384395 -0.01627927144349935 0 -0.0083997309450193833 -0.016521961752622407 0 -0.0081400985177279631 -0.016453736655564936 0 -0.0086323478421679867 -0.016811899139830354 0 -0.0088004450428316918 -0.016462450500011914 0 -0.0081759101152881226 -0.016443568948884373 0 -0.0088004450428316918 -0.016462450500011914 0 -0.0086941215798984565 -0.016294485516748981 0 -0.0081759101152881226 -0.016443568948884373 0 -0.0078637917462989985 -0.016326549433115387 0 -0.0078564149926139502 -0.016049186501849683 0 -0.008006686191007209 -0.016233345213774716 0 -0.0083997309450193833 -0.016521961752622407 0 -0.0078362263488513852 -0.015632467499739802 0 -0.0078637917462989985 -0.016326549433115387 0 -0.0081759101152881226 -0.016443568948884373 0 -0.008006686191007209 -0.016233345213774716 0 -0.0078564149926139502 -0.016049186501849683 0 -0.008006686191007209 -0.016233345213774716 0 -0.008012992690630525 -0.016032170081115522 0 -0.008006686191007209 -0.016233345213774716 0 -0.0080197938036375427 -0.016209555156596164 0 -0.008012992690630525 -0.016032170081115522 0 -0.0080636584823043558 -0.016316543979942925 0 -0.008006686191007209 -0.016233345213774716 0 -0.0080197938036375427 -0.016209555156596164 0 -0.0081759101152881226 -0.016443568948884373 0 -0.0080636584823043558 -0.016316543979942925 0 -0.008006686191007209 -0.016233345213774716 0 -0.0080197938036375427 -0.016209555156596164 0 -0.0079814091814165555 -0.016171728086398642 0 -0.0079465020580823664 -0.016256638809938207 0 -0.0080636584823043558 -0.016316543979942925 0 -0.0080197938036375427 -0.016209555156596164 0 -0.0079465020580823664 -0.016256638809938207 0 -0.0080197938036375427 -0.016209555156596164 0 -0.0079814091814165555 -0.016171728086398642 0 -0.008012992690630525 -0.016032170081115522 0 -0.0079814091814165555 -0.016171728086398642 0 -0.0080280433026744362 -0.016012391447336176 0 -0.008012992690630525 -0.016032170081115522 0 -0.0079814091814165555 -0.016171728086398642 0 -0.0080280433026744362 -0.016012391447336176 0 -0.0078831181304006726 -0.016216847766435245 0 -0.0079814091814165555 -0.016171728086398642 0 -0.0079465020580823664 -0.016256638809938207 0 -0.0078831181304006726 -0.016216847766435245 0 -0.0079465020580823664 -0.016256638809938207 0 -0.0078002864485862498 -0.016244746595496549 0 -0.0078831181304006726 -0.016216847766435245 0 -0.0078542228796509451 -0.016231498427502197 0 -0.0076850417529862542 -0.01618109806841363 0 -0.0078002864485862498 -0.016244746595496549 0 -0.0079465020580823664 -0.016256638809938207 0 -0.0078542228796509451 -0.016231498427502197 0 -0.0078002864485862498 -0.016244746595496549 0 -0.0080636584823043558 -0.016316543979942925 0 -0.0079465020580823664 -0.016256638809938207 0 -0.0080282261380384395 -0.01627927144349935 0 -0.0078542228796509451 -0.016231498427502197 0 -0.0080282261380384395 -0.01627927144349935 0 -0.007916837415807251 -0.016187069113886843 0 -0.0079465020580823664 -0.016256638809938207 0 -0.0078542228796509451 -0.016231498427502197 0 -0.0080282261380384395 -0.01627927144349935 0 -0.0080140172424950033 -0.016093915822395749 0 -0.0080282261380384395 -0.01627927144349935 0 -0.007916837415807251 -0.016187069113886843 0 -0.0080140172424950033 -0.016093915822395749 0 -0.0081688272497908825 -0.016214320351371964 0 -0.0080282261380384395 -0.01627927144349935 0 -0.0078542228796509451 -0.016231498427502197 0 -0.007916837415807251 -0.016187069113886843 0 -0.0077811064601358898 -0.01611429606207988 0 -0.0078542228796509451 -0.016231498427502197 0 -0.0077811064601358898 -0.01611429606207988 0 -0.0076850417529862542 -0.01618109806841363 0 -0.0080140172424950033 -0.016093915822395749 0 -0.007916837415807251 -0.016187069113886843 0 -0.0077811064601358898 -0.01611429606207988 0 -0.013153683372007553 -0.014165403974287236 0 -0.012373198347986883 -0.012708065531962414 0 -0.013569758487860408 -0.012907456983005914 0 -0.011839945025376502 -0.013410985444430446 0 -0.013153683372007553 -0.014165403974287236 0 -0.012373198347986883 -0.012708065531962414 0 -0.010945049938878454 -0.014907773593906742 0 -0.0095569544378470792 -0.014558138154812807 0 -0.011839945025376502 -0.013410985444430446 0 -0.011195391766812194 -0.013077608099446835 0 -0.012373198347986883 -0.012708065531962414 0 -0.011839945025376502 -0.013410985444430446 0 -0.013153683372007553 -0.014165403974287236 0 -0.011340279536388949 -0.013947771888763592 0 -0.0080616698315959991 -0.015462264407234421 0 -0.00813085670244682 -0.015608641023143124 0 -0.0080767732273265228 -0.01568913592090148 0 -0.0080616698315959991 -0.015462264407234421 0 -0.00813085670244682 -0.015608641023143124 0 -0.0079993353235890321 -0.015305507719073146 0 -0.0080616698315959991 -0.015462264407234421 0 -0.0080767732273265228 -0.01568913592090148 0 -0.0080738236217033823 -0.015462012616202187 0 -0.00813085670244682 -0.015608641023143124 0 -0.0080767732273265228 -0.01568913592090148 0 -0.0080956679652405168 -0.015800398596032633 0 -0.0080280433026744362 -0.016012391447336176 0 -0.0080767732273265228 -0.01568913592090148 0 -0.0080956679652405168 -0.015800398596032633 0 -0.0080280433026744362 -0.016012391447336176 0 -0.008012992690630525 -0.016032170081115522 0 -0.0080767732273265228 -0.01568913592090148 0 -0.0080767732273265228 -0.01568913592090148 0 -0.0079460636830783037 -0.015647722293325082 0 -0.0080738236217033823 -0.015462012616202187 0 -0.008012992690630525 -0.016032170081115522 0 -0.0080767732273265228 -0.01568913592090148 0 -0.0079460636830783037 -0.015647722293325082 0 -0.0078564149926139502 -0.016049186501849683 0 -0.008012992690630525 -0.016032170081115522 0 -0.0079460636830783037 -0.015647722293325082 0 -0.0078362263488513852 -0.015632467499739802 0 -0.0079443023644814315 -0.015703851718649641 0 -0.007889044701860427 -0.015513656817990886 0 -0.0079460636830783037 -0.015647722293325082 0 -0.0079213793532683582 -0.015586703980117822 0 -0.0079460636830783037 -0.015647722293325082 0 -0.0078090007543923411 -0.015578257930870783 0 -0.0080775498993363309 -0.015401723028410521 0 -0.0079460636830783037 -0.015647722293325082 0 -0.0078090007543923411 -0.015578257930870783 0 -0.0079213793532683582 -0.015586703980117822 0 -0.0086433206440217191 -0.014309488469323299 0 -0.0083283957495254961 -0.014811646433905085 0 -0.0078090007543923411 -0.015578257930870783 0 -0.0080775498993363309 -0.015401723028410521 0 -0.0083255694171158572 -0.014899514812673247 0 -0.0093440152687508729 -0.012986638933151934 0 -0.0091627468438708164 -0.014255984490751685 0 -0.0083255694171158572 -0.014899514812673247 0 -0.0079460636830783037 -0.015647722293325082 0 -0.0080775498993363309 -0.015401723028410521 0 -0.0080738236217033823 -0.015462012616202187 0 -0.0080775498993363309 -0.015401723028410521 0 -0.0080738236217033823 -0.015462012616202187 0 -0.0081446109856401581 -0.015272169745380721 0 -0.0080616698315959991 -0.015462264407234421 0 -0.0080738236217033823 -0.015462012616202187 0 -0.0081446109856401581 -0.015272169745380721 0 -0.0080616698315959991 -0.015462264407234421 0 -0.0081446109856401581 -0.015272169745380721 0 -0.0079993353235890321 -0.015305507719073146 0 -0.0080775498993363309 -0.015401723028410521 0 -0.0081446109856401581 -0.015272169745380721 0 -0.0083255694171158572 -0.014899514812673247 0 -0.011340279536388949 -0.013947771888763592 0 -0.010331131158022382 -0.013601069319774565 0 -0.0091375261649062171 -0.014007016244959623 0 -0.0083255694171158572 -0.014899514812673247 0 -0.0079993353235890321 -0.015305507719073146 0 -0.0091375261649062171 -0.014007016244959623 0 -0.0095569544378470792 -0.014558138154812807 0 -0.0090727158079408066 -0.014099927602299094 0 -0.0081446109856401581 -0.015272169745380721 0 -0.0083255694171158572 -0.014899514812673247 0 -0.0079993353235890321 -0.015305507719073146 0 -0.011340279536388949 -0.013947771888763592 0 -0.01119150053679722 -0.013504754752310524 0 -0.010331131158022382 -0.013601069319774565 0 -0.011839945025376502 -0.013410985444430446 0 -0.011340279536388949 -0.013947771888763592 0 -0.01119150053679722 -0.013504754752310524 0 -0.011839945025376502 -0.013410985444430446 0 -0.01119150053679722 -0.013504754752310524 0 -0.011195391766812194 -0.013077608099446835 0 -0.01119150053679722 -0.013504754752310524 0 -0.011195391766812194 -0.013077608099446835 0 -0.010331131158022382 -0.013601069319774565 0 -0.0091627468438708164 -0.014255984490751685 0 -0.0083255694171158572 -0.014899514812673247 0 -0.0091375261649062171 -0.014007016244959623 0 -0.010331131158022382 -0.013601069319774565 0 -0.0091375261649062171 -0.014007016244959623 0 -0.0097078541855657122 -0.012932049124888984 0 -0.0091375261649062171 -0.014007016244959623 0 -0.0089736963393907271 -0.01308337782087019 0 -0.0097078541855657122 -0.012932049124888984 0 -0.0091627468438708164 -0.014255984490751685 0 -0.0091375261649062171 -0.014007016244959623 0 -0.0087082011285802736 -0.013790968523050364 0 -0.0091627468438708164 -0.014255984490751685 0 -0.0087082011285802736 -0.013790968523050364 0 -0.0081603525332330784 -0.013911658292500189 0 -0.0093568802555255657 -0.014231364642123939 0 -0.0096789361535145821 -0.014605262971157596 0 -0.0091375261649062171 -0.014007016244959623 0 -0.0087082011285802736 -0.013790968523050364 0 -0.0089736963393907271 -0.01308337782087019 0 -0.0087082011285802736 -0.013790968523050364 0 -0.0081603525332330784 -0.013911658292500189 0 -0.0081354667821629725 -0.013224272527128891 0 -0.0118448911085482 -0.014914391725362625 0 -0.012327536190150073 -0.013258168305949706 0 -0.01324164918914165 -0.01414146153384122 0 -0.0118448911085482 -0.014914391725362625 0 -0.012327536190150073 -0.013258168305949706 0 -0.010730857542584304 -0.013585215112916521 0 -0.012327536190150073 -0.013258168305949706 0 -0.010730857542584304 -0.013585215112916521 0 -0.01126830773122499 -0.012568306900999086 0 -0.0093440152687508729 -0.012986638933151934 0 -0.010730857542584304 -0.013585215112916521 0 -0.01126830773122499 -0.012568306900999086 0 -0.0091627468438708164 -0.014255984490751685 0 -0.0118448911085482 -0.014914391725362625 0 -0.010730857542584304 -0.013585215112916521 0 -0.0093440152687508729 -0.012986638933151934 0 -0.0091627468438708164 -0.014255984490751685 0 -0.010730857542584304 -0.013585215112916521 0 -0.0093440152687508729 -0.012986638933151934 0 -0.011316941235919661 -0.011036316788426564 0 -0.01126830773122499 -0.012568306900999086 0 -0.0086433206440217191 -0.014309488469323299 0 -0.0095361670384734604 -0.013128475728371315 0 -0.0078090007543923411 -0.015578257930870783 0 -0.0079213793532683582 -0.015586703980117822 0 -0.0080445924658671328 -0.015587163585692454 0 -0.0080233499796819457 -0.015505296683678099 0 -0.007889044701860427 -0.015513656817990886 0 -0.0079213793532683582 -0.015586703980117822 0 -0.0080233499796819457 -0.015505296683678099 0 -0.0079213793532683582 -0.015586703980117822 0 -0.0080445924658671328 -0.015587163585692454 0 -0.0082378584222754098 -0.015447741862112537 0 -0.0080233499796819457 -0.015505296683678099 0 -0.0080445924658671328 -0.015587163585692454 0 -0.012027995240368712 -0.013767906800637608 0 -0.0095361670384734604 -0.013128475728371315 0 -0.013375622776123338 -0.0092215706772741969 0 -0.011316941235919661 -0.011036316788426564 0 -0.013722019465806217 -0.010372202367636765 0 -0.011316941235919661 -0.011036316788426564 0 -0.012627521955051001 -0.011954775209178845 0 -0.013722019465806217 -0.010372202367636765 0 -0.011316941235919661 -0.011036316788426564 0 -0.012627521955051001 -0.011954775209178845 0 -0.01126830773122499 -0.012568306900999086 0 -0.012327536190150073 -0.013258168305949706 0 -0.012627521955051001 -0.011954775209178845 0 -0.01126830773122499 -0.012568306900999086 0 -0.012627521955051001 -0.011954775209178845 0 -0.014005241340760255 -0.012861386573686127 0 -0.013722019465806217 -0.010372202367636765 0 -0.014655968924326541 -0.011508301966247738 0 -0.013722019465806217 -0.010372202367636765 0 -0.014766957144007088 -0.010955392152231702 0 -0.014556060226940155 -0.012334770920223488 0 -0.01371227716169944 -0.010329917193553929 0 -0.012327536190150073 -0.013258168305949706 0 -0.012627521955051001 -0.011954775209178845 0 -0.014005241340760255 -0.012861386573686127 0 -0.013375622776123338 -0.0092215706772741969 0 -0.013722019465806217 -0.010372202367636765 0 -0.014795392332397319 -0.010260316178578126 0 -0.014795392332397319 -0.010260316178578126 0 -0.014766957144007088 -0.010955392152231702 0 -0.015591251214666577 -0.011165758807518054 0 -0.015739930644446995 -0.010832709856607765 0 -0.015529157568453631 -0.011087042812501067 0 -0.013722019465806217 -0.010372202367636765 0 -0.014795392332397319 -0.010260316178578126 0 -0.014766957144007088 -0.010955392152231702 0 -0.014926475253626201 -0.011309816486726429 0 -0.01518991926777432 -0.011351059809322057 0 -0.015591251214666577 -0.011165758807518054 0 -0.014766957144007088 -0.010955392152231702 0 -0.014926475253626201 -0.011309816486726429 0 -0.015591251214666577 -0.011165758807518054 0 -0.014655968924326541 -0.011508301966247738 0 -0.014766957144007088 -0.010955392152231702 0 -0.014926475253626201 -0.011309816486726429 0 -0.01518991926777432 -0.011351059809322057 0 -0.01473109685699152 -0.011557272062714841 0 -0.015205989727052494 -0.011450237002492999 0 -0.014655968924326541 -0.011508301966247738 0 -0.014926475253626201 -0.011309816486726429 0 -0.01473109685699152 -0.011557272062714841 0 -0.014926475253626201 -0.011309816486726429 0 -0.01518991926777432 -0.011351059809322057 0 -0.01473109685699152 -0.011557272062714841 0 -0.014655968924326541 -0.011508301966247738 0 -0.01473109685699152 -0.011557272062714841 0 -0.014725603211740768 -0.011584880634757209 0 -0.014005241340760255 -0.012861386573686127 0 -0.01324164918914165 -0.01414146153384122 0 -0.014468896031789708 -0.015339439455934358 0 -0.014556060226940155 -0.012334770920223488 0 -0.012562001920820021 -0.012750964315145033 0 -0.012327536190150073 -0.013258168305949706 0 -0.014005241340760255 -0.012861386573686127 0 -0.01324164918914165 -0.01414146153384122 0 -0.0096789361535145821 -0.014605262971157596 0 -0.012562001920820021 -0.012750964315145033 0 -0.0081603525332330784 -0.013911658292500189 0 -0.007527879760707035 -0.013711048623642013 0 -0.0078787989631883965 -0.013560153175407496 0 -0.0118448911085482 -0.014914391725362625 0 -0.01324164918914165 -0.01414146153384122 0 -0.014468896031789708 -0.015339439455934358 0 -0.014840406416814162 -0.011637679233097987 0 -0.014726567827956128 -0.0114382512285016 0 -0.012562001920820021 -0.012750964315145033 0 -0.015150345769657849 -0.011453325132604884 0 -0.013861242987559891 -0.011471661112491396 0 -0.014196080420438189 -0.01177837160179218 0 -0.014534916945964014 -0.011598949739612119 0 -0.01473109685699152 -0.011557272062714841 0 -0.015205989727052494 -0.011450237002492999 0 -0.015397028954686013 -0.011759487157683112 0 -0.01473109685699152 -0.011557272062714841 0 -0.014725603211740768 -0.011584880634757209 0 -0.014549429848038102 -0.011568248106014575 0 -0.007527879760707035 -0.013711048623642013 0 -0.007638870218082695 -0.01332583997144343 0 -0.0074057064221188292 -0.013118218777294327 0 -0.012562001920820021 -0.012750964315145033 0 -0.0089120257579686328 -0.01299238380007626 0 -0.013861242987559891 -0.011471661112491396 0 -0.014196080420438189 -0.01177837160179218 0 -0.013995510899301953 -0.01210668926502693 0 -0.014196080420438189 -0.01177837160179218 0 -0.013995510899301953 -0.01210668926502693 0 -0.014451006128041595 -0.011962988980193481 0 -0.0075276081727671399 -0.012949604803862988 0 -0.0089120257579686328 -0.01299238380007626 0 -0.0078787989631883965 -0.013560153175407496 0 -0.007638870218082695 -0.01332583997144343 0 -0.0081354667821629725 -0.013224272527128891 0 -0.007527879760707035 -0.013711048623642013 0 -0.0078787989631883965 -0.013560153175407496 0 -0.007638870218082695 -0.01332583997144343 0 -0.007638870218082695 -0.01332583997144343 0 -0.0076842165575094967 -0.013058637071565422 0 -0.0081354667821629725 -0.013224272527128891 0 -0.007638870218082695 -0.01332583997144343 0 -0.0076842165575094967 -0.013058637071565422 0 -0.0073251078888303739 -0.013056641303438489 0 -0.0055887861195035114 -0.010280584125280509 0 -0.0068786869289450877 -0.010469337475283435 0 -0.0069700727693154168 -0.011917669940163347 0 -0.0065236018504533193 -0.011532466331134578 0 -0.0075905204346142629 -0.012583870017436391 0 -0.0076842165575094967 -0.013058637071565422 0 -0.0076051995509655449 -0.012627828657320286 0 -0.0081354667821629725 -0.013224272527128891 0 -0.0089120257579686328 -0.01299238380007626 0 -0.007243098200826515 -0.01247510781029963 0 -0.0073669188785826034 -0.013030379848330758 0 -0.007232523471070766 -0.012495871340248974 0 -0.0069070079057043056 -0.012657732883604856 0 -0.0076051995509655449 -0.012627828657320286 0 -0.0073251078888303739 -0.013056641303438489 0 -0.007232523471070766 -0.012495871340248974 0 -0.0076842165575094967 -0.013058637071565422 0 -0.0076051995509655449 -0.012627828657320286 0 -0.0073251078888303739 -0.013056641303438489 0 -0.0089120257579686328 -0.01299238380007626 0 -0.011471447032681818 -0.011340145135325224 0 -0.0065236018504533193 -0.011532466331134578 0 -0.006129592052171888 -0.0098076743312745362 0 -0.0055887861195035114 -0.010280584125280509 0 -0.0053942928879094467 -0.0091472748933496984 0 -0.004170603114764625 -0.0087936183443558958 0 -0.0076051995509655449 -0.012627828657320286 0 -0.007232523471070766 -0.012495871340248974 0 -0.0069812153260083035 -0.011993356773307415 0 -0.0050719101749612276 -0.0085089160385448982 0 -0.0043046024864796233 -0.0079337625401177565 0 -0.004170603114764625 -0.0087936183443558958 0 -0.0053942928879094467 -0.0091472748933496984 0 -0.0050719101749612276 -0.0085089160385448982 0 -0.004170603114764625 -0.0087936183443558958 0 -0.0050719101749612276 -0.0085089160385448982 0 -0.0055589608774673826 -0.0078004658624049655 0 -0.0043046024864796233 -0.0079337625401177565 0 -0.0050719101749612276 -0.0085089160385448982 0 -0.0055589608774673826 -0.0078004658624049655 0 -0.0057992562766247075 -0.008666719687561969 0 -0.0053942928879094467 -0.0091472748933496984 0 -0.0050719101749612276 -0.0085089160385448982 0 -0.0057992562766247075 -0.008666719687561969 0 -0.0055589608774673826 -0.0078004658624049655 0 -0.0057992562766247075 -0.008666719687561969 0 -0.0066904812530367598 -0.0084046099155687184 0 -0.0055589608774673826 -0.0078004658624049655 0 -0.0066904812530367598 -0.0084046099155687184 0 -0.0064724819507486825 -0.0071772332682241789 0 -0.0057992562766247075 -0.008666719687561969 0 -0.0066904812530367598 -0.0084046099155687184 0 -0.0063261345912065461 -0.009485618159219493 0 -0.0055887861195035114 -0.010280584125280509 0 -0.0063261345912065461 -0.009485618159219493 0 -0.0068786869289450877 -0.010469337475283435 0 -0.0053942928879094467 -0.0091472748933496984 0 -0.0057992562766247075 -0.008666719687561969 0 -0.0063261345912065461 -0.009485618159219493 0 -0.0055887861195035114 -0.010280584125280509 0 -0.0053942928879094467 -0.0091472748933496984 0 -0.0063261345912065461 -0.009485618159219493 0 -0.0063261345912065461 -0.009485618159219493 0 -0.0074652949797272055 -0.0095466548100116948 0 -0.0068786869289450877 -0.010469337475283435 0 -0.0066904812530367598 -0.0084046099155687184 0 -0.0063261345912065461 -0.009485618159219493 0 -0.0074652949797272055 -0.0095466548100116948 0 -0.0066904812530367598 -0.0084046099155687184 0 -0.0076729454585139842 -0.0079822989921380025 0 -0.0064724819507486825 -0.0071772332682241789 0 -0.0066904812530367598 -0.0084046099155687184 0 -0.0074652949797272055 -0.0095466548100116948 0 -0.0076729454585139842 -0.0079822989921380025 0 -0.0076729454585139842 -0.0079822989921380025 0 -0.0085256064714957242 -0.008657353857921728 0 -0.0089862790864006538 -0.0073421456951308882 0 -0.0085256064714957242 -0.008657353857921728 0 -0.0096325116329584494 -0.0086881732758105762 0 -0.0089862790864006538 -0.0073421456951308882 0 -0.0074652949797272055 -0.0095466548100116948 0 -0.0076729454585139842 -0.0079822989921380025 0 -0.0085256064714957242 -0.008657353857921728 0 -0.0074652949797272055 -0.0095466548100116948 0 -0.0085256064714957242 -0.008657353857921728 0 -0.0088719715947123585 -0.0097593779871411757 0 -0.0085256064714957242 -0.008657353857921728 0 -0.0088719715947123585 -0.0097593779871411757 0 -0.0096325116329584494 -0.0086881732758105762 0 -0.0074652949797272055 -0.0095466548100116948 0 -0.0088719715947123585 -0.0097593779871411757 0 -0.0081223600470353742 -0.011147705565163086 0 -0.0088719715947123585 -0.0097593779871411757 0 -0.0081223600470353742 -0.011147705565163086 0 -0.0095351603179129538 -0.010876661842897537 0 -0.0081223600470353742 -0.011147705565163086 0 -0.0091302146921623997 -0.012155411420779541 0 -0.0095351603179129538 -0.010876661842897537 0 -0.0074652949797272055 -0.0095466548100116948 0 -0.0081223600470353742 -0.011147705565163086 0 -0.0068786869289450877 -0.010469337475283435 0 -0.0081223600470353742 -0.011147705565163086 0 -0.0068786869289450877 -0.010469337475283435 0 -0.0069700727693154168 -0.011917669940163347 0 -0.0081603525332330784 -0.013911658292500189 0 -0.0078787989631883965 -0.013560153175407496 0 -0.0081354667821629725 -0.013224272527128891 0 -0.0081223600470353742 -0.011147705565163086 0 -0.0069700727693154168 -0.011917669940163347 0 -0.0083911103428794456 -0.012409930038177691 0 -0.0087082011285802736 -0.013790968523050364 0 -0.0069700727693154168 -0.011917669940163347 0 -0.0083911103428794456 -0.012409930038177691 0 -0.0086567567195691576 -0.013720182279719334 0 -0.0075905204346142629 -0.012583870017436391 0 -0.0089736963393907271 -0.01308337782087019 0 -0.0083911103428794456 -0.012409930038177691 0 -0.0091302146921623997 -0.012155411420779541 0 -0.0087082011285802736 -0.013790968523050364 0 -0.0089736963393907271 -0.01308337782087019 0 -0.0083911103428794456 -0.012409930038177691 0 -0.0081223600470353742 -0.011147705565163086 0 -0.0083911103428794456 -0.012409930038177691 0 -0.0091302146921623997 -0.012155411420779541 0 -0.009931381523811747 -0.011892953619146808 0 -0.0091302146921623997 -0.012155411420779541 0 -0.0097078541855657122 -0.012932049124888984 0 -0.0089736963393907271 -0.01308337782087019 0 -0.0091302146921623997 -0.012155411420779541 0 -0.0097078541855657122 -0.012932049124888984 0 -0.010331131158022382 -0.013601069319774565 0 -0.0097078541855657122 -0.012932049124888984 0 -0.010574313755024607 -0.012475700046485381 0 -0.009931381523811747 -0.011892953619146808 0 -0.0097078541855657122 -0.012932049124888984 0 -0.010574313755024607 -0.012475700046485381 0 -0.011195391766812194 -0.013077608099446835 0 -0.010331131158022382 -0.013601069319774565 0 -0.010574313755024607 -0.012475700046485381 0 -0.011195391766812194 -0.013077608099446835 0 -0.010574313755024607 -0.012475700046485381 0 -0.011428040541108983 -0.012148263131084245 0 -0.010574313755024607 -0.012475700046485381 0 -0.011428040541108983 -0.012148263131084245 0 -0.010734270861827972 -0.011427850189543573 0 -0.009931381523811747 -0.011892953619146808 0 -0.010574313755024607 -0.012475700046485381 0 -0.010734270861827972 -0.011427850189543573 0 -0.010734270861827972 -0.011427850189543573 0 -0.0095351603179129538 -0.010876661842897537 0 -0.010826394082327596 -0.010242905769779428 0 -0.011428040541108983 -0.012148263131084245 0 -0.010734270861827972 -0.011427850189543573 0 -0.0119883759219526 -0.011330041964231943 0 -0.010734270861827972 -0.011427850189543573 0 -0.010826394082327596 -0.010242905769779428 0 -0.0119883759219526 -0.011330041964231943 0 -0.009931381523811747 -0.011892953619146808 0 -0.010734270861827972 -0.011427850189543573 0 -0.0095351603179129538 -0.010876661842897537 0 -0.009931381523811747 -0.011892953619146808 0 -0.0091302146921623997 -0.012155411420779541 0 -0.0095351603179129538 -0.010876661842897537 0 -0.0095351603179129538 -0.010876661842897537 0 -0.0099349298393603281 -0.0096572938069814426 0 -0.010826394082327596 -0.010242905769779428 0 -0.0088719715947123585 -0.0097593779871411757 0 -0.0095351603179129538 -0.010876661842897537 0 -0.0099349298393603281 -0.0096572938069814426 0 -0.0099349298393603281 -0.0096572938069814426 0 -0.0096325116329584494 -0.0086881732758105762 0 -0.010807144368932382 -0.0087371041745941576 0 -0.0088719715947123585 -0.0097593779871411757 0 -0.0099349298393603281 -0.0096572938069814426 0 -0.0096325116329584494 -0.0086881732758105762 0 -0.0096325116329584494 -0.0086881732758105762 0 -0.0089862790864006538 -0.0073421456951308882 0 -0.010134499848339596 -0.007651637152883496 0 -0.0096325116329584494 -0.0086881732758105762 0 -0.010807144368932382 -0.0087371041745941576 0 -0.010134499848339596 -0.007651637152883496 0 -0.010807144368932382 -0.0087371041745941576 0 -0.01124008863108456 -0.007245010471233054 0 -0.010134499848339596 -0.007651637152883496 0 -0.010807144368932382 -0.0087371041745941576 0 -0.012070516315811729 -0.0081465484271227434 0 -0.01124008863108456 -0.007245010471233054 0 -0.010807144368932382 -0.0087371041745941576 0 -0.010826394082327596 -0.010242905769779428 0 -0.011927457984863324 -0.0095191491983739624 0 -0.0099349298393603281 -0.0096572938069814426 0 -0.010807144368932382 -0.0087371041745941576 0 -0.010826394082327596 -0.010242905769779428 0 -0.011927457984863324 -0.0095191491983739624 0 -0.013042735762924081 -0.01000170817287761 0 -0.0119883759219526 -0.011330041964231943 0 -0.011927457984863324 -0.0095191491983739624 0 -0.012804038335453696 -0.0088265895133254786 0 -0.013042735762924081 -0.01000170817287761 0 -0.010807144368932382 -0.0087371041745941576 0 -0.011927457984863324 -0.0095191491983739624 0 -0.012070516315811729 -0.0081465484271227434 0 -0.011927457984863324 -0.0095191491983739624 0 -0.012070516315811729 -0.0081465484271227434 0 -0.012804038335453696 -0.0088265895133254786 0 -0.012070516315811729 -0.0081465484271227434 0 -0.013122870288722879 -0.0079763345072268819 0 -0.012804038335453696 -0.0088265895133254786 0 -0.013122870288722879 -0.0079763345072268819 0 -0.01349193998274569 -0.0075233781790856923 0 -0.013985208459264327 -0.0081129397187134147 0 -0.013122870288722879 -0.0079763345072268819 0 -0.013822241116287048 -0.0086079600240520169 0 -0.013985208459264327 -0.0081129397187134147 0 -0.013122870288722879 -0.0079763345072268819 0 -0.012804038335453696 -0.0088265895133254786 0 -0.013822241116287048 -0.0086079600240520169 0 -0.013822241116287048 -0.0086079600240520169 0 -0.013042735762924081 -0.01000170817287761 0 -0.014343435848130611 -0.010242453843547291 0 -0.012804038335453696 -0.0088265895133254786 0 -0.013822241116287048 -0.0086079600240520169 0 -0.013042735762924081 -0.01000170817287761 0 -0.013042735762924081 -0.01000170817287761 0 -0.013328139736354416 -0.011496096168005463 0 -0.014343435848130611 -0.010242453843547291 0 -0.013042735762924081 -0.01000170817287761 0 -0.013328139736354416 -0.011496096168005463 0 -0.0119883759219526 -0.011330041964231943 0 -0.013691838703041132 -0.011684724712339487 0 -0.011969307564151339 -0.011343929945962897 0 -0.010826394082327596 -0.010242905769779428 0 -0.011927457984863324 -0.0095191491983739624 0 -0.0119883759219526 -0.011330041964231943 0 -0.011195391766812194 -0.013077608099446835 0 -0.011428040541108983 -0.012148263131084245 0 -0.012373198347986883 -0.012708065531962414 0 -0.011428040541108983 -0.012148263131084245 0 -0.0119883759219526 -0.011330041964231943 0 -0.012373198347986883 -0.012708065531962414 0 -0.013201112609349351 -0.011712337207948096 0 -0.0119883759219526 -0.011330041964231943 0 -0.012373198347986883 -0.012708065531962414 0 -0.013201112609349351 -0.011712337207948096 0 -0.013569758487860408 -0.012907456983005914 0 -0.014322999010879934 -0.011977723488045539 0 -0.013201112609349351 -0.011712337207948096 0 -0.012373198347986883 -0.012708065531962414 0 -0.013569758487860408 -0.012907456983005914 0 -0.015309577980510546 -0.010640059988723968 0 -0.015152862933450766 -0.010802280350739586 0 -0.015216435368375209 -0.010650698911034831 0 -0.015309577980510546 -0.010640059988723968 0 -0.015280306976023714 -0.010504729619959123 0 -0.015394995589159684 -0.010685413879697061 0 -0.015309577980510546 -0.010640059988723968 0 -0.015152862933450766 -0.010802280350739586 0 -0.015497368133995984 -0.010726713947051924 0 -0.015152862933450766 -0.010802280350739586 0 -0.015196377434846973 -0.010696510189065023 0 -0.015208398562481604 -0.01079839557605918 0 -0.015152862933450766 -0.010802280350739586 0 -0.015196377434846973 -0.010696510189065023 0 -0.015216435368375209 -0.010650698911034831 0 -0.015196377434846973 -0.010696510189065023 0 -0.015216435368375209 -0.010650698911034831 0 -0.015210075952210368 -0.01063344375886224 0 -0.015309577980510546 -0.010640059988723968 0 -0.015216435368375209 -0.010650698911034831 0 -0.015229870216090867 -0.010533978116349442 0 -0.015216435368375209 -0.010650698911034831 0 -0.015229870216090867 -0.010533978116349442 0 -0.015210075952210368 -0.01063344375886224 0 -0.015225081789044054 -0.010434431471723923 0 -0.015229870216090867 -0.010533978116349442 0 -0.015255516106620695 -0.010465753042120112 0 -0.015229870216090867 -0.010533978116349442 0 -0.015255516106620695 -0.010465753042120112 0 -0.015210075952210368 -0.01063344375886224 0 -0.015225081789044054 -0.010434431471723923 0 -0.015255516106620695 -0.010465753042120112 0 -0.015191342502174604 -0.010323965790478659 0 -0.015225081789044054 -0.010434431471723923 0 -0.015229870216090867 -0.010533978116349442 0 -0.015280306976023714 -0.010504729619959123 0 -0.01529205986205689 -0.0097206163885468263 0 -0.014999957347749114 -0.01003242813501103 0 -0.015131051083107526 -0.0095581002840702135 0 -0.015393117843710976 -0.0094468335511751541 0 -0.014999998628958741 -0.0100320895503512 0 -0.015255516106620695 -0.010465753042120112 0 -0.015000295018798253 -0.010033458193317534 0 -0.015191342502174604 -0.010323965790478659 0 -0.015131051083107526 -0.0095581002840702135 0 -0.014999998628958741 -0.0100320895503512 0 -0.014999995389620747 -0.009154020966106664 0 -0.015131051083107526 -0.0095581002840702135 0 -0.015391171254621402 -0.0094442149743328881 0 -0.014999995389620747 -0.009154020966106664 0 -0.015254327852990055 -0.0096054630203483947 0 -0.01529205986205689 -0.0097206163885468263 0 -0.015000295018798253 -0.010033458193317534 0 -0.015191342502174604 -0.010323965790478659 0 -0.01523811100568152 -0.010499936457075172 0 -0.015309577980510546 -0.010640059988723968 0 -0.015229870216090867 -0.010533978116349442 0 -0.015280306976023714 -0.010504729619959123 0 -0.015225081789044054 -0.010434431471723923 0 -0.015191342502174604 -0.010323965790478659 0 -0.015280306976023714 -0.010504729619959123 0 -0.015191342502174604 -0.010323965790478659 0 -0.015280306976023714 -0.010504729619959123 0 -0.01523811100568152 -0.010499936457075172 0 -0.015280306976023714 -0.010504729619959123 0 -0.015394995589159684 -0.010685413879697061 0 -0.01523811100568152 -0.010499936457075172 0 -0.015394995589159684 -0.010685413879697061 0 -0.01523811100568152 -0.010499936457075172 0 -0.015315325720256229 -0.010911289009838145 0 -0.015000295018798253 -0.010033458193317534 0 -0.014999778876295937 -0.010698275097914649 0 -0.01523811100568152 -0.010499936457075172 0 -0.014999778876295937 -0.010698275097914649 0 -0.01523811100568152 -0.010499936457075172 0 -0.015315325720256229 -0.010911289009838145 0 -0.014999930335973641 -0.011364854706281135 0 -0.014999778876295937 -0.010698275097914649 0 -0.015315325720256229 -0.010911289009838145 0 -0.015343223091779972 -0.011357604310359369 0 -0.014999930335973641 -0.011364854706281135 0 -0.015315325720256229 -0.010911289009838145 0 -0.015655275387281353 -0.011166604929504172 0 -0.015343223091779972 -0.011357604310359369 0 -0.015315325720256229 -0.010911289009838145 0 -0.015655275387281353 -0.011166604929504172 0 -0.015394995589159684 -0.010685413879697061 0 -0.015315325720256229 -0.010911289009838145 0 -0.015655275387281353 -0.011166604929504172 0 -0.015394995589159684 -0.010685413879697061 0 -0.015497368133995984 -0.010726713947051924 0 -0.015192059718207923 -0.011342696390281062 0 -0.015162304308954827 -0.011050708613796425 0 -0.015309577980510546 -0.010640059988723968 0 -0.015394995589159684 -0.010685413879697061 0 -0.015497368133995984 -0.010726713947051924 0 -0.014843495708631173 -0.01129099167631412 0 -0.015065032915590942 -0.011600390216406202 0 -0.01521148078304551 -0.011158925499344769 0 -0.015152862933450766 -0.010802280350739586 0 -0.014843495708631173 -0.01129099167631412 0 -0.01521148078304551 -0.011158925499344769 0 -0.015159931860064863 -0.010837185880438938 0 -0.015162304308954827 -0.011050708613796425 0 -0.014705029797517899 -0.011647440083682009 0 -0.014843495708631173 -0.01129099167631412 0 -0.015065032915590942 -0.011600390216406202 0 -0.015065032915590942 -0.011600390216406202 0 -0.015320227496021091 -0.011361000489243989 0 -0.01521148078304551 -0.011158925499344769 0 -0.015269371371324397 -0.011700414240421503 0 -0.015065032915590942 -0.011600390216406202 0 -0.015320227496021091 -0.011361000489243989 0 -0.015269371371324397 -0.011700414240421503 0 -0.015320227496021091 -0.011361000489243989 0 -0.015485732950816476 -0.011519819710829184 0 -0.015320227496021091 -0.011361000489243989 0 -0.01521148078304551 -0.011158925499344769 0 -0.015388855257764547 -0.011115652687287647 0 -0.015320227496021091 -0.011361000489243989 0 -0.015460324889118254 -0.011258440516760383 0 -0.015388855257764547 -0.011115652687287647 0 -0.015591251214666577 -0.011165758807518054 0 -0.015806913701789757 -0.011612601696771297 0 -0.015485732950816476 -0.011519819710829184 0 -0.016266776407173063 -0.011561305581196708 0 -0.015591251214666577 -0.011165758807518054 0 -0.015806913701789757 -0.011612601696771297 0 -0.015591251214666577 -0.011165758807518054 0 -0.015485732950816476 -0.011519819710829184 0 -0.015460324889118254 -0.011258440516760383 0 -0.015320227496021091 -0.011361000489243989 0 -0.015485732950816476 -0.011519819710829184 0 -0.015460324889118254 -0.011258440516760383 0 -0.015591251214666577 -0.011165758807518054 0 -0.015460324889118254 -0.011258440516760383 0 -0.015423831591245442 -0.011301434978775837 0 -0.01518991926777432 -0.011351059809322057 0 -0.015591251214666577 -0.011165758807518054 0 -0.015423831591245442 -0.011301434978775837 0 -0.01518991926777432 -0.011351059809322057 0 -0.015205989727052494 -0.011450237002492999 0 -0.015423831591245442 -0.011301434978775837 0 -0.015423831591245442 -0.011301434978775837 0 -0.015420891074675591 -0.011396032872161444 0 -0.015426617507140352 -0.011250039665251853 0 -0.015205989727052494 -0.011450237002492999 0 -0.015423831591245442 -0.011301434978775837 0 -0.015420891074675591 -0.011396032872161444 0 -0.015460324889118254 -0.011258440516760383 0 -0.015426617507140352 -0.011250039665251853 0 -0.015388855257764547 -0.011115652687287647 0 -0.015420891074675591 -0.011396032872161444 0 -0.015426617507140352 -0.011250039665251853 0 -0.015386956503556776 -0.011212716554757371 0 -0.015460324889118254 -0.011258440516760383 0 -0.015423831591245442 -0.011301434978775837 0 -0.015426617507140352 -0.011250039665251853 0 -0.015426617507140352 -0.011250039665251853 0 -0.015386956503556776 -0.011212716554757371 0 -0.015388855257764547 -0.011115652687287647 0 -0.015386956503556776 -0.011212716554757371 0 -0.015350686606549771 -0.011141184303897742 0 -0.015388997743532128 -0.011123303961663306 0 -0.015386956503556776 -0.011212716554757371 0 -0.015469120002956764 -0.011207099816078569 0 -0.015388997743532128 -0.011123303961663306 0 -0.014725603211740768 -0.011584880634757209 0 -0.014534916945964014 -0.011598949739612119 0 -0.014549429848038102 -0.011568248106014575 0 -0.015205989727052494 -0.011450237002492999 0 -0.015420891074675591 -0.011396032872161444 0 -0.015397028954686013 -0.011759487157683112 0 -0.015420891074675591 -0.011396032872161444 0 -0.015386956503556776 -0.011212716554757371 0 -0.015469120002956764 -0.011207099816078569 0 -0.015293721489254879 -0.011382778588999743 0 -0.014726567827956128 -0.0114382512285016 0 -0.015152862933450766 -0.010802280350739586 0 -0.01521148078304551 -0.011158925499344769 0 -0.015251098103052927 -0.010949524003399607 0 -0.015152862933450766 -0.010802280350739586 0 -0.015251098103052927 -0.010949524003399607 0 -0.015208398562481604 -0.01079839557605918 0 -0.01521148078304551 -0.011158925499344769 0 -0.015251098103052927 -0.010949524003399607 0 -0.015388855257764547 -0.011115652687287647 0 -0.015388855257764547 -0.011115652687287647 0 -0.015350686606549771 -0.011141184303897742 0 -0.015305676321911025 -0.011138383168189003 0 -0.015386956503556776 -0.011212716554757371 0 -0.015388855257764547 -0.011115652687287647 0 -0.015350686606549771 -0.011141184303897742 0 -0.015370633104808884 -0.011089619911251125 0 -0.015319931184356492 -0.01091563071144571 0 -0.015251098103052927 -0.010949524003399607 0 -0.015388855257764547 -0.011115652687287647 0 -0.015278476134295452 -0.010733783109944864 0 -0.015251098103052927 -0.010949524003399607 0 -0.015278476134295452 -0.010733783109944864 0 -0.015208398562481604 -0.01079839557605918 0 -0.015196377434846973 -0.010696510189065023 0 -0.015278476134295452 -0.010733783109944864 0 -0.015208398562481604 -0.01079839557605918 0 -0.015319931184356492 -0.01091563071144571 0 -0.015463395548390668 -0.01061144230728301 0 -0.015196377434846973 -0.010696510189065023 0 -0.015278476134295452 -0.010733783109944864 0 -0.015240952343614477 -0.010673564333898253 0 -0.015240387593667526 -0.011086183769401752 0 -0.01529293946684698 -0.01104772300833445 0 -0.015242446411190552 -0.011001454842862452 0 -0.015585212710788082 -0.0099591931051512782 0 -0.01566718987062354 -0.0094304442741949754 0 -0.015283346815683625 -0.0095947079840200036 0 -0.015463395548390668 -0.01061144230728301 0 -0.015320109822920832 -0.0091238649112248323 0 -0.01529293946684698 -0.01104772300833445 0 -0.015306919253152059 -0.011099489406571272 0 -0.01533108773490572 -0.011071775898908374 0 -0.015240387593667526 -0.011086183769401752 0 -0.01529293946684698 -0.01104772300833445 0 -0.015306919253152059 -0.011099489406571272 0 -0.015350686606549771 -0.011141184303897742 0 -0.015305676321911025 -0.011138383168189003 0 -0.015306919253152059 -0.011099489406571272 0 -0.015305676321911025 -0.011138383168189003 0 -0.015240387593667526 -0.011086183769401752 0 -0.015306919253152059 -0.011099489406571272 0 -0.015350686606549771 -0.011141184303897742 0 -0.015306919253152059 -0.011099489406571272 0 -0.01533108773490572 -0.011071775898908374 0 -0.015350686606549771 -0.011141184303897742 0 -0.01533108773490572 -0.011071775898908374 0 -0.015388997743532128 -0.011123303961663306 0 -0.01533108773490572 -0.011071775898908374 0 -0.015339500061045785 -0.011059128518202207 0 -0.015388997743532128 -0.011123303961663306 0 -0.013890744884673319 -0.010162959832874683 0 -0.014378635828277852 -0.010982487312070749 0 -0.01529293946684698 -0.01104772300833445 0 -0.01533108773490572 -0.011071775898908374 0 -0.015349452685549617 -0.011041483787106293 0 -0.01426359437116524 -0.010281758763453216 0 -0.013890744884673319 -0.010162959832874683 0 -0.013890744884673319 -0.010162959832874683 0 -0.013843365922625941 -0.008459626855388808 0 -0.012873831976450631 -0.010503612267147458 0 -0.013299444380212702 -0.010789405788229827 0 -0.013157827680109858 -0.010159756368324321 0 -0.012261322596932639 -0.0075410638592496798 0 -0.012242404763589738 -0.0076557986896644498 0 -0.012383950887155716 -0.0076151903124353475 0 -0.013890744884673319 -0.010162959832874683 0 -0.012696455093588074 -0.00888861106468029 0 -0.012242404763589738 -0.0076557986896644498 0 -0.012141362418859115 -0.0076549837086710574 0 -0.012233218135425042 -0.0077194140358483711 0 -0.012261322596932639 -0.0075410638592496798 0 -0.012242404763589738 -0.0076557986896644498 0 -0.012141362418859115 -0.0076549837086710574 0 -0.012148134650085404 -0.0079774382560306046 0 -0.013843365922625941 -0.008459626855388808 0 -0.012242404763589738 -0.0076557986896644498 0 -0.01237679265251534 -0.0075951841622483602 0 -0.012334174258701622 -0.0077084934514855879 0 -0.012439038007005705 -0.0076320017599391986 0 -0.01237679265251534 -0.0075951841622483602 0 -0.012334174258701622 -0.0077084934514855879 0 -0.015304027357668632 -0.0081000483764355619 0 -0.013843365922625941 -0.008459626855388808 0 -0.016588534123174192 -0.0082043544762391528 0 -0.016571979101429948 -0.0083273028978852193 0 -0.016468820164558452 -0.0082739573128707833 0 -0.015032221171363096 -0.0086708395272524427 0 -0.015051299584712869 -0.0085184206559786712 0 -0.014893574614352686 -0.0085828992871355651 0 -0.015304027357668632 -0.0081000483764355619 0 -0.015320109822920832 -0.0091238649112248323 0 -0.015320109822920832 -0.0091238649112248323 0 -0.013843365922625941 -0.008459626855388808 0 -0.01529293946684698 -0.01104772300833445 0 -0.015349452685549617 -0.011041483787106293 0 -0.015282276186230169 -0.010982572599621144 0 -0.01529293946684698 -0.01104772300833445 0 -0.015242446411190552 -0.011001454842862452 0 -0.015282276186230169 -0.010982572599621144 0 -0.013735772288943404 -0.011077809776197845 0 -0.013787991971915676 -0.010610297310653136 0 -0.013299444380212702 -0.010789405788229827 0 -0.014726567827956128 -0.0114382512285016 0 -0.014096481202038276 -0.011209291884489728 0 -0.014534916945964014 -0.011598949739612119 0 -0.014549429848038102 -0.011568248106014575 0 -0.014451006128041595 -0.011962988980193481 0 -0.014196080420438189 -0.01177837160179218 0 -0.014534916945964014 -0.011598949739612119 0 -0.014451006128041595 -0.011962988980193481 0 -0.013787991971915676 -0.010610297310653136 0 -0.013299444380212702 -0.010789405788229827 0 -0.013505097893987661 -0.010333786204495547 0 -0.014726567827956128 -0.0114382512285016 0 -0.014378635828277852 -0.010982487312070749 0 -0.013505097893987661 -0.010333786204495547 0 -0.013157827680109858 -0.010159756368324321 0 -0.013439376111829415 -0.0098142588817261567 0 -0.013299444380212702 -0.010789405788229827 0 -0.013505097893987661 -0.010333786204495547 0 -0.013157827680109858 -0.010159756368324321 0 -0.013787991971915676 -0.010610297310653136 0 -0.013505097893987661 -0.010333786204495547 0 -0.013835747190513991 -0.010147310219009241 0 -0.013505097893987661 -0.010333786204495547 0 -0.013835747190513991 -0.010147310219009241 0 -0.013439376111829415 -0.0098142588817261567 0 -0.013995510899301953 -0.01210668926502693 0 -0.014451006128041595 -0.011962988980193481 0 -0.014359420531732217 -0.012396231976318553 0 -0.014096481202038276 -0.011209291884489728 0 -0.011471447032681818 -0.011340145135325224 0 -0.011471447032681818 -0.011340145135325224 0 -0.006129592052171888 -0.0098076743312745362 0 -0.007232523471070766 -0.012495871340248974 0 -0.0069070079057043056 -0.012657732883604856 0 -0.0069812153260083035 -0.011993356773307415 0 -0.009740884095845271 -0.0099062853373734234 0 -0.0094254526873488748 -0.0096358465879560692 0 -0.0097789656654003985 -0.0094508838375952989 0 -0.011471447032681818 -0.011340145135325224 0 -0.011879097814168139 -0.0084230025035307767 0 -0.011879097814168139 -0.0084230025035307767 0 -0.0070894435082004608 -0.00835437810733646 0 -0.012696455093588074 -0.00888861106468029 0 -0.011879097814168139 -0.0084230025035307767 0 -0.012141362418859115 -0.0076549837086710574 0 -0.012041090159836275 -0.0077654980226128977 0 -0.012173118005321153 -0.0077799810889344198 0 -0.011879097814168139 -0.0084230025035307767 0 -0.012051694476699829 -0.007641720785120946 0 -0.01149648038329691 -0.0073602188776717356 0 -0.011604418121769993 -0.0078234883276818538 0 -0.012181637697091819 -0.0079489120580222214 0 -0.011604418121769993 -0.0078234883276818538 0 -0.012181637697091819 -0.0079489120580222214 0 -0.01161234641109465 -0.0081841587712734708 0 -0.011604418121769993 -0.0078234883276818538 0 -0.011109874457983254 -0.0077939172882237357 0 -0.01161234641109465 -0.0081841587712734708 0 -0.01149648038329691 -0.0073602188776717356 0 -0.011604418121769993 -0.0078234883276818538 0 -0.011109874457983254 -0.0077939172882237357 0 -0.0094254526873488748 -0.0096358465879560692 0 -0.0096584022498381189 -0.0093400771448068961 0 -0.0097789656654003985 -0.0094508838375952989 0 -0.0070894435082004608 -0.00835437810733646 0 -0.0043009675130882318 -0.0070641648549293412 0 -0.003677461901515632 -0.0084605282413315174 0 -0.0043046024864796233 -0.0079337625401177565 0 -0.0051346252393360409 -0.0068476397779636336 0 -0.0070894435082004608 -0.00835437810733646 0 -0.0077809289613833595 -0.0074658479375320323 0 -0.0049773044073258962 -0.0081567661220753214 0 -0.006129592052171888 -0.0098076743312745362 0 -0.003677461901515632 -0.0084605282413315174 0 -0.0043046024864796233 -0.0079337625401177565 0 -0.0041745546448506404 -0.0089114707080393159 0 -0.0070894435082004608 -0.00835437810733646 0 -0.006129592052171888 -0.0098076743312745362 0 -0.012439038007005705 -0.0076320017599391986 0 -0.012334174258701622 -0.0077084934514855879 0 -0.0124276587949708 -0.007854286844753729 0 -0.016657726415552753 -0.0081947612324285192 0 -0.016720557317050778 -0.0076986309777172654 0 -0.01650466043476052 -0.0078800514676993678 0 -0.015304027357668632 -0.0081000483764355619 0 -0.014458657783398278 -0.0078578998671688625 0 -0.012334174258701622 -0.0077084934514855879 0 -0.012280553277686542 -0.0078002184310081444 0 -0.0124276587949708 -0.007854286844753729 0 -0.012041090159836275 -0.0077654980226128977 0 -0.012173118005321153 -0.0077799810889344198 0 -0.012181637697091819 -0.0079489120580222214 0 -0.012242404763589738 -0.0076557986896644498 0 -0.012334174258701622 -0.0077084934514855879 0 -0.012233218135425042 -0.0077194140358483711 0 -0.012334174258701622 -0.0077084934514855879 0 -0.012233218135425042 -0.0077194140358483711 0 -0.012280553277686542 -0.0078002184310081444 0 -0.012141362418859115 -0.0076549837086710574 0 -0.012233218135425042 -0.0077194140358483711 0 -0.012173118005321153 -0.0077799810889344198 0 -0.012233218135425042 -0.0077194140358483711 0 -0.012173118005321153 -0.0077799810889344198 0 -0.012280553277686542 -0.0078002184310081444 0 -0.012173118005321153 -0.0077799810889344198 0 -0.012280553277686542 -0.0078002184310081444 0 -0.012181637697091819 -0.0079489120580222214 0 -0.012280553277686542 -0.0078002184310081444 0 -0.012181637697091819 -0.0079489120580222214 0 -0.0124276587949708 -0.007854286844753729 0 -0.014458657783398278 -0.0078578998671688625 0 -0.015064885909794708 -0.0072997011209419583 0 -0.012181637697091819 -0.0079489120580222214 0 -0.0124276587949708 -0.007854286844753729 0 -0.012427300720259389 -0.0083155570583311206 0 -0.016720557317050778 -0.0076986309777172654 0 -0.016404078745839188 -0.0077022094489478735 0 -0.016345088309380428 -0.0073794772424001214 0 -0.016720557317050778 -0.0076986309777172654 0 -0.016404078745839188 -0.0077022094489478735 0 -0.01650466043476052 -0.0078800514676993678 0 -0.016404078745839188 -0.0077022094489478735 0 -0.016145432205629928 -0.0076192601583558754 0 -0.016345088309380428 -0.0073794772424001214 0 -0.016404078745839188 -0.0077022094489478735 0 -0.016145432205629928 -0.0076192601583558754 0 -0.016228022257477465 -0.0079278850135439984 0 -0.016145432205629928 -0.0076192601583558754 0 -0.01581537858015316 -0.0077285056072174145 0 -0.015943229234633368 -0.0072106314551690434 0 -0.016145432205629928 -0.0076192601583558754 0 -0.016228022257477465 -0.0079278850135439984 0 -0.01581537858015316 -0.0077285056072174145 0 -0.016249983252242355 -0.008172420510832154 0 -0.015826045425414079 -0.0077934297448617462 0 -0.016228022257477465 -0.0079278850135439984 0 -0.016149068013161186 -0.0080791741886605366 0 -0.01581537858015316 -0.0077285056072174145 0 -0.016275543184045355 -0.0083819184723344063 0 -0.015796653405749182 -0.0083516520914566853 0 -0.015858970207518263 -0.0078655128272937559 0 -0.016588534123174192 -0.0082043544762391528 0 -0.016228022257477465 -0.0079278850135439984 0 -0.01636588566904762 -0.008177767198280169 0 -0.015304027357668632 -0.0081000483764355619 0 -0.016718960438255364 -0.0080962776465692606 0 -0.016657726415552753 -0.0081947612324285192 0 -0.016228022257477465 -0.0079278850135439984 0 -0.01650466043476052 -0.0078800514676993678 0 -0.016404078745839188 -0.0077022094489478735 0 -0.016228022257477465 -0.0079278850135439984 0 -0.01650466043476052 -0.0078800514676993678 0 -0.016228022257477465 -0.0079278850135439984 0 -0.016149068013161186 -0.0080791741886605366 0 -0.01636588566904762 -0.008177767198280169 0 -0.016149068013161186 -0.0080791741886605366 0 -0.01636588566904762 -0.008177767198280169 0 -0.016406541587045586 -0.0084005987009296516 0 -0.016249983252242355 -0.008172420510832154 0 -0.015911838608108381 -0.0093091317465578468 0 -0.016275543184045355 -0.0083819184723344063 0 -0.016692164842543662 -0.0088934039724517158 0 -0.016274858775840267 -0.008651991913761781 0 -0.016588534123174192 -0.0082043544762391528 0 -0.01636588566904762 -0.008177767198280169 0 -0.016468820164558452 -0.0082739573128707833 0 -0.01636588566904762 -0.008177767198280169 0 -0.016406541587045586 -0.0084005987009296516 0 -0.016468820164558452 -0.0082739573128707833 0 -0.015320109822920832 -0.0091238649112248323 0 -0.015911838608108381 -0.0093091317465578468 0 -0.016571979101429948 -0.0083273028978852193 0 -0.016406541587045586 -0.0084005987009296516 0 -0.016468820164558452 -0.0082739573128707833 0 -0.016692164842543662 -0.0088934039724517158 0 -0.016274858775840267 -0.008651991913761781 0 -0.016159569795974726 -0.0088208334474884614 0 -0.016275543184045355 -0.0083819184723344063 0 -0.016024652478132225 -0.0085978833375928796 0 -0.015796653405749182 -0.0083516520914566853 0 -0.016275543184045355 -0.0083819184723344063 0 -0.016274858775840267 -0.008651991913761781 0 -0.016024652478132225 -0.0085978833375928796 0 -0.016024652478132225 -0.0085978833375928796 0 -0.016159569795974726 -0.0088208334474884614 0 -0.01579395705180834 -0.0088370737834198576 0 -0.016274858775840267 -0.008651991913761781 0 -0.016024652478132225 -0.0085978833375928796 0 -0.016159569795974726 -0.0088208334474884614 0 -0.015911838608108381 -0.0093091317465578468 0 -0.015601662751962691 -0.0099782329291556553 0 -0.016692164842543662 -0.0088934039724517158 0 -0.016159569795974726 -0.0088208334474884614 0 -0.01604076014663193 -0.0091772883293040897 0 -0.016159569795974726 -0.0088208334474884614 0 -0.01604076014663193 -0.0091772883293040897 0 -0.01579395705180834 -0.0088370737834198576 0 -0.015196377434846973 -0.010696510189065023 0 -0.015217999463499195 -0.010648077844680021 0 -0.015210075952210368 -0.01063344375886224 0 -0.015196377434846973 -0.010696510189065023 0 -0.015240952343614477 -0.010673564333898253 0 -0.015217999463499195 -0.010648077844680021 0 -0.015463395548390668 -0.01061144230728301 0 -0.015911838608108381 -0.0093091317465578468 0 -0.015405251666289211 -0.0090117716717949513 0 -0.014999995389620747 -0.009154020966106664 0 -0.015407783752070832 -0.0085876579741185604 0 -0.015391171254621402 -0.0094442149743328881 0 -0.015405251666289211 -0.0090117716717949513 0 -0.014999995389620747 -0.009154020966106664 0 -0.015391171254621402 -0.0094442149743328881 0 -0.015405251666289211 -0.0090117716717949513 0 -0.01579395705180834 -0.0088370737834198576 0 -0.01529205986205689 -0.0097206163885468263 0 -0.015601662751962691 -0.0099782329291556553 0 -0.01529205986205689 -0.0097206163885468263 0 -0.015817726905889295 -0.0087746621831175497 0 -0.015361419441684067 -0.0094730062895273127 0 -0.01604076014663193 -0.0091772883293040897 0 -0.01579395705180834 -0.0088370737834198576 0 -0.015405251666289211 -0.0090117716717949513 0 -0.01579395705180834 -0.0088370737834198576 0 -0.015407783752070832 -0.0085876579741185604 0 -0.01579395705180834 -0.0088370737834198576 0 -0.015407783752070832 -0.0085876579741185604 0 -0.015796653405749182 -0.0083516520914566853 0 -0.016024652478132225 -0.0085978833375928796 0 -0.01579395705180834 -0.0088370737834198576 0 -0.015796653405749182 -0.0083516520914566853 0 -0.014999995389620747 -0.009154020966106664 0 -0.015407783752070832 -0.0085876579741185604 0 -0.014999991632659748 -0.0082759757471929738 0 -0.015407783752070832 -0.0085876579741185604 0 -0.014999991632659748 -0.0082759757471929738 0 -0.015412982209794172 -0.0079708898237912263 0 -0.015412982209794172 -0.0079708898237912263 0 -0.015796653405749182 -0.0083516520914566853 0 -0.015858970207518263 -0.0078655128272937559 0 -0.015407783752070832 -0.0085876579741185604 0 -0.015412982209794172 -0.0079708898237912263 0 -0.015796653405749182 -0.0083516520914566853 0 -0.015412982209794172 -0.0079708898237912263 0 -0.015858970207518263 -0.0078655128272937559 0 -0.015428301514714103 -0.0073357815540885871 0 -0.015826045425414079 -0.0077934297448617462 0 -0.015459941182866296 -0.0073658629270672103 0 -0.015412982209794172 -0.0079708898237912263 0 -0.014999986547913468 -0.0073978370867661654 0 -0.015428301514714103 -0.0073357815540885871 0 -0.014999991632659748 -0.0082759757471929738 0 -0.015412982209794172 -0.0079708898237912263 0 -0.014999986547913468 -0.0073978370867661654 0 -0.014999986547913468 -0.0073978370867661654 0 -0.015428301514714103 -0.0073357815540885871 0 -0.015454217573214527 -0.006916145120328121 0 -0.015428301514714103 -0.0073357815540885871 0 -0.015454217573214527 -0.006916145120328121 0 -0.015943229234633368 -0.0072106314551690434 0 -0.01581537858015316 -0.0077285056072174145 0 -0.015428301514714103 -0.0073357815540885871 0 -0.015943229234633368 -0.0072106314551690434 0 -0.015454217573214527 -0.006916145120328121 0 -0.015866131504490479 -0.0065836975000100745 0 -0.015943229234633368 -0.0072106314551690434 0 -0.015454217573214527 -0.006916145120328121 0 -0.015866131504490479 -0.0065836975000100745 0 -0.015469595058548205 -0.0064970558453477665 0 -0.015454217573214527 -0.006916145120328121 0 -0.014999982582230436 -0.006519833254319575 0 -0.015469595058548205 -0.0064970558453477665 0 -0.014999986547913468 -0.0073978370867661654 0 -0.015454217573214527 -0.006916145120328121 0 -0.014999982582230436 -0.006519833254319575 0 -0.016345088309380428 -0.0073794772424001214 0 -0.016456077114364542 -0.0067642092620408996 0 -0.017006951938099781 -0.0071153649140084044 0 -0.017084883246610512 -0.0072091588136763817 0 -0.015064885909794708 -0.0072997011209419583 0 -0.016145432205629928 -0.0076192601583558754 0 -0.016345088309380428 -0.0073794772424001214 0 -0.015943229234633368 -0.0072106314551690434 0 -0.016345088309380428 -0.0073794772424001214 0 -0.015943229234633368 -0.0072106314551690434 0 -0.016456077114364542 -0.0067642092620408996 0 -0.015866131504490479 -0.0065836975000100745 0 -0.015943229234633368 -0.0072106314551690434 0 -0.016456077114364542 -0.0067642092620408996 0 -0.016456077114364542 -0.0067642092620408996 0 -0.016624824381250222 -0.0061853157339411867 0 -0.016177548769230436 -0.0062109223853025032 0 -0.016456077114364542 -0.0067642092620408996 0 -0.016624824381250222 -0.0061853157339411867 0 -0.017071242828455447 -0.006618309001181483 0 -0.015866131504490479 -0.0065836975000100745 0 -0.016456077114364542 -0.0067642092620408996 0 -0.016177548769230436 -0.0062109223853025032 0 -0.016177548769230436 -0.0062109223853025032 0 -0.016184155035196178 -0.0057077414915771927 0 -0.015556438008786403 -0.0059638521346375177 0 -0.016364715902345693 -0.0055666168428398846 0 -0.016046071760490173 -0.0053463172675166691 0 -0.016414693841316639 -0.0052053047015709255 0 -0.016818274186958693 -0.0061447707307753039 0 -0.016028746808538431 -0.0054569791385235813 0 -0.016624824381250222 -0.0061853157339411867 0 -0.016177548769230436 -0.0062109223853025032 0 -0.016184155035196178 -0.0057077414915771927 0 -0.014999982582230436 -0.006519833254319575 0 -0.015469595058548205 -0.0064970558453477665 0 -0.015556438008786403 -0.0059638521346375177 0 -0.015866131504490479 -0.0065836975000100745 0 -0.016177548769230436 -0.0062109223853025032 0 -0.015556438008786403 -0.0059638521346375177 0 -0.015866131504490479 -0.0065836975000100745 0 -0.015469595058548205 -0.0064970558453477665 0 -0.015556438008786403 -0.0059638521346375177 0 -0.016184155035196178 -0.0057077414915771927 0 -0.015556438008786403 -0.0059638521346375177 0 -0.01566171760842177 -0.0051593093281922979 0 -0.014999982582230436 -0.006519833254319575 0 -0.015556438008786403 -0.0059638521346375177 0 -0.014999930809442834 -0.0056416996282048076 0 -0.015556438008786403 -0.0059638521346375177 0 -0.014999930809442834 -0.0056416996282048076 0 -0.01566171760842177 -0.0051593093281922979 0 -0.014999930809442834 -0.0056416996282048076 0 -0.01499995110010067 -0.00476356276856435 0 -0.01566171760842177 -0.0051593093281922979 0 -0.01499995110010067 -0.00476356276856435 0 -0.01566171760842177 -0.0051593093281922979 0 -0.015558377444840394 -0.0045030688932673306 0 -0.01566171760842177 -0.0051593093281922979 0 -0.016043840393040514 -0.0049467957096416366 0 -0.015558377444840394 -0.0045030688932673306 0 -0.016028746808538431 -0.0054569791385235813 0 -0.015719106535027182 -0.0052002442819107141 0 -0.016046071760490173 -0.0053463172675166691 0 -0.01566171760842177 -0.0051593093281922979 0 -0.016043840393040514 -0.0049467957096416366 0 -0.016046071760490173 -0.0053463172675166691 0 -0.016414693841316639 -0.0052053047015709255 0 -0.016043840393040514 -0.0049467957096416366 0 -0.016414693841316639 -0.0052053047015709255 0 -0.016453428264172565 -0.00479080200214658 0 -0.016043840393040514 -0.0049467957096416366 0 -0.016453428264172565 -0.00479080200214658 0 -0.016043840393040514 -0.0049467957096416366 0 -0.016026564082939791 -0.0043851019711855658 0 -0.016804942396416198 -0.0049585436544697962 0 -0.015897647799670633 -0.0043038797063631425 0 -0.016043840393040514 -0.0049467957096416366 0 -0.016026564082939791 -0.0043851019711855658 0 -0.015558377444840394 -0.0045030688932673306 0 -0.016458621949901397 -0.0046048040029584066 0 -0.016026564082939791 -0.0043851019711855658 0 -0.016460399588893428 -0.0038137964029447075 0 -0.016026564082939791 -0.0043851019711855658 0 -0.016460399588893428 -0.0038137964029447075 0 -0.016051585165292995 -0.0038740208642457476 0 -0.016026564082939791 -0.0043851019711855658 0 -0.016051585165292995 -0.0038740208642457476 0 -0.015655099116881781 -0.0037460235938956009 0 -0.015655099116881781 -0.0037460235938956009 0 -0.014999914385909464 -0.0038855454576539345 0 -0.015558377444840394 -0.0045030688932673306 0 -0.01499995110010067 -0.00476356276856435 0 -0.014999914385909464 -0.0038855454576539345 0 -0.015558377444840394 -0.0045030688932673306 0 -0.016026564082939791 -0.0043851019711855658 0 -0.015655099116881781 -0.0037460235938956009 0 -0.015558377444840394 -0.0045030688932673306 0 -0.013627758804378085 -0.0021451501768429367 0 -0.01380635898579992 -0.0021807390370681859 0 -0.013650533358008943 -0.0020181250785699062 0 -0.013627758804378085 -0.0021451501768429367 0 -0.013730665942827394 -0.0022703402292411959 0 -0.01380635898579992 -0.0021807390370681859 0 -0.013627758804378085 -0.0021451501768429367 0 -0.013452535460243099 -0.0020012963383607171 0 -0.013474588205341149 -0.0021454339580762364 0 -0.013627758804378085 -0.0021451501768429367 0 -0.013648853213904959 -0.0022732431769835306 0 -0.013474588205341149 -0.0021454339580762364 0 -0.013627758804378085 -0.0021451501768429367 0 -0.013648853213904959 -0.0022732431769835306 0 -0.013730665942827394 -0.0022703402292411959 0 -0.013648853213904959 -0.0022732431769835306 0 -0.013730665942827394 -0.0022703402292411959 0 -0.013810815859588224 -0.0023302716735090312 0 -0.015413564730515302 -0.003179745034789364 0 -0.015428363151601905 -0.0029185984922886227 0 -0.013730665942827394 -0.0022703402292411959 0 -0.01380635898579992 -0.0021807390370681859 0 -0.013782029003086475 -0.0023215079019213306 0 -0.016460399588893428 -0.0038137964029447075 0 -0.017006634439996574 -0.004235243894106581 0 -0.017085912096785512 -0.003509477657578244 0 -0.016458621949901397 -0.0046048040029584066 0 -0.016460399588893428 -0.0038137964029447075 0 -0.017006634439996574 -0.004235243894106581 0 -0.015413564730515302 -0.003179745034789364 0 -0.015308609523560363 -0.0035206562171821078 0 -0.01380635898579992 -0.0021807390370681859 0 -0.013820854427738798 -0.001934997305316589 0 -0.013650533358008943 -0.0020181250785699062 0 -0.016458621949901397 -0.0046048040029584066 0 -0.017006634439996574 -0.004235243894106581 0 -0.016909857721812614 -0.0048757927856839097 0 -0.016804942396416198 -0.0049585436544697962 0 -0.015308609523560363 -0.0035206562171821078 0 -0.016414693841316639 -0.0052053047015709255 0 -0.01675984130674148 -0.0050320526894370885 0 -0.016685204219843826 -0.0054300408371189693 0 -0.016414693841316639 -0.0052053047015709255 0 -0.016453428264172565 -0.00479080200214658 0 -0.01675984130674148 -0.0050320526894370885 0 -0.015308609523560363 -0.0035206562171821078 0 -0.01494827561710518 -0.0033649545193735315 0 -0.013820854427738798 -0.001934997305316589 0 -0.013646991746050116 -0.0018324108579699206 0 -0.013650533358008943 -0.0020181250785699062 0 -0.01330178359405515 -0.0017616655130366708 0 -0.013314588283737936 -0.0017577333859171089 0 -0.013270273026156975 -0.0017986460281552371 0 -0.015308609523560363 -0.0035206562171821078 0 -0.013140909502317378 -0.0015902479936992029 0 -0.013646991746050116 -0.0018324108579699206 0 -0.013650533358008943 -0.0020181250785699062 0 -0.013457196946917152 -0.0018846430688146405 0 -0.013646991746050116 -0.0018324108579699206 0 -0.013457196946917152 -0.0018846430688146405 0 -0.013389539238879916 -0.0017672072751706703 0 -0.013627758804378085 -0.0021451501768429367 0 -0.013650533358008943 -0.0020181250785699062 0 -0.013452535460243099 -0.0020012963383607171 0 -0.013650533358008943 -0.0020181250785699062 0 -0.013452535460243099 -0.0020012963383607171 0 -0.013457196946917152 -0.0018846430688146405 0 -0.013452535460243099 -0.0020012963383607171 0 -0.013457196946917152 -0.0018846430688146405 0 -0.013248550945091695 -0.0018035631372922403 0 -0.013457196946917152 -0.0018846430688146405 0 -0.013389539238879916 -0.0017672072751706703 0 -0.013248550945091695 -0.0018035631372922403 0 -0.013389539238879916 -0.0017672072751706703 0 -0.013285889223523256 -0.0017267242807939912 0 -0.013248550945091695 -0.0018035631372922403 0 -0.013140909502317378 -0.0015902479936992029 0 -0.013520101277446248 -0.0018406744157615231 0 -0.013389539238879916 -0.0017672072751706703 0 -0.013310199871800966 -0.0017860269722086554 0 -0.013289995640190823 -0.001812314913520826 0 -0.013314588283737936 -0.0017577333859171089 0 -0.013389539238879916 -0.0017672072751706703 0 -0.013310199871800966 -0.0017860269722086554 0 -0.013389539238879916 -0.0017672072751706703 0 -0.013289995640190823 -0.001812314913520826 0 -0.013285889223523256 -0.0017267242807939912 0 -0.013289995640190823 -0.001812314913520826 0 -0.013285889223523256 -0.0017267242807939912 0 -0.0132657982293936 -0.0017909585720362145 0 -0.016364715902345693 -0.0055666168428398846 0 -0.016414693841316639 -0.0052053047015709255 0 -0.016685204219843826 -0.0054300408371189693 0 -0.013310199871800966 -0.0017860269722086554 0 -0.013289995640190823 -0.001812314913520826 0 -0.013270273026156975 -0.0017986460281552371 0 -0.013314588283737936 -0.0017577333859171089 0 -0.013310199871800966 -0.0017860269722086554 0 -0.013270273026156975 -0.0017986460281552371 0 -0.013289995640190823 -0.001812314913520826 0 -0.013270273026156975 -0.0017986460281552371 0 -0.013226879210303943 -0.0018731575044120311 0 -0.016818274186958693 -0.0061447707307753039 0 -0.015199308156308676 -0.0050027583554884307 0 -0.016364715902345693 -0.0055666168428398846 0 -0.016685204219843826 -0.0054300408371189693 0 -0.016620299454103423 -0.0057850010423795978 0 -0.01494827561710518 -0.0033649545193735315 0 -0.015199308156308676 -0.0050027583554884307 0 -0.015199308156308676 -0.0050027583554884307 0 -0.015064885909794708 -0.0072997011209419583 0 -0.016456077114364542 -0.0067642092620408996 0 -0.017071242828455447 -0.006618309001181483 0 -0.017006951938099781 -0.0071153649140084044 0 -0.013795596035905603 -0.0064764236082589738 0 -0.013197071699088977 -0.005951345043334424 0 -0.013891676670503991 -0.0056920728900387288 0 -0.013289995640190823 -0.001812314913520826 0 -0.013226879210303943 -0.0018731575044120311 0 -0.013224452873727494 -0.0019026140725866777 0 -0.015199308156308676 -0.0050027583554884307 0 -0.010509011014576786 -0.0058473613855715206 0 -0.012181637697091819 -0.0079489120580222214 0 -0.012048104574329531 -0.0084938874945683206 0 -0.012427300720259389 -0.0083155570583311206 0 -0.012181637697091819 -0.0079489120580222214 0 -0.012048104574329531 -0.0084938874945683206 0 -0.01161234641109465 -0.0081841587712734708 0 -0.010509011014576786 -0.0058473613855715206 0 -0.015064885909794708 -0.0072997011209419583 0 -0.016720557317050778 -0.0076986309777172654 0 -0.016345088309380428 -0.0073794772424001214 0 -0.016766723152496787 -0.0072291474771104874 0 -0.010509011014576786 -0.0058473613855715206 0 -0.0085325784661359743 -0.0036896278159769449 0 -0.0038956088552262913 -0.0063980552719824987 0 -0.004512458570654544 -0.0059827969708839499 0 -0.0042380281343900308 -0.006846662025573335 0 -0.013289995640190823 -0.001812314913520826 0 -0.013224452873727494 -0.0019026140725866777 0 -0.0132657982293936 -0.0017909585720362145 0 -0.010509011014576786 -0.0058473613855715206 0 -0.0077809289613833595 -0.0074658479375320323 0 -0.0046714598000007308 -0.0072718928521801124 0 -0.0042380281343900308 -0.006846662025573335 0 -0.0046781012493307076 -0.0068314015133744254 0 -0.0046714598000007308 -0.0072718928521801124 0 -0.0046781012493307076 -0.0068314015133744254 0 -0.0051346252393360409 -0.0068476397779636336 0 -0.004512458570654544 -0.0059827969708839499 0 -0.0042380281343900308 -0.006846662025573335 0 -0.0046781012493307076 -0.0068314015133744254 0 -0.004512458570654544 -0.0059827969708839499 0 -0.0046781012493307076 -0.0068314015133744254 0 -0.0051346252393360409 -0.0068476397779636336 0 -0.0055589608774673826 -0.0078004658624049655 0 -0.0043046024864796233 -0.0079337625401177565 0 -0.0051346252393360409 -0.0068476397779636336 0 -0.004512458570654544 -0.0059827969708839499 0 -0.0051346252393360409 -0.0068476397779636336 0 -0.0056614084536212696 -0.0051366802406271565 0 -0.0051346252393360409 -0.0068476397779636336 0 -0.0064379575184169502 -0.0059835934429065324 0 -0.0056614084536212696 -0.0051366802406271565 0 -0.0051346252393360409 -0.0068476397779636336 0 -0.0064379575184169502 -0.0059835934429065324 0 -0.0064724819507486825 -0.0071772332682241789 0 -0.0055589608774673826 -0.0078004658624049655 0 -0.0051346252393360409 -0.0068476397779636336 0 -0.0064724819507486825 -0.0071772332682241789 0 -0.0064379575184169502 -0.0059835934429065324 0 -0.0064724819507486825 -0.0071772332682241789 0 -0.007735761101258262 -0.006478403997589862 0 -0.0076729454585139842 -0.0079822989921380025 0 -0.0064724819507486825 -0.0071772332682241789 0 -0.007735761101258262 -0.006478403997589862 0 -0.0076729454585139842 -0.0079822989921380025 0 -0.0089862790864006538 -0.0073421456951308882 0 -0.007735761101258262 -0.006478403997589862 0 -0.0089862790864006538 -0.0073421456951308882 0 -0.0090007881358990828 -0.0053951924418083391 0 -0.007735761101258262 -0.006478403997589862 0 -0.0090007881358990828 -0.0053951924418083391 0 -0.007735761101258262 -0.006478403997589862 0 -0.0074186391527000231 -0.0041040037195704589 0 -0.0064379575184169502 -0.0059835934429065324 0 -0.007735761101258262 -0.006478403997589862 0 -0.0074186391527000231 -0.0041040037195704589 0 -0.0090007881358990828 -0.0053951924418083391 0 -0.0074186391527000231 -0.0041040037195704589 0 -0.0093980546241349654 -0.0030908987979311308 0 -0.010112711169183849 -0.0028482381964536601 0 -0.010897875503414532 -0.002387511189756086 0 -0.012827819003208117 -0.0015871915773827711 0 -0.012345965080869917 -0.0016704327823470399 0 -0.012863245372919769 -0.0018753882454823918 0 -0.012827819003208117 -0.0015871915773827711 0 -0.013248550945091695 -0.0018035631372922403 0 -0.012863245372919769 -0.0018753882454823918 0 -0.012827819003208117 -0.0015871915773827711 0 -0.013156462423236032 -0.0016258079295066938 0 -0.013248550945091695 -0.0018035631372922403 0 -0.013285889223523256 -0.0017267242807939912 0 -0.013156462423236032 -0.0016258079295066938 0 -0.013248550945091695 -0.0018035631372922403 0 -0.0085325784661359743 -0.0036896278159769449 0 -0.0094940776727449449 -0.0033952868796296304 0 -0.013285889223523256 -0.0017267242807939912 0 -0.0132657982293936 -0.0017909585720362145 0 -0.013156462423236032 -0.0016258079295066938 0 -0.010112711169183849 -0.0028482381964536601 0 -0.0094940776727449449 -0.0033952868796296304 0 -0.0064379575184169502 -0.0059835934429065324 0 -0.0074186391527000231 -0.0041040037195704589 0 -0.0056614084536212696 -0.0051366802406271565 0 -0.013531538144341913 -0.0060174468901172283 0 -0.012613026590847844 -0.005421872820046047 0 -0.013800119704008709 -0.0050348253190978329 0 -0.013531538144341913 -0.0060174468901172283 0 -0.012607016841139589 -0.0068938423712561221 0 -0.012613026590847844 -0.005421872820046047 0 -0.013531538144341913 -0.0060174468901172283 0 -0.013572963788072871 -0.0068551628071650862 0 -0.014242328937092322 -0.0063286908355894948 0 -0.013572963788072871 -0.0068551628071650862 0 -0.01349193998274569 -0.0075233781790856923 0 -0.013777901047939219 -0.007247398246810372 0 -0.013572963788072871 -0.0068551628071650862 0 -0.013777901047939219 -0.007247398246810372 0 -0.014066109441546213 -0.006931486994588754 0 -0.01349193998274569 -0.0075233781790856923 0 -0.013777901047939219 -0.007247398246810372 0 -0.01401417805434583 -0.0076651508321963404 0 -0.013122870288722879 -0.0079763345072268819 0 -0.01349193998274569 -0.0075233781790856923 0 -0.012607016841139589 -0.0068938423712561221 0 -0.013531538144341913 -0.0060174468901172283 0 -0.013572963788072871 -0.0068551628071650862 0 -0.012607016841139589 -0.0068938423712561221 0 -0.013572963788072871 -0.0068551628071650862 0 -0.01349193998274569 -0.0075233781790856923 0 -0.012607016841139589 -0.0068938423712561221 0 -0.012070516315811729 -0.0081465484271227434 0 -0.013122870288722879 -0.0079763345072268819 0 -0.012607016841139589 -0.0068938423712561221 0 -0.012070516315811729 -0.0081465484271227434 0 -0.012607016841139589 -0.0068938423712561221 0 -0.01124008863108456 -0.007245010471233054 0 -0.012607016841139589 -0.0068938423712561221 0 -0.01142040753491059 -0.0058708373528939903 0 -0.01124008863108456 -0.007245010471233054 0 -0.012613026590847844 -0.005421872820046047 0 -0.01142040753491059 -0.0058708373528939903 0 -0.011704882431060402 -0.0042031687318872229 0 -0.012607016841139589 -0.0068938423712561221 0 -0.012613026590847844 -0.005421872820046047 0 -0.01142040753491059 -0.0058708373528939903 0 -0.01142040753491059 -0.0058708373528939903 0 -0.010234483271590994 -0.0064319533098447668 0 -0.010433482490262838 -0.0047358579823685212 0 -0.01142040753491059 -0.0058708373528939903 0 -0.01124008863108456 -0.007245010471233054 0 -0.010234483271590994 -0.0064319533098447668 0 -0.01124008863108456 -0.007245010471233054 0 -0.010134499848339596 -0.007651637152883496 0 -0.010234483271590994 -0.0064319533098447668 0 -0.0089862790864006538 -0.0073421456951308882 0 -0.010134499848339596 -0.007651637152883496 0 -0.010234483271590994 -0.0064319533098447668 0 -0.0089862790864006538 -0.0073421456951308882 0 -0.0090007881358990828 -0.0053951924418083391 0 -0.010234483271590994 -0.0064319533098447668 0 -0.0090007881358990828 -0.0053951924418083391 0 -0.010234483271590994 -0.0064319533098447668 0 -0.010433482490262838 -0.0047358579823685212 0 -0.0090007881358990828 -0.0053951924418083391 0 -0.0093980546241349654 -0.0030908987979311308 0 -0.010433482490262838 -0.0047358579823685212 0 -0.0093980546241349654 -0.0030908987979311308 0 -0.010801321844447796 -0.0034543071572216591 0 -0.010433482490262838 -0.0047358579823685212 0 -0.0093980546241349654 -0.0030908987979311308 0 -0.010801321844447796 -0.0034543071572216591 0 -0.011680125392186685 -0.0020872026492291086 0 -0.010801321844447796 -0.0034543071572216591 0 -0.011704882431060402 -0.0042031687318872229 0 -0.011680125392186685 -0.0020872026492291086 0 -0.010897875503414532 -0.002387511189756086 0 -0.01164746752338844 -0.0020922914852405054 0 -0.01142040753491059 -0.0058708373528939903 0 -0.010433482490262838 -0.0047358579823685212 0 -0.011704882431060402 -0.0042031687318872229 0 -0.010801321844447796 -0.0034543071572216591 0 -0.010433482490262838 -0.0047358579823685212 0 -0.011704882431060402 -0.0042031687318872229 0 -0.012613026590847844 -0.005421872820046047 0 -0.011704882431060402 -0.0042031687318872229 0 -0.013065168936039862 -0.004377445763331456 0 -0.011704882431060402 -0.0042031687318872229 0 -0.012864824255077813 -0.0032802543324040351 0 -0.013065168936039862 -0.004377445763331456 0 -0.011704882431060402 -0.0042031687318872229 0 -0.012297192480618198 -0.0027236042046233149 0 -0.011680125392186685 -0.0020872026492291086 0 -0.011730989442575643 -0.0040790706087706526 0 -0.012478603540574132 -0.0030936840708423903 0 -0.012864824255077813 -0.0032802543324040351 0 -0.013065168936039862 -0.004377445763331456 0 -0.01451715968256812 -0.0040139985331929667 0 -0.012864824255077813 -0.0032802543324040351 0 -0.01400859362524425 -0.002236938058972245 0 -0.014557139412586262 -0.0029958569165324297 0 -0.013065168936039862 -0.004377445763331456 0 -0.013800119704008709 -0.0050348253190978329 0 -0.01451715968256812 -0.0040139985331929667 0 -0.012613026590847844 -0.005421872820046047 0 -0.013065168936039862 -0.004377445763331456 0 -0.013800119704008709 -0.0050348253190978329 0 -0.011841825886568914 -0.0020217939815642925 0 -0.011960723328157201 -0.0020392945770486416 0 -0.011813100563760483 -0.0019741766628438985 0 -0.011841825886568914 -0.0020217939815642925 0 -0.011675826853046601 -0.0019840177035974895 0 -0.011813100563760483 -0.0019741766628438985 0 -0.012297192480618198 -0.0027236042046233149 0 -0.011960723328157201 -0.0020392945770486416 0 -0.012017662136533203 -0.0020858919899907264 0 -0.011960723328157201 -0.0020392945770486416 0 -0.012017662136533203 -0.0020858919899907264 0 -0.011813100563760483 -0.0019741766628438985 0 -0.012478603540574132 -0.0030936840708423903 0 -0.013163274914615214 -0.0020623447201340958 0 -0.012297192480618198 -0.0027236042046233149 0 -0.011960723328157201 -0.0020392945770486416 0 -0.011680125392186685 -0.0020872026492291086 0 -0.011960723328157201 -0.0020392945770486416 0 -0.01190726574931537 -0.002043890759263204 0 -0.011680125392186685 -0.0020872026492291086 0 -0.011841825886568914 -0.0020217939815642925 0 -0.011960723328157201 -0.0020392945770486416 0 -0.01190726574931537 -0.002043890759263204 0 -0.01190726574931537 -0.002043890759263204 0 -0.011680125392186685 -0.0020872026492291086 0 -0.012287200352110943 -0.0020522858738894817 0 -0.01190726574931537 -0.002043890759263204 0 -0.012287200352110943 -0.0020522858738894817 0 -0.012127424888192587 -0.0021629840388339419 0 -0.012345965080869917 -0.0016704327823470399 0 -0.011680125392186685 -0.0020872026492291086 0 -0.012287200352110943 -0.0020522858738894817 0 -0.012287200352110943 -0.0020522858738894817 0 -0.012434098412576313 -0.0022288440215278435 0 -0.012127424888192587 -0.0021629840388339419 0 -0.012434098412576313 -0.0022288440215278435 0 -0.012207671259107385 -0.0023492810747113417 0 -0.01251680460575785 -0.0024498364815844277 0 -0.012434098412576313 -0.0022288440215278435 0 -0.012207671259107385 -0.0023492810747113417 0 -0.012127424888192587 -0.0021629840388339419 0 -0.012207671259107385 -0.0023492810747113417 0 -0.012127424888192587 -0.0021629840388339419 0 -0.01200908068064443 -0.0022592911453922738 0 -0.012207671259107385 -0.0023492810747113417 0 -0.01200908068064443 -0.0022592911453922738 0 -0.012010419203672573 -0.0024116018903768978 0 -0.01190726574931537 -0.002043890759263204 0 -0.012127424888192587 -0.0021629840388339419 0 -0.011936805949627188 -0.0021284505101073635 0 -0.012127424888192587 -0.0021629840388339419 0 -0.011936805949627188 -0.0021284505101073635 0 -0.01200908068064443 -0.0022592911453922738 0 -0.011841825886568914 -0.0020217939815642925 0 -0.01190726574931537 -0.002043890759263204 0 -0.011936805949627188 -0.0021284505101073635 0 -0.011936805949627188 -0.0021284505101073635 0 -0.01200908068064443 -0.0022592911453922738 0 -0.01182538015061101 -0.0022509616518444245 0 -0.01200908068064443 -0.0022592911453922738 0 -0.01182538015061101 -0.0022509616518444245 0 -0.012010419203672573 -0.0024116018903768978 0 -0.011936805949627188 -0.0021284505101073635 0 -0.01182538015061101 -0.0022509616518444245 0 -0.011783684719887283 -0.0021224871160482653 0 -0.01182538015061101 -0.0022509616518444245 0 -0.011643699534637706 -0.0021824185881023791 0 -0.011783684719887283 -0.0021224871160482653 0 -0.01182538015061101 -0.0022509616518444245 0 -0.011643699534637706 -0.0021824185881023791 0 -0.011559393677553084 -0.002307455750017535 0 -0.011643699534637706 -0.0021824185881023791 0 -0.011783684719887283 -0.0021224871160482653 0 -0.011639829557375006 -0.0020684304908038533 0 -0.011841825886568914 -0.0020217939815642925 0 -0.011936805949627188 -0.0021284505101073635 0 -0.011783684719887283 -0.0021224871160482653 0 -0.011841825886568914 -0.0020217939815642925 0 -0.011675826853046601 -0.0019840177035974895 0 -0.011639829557375006 -0.0020684304908038533 0 -0.011841825886568914 -0.0020217939815642925 0 -0.011783684719887283 -0.0021224871160482653 0 -0.011639829557375006 -0.0020684304908038533 0 -0.013452535460243099 -0.0020012963383607171 0 -0.013212827215621352 -0.0020493390659121267 0 -0.013248550945091695 -0.0018035631372922403 0 -0.013452535460243099 -0.0020012963383607171 0 -0.013212827215621352 -0.0020493390659121267 0 -0.013474588205341149 -0.0021454339580762364 0 -0.013212827215621352 -0.0020493390659121267 0 -0.013248550945091695 -0.0018035631372922403 0 -0.012863245372919769 -0.0018753882454823918 0 -0.012345965080869917 -0.0016704327823470399 0 -0.012287200352110943 -0.0020522858738894817 0 -0.012863245372919769 -0.0018753882454823918 0 -0.012287200352110943 -0.0020522858738894817 0 -0.012863245372919769 -0.0018753882454823918 0 -0.012776902169987553 -0.0021217155066335204 0 -0.013212827215621352 -0.0020493390659121267 0 -0.012863245372919769 -0.0018753882454823918 0 -0.012776902169987553 -0.0021217155066335204 0 -0.013212827215621352 -0.0020493390659121267 0 -0.012776902169987553 -0.0021217155066335204 0 -0.013048552097387372 -0.0022227322184939758 0 -0.012287200352110943 -0.0020522858738894817 0 -0.012434098412576313 -0.0022288440215278435 0 -0.012776902169987553 -0.0021217155066335204 0 -0.012434098412576313 -0.0022288440215278435 0 -0.012776902169987553 -0.0021217155066335204 0 -0.012786657365491207 -0.0023269037748219366 0 -0.012434098412576313 -0.0022288440215278435 0 -0.012786657365491207 -0.0023269037748219366 0 -0.01251680460575785 -0.0024498364815844277 0 -0.012786657365491207 -0.0023269037748219366 0 -0.013048552097387372 -0.0022227322184939758 0 -0.013120368090408688 -0.0024295145440983734 0 -0.012776902169987553 -0.0021217155066335204 0 -0.012786657365491207 -0.0023269037748219366 0 -0.013048552097387372 -0.0022227322184939758 0 -0.013048552097387372 -0.0022227322184939758 0 -0.01339943617686132 -0.002251460088458473 0 -0.013120368090408688 -0.0024295145440983734 0 -0.013212827215621352 -0.0020493390659121267 0 -0.013048552097387372 -0.0022227322184939758 0 -0.01339943617686132 -0.002251460088458473 0 -0.013212827215621352 -0.0020493390659121267 0 -0.013474588205341149 -0.0021454339580762364 0 -0.01339943617686132 -0.002251460088458473 0 -0.013648853213904959 -0.0022732431769835306 0 -0.013474588205341149 -0.0021454339580762364 0 -0.01339943617686132 -0.002251460088458473 0 -0.013648853213904959 -0.0022732431769835306 0 -0.01339943617686132 -0.002251460088458473 0 -0.01379566078078286 -0.0024421886910073742 0 -0.013836780806980628 -0.0024617429818365026 0 -0.013987869845824312 -0.0023835878248179877 0 -0.01379566078078286 -0.0024421886910073742 0 -0.014435672429197728 -0.0020317487452384945 0 -0.01401773380428536 -0.0021384011595240496 0 -0.01379566078078286 -0.0024421886910073742 0 -0.013165843963876154 -0.0027993205809836923 0 -0.013516988407104894 -0.0029858394827858214 0 -0.01379566078078286 -0.0024421886910073742 0 -0.013165843963876154 -0.0027993205809836923 0 -0.013120368090408688 -0.0024295145440983734 0 -0.01339943617686132 -0.002251460088458473 0 -0.01379566078078286 -0.0024421886910073742 0 -0.013120368090408688 -0.0024295145440983734 0 -0.012786657365491207 -0.0023269037748219366 0 -0.013120368090408688 -0.0024295145440983734 0 -0.012820392543410511 -0.0025745183881877871 0 -0.012786657365491207 -0.0023269037748219366 0 -0.012820392543410511 -0.0025745183881877871 0 -0.01251680460575785 -0.0024498364815844277 0 -0.012820392543410511 -0.0025745183881877871 0 -0.012589759299515547 -0.0026798393605796597 0 -0.01251680460575785 -0.0024498364815844277 0 -0.012820392543410511 -0.0025745183881877871 0 -0.012589759299515547 -0.0026798393605796597 0 -0.012836715553254311 -0.0028648950995424699 0 -0.012589759299515547 -0.0026798393605796597 0 -0.012615259301673919 -0.0028905071050596086 0 -0.012836715553254311 -0.0028648950995424699 0 -0.013165843963876154 -0.0027993205809836923 0 -0.013120368090408688 -0.0024295145440983734 0 -0.012820392543410511 -0.0025745183881877871 0 -0.013165843963876154 -0.0027993205809836923 0 -0.012820392543410511 -0.0025745183881877871 0 -0.012836715553254311 -0.0028648950995424699 0 -0.013165843963876154 -0.0027993205809836923 0 -0.013013621244450942 -0.0030091262610037121 0 -0.012836715553254311 -0.0028648950995424699 0 -0.013165843963876154 -0.0027993205809836923 0 -0.013013621244450942 -0.0030091262610037121 0 -0.013233794286295652 -0.0031165121256696384 0 -0.013013621244450942 -0.0030091262610037121 0 -0.012819005388289954 -0.0030379705990297864 0 -0.012984701163065996 -0.0031896119800719916 0 -0.013013621244450942 -0.0030091262610037121 0 -0.012836715553254311 -0.0028648950995424699 0 -0.012819005388289954 -0.0030379705990297864 0 -0.012615259301673919 -0.0028905071050596086 0 -0.012836715553254311 -0.0028648950995424699 0 -0.012819005388289954 -0.0030379705990297864 0 -0.012615259301673919 -0.0028905071050596086 0 -0.012819005388289954 -0.0030379705990297864 0 -0.01264106480812118 -0.0030787211678652213 0 -0.01264106480812118 -0.0030787211678652213 0 -0.012809918539044892 -0.0031836936291611624 0 -0.012689859242423896 -0.003256764203495399 0 -0.01264106480812118 -0.0030787211678652213 0 -0.012689859242423896 -0.003256764203495399 0 -0.012519430655459822 -0.0031511375548032494 0 -0.012819005388289954 -0.0030379705990297864 0 -0.012809918539044892 -0.0031836936291611624 0 -0.012984701163065996 -0.0031896119800719916 0 -0.012819005388289954 -0.0030379705990297864 0 -0.01264106480812118 -0.0030787211678652213 0 -0.012809918539044892 -0.0031836936291611624 0 -0.012809918539044892 -0.0031836936291611624 0 -0.012689859242423896 -0.003256764203495399 0 -0.012912201479103042 -0.0033072153113595914 0 -0.013013621244450942 -0.0030091262610037121 0 -0.012984701163065996 -0.0031896119800719916 0 -0.013233794286295652 -0.0031165121256696384 0 -0.012984701163065996 -0.0031896119800719916 0 -0.013132248807254252 -0.003293835178497676 0 -0.013233794286295652 -0.0031165121256696384 0 -0.012984701163065996 -0.0031896119800719916 0 -0.012912201479103042 -0.0033072153113595914 0 -0.013132248807254252 -0.003293835178497676 0 -0.012809918539044892 -0.0031836936291611624 0 -0.012984701163065996 -0.0031896119800719916 0 -0.012912201479103042 -0.0033072153113595914 0 -0.014788258627234074 -0.0015901529135198525 0 -0.014566812997912662 -0.0016445465565286528 0 -0.014435672429197728 -0.0020317487452384945 0 -0.013233794286295652 -0.0031165121256696384 0 -0.013304102026474354 -0.0033321314578131328 0 -0.013516988407104894 -0.0029858394827858214 0 -0.013132248807254252 -0.003293835178497676 0 -0.013233794286295652 -0.0031165121256696384 0 -0.013304102026474354 -0.0033321314578131328 0 -0.013994105049910359 -0.0028867857156995146 0 -0.013987869845824312 -0.0023835878248179877 0 -0.014566812997912662 -0.0016445465565286528 0 -0.014435672429197728 -0.0020317487452384945 0 -0.014348411189868272 -0.0017269819383469985 0 -0.014566812997912662 -0.0016445465565286528 0 -0.014557833809456366 -0.001448497625465099 0 -0.014348411189868272 -0.0017269819383469985 0 -0.014435672429197728 -0.0020317487452384945 0 -0.01401773380428536 -0.0021384011595240496 0 -0.014348411189868272 -0.0017269819383469985 0 -0.013165843963876154 -0.0027993205809836923 0 -0.013233794286295652 -0.0031165121256696384 0 -0.013516988407104894 -0.0029858394827858214 0 -0.011784364347558978 -0.0026760720285617691 0 -0.011455508590757453 -0.0029101492807861451 0 -0.011481785846355185 -0.0025357381329234588 0 -0.011784364347558978 -0.0026760720285617691 0 -0.011770478124557096 -0.002451218934378279 0 -0.011481785846355185 -0.0025357381329234588 0 -0.01182538015061101 -0.0022509616518444245 0 -0.011559393677553084 -0.002307455750017535 0 -0.011770478124557096 -0.002451218934378279 0 -0.011559393677553084 -0.002307455750017535 0 -0.011770478124557096 -0.002451218934378279 0 -0.011481785846355185 -0.0025357381329234588 0 -0.01182538015061101 -0.0022509616518444245 0 -0.011770478124557096 -0.002451218934378279 0 -0.012010419203672573 -0.0024116018903768978 0 -0.011770478124557096 -0.002451218934378279 0 -0.012010419203672573 -0.0024116018903768978 0 -0.011998036594986826 -0.0025988191011916835 0 -0.011784364347558978 -0.0026760720285617691 0 -0.011998036594986826 -0.0025988191011916835 0 -0.012102524966843484 -0.0028450750029625931 0 -0.011784364347558978 -0.0026760720285617691 0 -0.011770478124557096 -0.002451218934378279 0 -0.011998036594986826 -0.0025988191011916835 0 -0.011998036594986826 -0.0025988191011916835 0 -0.01225932112120354 -0.0025944001620932223 0 -0.012102524966843484 -0.0028450750029625931 0 -0.01225932112120354 -0.0025944001620932223 0 -0.012380728843857913 -0.0028474786605241277 0 -0.012102524966843484 -0.0028450750029625931 0 -0.012010419203672573 -0.0024116018903768978 0 -0.011998036594986826 -0.0025988191011916835 0 -0.01225932112120354 -0.0025944001620932223 0 -0.012207671259107385 -0.0023492810747113417 0 -0.012010419203672573 -0.0024116018903768978 0 -0.01225932112120354 -0.0025944001620932223 0 -0.012207671259107385 -0.0023492810747113417 0 -0.01225932112120354 -0.0025944001620932223 0 -0.01251680460575785 -0.0024498364815844277 0 -0.012589759299515547 -0.0026798393605796597 0 -0.01225932112120354 -0.0025944001620932223 0 -0.01251680460575785 -0.0024498364815844277 0 -0.012589759299515547 -0.0026798393605796597 0 -0.01225932112120354 -0.0025944001620932223 0 -0.012380728843857913 -0.0028474786605241277 0 -0.012589759299515547 -0.0026798393605796597 0 -0.012615259301673919 -0.0028905071050596086 0 -0.012380728843857913 -0.0028474786605241277 0 -0.012615259301673919 -0.0028905071050596086 0 -0.012380728843857913 -0.0028474786605241277 0 -0.012484523533574878 -0.0029998555812296326 0 -0.012380728843857913 -0.0028474786605241277 0 -0.012484523533574878 -0.0029998555812296326 0 -0.012326324468038484 -0.0030300081870675475 0 -0.012484523533574878 -0.0029998555812296326 0 -0.012519430655459822 -0.0031511375548032494 0 -0.012326324468038484 -0.0030300081870675475 0 -0.012615259301673919 -0.0028905071050596086 0 -0.01264106480812118 -0.0030787211678652213 0 -0.012484523533574878 -0.0029998555812296326 0 -0.01264106480812118 -0.0030787211678652213 0 -0.012484523533574878 -0.0029998555812296326 0 -0.012519430655459822 -0.0031511375548032494 0 -0.012689859242423896 -0.003256764203495399 0 -0.012519430655459822 -0.0031511375548032494 0 -0.01244149519917106 -0.0032676066642553666 0 -0.012519430655459822 -0.0031511375548032494 0 -0.01244149519917106 -0.0032676066642553666 0 -0.012372792889359 -0.0031710743181543296 0 -0.012499613416877282 -0.0015790965135317244 0 -0.012335534833617035 -0.001834949761695806 0 -0.012380836511127742 -0.0032867029226717843 0 -0.01244149519917106 -0.0032676066642553666 0 -0.012372792889359 -0.0031710743181543296 0 -0.012519430655459822 -0.0031511375548032494 0 -0.012372792889359 -0.0031710743181543296 0 -0.012326324468038484 -0.0030300081870675475 0 -0.012372792889359 -0.0031710743181543296 0 -0.012326324468038484 -0.0030300081870675475 0 -0.012064169621239792 -0.0031186985107114159 0 -0.012380836511127742 -0.0032867029226717843 0 -0.012372792889359 -0.0031710743181543296 0 -0.012064169621239792 -0.0031186985107114159 0 -0.012645659413329347 -0.0033678827815281495 0 -0.01221973438669847 -0.0031656153605607302 0 -0.012085730659183743 -0.0035823038140990731 0 -0.012499613416877282 -0.0015790965135317244 0 -0.012243902732500185 -0.0033027651262103729 0 -0.012102524966843484 -0.0028450750029625931 0 -0.012326324468038484 -0.0030300081870675475 0 -0.012064169621239792 -0.0031186985107114159 0 -0.012380728843857913 -0.0028474786605241277 0 -0.012102524966843484 -0.0028450750029625931 0 -0.012326324468038484 -0.0030300081870675475 0 -0.011784364347558978 -0.0026760720285617691 0 -0.012102524966843484 -0.0028450750029625931 0 -0.011759574387018593 -0.0029420470473199129 0 -0.012102524966843484 -0.0028450750029625931 0 -0.012064169621239792 -0.0031186985107114159 0 -0.011759574387018593 -0.0029420470473199129 0 -0.012243902732500185 -0.0033027651262103729 0 -0.011740739301220658 -0.0029188675798728875 0 -0.01221973438669847 -0.0031656153605607302 0 -0.011709771551992956 -0.0032908369490524535 0 -0.011759574387018593 -0.0029420470473199129 0 -0.01221973438669847 -0.0031656153605607302 0 -0.011709771551992956 -0.0032908369490524535 0 -0.012085730659183743 -0.0035823038140990731 0 -0.011709771551992956 -0.0032908369490524535 0 -0.011575697245298031 -0.0035240759573963621 0 -0.011274713362871759 -0.0032936867950603974 0 -0.011784364347558978 -0.0026760720285617691 0 -0.011759574387018593 -0.0029420470473199129 0 -0.011455508590757453 -0.0029101492807861451 0 -0.011709771551992956 -0.0032908369490524535 0 -0.011759574387018593 -0.0029420470473199129 0 -0.011455508590757453 -0.0029101492807861451 0 -0.010876274928189713 0.0025709743408555614 0 -0.011360425188220894 0.0025979683709991879 0 -0.010808612709712269 0.0021512909180088045 0 -0.010876274928189713 0.0025709743408555614 0 -0.011360425188220894 0.0025979683709991879 0 -0.010869471263183515 0.0029321025576001273 0 -0.011360425188220894 0.0025979683709991879 0 -0.011768068425676969 0.0031319304942981647 0 -0.010869471263183515 0.0029321025576001273 0 -0.011709771551992956 -0.0032908369490524535 0 -0.011575697245298031 -0.0035240759573963621 0 -0.012085730659183743 -0.0035823038140990731 0 -0.011994296726289556 -9.1195086500781239e-06 0 -0.011181159532571313 -0.00061003412553917711 0 -0.011575697245298031 -0.0035240759573963621 0 -0.012085730659183743 -0.0035823038140990731 0 -0.011493870737988379 -0.0038349971834413942 0 -0.011360425188220894 0.0025979683709991879 0 -0.011940510965631404 0.0026292133775201059 0 -0.011728945794869975 0.0019411354654844562 0 -0.011360425188220894 0.0025979683709991879 0 -0.011768068425676969 0.0031319304942981647 0 -0.011940510965631404 0.0026292133775201059 0 -0.011940510965631404 0.0026292133775201059 0 -0.01243511254029986 0.0024815144376972229 0 -0.011728945794869975 0.0019411354654844562 0 -0.011940510965631404 0.0026292133775201059 0 -0.01243511254029986 0.0024815144376972229 0 -0.012396446783295845 0.002961364014214912 0 -0.011768068425676969 0.0031319304942981647 0 -0.011940510965631404 0.0026292133775201059 0 -0.012396446783295845 0.002961364014214912 0 -0.012499613416877282 -0.0015790965135317244 0 -0.011994296726289556 -9.1195086500781239e-06 0 -0.012614956720011469 0.003352041750682606 0 -0.011768068425676969 0.0031319304942981647 0 -0.012396446783295845 0.002961364014214912 0 -0.012381010327126666 -0.0032862044568053631 0 -0.01244149519917106 -0.0032676066642553666 0 -0.012801664358554711 -0.0034806303146200533 0 -0.012614956720011469 0.003352041750682606 0 -0.012833470103116345 0.0028724350315722088 0 -0.013395057931684608 0.0029395061976928102 0 -0.012499613416877282 -0.0015790965135317244 0 -0.013012452438906757 -9.33287240600937e-05 0 -0.012614956720011469 0.003352041750682606 0 -0.012396446783295845 0.002961364014214912 0 -0.012833470103116345 0.0028724350315722088 0 -0.012833470103116345 0.0028724350315722088 0 -0.012866713194511676 0.0024376615275828331 0 -0.013395057931684608 0.0029395061976928102 0 -0.01243511254029986 0.0024815144376972229 0 -0.012833470103116345 0.0028724350315722088 0 -0.012866713194511676 0.0024376615275828331 0 -0.01243511254029986 0.0024815144376972229 0 -0.012396446783295845 0.002961364014214912 0 -0.012833470103116345 0.0028724350315722088 0 -0.012866713194511676 0.0024376615275828331 0 -0.012614482158597092 0.0017573333291728453 0 -0.01324850733914393 0.0022376848440554737 0 -0.01243511254029986 0.0024815144376972229 0 -0.012866713194511676 0.0024376615275828331 0 -0.012614482158597092 0.0017573333291728453 0 -0.012614482158597092 0.0017573333291728453 0 -0.013308477496433189 0.0013369169337979995 0 -0.012637880888817832 0.00092949699175075252 0 -0.012614482158597092 0.0017573333291728453 0 -0.012160112527719754 0.0013182705995796887 0 -0.011909728582301457 0.0018793801108853748 0 -0.012614482158597092 0.0017573333291728453 0 -0.012160112527719754 0.0013182705995796887 0 -0.012637880888817832 0.00092949699175075252 0 -0.01256991045308507 0.0017635411915528007 0 -0.011829907826453635 0.001914837035935923 0 -0.01243511254029986 0.0024815144376972229 0 -0.012614482158597092 0.0017573333291728453 0 -0.011728945794869975 0.0019411354654844562 0 -0.012160112527719754 0.0013182705995796887 0 -0.011909728582301457 0.0018793801108853748 0 -0.011378118200743826 0.0010897018904624961 0 -0.011829907826453635 0.001914837035935923 0 -0.010888941692269338 0.0021671104674164431 0 -0.011909728582301457 0.0018793801108853748 0 -0.011017701237812124 0.0021673993937479635 0 -0.011378118200743826 0.0010897018904624961 0 -0.011360425188220894 0.0025979683709991879 0 -0.011728945794869975 0.0019411354654844562 0 -0.010808612709712269 0.0021512909180088045 0 -0.014963725969375988 -0.001039544290916881 0 -0.014733475683720727 -0.00091171328435509392 0 -0.014715859467447728 -0.0014174905355192778 0 -0.01478526893727111 0.00080059470984465036 0 -0.014673587915764487 -0.0020880790793873717 0 -0.01385354800590311 -0.00015400167701206898 0 -0.01478526893727111 0.00080059470984465036 0 -0.01385354800590311 -0.00015400167701206898 0 -0.014286098802717364 0.0028927380467790903 0 -0.014144873223680141 0.0024738830760274379 0 -0.014407989890998686 0.0023452669532533104 0 -0.014003607940047324 0.0020638296159206523 0 -0.014692139329750688 -0.0012275017309131499 0 -0.014674684538752081 -0.0012358934719222466 0 -0.014657448902109252 -0.001300949852007794 0 -0.014692139329750688 -0.0012275017309131499 0 -0.014657448902109252 -0.001300949852007794 0 -0.014715859467447728 -0.0014174905355192778 0 -0.014674684538752081 -0.0012358934719222466 0 -0.014657448902109252 -0.001300949852007794 0 -0.014621156169467398 -0.0012857106358242958 0 -0.014657448902109252 -0.001300949852007794 0 -0.014557833809456366 -0.001448497625465099 0 -0.014715859467447728 -0.0014174905355192778 0 -0.014657448902109252 -0.001300949852007794 0 -0.014557833809456366 -0.001448497625465099 0 -0.014621156169467398 -0.0012857106358242958 0 -0.014566812997912662 -0.0016445465565286528 0 -0.014557833809456366 -0.001448497625465099 0 -0.014715859467447728 -0.0014174905355192778 0 -0.014788258627234074 -0.0015901529135198525 0 -0.014566812997912662 -0.0016445465565286528 0 -0.014715859467447728 -0.0014174905355192778 0 -0.014788258627234074 -0.0015901529135198525 0 -0.014963725969375988 -0.001039544290916881 0 -0.014715859467447728 -0.0014174905355192778 0 -0.013304102026474354 -0.0033321314578131328 0 -0.013186926688242876 -0.003636804771108951 0 -0.013168288312235953 -0.0034250400065878573 0 -0.013994105049910359 -0.0028867857156995146 0 -0.01385354800590311 -0.00015400167701206898 0 -0.013132248807254252 -0.003293835178497676 0 -0.013304102026474354 -0.0033321314578131328 0 -0.013168288312235953 -0.0034250400065878573 0 -0.013186926688242876 -0.003636804771108951 0 -0.013168288312235953 -0.0034250400065878573 0 -0.013048065949760213 -0.0034323674048487517 0 -0.012912201479103042 -0.0033072153113595914 0 -0.013132248807254252 -0.003293835178497676 0 -0.013048065949760213 -0.0034323674048487517 0 -0.013132248807254252 -0.003293835178497676 0 -0.013168288312235953 -0.0034250400065878573 0 -0.013048065949760213 -0.0034323674048487517 0 -0.013186926688242876 -0.003636804771108951 0 -0.013048065949760213 -0.0034323674048487517 0 -0.012801664358554711 -0.0034806303146200533 0 -0.012912201479103042 -0.0033072153113595914 0 -0.013048065949760213 -0.0034323674048487517 0 -0.012801664358554711 -0.0034806303146200533 0 -0.012689859242423896 -0.003256764203495399 0 -0.01244149519917106 -0.0032676066642553666 0 -0.012801664358554711 -0.0034806303146200533 0 -0.012689859242423896 -0.003256764203495399 0 -0.012912201479103042 -0.0033072153113595914 0 -0.012801664358554711 -0.0034806303146200533 0 -0.012866713194511676 0.0024376615275828331 0 -0.013395057931684608 0.0029395061976928102 0 -0.01324850733914393 0.0022376848440554737 0 -0.013395057931684608 0.0029395061976928102 0 -0.013678493441879434 0.0023531473605618589 0 -0.01324850733914393 0.0022376848440554737 0 -0.01385354800590311 -0.00015400167701206898 0 -0.013012452438906757 -9.33287240600937e-05 0 -0.014147460062457942 0.0025342685586732146 0 -0.013395057931684608 0.0029395061976928102 0 -0.013678493441879434 0.0023531473605618589 0 -0.014147460062457942 0.0025342685586732146 0 -0.013678493441879434 0.0023531473605618589 0 -0.014003607940047324 0.0020638296159206523 0 -0.013678493441879434 0.0023531473605618589 0 -0.014003607940047324 0.0020638296159206523 0 -0.013570468774301576 0.0018705820190845009 0 -0.014003607940047324 0.0020638296159206523 0 -0.013570468774301576 0.0018705820190845009 0 -0.013940622189284914 0.0015392315073621823 0 -0.013678493441879434 0.0023531473605618589 0 -0.013570468774301576 0.0018705820190845009 0 -0.01324850733914393 0.0022376848440554737 0 -0.012614482158597092 0.0017573333291728453 0 -0.013570468774301576 0.0018705820190845009 0 -0.01324850733914393 0.0022376848440554737 0 -0.012614482158597092 0.0017573333291728453 0 -0.013570468774301576 0.0018705820190845009 0 -0.013308477496433189 0.0013369169337979995 0 -0.013570468774301576 0.0018705820190845009 0 -0.013308477496433189 0.0013369169337979995 0 -0.013940622189284914 0.0015392315073621823 0 -0.014973336236346776 0.0024242447072571082 0 -0.015339985614623491 0.0020518284978313537 0 -0.014808494993451646 0.0015819910330259312 0 -0.014696097121783842 0.0024799738485596508 0 -0.014623453988694428 0.0012657705659336867 0 -0.014003607940047324 0.0020638296159206523 0 -0.013940622189284914 0.0015392315073621823 0 -0.014398054694186473 0.0017783187595076502 0 -0.013940622189284914 0.0015392315073621823 0 -0.014398054694186473 0.0017783187595076502 0 -0.014436663872413916 0.0011783385153418245 0 -0.01478526893727111 0.00080059470984465036 0 -0.014696097121783842 0.0024799738485596508 0 -0.015049084677264683 0.0031785806262333207 0 -0.014973336236346776 0.0024242447072571082 0 -0.015439893959317691 0.0026758053013072832 0 -0.014407989890998686 0.0023452669532533104 0 -0.014003607940047324 0.0020638296159206523 0 -0.014398054694186473 0.0017783187595076502 0 -0.01478526893727111 0.00080059470984465036 0 -0.015380531501879418 0.0007500929334071704 0 -0.014692139329750688 -0.0012275017309131499 0 -0.014674684538752081 -0.0012358934719222466 0 -0.014723942330578553 -0.0012505508319818155 0 -0.015049084677264683 0.0031785806262333207 0 -0.015439893959317691 0.0026758053013072832 0 -0.015995461855078847 0.0026652418067242751 0 -0.014973336236346776 0.0024242447072571082 0 -0.015439893959317691 0.0026758053013072832 0 -0.015457772766766577 0.0023739029853465468 0 -0.015439893959317691 0.0026758053013072832 0 -0.0158089716053053 0.0024371487882402553 0 -0.015995461855078847 0.0026652418067242751 0 -0.015439893959317691 0.0026758053013072832 0 -0.015457772766766577 0.0023739029853465468 0 -0.0158089716053053 0.0024371487882402553 0 -0.015457772766766577 0.0023739029853465468 0 -0.015712395309511105 0.0020878948380812176 0 -0.0158089716053053 0.0024371487882402553 0 -0.015457772766766577 0.0023739029853465468 0 -0.015339985614623491 0.0020518284978313537 0 -0.015712395309511105 0.0020878948380812176 0 -0.014973336236346776 0.0024242447072571082 0 -0.015457772766766577 0.0023739029853465468 0 -0.015339985614623491 0.0020518284978313537 0 -0.015339985614623491 0.0020518284978313537 0 -0.015712395309511105 0.0020878948380812176 0 -0.015717584043759714 0.0016572811192881508 0 -0.015879752506021371 0.0024024163132100131 0 -0.016575563218179178 0.0020407753649218001 0 -0.01614475466057291 0.0019229438395809146 0 -0.0158089716053053 0.0024371487882402553 0 -0.016792101764481603 0.0019975645467584725 0 -0.015712395309511105 0.0020878948380812176 0 -0.01614475466057291 0.0019229438395809146 0 -0.015717584043759714 0.0016572811192881508 0 -0.0158089716053053 0.0024371487882402553 0 -0.016414865344332487 0.0020735237044789759 0 -0.015995461855078847 0.0026652418067242751 0 -0.015712395309511105 0.0020878948380812176 0 -0.01614475466057291 0.0019229438395809146 0 -0.0158089716053053 0.0024371487882402553 0 -0.016414865344332487 0.0020735237044789759 0 -0.016706556323399173 0.0021708765379558365 0 -0.016925560690122503 0.0017930844537501099 0 -0.016008670115315628 -0.0012167754294563277 0 -0.015634548148913241 -0.001137224208063857 0 -0.014723942330578553 -0.0012505508319818155 0 -0.016414865344332487 0.0020735237044789759 0 -0.016706556323399173 0.0021708765379558365 0 -0.015995461855078847 0.0026652418067242751 0 -0.016299688893174659 0.00050219918955187891 0 -0.015380531501879418 0.0007500929334071704 0 -0.015601324757288971 -0.0012389312269927501 0 -0.01552613137244537 -0.0012725895120601824 0 -0.015634548148913241 -0.001137224208063857 0 -0.01657670952726855 -0.0011608831688333827 0 -0.016238701604036399 -0.0010293607343374513 0 -0.015634548148913241 -0.001137224208063857 0 -0.014868769822919497 -0.0011351845892821925 0 -0.014473007325470973 -0.0012124939691054511 0 -0.015634548148913241 -0.001137224208063857 0 -0.014723942330578553 -0.0012505508319818155 0 -0.014868769822919497 -0.0011351845892821925 0 -0.014723942330578553 -0.0012505508319818155 0 -0.014699597485800095 -0.0011994499539323415 0 -0.014868769822919497 -0.0011351845892821925 0 -0.014674684538752081 -0.0012358934719222466 0 -0.014723942330578553 -0.0012505508319818155 0 -0.014699597485800095 -0.0011994499539323415 0 -0.014674684538752081 -0.0012358934719222466 0 -0.014699597485800095 -0.0011994499539323415 0 -0.014621156169467398 -0.0012857106358242958 0 -0.014699597485800095 -0.0011994499539323415 0 -0.014621156169467398 -0.0012857106358242958 0 -0.014638222357964281 -0.0012384896178699787 0 -0.014699597485800095 -0.0011994499539323415 0 -0.014638222357964281 -0.0012384896178699787 0 -0.014868769822919497 -0.0011351845892821925 0 -0.014638222357964281 -0.0012384896178699787 0 -0.014868769822919497 -0.0011351845892821925 0 -0.014473007325470973 -0.0012124939691054511 0 -0.014638222357964281 -0.0012384896178699787 0 -0.014473007325470973 -0.0012124939691054511 0 -0.014428737307432295 -0.0014716069974430024 0 -0.014473007325470973 -0.0012124939691054511 0 -0.014428737307432295 -0.0014716069974430024 0 -0.013976946473036232 -0.0017377673177842886 0 -0.01552613137244537 -0.0012725895120601824 0 -0.015454905376456541 -0.0018374412128799955 0 -0.014557833809456366 -0.001448497625465099 0 -0.014428737307432295 -0.0014716069974430024 0 -0.014348411189868272 -0.0017269819383469985 0 -0.014557833809456366 -0.001448497625465099 0 -0.014621156169467398 -0.0012857106358242958 0 -0.014428737307432295 -0.0014716069974430024 0 -0.014621156169467398 -0.0012857106358242958 0 -0.014638222357964281 -0.0012384896178699787 0 -0.014428737307432295 -0.0014716069974430024 0 -0.01657670952726855 -0.0011608831688333827 0 -0.016418681547850523 -0.0015147026392368283 0 -0.016933939961093419 -0.0018932321564279543 0 -0.01657670952726855 -0.0011608831688333827 0 -0.016418681547850523 -0.0015147026392368283 0 -0.016368892418234891 -0.0011669198289469078 0 -0.01657670952726855 -0.0011608831688333827 0 -0.016368892418234891 -0.0011669198289469078 0 -0.016238701604036399 -0.0010293607343374513 0 -0.016418681547850523 -0.0015147026392368283 0 -0.016368892418234891 -0.0011669198289469078 0 -0.01611917367332719 -0.0012486029528914048 0 -0.016368892418234891 -0.0011669198289469078 0 -0.016274377977496861 -0.00098711768372384341 0 -0.01611917367332719 -0.0012486029528914048 0 -0.016368892418234891 -0.0011669198289469078 0 -0.016274377977496861 -0.00098711768372384341 0 -0.016238701604036399 -0.0010293607343374513 0 -0.016274377977496861 -0.00098711768372384341 0 -0.016238701604036399 -0.0010293607343374513 0 -0.016263359027916053 -0.00091721307249302965 0 -0.016008670115315628 -0.0012167754294563277 0 -0.015634548148913241 -0.001137224208063857 0 -0.016238701604036399 -0.0010293607343374513 0 -0.016008670115315628 -0.0012167754294563277 0 -0.016238701604036399 -0.0010293607343374513 0 -0.016263359027916053 -0.00091721307249302965 0 -0.016299688893174659 0.00050219918955187891 0 -0.016814463407544316 0.00060681362898131386 0 -0.016008670115315628 -0.0012167754294563277 0 -0.016263359027916053 -0.00091721307249302965 0 -0.016338676323785783 -0.00060649164949677853 0 -0.016263359027916053 -0.00091721307249302965 0 -0.016230559962220337 -0.00074711549163925667 0 -0.016338676323785783 -0.00060649164949677853 0 -0.016274377977496861 -0.00098711768372384341 0 -0.016263359027916053 -0.00091721307249302965 0 -0.016230559962220337 -0.00074711549163925667 0 -0.016189661602425239 -0.00055218945761074077 0 -0.016230559962220337 -0.00074711549163925667 0 -0.016338676323785783 -0.00060649164949677853 0 -0.016189661602425239 -0.00055218945761074077 0 -0.016230559962220337 -0.00074711549163925667 0 -0.01606340319627355 -0.00053565525366674083 0 -0.01606340319627355 -0.00053565525366674083 0 -0.015876365003992005 -0.00082456627181479354 0 -0.016126438363561493 -0.00086663987810541585 0 -0.016230559962220337 -0.00074711549163925667 0 -0.01606340319627355 -0.00053565525366674083 0 -0.016126438363561493 -0.00086663987810541585 0 -0.016189661602425239 -0.00055218945761074077 0 -0.01606340319627355 -0.00053565525366674083 0 -0.016126110774464308 -0.00039942770638324925 0 -0.01606340319627355 -0.00053565525366674083 0 -0.015830073877110624 -0.00044678145039128638 0 -0.015952932622859 -0.00020814660565903056 0 -0.015830073877110624 -0.00044678145039128638 0 -0.015876365003992005 -0.00082456627181479354 0 -0.015528600242290245 -0.00052403147645119371 0 -0.01606340319627355 -0.00053565525366674083 0 -0.015830073877110624 -0.00044678145039128638 0 -0.015876365003992005 -0.00082456627181479354 0 -0.016274377977496861 -0.00098711768372384341 0 -0.016126438363561493 -0.00086663987810541585 0 -0.01611917367332719 -0.0012486029528914048 0 -0.015876365003992005 -0.00082456627181479354 0 -0.016126438363561493 -0.00086663987810541585 0 -0.01611917367332719 -0.0012486029528914048 0 -0.016274377977496861 -0.00098711768372384341 0 -0.016230559962220337 -0.00074711549163925667 0 -0.016126438363561493 -0.00086663987810541585 0 -0.01499994932383078 -0.00037357208167824985 0 -0.015528600242290245 -0.00052403147645119371 0 -0.015350843224874648 -2.0601509132096276e-05 0 -0.015528600242290245 -0.00052403147645119371 0 -0.01568153536664528 -0.0001231343288899365 0 -0.015350843224874648 -2.0601509132096276e-05 0 -0.015830073877110624 -0.00044678145039128638 0 -0.015528600242290245 -0.00052403147645119371 0 -0.01568153536664528 -0.0001231343288899365 0 -0.015876365003992005 -0.00082456627181479354 0 -0.015528600242290245 -0.00052403147645119371 0 -0.015409841679019832 -0.00095695640873952781 0 -0.01499994932383078 -0.00037357208167824985 0 -0.015409841679019832 -0.00095695640873952781 0 -0.014999939459428513 -0.00125147895606373 0 -0.01499994932383078 -0.00037357208167824985 0 -0.015528600242290245 -0.00052403147645119371 0 -0.015409841679019832 -0.00095695640873952781 0 -0.015409841679019832 -0.00095695640873952781 0 -0.014999939459428513 -0.00125147895606373 0 -0.015646936032446768 -0.0014096372889555293 0 -0.015876365003992005 -0.00082456627181479354 0 -0.015409841679019832 -0.00095695640873952781 0 -0.015646936032446768 -0.0014096372889555293 0 -0.014999939459428513 -0.00125147895606373 0 -0.015646936032446768 -0.0014096372889555293 0 -0.015476059063385506 -0.0019589013488418633 0 -0.014999939459428513 -0.00125147895606373 0 -0.014999896292297338 -0.0021294434832975183 0 -0.015476059063385506 -0.0019589013488418633 0 -0.015876365003992005 -0.00082456627181479354 0 -0.015646936032446768 -0.0014096372889555293 0 -0.01611917367332719 -0.0012486029528914048 0 -0.015646936032446768 -0.0014096372889555293 0 -0.016040116502274396 -0.0019277429206869165 0 -0.015476059063385506 -0.0019589013488418633 0 -0.015646936032446768 -0.0014096372889555293 0 -0.01611917367332719 -0.0012486029528914048 0 -0.016040116502274396 -0.0019277429206869165 0 -0.016418681547850523 -0.0015147026392368283 0 -0.01611917367332719 -0.0012486029528914048 0 -0.016040116502274396 -0.0019277429206869165 0 -0.016040116502274396 -0.0019277429206869165 0 -0.016555610043126542 -0.0020359088953744529 0 -0.016402434241633516 -0.0025216867460782014 0 -0.016040116502274396 -0.0019277429206869165 0 -0.015476059063385506 -0.0019589013488418633 0 -0.015612392939272707 -0.0025602631592455513 0 -0.016040116502274396 -0.0019277429206869165 0 -0.016030021363455348 -0.0025541970880467685 0 -0.015612392939272707 -0.0025602631592455513 0 -0.016040116502274396 -0.0019277429206869165 0 -0.016030021363455348 -0.0025541970880467685 0 -0.016402434241633516 -0.0025216867460782014 0 -0.014999896292297338 -0.0021294434832975183 0 -0.015476059063385506 -0.0019589013488418633 0 -0.015612392939272707 -0.0025602631592455513 0 -0.014999896292297338 -0.0021294434832975183 0 -0.015612392939272707 -0.0025602631592455513 0 -0.014999902638022953 -0.0030074864156398565 0 -0.015612392939272707 -0.0025602631592455513 0 -0.014999902638022953 -0.0030074864156398565 0 -0.015468071055962903 -0.0031976770052427397 0 -0.015612392939272707 -0.0025602631592455513 0 -0.015468071055962903 -0.0031976770052427397 0 -0.016075078789195552 -0.0031544665313361195 0 -0.015655099116881781 -0.0037460235938956009 0 -0.014999914385909464 -0.0038855454576539345 0 -0.015468071055962903 -0.0031976770052427397 0 -0.014999914385909464 -0.0038855454576539345 0 -0.014999902638022953 -0.0030074864156398565 0 -0.015468071055962903 -0.0031976770052427397 0 -0.016075078789195552 -0.0031544665313361195 0 -0.016613939766428214 -0.0031390713511414508 0 -0.016402434241633516 -0.0025216867460782014 0 -0.016030021363455348 -0.0025541970880467685 0 -0.016075078789195552 -0.0031544665313361195 0 -0.016402434241633516 -0.0025216867460782014 0 -0.016030021363455348 -0.0025541970880467685 0 -0.015612392939272707 -0.0025602631592455513 0 -0.016075078789195552 -0.0031544665313361195 0 -0.016051585165292995 -0.0038740208642457476 0 -0.015655099116881781 -0.0037460235938956009 0 -0.016075078789195552 -0.0031544665313361195 0 -0.015655099116881781 -0.0037460235938956009 0 -0.015468071055962903 -0.0031976770052427397 0 -0.016075078789195552 -0.0031544665313361195 0 -0.016460399588893428 -0.0038137964029447075 0 -0.016075078789195552 -0.0031544665313361195 0 -0.016613939766428214 -0.0031390713511414508 0 -0.016460399588893428 -0.0038137964029447075 0 -0.016051585165292995 -0.0038740208642457476 0 -0.016075078789195552 -0.0031544665313361195 0 -0.016460399588893428 -0.0038137964029447075 0 -0.016613939766428214 -0.0031390713511414508 0 -0.017085912096785512 -0.003509477657578244 0 -0.016613939766428214 -0.0031390713511414508 0 -0.01707589639119422 -0.0026982757473641428 0 -0.016402434241633516 -0.0025216867460782014 0 -0.015430167150070282 -0.002450358301541551 0 -0.015428363151601905 -0.0029185984922886227 0 -0.016613939766428214 -0.0031390713511414508 0 -0.01707589639119422 -0.0026982757473641428 0 -0.017085912096785512 -0.003509477657578244 0 -0.013783399038781056 -0.0021897896391895968 0 -0.013782029003086475 -0.0023215079019213306 0 -0.013810815859588224 -0.0023302716735090312 0 -0.013730665942827394 -0.0022703402292411959 0 -0.013782029003086475 -0.0023215079019213306 0 -0.013810815859588224 -0.0023302716735090312 0 -0.013648853213904959 -0.0022732431769835306 0 -0.01379566078078286 -0.0024421886910073742 0 -0.013810815859588224 -0.0023302716735090312 0 -0.01379566078078286 -0.0024421886910073742 0 -0.013810815859588224 -0.0023302716735090312 0 -0.01401773380428536 -0.0021384011595240496 0 -0.013783399038781056 -0.0021897896391895968 0 -0.013810815859588224 -0.0023302716735090312 0 -0.01401773380428536 -0.0021384011595240496 0 -0.013783399038781056 -0.0021897896391895968 0 -0.01401773380428536 -0.0021384011595240496 0 -0.013976946473036232 -0.0017377673177842886 0 -0.014428737307432295 -0.0014716069974430024 0 -0.014348411189868272 -0.0017269819383469985 0 -0.013976946473036232 -0.0017377673177842886 0 -0.01401773380428536 -0.0021384011595240496 0 -0.014348411189868272 -0.0017269819383469985 0 -0.013976946473036232 -0.0017377673177842886 0 -0.016418681547850523 -0.0015147026392368283 0 -0.016933939961093419 -0.0018932321564279543 0 -0.016555610043126542 -0.0020359088953744529 0 -0.016418681547850523 -0.0015147026392368283 0 -0.016040116502274396 -0.0019277429206869165 0 -0.016555610043126542 -0.0020359088953744529 0 -0.01707589639119422 -0.0026982757473641428 0 -0.016555610043126542 -0.0020359088953744529 0 -0.016402434241633516 -0.0025216867460782014 0 -0.015430167150070282 -0.002450358301541551 0 -0.015454905376456541 -0.0018374412128799955 0 -0.01707589639119422 -0.0026982757473641428 0 -0.016933939961093419 -0.0018932321564279543 0 -0.016555610043126542 -0.0020359088953744529 0 -0.0036797127410712971 -0.0036945461910955963 0 -0.0034785180638070459 -0.0033830043261097219 0 -0.0033902184862098523 -0.0037773025284440834 0 -0.0036797127410712971 -0.0036945461910955963 0 -0.0034785180638070459 -0.0033830043261097219 0 -0.0040589906155791694 -0.0035918015688658038 0 -0.0034785180638070459 -0.0033830043261097219 0 -0.0032069238883749673 -0.0033507818232262811 0 -0.0032818468165775709 -0.0031802131454267135 0 -0.0032069238883749673 -0.0033507818232262811 0 -0.0030220957683304217 -0.0034880852735151551 0 -0.0033902184862098523 -0.0037773025284440834 0 -0.0034785180638070459 -0.0033830043261097219 0 -0.0032069238883749673 -0.0033507818232262811 0 -0.0033902184862098523 -0.0037773025284440834 0 -0.0031670168793391266 -0.0030469604519437923 0 -0.0040274272542206082 -0.0028516223057834262 0 -0.0033902184862098523 -0.0037773025284440834 0 -0.0038142423274988976 -0.0041469078242201999 0 -0.002952527767083869 -0.004359984080748047 0 -0.0030220957683304217 -0.0034880852735151551 0 -0.0033902184862098523 -0.0037773025284440834 0 -0.002952527767083869 -0.004359984080748047 0 -0.0036797127410712971 -0.0036945461910955963 0 -0.0038142423274988976 -0.0041469078242201999 0 -0.0040589906155791694 -0.0035918015688658038 0 -0.0036797127410712971 -0.0036945461910955963 0 -0.0033902184862098523 -0.0037773025284440834 0 -0.0038142423274988976 -0.0041469078242201999 0 -0.0038142423274988976 -0.0041469078242201999 0 -0.0040589906155791694 -0.0035918015688658038 0 -0.0045482648949895874 -0.0036291877934372919 0 -0.0046127376009583356 -0.0030665255606527764 0 -0.0055142854789361562 -0.0028812862630240776 0 -0.0054710271087920204 -0.0018819356673456906 0 -0.0059868007716459603 -0.001880852861329726 0 -0.0058073830186491891 -0.0020531293666740369 0 -0.0038142423274988976 -0.0041469078242201999 0 -0.0049667786099970813 -0.0039054021298245336 0 -0.0045482648949895874 -0.0036291877934372919 0 -0.0059868007716459603 -0.001880852861329726 0 -0.0060929088975394926 -0.0021498190270121463 0 -0.0063216549660732096 -0.002092425274777804 0 -0.0059868007716459603 -0.001880852861329726 0 -0.0060929088975394926 -0.0021498190270121463 0 -0.0058073830186491891 -0.0020531293666740369 0 -0.0059765620380137063 -0.0035173503500277002 0 -0.0065005209803648354 -0.0032145017697790016 0 -0.0081311093957106232 -0.0034207961667361599 0 -0.0054736512622601419 -0.0033972218722605929 0 -0.0046954464357335003 -0.0031421324001849279 0 -0.0062776470329032304 -0.0030129485928793928 0 -0.0053066755112014035 -0.0033142583276744753 0 -0.0072893425416454844 -0.0032953324932183032 0 -0.0049667786099970813 -0.0039054021298245336 0 -0.0054736512622601419 -0.0033972218722605929 0 -0.0049126636894179345 -0.0035215483963498008 0 -0.0049667786099970813 -0.0039054021298245336 0 -0.0049126636894179345 -0.0035215483963498008 0 -0.0045482648949895874 -0.0036291877934372919 0 -0.0049126636894179345 -0.0035215483963498008 0 -0.0046954464357335003 -0.0031421324001849279 0 -0.0045482648949895874 -0.0036291877934372919 0 -0.0054736512622601419 -0.0033972218722605929 0 -0.0049126636894179345 -0.0035215483963498008 0 -0.0046954464357335003 -0.0031421324001849279 0 -0.0034785180638070459 -0.0033830043261097219 0 -0.0046954464357335003 -0.0031421324001849279 0 -0.0040589906155791694 -0.0035918015688658038 0 -0.0034785180638070459 -0.0033830043261097219 0 -0.0059765620380137063 -0.0035173503500277002 0 -0.0047471432637160998 -0.0031072862387805664 0 -0.0035923301644352171 -0.0033841970307108365 0 -0.0053066755112014035 -0.0033142583276744753 0 -0.0046954464357335003 -0.0031421324001849279 0 -0.0040589906155791694 -0.0035918015688658038 0 -0.0045482648949895874 -0.0036291877934372919 0 -0.0047471432637160998 -0.0031072862387805664 0 -0.0055545080214459315 -0.0025251532073806778 0 -0.0038961039889870864 -0.0028625847004549289 0 -0.0061459838234875393 -0.0033089822068406503 0 -0.004835620219343674 -0.0036160898096996904 0 -0.0059765620380137063 -0.0035173503500277002 0 -0.0047471432637160998 -0.0031072862387805664 0 -0.0055731299080816858 -0.0030241964927426057 0 -0.0047471432637160998 -0.0031072862387805664 0 -0.0055731299080816858 -0.0030241964927426057 0 -0.0055545080214459315 -0.0025251532073806778 0 -0.0059765620380137063 -0.0035173503500277002 0 -0.0055731299080816858 -0.0030241964927426057 0 -0.0061066661393650076 -0.0029078267812685773 0 -0.0055731299080816858 -0.0030241964927426057 0 -0.0055545080214459315 -0.0025251532073806778 0 -0.0061066661393650076 -0.0029078267812685773 0 -0.0055545080214459315 -0.0025251532073806778 0 -0.0061066661393650076 -0.0029078267812685773 0 -0.0071603585466844212 -0.0021320661171176586 0 -0.0061459838234875393 -0.0033089822068406503 0 -0.007042704802765103 -0.0029293353252321198 0 -0.0065005209803648354 -0.0032145017697790016 0 -0.0061066661393650076 -0.0029078267812685773 0 -0.0071603585466844212 -0.0021320661171176586 0 -0.0065005209803648354 -0.0032145017697790016 0 -0.0071290570616328987 -0.0023648794322585266 0 -0.0074025690068358707 -0.0029394240821226463 0 -0.0059765620380137063 -0.0035173503500277002 0 -0.0065005209803648354 -0.0032145017697790016 0 -0.0061066661393650076 -0.0029078267812685773 0 -0.0067091637331649729 -0.00294781888516189 0 -0.007042704802765103 -0.0029293353252321198 0 -0.0066514065571022058 -0.0041110725607887864 0 -0.0064103295192571704 -0.0041749798500146313 0 -0.0065307608798914002 -0.0044547345345666133 0 -0.0066514065571022058 -0.0041110725607887864 0 -0.0068519345424636006 -0.0044164232393038086 0 -0.0065307608798914002 -0.0044547345345666133 0 -0.004835620219343674 -0.0036160898096996904 0 -0.0048408548748677524 -0.003904296656038214 0 -0.0031380087203693304 -0.0032031785110160165 0 -0.0031028846696624741 -0.0033617941446181603 0 -0.0028151405952755643 -0.0033650941009101347 0 -0.0031778083792973586 -0.0031353977501391707 0 -0.0031380087203693304 -0.0032031785110160165 0 -0.0028151405952755643 -0.0033650941009101347 0 -0.0066514065571022058 -0.0041110725607887864 0 -0.0068801036457491818 -0.0040448358712886923 0 -0.0068519345424636006 -0.0044164232393038086 0 -0.0031778083792973586 -0.0031353977501391707 0 -0.0032818468165775709 -0.0031802131454267135 0 -0.0031380087203693304 -0.0032031785110160165 0 -0.0038865372095911862 -0.0028806337309725417 0 -0.0038529164322942777 -0.0030985473378420483 0 -0.0032818468165775709 -0.0031802131454267135 0 -0.004835620219343674 -0.0036160898096996904 0 -0.0035407504010304446 -0.0035522326543125917 0 -0.0034785180638070459 -0.0033830043261097219 0 -0.0038529164322942777 -0.0030985473378420483 0 -0.0032818468165775709 -0.0031802131454267135 0 -0.004835620219343674 -0.0036160898096996904 0 -0.0047684439964280206 -0.0034794842337886687 0 -0.0034785180638070459 -0.0033830043261097219 0 -0.0047471432637160998 -0.0031072862387805664 0 -0.0038529164322942777 -0.0030985473378420483 0 -0.0047471432637160998 -0.0031072862387805664 0 -0.0038961039889870864 -0.0028625847004549289 0 -0.0038529164322942777 -0.0030985473378420483 0 -0.0032069238883749673 -0.0033507818232262811 0 -0.0032818468165775709 -0.0031802131454267135 0 -0.0032018270558073093 -0.0031372488305801247 0 -0.0031670168793391266 -0.0030469604519437923 0 -0.0032845536751030407 -0.0029339674553989486 0 -0.0032069238883749673 -0.0033507818232262811 0 -0.0030220957683304217 -0.0034880852735151551 0 -0.0032018270558073093 -0.0031372488305801247 0 -0.0032818468165775709 -0.0031802131454267135 0 -0.0032018270558073093 -0.0031372488305801247 0 -0.0031380087203693304 -0.0032031785110160165 0 -0.0032845536751030407 -0.0029339674553989486 0 -0.0032789133217036481 -0.0035415323479329971 0 -0.0032018270558073093 -0.0031372488305801247 0 -0.0032909058621765071 -0.0035705823553705738 0 -0.0031028846696624741 -0.0033617941446181603 0 -0.0032018270558073093 -0.0031372488305801247 0 -0.0031380087203693304 -0.0032031785110160165 0 -0.0031028846696624741 -0.0033617941446181603 0 -0.0033363686510541066 -0.002713362962974556 0 -0.0035473392306443405 -0.0030144344141699668 0 -0.003502468910320963 -0.003305613017503187 0 -0.0033363686510541066 -0.002713362962974556 0 -0.0035473392306443405 -0.0030144344141699668 0 -0.0036476998669070864 -0.0027888188470970069 0 -0.0035473392306443405 -0.0030144344141699668 0 -0.0036476998669070864 -0.0027888188470970069 0 -0.0037821158091867488 -0.0032780987158924856 0 -0.0036476998669070864 -0.0027888188470970069 0 -0.0040399180351969304 -0.0033597663636506674 0 -0.0037821158091867488 -0.0032780987158924856 0 -0.0037235919119861381 -0.0024511167260405247 0 -0.0035629601251775979 -0.0022599011892464362 0 -0.0036981852544149679 -0.0022123739586981735 0 -0.0041128218519764798 -0.0019149328672170309 0 -0.0025873800877615066 -0.004078930943993306 0 -0.0036476998669070864 -0.0027888188470970069 0 -0.0037235919119861381 -0.0024511167260405247 0 -0.0040399180351969304 -0.0033597663636506674 0 -0.0036476998669070864 -0.0027888188470970069 0 -0.0037235919119861381 -0.0024511167260405247 0 -0.003621173732648311 -0.0023971643245911936 0 -0.0034987705492850081 -0.0023482112786453444 0 -0.0033363686510541066 -0.002713362962974556 0 -0.003621173732648311 -0.0023971643245911936 0 -0.0033363686510541066 -0.002713362962974556 0 -0.0036476998669070864 -0.0027888188470970069 0 -0.003621173732648311 -0.0023971643245911936 0 -0.00025181222196751714 -0.0044958376706626512 0 -0.0015277540725802349 -0.0045952990781270063 0 -0.0034918820868916601 -0.0022927076779626979 0 -0.0035629601251775979 -0.0022599011892464362 0 -0.0035470402215984471 -0.0023039165251024299 0 0.0017703041878656626 -0.0074759924590679797 0 0.00051919273893122342 -0.0068883490810465516 0 0.0015807836756787086 -0.0061523333498068305 0 -0.0034965011335453232 -0.0022965142839037247 0 -0.0034991717471344517 -0.0022952524063501001 0 -0.0034951621700704517 -0.0022873531394918996 0 -0.00025181222196751714 -0.0044958376706626512 0 -0.00036742400659681813 -0.0044167596053113194 0 -0.0034918820868916601 -0.0022927076779626979 0 -0.0034991717471344517 -0.0022952524063501001 0 -0.0035470402215984471 -0.0023039165251024299 0 -0.0034991717471344517 -0.0022952524063501001 0 -0.0035470402215984471 -0.0023039165251024299 0 -0.003515742069476612 -0.0022858597645928056 0 -0.0037235919119861381 -0.0024511167260405247 0 -0.0035629601251775979 -0.0022599011892464362 0 -0.0035470402215984471 -0.0023039165251024299 0 -0.0037235919119861381 -0.0024511167260405247 0 -0.003599523397779158 -0.0023510923818295905 0 -0.0036405894788044315 -0.0023619840911995376 0 -0.0037235919119861381 -0.0024511167260405247 0 -0.0035470402215984471 -0.0023039165251024299 0 -0.003599523397779158 -0.0023510923818295905 0 -0.003599523397779158 -0.0023510923818295905 0 -0.003515742069476612 -0.0022858597645928056 0 -0.0035725275344252764 -0.0023070405295513709 0 -0.0035470402215984471 -0.0023039165251024299 0 -0.003599523397779158 -0.0023510923818295905 0 -0.003515742069476612 -0.0022858597645928056 0 -0.003515742069476612 -0.0022858597645928056 0 -0.0035024689247185391 -0.002225209189035435 0 -0.0034951621700704517 -0.0022873531394918996 0 -0.0034991717471344517 -0.0022952524063501001 0 -0.003515742069476612 -0.0022858597645928056 0 -0.0034951621700704517 -0.0022873531394918996 0 -0.003515742069476612 -0.0022858597645928056 0 -0.0035024689247185391 -0.002225209189035435 0 -0.0035725275344252764 -0.0023070405295513709 0 -0.0035024689247185391 -0.002225209189035435 0 -0.0035725275344252764 -0.0023070405295513709 0 -0.0035108346433404959 -0.0022935079561361591 0 -0.0035725275344252764 -0.0023070405295513709 0 -0.0036134734185441111 -0.0023423522674287135 0 -0.0035108346433404959 -0.0022935079561361591 0 -0.0035725275344252764 -0.0023070405295513709 0 -0.0036134734185441111 -0.0023423522674287135 0 -0.0036405894788044315 -0.0023619840911995376 0 -0.003599523397779158 -0.0023510923818295905 0 -0.0035725275344252764 -0.0023070405295513709 0 -0.0036405894788044315 -0.0023619840911995376 0 -0.0036134734185441111 -0.0023423522674287135 0 -0.0035108346433404959 -0.0022935079561361591 0 -0.0035968161624632396 -0.0023596180668776791 0 -0.0034987705492850081 -0.0023482112786453444 0 -0.003621173732648311 -0.0023971643245911936 0 -0.0036111157325045967 -0.0023359322397705235 0 -0.0037235919119861381 -0.0024511167260405247 0 -0.003621173732648311 -0.0023971643245911936 0 -0.0036405894788044315 -0.0023619840911995376 0 -0.003621173732648311 -0.0023971643245911936 0 -0.0036405894788044315 -0.0023619840911995376 0 -0.0036111157325045967 -0.0023359322397705235 0 -0.0036134734185441111 -0.0023423522674287135 0 -0.0036405894788044315 -0.0023619840911995376 0 -0.0036111157325045967 -0.0023359322397705235 0 -0.0036134734185441111 -0.0023423522674287135 0 -0.0036111157325045967 -0.0023359322397705235 0 -0.0036263665635077758 -0.0023459624930928882 0 -0.0034987705492850081 -0.0023482112786453444 0 -0.0036111157325045967 -0.0023359322397705235 0 -0.0035682702368804984 -0.0023129701711971195 0 -0.0049400994714655462 -0.0019548478866148263 0 -0.0046733451807722684 -0.0024959242518690721 0 -0.0051940334490375413 -0.002388971207833432 0 -0.0040274272542206082 -0.0028516223057834262 0 -0.0040574341513482113 -0.0021134445781674119 0 -0.0049400994714655462 -0.0019548478866148263 0 -0.0043524596437585694 -0.0021000860348676272 0 -0.0046733451807722684 -0.0024959242518690721 0 -0.0036111157325045967 -0.0023359322397705235 0 -0.0035682702368804984 -0.0023129701711971195 0 -0.0036263665635077758 -0.0023459624930928882 0 -0.0043524596437585694 -0.0021000860348676272 0 -0.0041254371652639241 -0.0025716510065555138 0 -0.0046733451807722684 -0.0024959242518690721 0 -0.0036263665635077758 -0.0023459624930928882 0 -0.0035968161624632396 -0.0023596180668776791 0 -0.0036759736366213827 -0.0024173789642640648 0 -0.0036134734185441111 -0.0023423522674287135 0 -0.0036263665635077758 -0.0023459624930928882 0 -0.0035968161624632396 -0.0023596180668776791 0 -0.0043524596437585694 -0.0021000860348676272 0 -0.0036759736366213827 -0.0024173789642640648 0 -0.0041254371652639241 -0.0025716510065555138 0 -0.0040574341513482113 -0.0021134445781674119 0 -0.0036521354546836938 -0.0024371713846118312 0 -0.0036759736366213827 -0.0024173789642640648 0 -0.0041254371652639241 -0.0025716510065555138 0 -0.0037025860135497545 -0.0028834762385463644 0 -0.0041254371652639241 -0.0025716510065555138 0 -0.0043161887385115231 -0.0028163203242626183 0 -0.0037025860135497545 -0.0028834762385463644 0 -0.0041254371652639241 -0.0025716510065555138 0 -0.0046733451807722684 -0.0024959242518690721 0 -0.0043161887385115231 -0.0028163203242626183 0 -0.0046733451807722684 -0.0024959242518690721 0 -0.0043161887385115231 -0.0028163203242626183 0 -0.004638054309920276 -0.0028279425720384079 0 -0.0046733451807722684 -0.0024959242518690721 0 -0.004638054309920276 -0.0028279425720384079 0 -0.0049861598263102784 -0.0027294161819191062 0 -0.004638054309920276 -0.0028279425720384079 0 -0.0049861598263102784 -0.0027294161819191062 0 -0.0048353930471839134 -0.0030084722540784157 0 -0.0049861598263102784 -0.0027294161819191062 0 -0.0053894622147894634 -0.0026293420422751836 0 -0.0052113588403118393 -0.002879860384497797 0 -0.0053894622147894634 -0.0026293420422751836 0 -0.0055042961874852275 -0.0028383094679913408 0 -0.0052113588403118393 -0.002879860384497797 0 -0.0053894622147894634 -0.0026293420422751836 0 -0.0051940334490375413 -0.002388971207833432 0 -0.0057634344636144823 -0.0024247979266995377 0 -0.0049861598263102784 -0.0027294161819191062 0 -0.0053894622147894634 -0.0026293420422751836 0 -0.0051940334490375413 -0.002388971207833432 0 -0.0046733451807722684 -0.0024959242518690721 0 -0.0049861598263102784 -0.0027294161819191062 0 -0.0051940334490375413 -0.002388971207833432 0 -0.0049400994714655462 -0.0019548478866148263 0 -0.0051940334490375413 -0.002388971207833432 0 -0.0055378963755726785 -0.0022247865409033897 0 -0.0051940334490375413 -0.002388971207833432 0 -0.0055378963755726785 -0.0022247865409033897 0 -0.0057634344636144823 -0.0024247979266995377 0 -0.0054710271087920204 -0.0018819356673456906 0 -0.0049400994714655462 -0.0019548478866148263 0 -0.0055378963755726785 -0.0022247865409033897 0 -0.0046127376009583356 -0.0030665255606527764 0 -0.0040274272542206082 -0.0028516223057834262 0 -0.0058790911921815115 -0.0022231502770333296 0 -0.0060929088975394926 -0.0021498190270121463 0 -0.0061229605562880141 -0.0023454948072988229 0 -0.0058790911921815115 -0.0022231502770333296 0 -0.0060929088975394926 -0.0021498190270121463 0 -0.0058073830186491891 -0.0020531293666740369 0 -0.0054710271087920204 -0.0018819356673456906 0 -0.0055378963755726785 -0.0022247865409033897 0 -0.0058073830186491891 -0.0020531293666740369 0 -0.0055378963755726785 -0.0022247865409033897 0 -0.0058790911921815115 -0.0022231502770333296 0 -0.0058073830186491891 -0.0020531293666740369 0 -0.0055378963755726785 -0.0022247865409033897 0 -0.0058790911921815115 -0.0022231502770333296 0 -0.0057634344636144823 -0.0024247979266995377 0 -0.0061229605562880141 -0.0023454948072988229 0 -0.0057634344636144823 -0.0024247979266995377 0 -0.0061807310670865786 -0.0025134751413483513 0 -0.0058790911921815115 -0.0022231502770333296 0 -0.0061229605562880141 -0.0023454948072988229 0 -0.0057634344636144823 -0.0024247979266995377 0 -0.0057634344636144823 -0.0024247979266995377 0 -0.0058667109115999655 -0.002686073295638873 0 -0.0061807310670865786 -0.0025134751413483513 0 -0.0053894622147894634 -0.0026293420422751836 0 -0.0057634344636144823 -0.0024247979266995377 0 -0.0058667109115999655 -0.002686073295638873 0 -0.0053894622147894634 -0.0026293420422751836 0 -0.0058667109115999655 -0.002686073295638873 0 -0.0055042961874852275 -0.0028383094679913408 0 -0.0058667109115999655 -0.002686073295638873 0 -0.0062415429593709855 -0.0026378190872886008 0 -0.0061807310670865786 -0.0025134751413483513 0 -0.0061807310670865786 -0.0025134751413483513 0 -0.00649690406991841 -0.0025440591926940144 0 -0.0063571985261389758 -0.0024217185609023144 0 -0.0062415429593709855 -0.0026378190872886008 0 -0.0061807310670865786 -0.0025134751413483513 0 -0.00649690406991841 -0.0025440591926940144 0 -0.0062415429593709855 -0.0026378190872886008 0 -0.00649690406991841 -0.0025440591926940144 0 -0.0064393744619500063 -0.0025115433845229449 0 -0.00649690406991841 -0.0025440591926940144 0 -0.0064460140830093953 -0.0024592661824645316 0 -0.0064393744619500063 -0.0025115433845229449 0 -0.0064531751657235913 -0.0025377667787161058 0 -0.00649690406991841 -0.0025440591926940144 0 -0.0064460140830093953 -0.0024592661824645316 0 -0.0071579524509844438 -0.0012688354352049951 0 -0.0067628271347804601 -0.00056673343308107907 0 -0.0071323154842951814 0.0021916900018146826 0 -0.008084611306980136 0.0016944691421609977 0 -0.0071925033391651979 0.00085977073553762261 0 -0.0072066283458827622 -0.0028333115732538617 0 -0.0073385143236903922 -0.0026575088951017864 0 -0.0075691146154572477 -0.0027477658507851339 0 -0.0067327828842061394 -0.0025206368039854751 0 -0.00649690406991841 -0.0025440591926940144 0 -0.0066076351321388933 -0.0023983408865819325 0 -0.0071579524509844438 -0.0012688354352049951 0 -0.0062122646653876724 -0.0027403442214005277 0 -0.0067327828842061394 -0.0025206368039854751 0 -0.0067999812920999962 -0.002380042266785174 0 -0.0066076351321388933 -0.0023983408865819325 0 -0.0073385143236903922 -0.0026575088951017864 0 -0.007172486404728195 -0.0025225149744777177 0 -0.0074533559956761431 -0.002492488090015598 0 -0.0071579524509844438 -0.0012688354352049951 0 -0.0070059765750549426 -0.0027414862862206847 0 -0.0072066283458827622 -0.0028333115732538617 0 -0.0073385143236903922 -0.0026575088951017864 0 -0.007172486404728195 -0.0025225149744777177 0 -0.007172486404728195 -0.0025225149744777177 0 -0.0072843862630731868 -0.0023768002562525679 0 -0.0074533559956761431 -0.002492488090015598 0 -0.007172486404728195 -0.0025225149744777177 0 -0.0072843862630731868 -0.0023768002562525679 0 -0.0071402139604718803 -0.0022806357920614473 0 -0.0067999812920999962 -0.002380042266785174 0 -0.0068026324901664537 -0.0023210857516774426 0 -0.0071402139604718803 -0.0022806357920614473 0 -0.0067999812920999962 -0.002380042266785174 0 -0.0068026324901664537 -0.0023210857516774426 0 -0.0066076351321388933 -0.0023983408865819325 0 -0.0070059765750549426 -0.0027414862862206847 0 -0.0070903269846095511 -0.0021514953699656495 0 -0.0065719760538022077 -0.0022512023850842682 0 -0.0063602130902341682 -0.0022911426916655234 0 -0.0066076351321388933 -0.0023983408865819325 0 -0.0068026324901664537 -0.0023210857516774426 0 -0.0065719760538022077 -0.0022512023850842682 0 -0.0066076351321388933 -0.0023983408865819325 0 -0.0065719760538022077 -0.0022512023850842682 0 -0.0063602130902341682 -0.0022911426916655234 0 -0.0063216549660732096 -0.002092425274777804 0 -0.0060929088975394926 -0.0021498190270121463 0 -0.0063602130902341682 -0.0022911426916655234 0 -0.0063216549660732096 -0.002092425274777804 0 -0.0060929088975394926 -0.0021498190270121463 0 -0.0061229605562880141 -0.0023454948072988229 0 -0.0063602130902341682 -0.0022911426916655234 0 -0.0061229605562880141 -0.0023454948072988229 0 -0.0061807310670865786 -0.0025134751413483513 0 -0.0063571985261389758 -0.0024217185609023144 0 -0.0061229605562880141 -0.0023454948072988229 0 -0.0063602130902341682 -0.0022911426916655234 0 -0.0063571985261389758 -0.0024217185609023144 0 -0.0063602130902341682 -0.0022911426916655234 0 -0.0063571985261389758 -0.0024217185609023144 0 -0.0066076351321388933 -0.0023983408865819325 0 -0.00649690406991841 -0.0025440591926940144 0 -0.0063571985261389758 -0.0024217185609023144 0 -0.0066076351321388933 -0.0023983408865819325 0 -0.010888941692269338 0.0021671104674164431 0 -0.0098475904725174469 0.0024436876512359176 0 -0.011017701237812124 0.0021673993937479635 0 -0.010402832211450842 0.0014202240011743463 0 -0.0099015692440165941 0.0018664143383810754 0 -0.010402832211450842 0.0014202240011743463 0 -0.011378118200743826 0.0010897018904624961 0 -0.010197853541910018 0.00072713308510177917 0 -0.011017701237812124 0.0021673993937479635 0 -0.010402832211450842 0.0014202240011743463 0 -0.011378118200743826 0.0010897018904624961 0 -0.010402832211450842 0.0014202240011743463 0 -0.0094116166387630852 0.0010561431739366911 0 -0.010197853541910018 0.00072713308510177917 0 -0.010402832211450842 0.0014202240011743463 0 -0.0099015692440165941 0.0018664143383810754 0 -0.0094116166387630852 0.0010561431739366911 0 -0.011017701237812124 0.0021673993937479635 0 -0.0099015692440165941 0.0018664143383810754 0 -0.0097757294797555499 0.0024745846321940082 0 -0.0099015692440165941 0.0018664143383810754 0 -0.0091409110652474479 0.0018388902289610402 0 -0.0097757294797555499 0.0024745846321940082 0 -0.0091409110652474479 0.0018388902289610402 0 -0.0085699151479652364 0.0026011234120714693 0 -0.0097757294797555499 0.0024745846321940082 0 -0.0091409110652474479 0.0018388902289610402 0 -0.0094116166387630852 0.0010561431739366911 0 -0.0084263461028109589 0.0010901906828536759 0 -0.0099015692440165941 0.0018664143383810754 0 -0.0091409110652474479 0.0018388902289610402 0 -0.0094116166387630852 0.0010561431739366911 0 -0.0084263461028109589 0.0010901906828536759 0 -0.008084611306980136 0.0016944691421609977 0 -0.0071925033391651979 0.00085977073553762261 0 -0.0091409110652474479 0.0018388902289610402 0 -0.0084263461028109589 0.0010901906828536759 0 -0.008084611306980136 0.0016944691421609977 0 -0.0071579524509844438 -0.0012688354352049951 0 -0.008109137823603332 4.0772229006302022e-05 0 -0.0071323154842951814 0.0021916900018146826 0 -0.008084611306980136 0.0016944691421609977 0 -0.0085699151479652364 0.0026011234120714693 0 -0.0091409110652474479 0.0018388902289610402 0 -0.008084611306980136 0.0016944691421609977 0 -0.0085699151479652364 0.0026011234120714693 0 -0.0075691146154572477 -0.0027477658507851339 0 -0.0074533559956761431 -0.002492488090015598 0 -0.0077190628013939239 -0.0025531239281128093 0 -0.0073385143236903922 -0.0026575088951017864 0 -0.0075691146154572477 -0.0027477658507851339 0 -0.0074533559956761431 -0.002492488090015598 0 -0.0074533559956761431 -0.002492488090015598 0 -0.0078682662521396083 -0.0023356298485293814 0 -0.0073971514233776786 -0.0022259780117401423 0 -0.0072843862630731868 -0.0023768002562525679 0 -0.0074533559956761431 -0.002492488090015598 0 -0.0073971514233776786 -0.0022259780117401423 0 -0.0074533559956761431 -0.002492488090015598 0 -0.0078682662521396083 -0.0023356298485293814 0 -0.0077190628013939239 -0.0025531239281128093 0 -0.0078682662521396083 -0.0023356298485293814 0 -0.0077190628013939239 -0.0025531239281128093 0 -0.0080374761536915265 -0.0026409319766415723 0 -0.0075691146154572477 -0.0027477658507851339 0 -0.0077190628013939239 -0.0025531239281128093 0 -0.0080374761536915265 -0.0026409319766415723 0 -0.008109137823603332 4.0772229006302022e-05 0 -0.0088937944408400676 5.7451064310582334e-05 0 -0.0085699151479652364 0.0026011234120714693 0 -0.0098911583786323847 0.002812311984308685 0 -0.0097757294797555499 0.0024745846321940082 0 -0.0098911583786323847 0.002812311984308685 0 -0.0097757294797555499 0.0024745846321940082 0 -0.010454498994067489 0.0025879093015575044 0 -0.0088937944408400676 5.7451064310582334e-05 0 -0.010282410332248536 -0.0013349996179981742 0 -0.010569560202886583 -0.003773246158849513 0 -0.011034428916251962 -0.0035772624045998795 0 -0.011293137554943685 -0.0039255240384076656 0 -0.0078682662521396083 -0.0023356298485293814 0 -0.0080374761536915265 -0.0026409319766415723 0 -0.0083919384257293249 -0.0025209002477456564 0 -0.0091862655657533043 -0.0033167892837375427 0 -0.010282410332248536 -0.0013349996179981742 0 -0.011034428916251962 -0.0035772624045998795 0 -0.011301526140038883 -0.0036035345254880292 0 -0.011293137554943685 -0.0039255240384076656 0 -0.011575697245298031 -0.0035240759573963621 0 -0.011301526140038883 -0.0036035345254880292 0 -0.011493870737988379 -0.0038349971834413942 0 -0.011301526140038883 -0.0036035345254880292 0 -0.011493870737988379 -0.0038349971834413942 0 -0.011293137554943685 -0.0039255240384076656 0 -0.010876274928189713 0.0025709743408555614 0 -0.010869471263183515 0.0029321025576001273 0 -0.010454498994067489 0.0025879093015575044 0 -0.011181159532571313 -0.00061003412553917711 0 -0.010282410332248536 -0.0013349996179981742 0 -0.0098911583786323847 0.002812311984308685 0 -0.010553758026294099 0.0028785817475456658 0 -0.010454498994067489 0.0025879093015575044 0 -0.010869471263183515 0.0029321025576001273 0 -0.010553758026294099 0.0028785817475456658 0 -0.010454498994067489 0.0025879093015575044 0 -0.010808612709712269 0.0021512909180088045 0 -0.0097757294797555499 0.0024745846321940082 0 -0.010454498994067489 0.0025879093015575044 0 -0.010876274928189713 0.0025709743408555614 0 -0.010808612709712269 0.0021512909180088045 0 -0.010454498994067489 0.0025879093015575044 0 -0.011455508590757453 -0.0029101492807861451 0 -0.011274713362871759 -0.0032936867950603974 0 -0.011126513454610607 -0.0026557792976786465 0 -0.011709771551992956 -0.0032908369490524535 0 -0.011455508590757453 -0.0029101492807861451 0 -0.011274713362871759 -0.0032936867950603974 0 -0.011575697245298031 -0.0035240759573963621 0 -0.011301526140038883 -0.0036035345254880292 0 -0.011274713362871759 -0.0032936867950603974 0 -0.011034428916251962 -0.0035772624045998795 0 -0.011301526140038883 -0.0036035345254880292 0 -0.011274713362871759 -0.0032936867950603974 0 -0.010569560202886583 -0.003773246158849513 0 -0.011034428916251962 -0.0035772624045998795 0 -0.010850136610547855 -0.0031307728778360491 0 -0.011034428916251962 -0.0035772624045998795 0 -0.011274713362871759 -0.0032936867950603974 0 -0.010850136610547855 -0.0031307728778360491 0 -0.010850136610547855 -0.0031307728778360491 0 -0.011126513454610607 -0.0026557792976786465 0 -0.010684212946585827 -0.0026160598586761731 0 -0.011274713362871759 -0.0032936867950603974 0 -0.010850136610547855 -0.0031307728778360491 0 -0.011126513454610607 -0.0026557792976786465 0 -0.010684212946585827 -0.0026160598586761731 0 -0.010103166389950733 -0.0023851339508265683 0 -0.010284641189558137 -0.003014006910196865 0 -0.010103166389950733 -0.0023851339508265683 0 -0.010284641189558137 -0.003014006910196865 0 -0.0097949312533857063 -0.0027299263256395367 0 -0.010850136610547855 -0.0031307728778360491 0 -0.010684212946585827 -0.0026160598586761731 0 -0.010284641189558137 -0.003014006910196865 0 -0.010569560202886583 -0.003773246158849513 0 -0.010850136610547855 -0.0031307728778360491 0 -0.010284641189558137 -0.003014006910196865 0 -0.0091862655657533043 -0.0033167892837375427 0 -0.0083656253318509875 -0.0028155640076555654 0 -0.010569560202886583 -0.003773246158849513 0 -0.010284641189558137 -0.003014006910196865 0 -0.0093719548043499062 -0.0035412995338480148 0 -0.010284641189558137 -0.003014006910196865 0 -0.0093719548043499062 -0.0035412995338480148 0 -0.0097949312533857063 -0.0027299263256395367 0 -0.0093719548043499062 -0.0035412995338480148 0 -0.0092271789092932838 -0.0026312590608929972 0 -0.0097949312533857063 -0.0027299263256395367 0 -0.0093719548043499062 -0.0035412995338480148 0 -0.0092271789092932838 -0.0026312590608929972 0 -0.0083615479935436245 -0.0022972835918863514 0 -0.010103166389950733 -0.0023851339508265683 0 -0.0097949312533857063 -0.0027299263256395367 0 -0.0093446605603338673 -0.0020435099794546283 0 -0.0092271789092932838 -0.0026312590608929972 0 -0.0097949312533857063 -0.0027299263256395367 0 -0.0093446605603338673 -0.0020435099794546283 0 -0.0092271789092932838 -0.0026312590608929972 0 -0.0093446605603338673 -0.0020435099794546283 0 -0.0083615479935436245 -0.0022972835918863514 0 -0.010532283531667115 -0.0026775559548068055 0 -0.010645090532100996 -0.0023153808909182664 0 -0.010794365374319782 -0.0022498604051016486 0 -0.010103166389950733 -0.0023851339508265683 0 -0.0093446605603338673 -0.0020435099794546283 0 -0.0094325274439995103 -0.0018618335698196227 0 -0.010532283531667115 -0.0026775559548068055 0 -0.010645090532100996 -0.0023153808909182664 0 -0.010326465317551057 -0.0023923424557132584 0 -0.010549680245254855 -0.002103357552856787 0 -0.010645090532100996 -0.0023153808909182664 0 -0.010326465317551057 -0.0023923424557132584 0 -0.010549680245254855 -0.002103357552856787 0 -0.010645090532100996 -0.0023153808909182664 0 -0.010760289710868802 -0.0021898042392538811 0 -0.010760289710868802 -0.0021898042392538811 0 -0.010794365374319782 -0.0022498604051016486 0 -0.011039142110409969 -0.0021689552866108962 0 -0.010645090532100996 -0.0023153808909182664 0 -0.010760289710868802 -0.0021898042392538811 0 -0.010794365374319782 -0.0022498604051016486 0 -0.010115520946377425 -0.00230531771212821 0 -0.010612025347597099 -0.0022451345256035891 0 -0.010684212946585827 -0.0026160598586761731 0 -0.010103166389950733 -0.0023851339508265683 0 -0.010794365374319782 -0.0022498604051016486 0 -0.010103166389950733 -0.0023851339508265683 0 -0.0094325274439995103 -0.0018618335698196227 0 -0.010794365374319782 -0.0022498604051016486 0 -0.011126513454610607 -0.0026557792976786465 0 -0.010794365374319782 -0.0022498604051016486 0 -0.011211046028412127 -0.0023139495971465449 0 -0.011126513454610607 -0.0026557792976786465 0 -0.010684212946585827 -0.0026160598586761731 0 -0.010794365374319782 -0.0022498604051016486 0 -0.010794365374319782 -0.0022498604051016486 0 -0.011211046028412127 -0.0023139495971465449 0 -0.011039142110409969 -0.0021689552866108962 0 -0.011559393677553084 -0.002307455750017535 0 -0.011211046028412127 -0.0023139495971465449 0 -0.011481785846355185 -0.0025357381329234588 0 -0.011559393677553084 -0.002307455750017535 0 -0.011211046028412127 -0.0023139495971465449 0 -0.011384311102073047 -0.0021802884297417537 0 -0.011126513454610607 -0.0026557792976786465 0 -0.011211046028412127 -0.0023139495971465449 0 -0.011481785846355185 -0.0025357381329234588 0 -0.011455508590757453 -0.0029101492807861451 0 -0.011126513454610607 -0.0026557792976786465 0 -0.011481785846355185 -0.0025357381329234588 0 -0.0064369851103516602 -0.0019081212318884321 0 -0.0068816109611162298 -0.002061841465392459 0 -0.0073905264331917677 -0.0016488075896419576 0 -0.0072893425416454844 -0.0032953324932183032 0 -0.0084666580627049126 -0.0025063235750973694 0 -0.0062835515736302987 -0.0026774258681110863 0 -0.0084666580627049126 -0.0025063235750973694 0 -0.0064405126130462195 -0.0034798765953135266 0 -0.0062776470329032304 -0.0030129485928793928 0 -0.0080696156029902207 -0.0029332819444330919 0 -0.0064369851103516602 -0.0019081212318884321 0 -0.0065356651950910687 -0.0021049867344547419 0 -0.0066471258117627458 -0.0020695548623213219 0 -0.0064369851103516602 -0.0019081212318884321 0 -0.0066471258117627458 -0.0020695548623213219 0 -0.0068816109611162298 -0.002061841465392459 0 -0.0055142854789361562 -0.0028812862630240776 0 -0.0062835515736302987 -0.0026774258681110863 0 -0.0049667786099970813 -0.0039054021298245336 0 -0.0054736512622601419 -0.0033972218722605929 0 -0.0064405126130462195 -0.0034798765953135266 0 -0.0054736512622601419 -0.0033972218722605929 0 -0.0064405126130462195 -0.0034798765953135266 0 -0.0062776470329032304 -0.0030129485928793928 0 -0.0064369851103516602 -0.0019081212318884321 0 -0.0063216549660732096 -0.002092425274777804 0 -0.0065356651950910687 -0.0021049867344547419 0 -0.0059868007716459603 -0.001880852861329726 0 -0.0064369851103516602 -0.0019081212318884321 0 -0.0063216549660732096 -0.002092425274777804 0 -0.0065719760538022077 -0.0022512023850842682 0 -0.0065356651950910687 -0.0021049867344547419 0 -0.0067316040762138958 -0.0021828540526241452 0 -0.0065719760538022077 -0.0022512023850842682 0 -0.0063216549660732096 -0.002092425274777804 0 -0.0065356651950910687 -0.0021049867344547419 0 -0.0066471258117627458 -0.0020695548623213219 0 -0.0067316040762138958 -0.0021828540526241452 0 -0.0068816109611162298 -0.002061841465392459 0 -0.0065356651950910687 -0.0021049867344547419 0 -0.0066471258117627458 -0.0020695548623213219 0 -0.0067316040762138958 -0.0021828540526241452 0 -0.0068026324901664537 -0.0023210857516774426 0 -0.0065719760538022077 -0.0022512023850842682 0 -0.0067316040762138958 -0.0021828540526241452 0 -0.0068026324901664537 -0.0023210857516774426 0 -0.0071402139604718803 -0.0022806357920614473 0 -0.0069827674928002311 -0.0022359493063818783 0 -0.0068026324901664537 -0.0023210857516774426 0 -0.0067316040762138958 -0.0021828540526241452 0 -0.0069827674928002311 -0.0022359493063818783 0 -0.0071402139604718803 -0.0022806357920614473 0 -0.0069827674928002311 -0.0022359493063818783 0 -0.0072338103964267857 -0.0023013510185709925 0 -0.0067316040762138958 -0.0021828540526241452 0 -0.0069827674928002311 -0.0022359493063818783 0 -0.0068816109611162298 -0.002061841465392459 0 -0.0072843862630731868 -0.0023768002562525679 0 -0.0073971514233776786 -0.0022259780117401423 0 -0.0071402139604718803 -0.0022806357920614473 0 -0.0083656253318509875 -0.0028155640076555654 0 -0.0073200571835413918 -0.0023634366410773895 0 -0.0073971514233776786 -0.0022259780117401423 0 -0.0071402139604718803 -0.0022806357920614473 0 -0.0072338103964267857 -0.0023013510185709925 0 -0.0093446605603338673 -0.0020435099794546283 0 -0.0083615479935436245 -0.0022972835918863514 0 -0.0073905264331917677 -0.0016488075896419576 0 -0.0090568622749721012 -0.0018984628492781986 0 -0.0084666580627049126 -0.0025063235750973694 0 -0.0093719548043499062 -0.0035412995338480148 0 -0.0083615479935436245 -0.0022972835918863514 0 -0.0072338103964267857 -0.0023013510185709925 0 -0.0083615479935436245 -0.0022972835918863514 0 -0.0072338103964267857 -0.0023013510185709925 0 -0.0073905264331917677 -0.0016488075896419576 0 -0.0069827674928002311 -0.0022359493063818783 0 -0.0068816109611162298 -0.002061841465392459 0 -0.0072338103964267857 -0.0023013510185709925 0 -0.0068816109611162298 -0.002061841465392459 0 -0.0072338103964267857 -0.0023013510185709925 0 -0.0073905264331917677 -0.0016488075896419576 0 -0.0094775270601075989 -0.0026956551710787696 0 -0.009248338031463332 -0.0021329430468746244 0 -0.008909566914423352 -0.0028830172297079713 0 -0.0096556931804359456 -0.0032130548651193381 0 -0.0094775270601075989 -0.0026956551710787696 0 -0.008909566914423352 -0.0028830172297079713 0 -0.0096556931804359456 -0.0032130548651193381 0 -0.0094775270601075989 -0.0026956551710787696 0 -0.0097864341382694776 -0.0027551406277789726 0 -0.0094775270601075989 -0.0026956551710787696 0 -0.0097864341382694776 -0.0027551406277789726 0 -0.0098427539910527634 -0.0024369912188510578 0 -0.010532283531667115 -0.0026775559548068055 0 -0.0096556931804359456 -0.0032130548651193381 0 -0.010153450708263791 -0.0027000063773317882 0 -0.010115520946377425 -0.00230531771212821 0 -0.0084666580627049126 -0.0025063235750973694 0 -0.0093446605603338673 -0.0020435099794546283 0 -0.0094325274439995103 -0.0018618335698196227 0 -0.0087056730095927699 -0.0020669934059456582 0 -0.0096556931804359456 -0.0032130548651193381 0 -0.0097864341382694776 -0.0027551406277789726 0 -0.010153450708263791 -0.0027000063773317882 0 -0.0097864341382694776 -0.0027551406277789726 0 -0.010153450708263791 -0.0027000063773317882 0 -0.0098427539910527634 -0.0024369912188510578 0 -0.010153450708263791 -0.0027000063773317882 0 -0.010326465317551057 -0.0023923424557132584 0 -0.0098427539910527634 -0.0024369912188510578 0 -0.010532283531667115 -0.0026775559548068055 0 -0.010153450708263791 -0.0027000063773317882 0 -0.010326465317551057 -0.0023923424557132584 0 -0.010549680245254855 -0.002103357552856787 0 -0.010326465317551057 -0.0023923424557132584 0 -0.0098359568298036649 -0.0019631846642884734 0 -0.010326465317551057 -0.0023923424557132584 0 -0.0098427539910527634 -0.0024369912188510578 0 -0.0098359568298036649 -0.0019631846642884734 0 -0.0094775270601075989 -0.0026956551710787696 0 -0.0098427539910527634 -0.0024369912188510578 0 -0.009248338031463332 -0.0021329430468746244 0 -0.0098427539910527634 -0.0024369912188510578 0 -0.0098359568298036649 -0.0019631846642884734 0 -0.009248338031463332 -0.0021329430468746244 0 -0.009248338031463332 -0.0021329430468746244 0 -0.0086336036044442586 -0.0023261983570955634 0 -0.0084910202592538599 -0.0017264724174903595 0 -0.009248338031463332 -0.0021329430468746244 0 -0.0082867537759432515 -0.0022117085781435761 0 -0.008909566914423352 -0.0028830172297079713 0 -0.0091087161763746451 -0.0021469455556816334 0 -0.008566309128960092 -0.0022351614252437038 0 -0.0081311093957106232 -0.0034207961667361599 0 -0.0096556931804359456 -0.0032130548651193381 0 -0.008909566914423352 -0.0028830172297079713 0 -0.0082867537759432515 -0.0022117085781435761 0 -0.0082977797806002562 -0.0028126874092756051 0 -0.008909566914423352 -0.0028830172297079713 0 -0.0081311093957106232 -0.0034207961667361599 0 -0.0082977797806002562 -0.0028126874092756051 0 -0.008909566914423352 -0.0028830172297079713 0 -0.0065005209803648354 -0.0032145017697790016 0 -0.0081311093957106232 -0.0034207961667361599 0 -0.0074025690068358707 -0.0029394240821226463 0 -0.0071290570616328987 -0.0023648794322585266 0 -0.0082867537759432515 -0.0022117085781435761 0 -0.0078408600762880348 -0.0027658588618780251 0 -0.0081311093957106232 -0.0034207961667361599 0 -0.0074025690068358707 -0.0029394240821226463 0 -0.0078408600762880348 -0.0027658588618780251 0 -0.0081311093957106232 -0.0034207961667361599 0 -0.0082977797806002562 -0.0028126874092756051 0 -0.0078408600762880348 -0.0027658588618780251 0 -0.0082867537759432515 -0.0022117085781435761 0 -0.0082977797806002562 -0.0028126874092756051 0 -0.0078408600762880348 -0.0027658588618780251 0 -0.0071290570616328987 -0.0023648794322585266 0 -0.0074025690068358707 -0.0029394240821226463 0 -0.0078408600762880348 -0.0027658588618780251 0 -0.0079980043782074406 -0.0025021653879649685 0 -0.0086336036044442586 -0.0023261983570955634 0 -0.0084910202592538599 -0.0017264724174903595 0 -0.007042704802765103 -0.0029293353252321198 0 -0.008566309128960092 -0.0022351614252437038 0 -0.007042704802765103 -0.0029293353252321198 0 -0.0073911795265397331 -0.0031597968771211811 0 -0.0064103295192571704 -0.0041749798500146313 0 -0.0062403813090396321 -0.0044674692632461046 0 -0.0065307608798914002 -0.0044547345345666133 0 -0.0062403813090396321 -0.0044674692632461046 0 -0.0063594991297521988 -0.0047652515337280764 0 -0.0065307608798914002 -0.0044547345345666133 0 -0.0062403813090396321 -0.0044674692632461046 0 -0.0063594991297521988 -0.0047652515337280764 0 -0.0060796090009436667 -0.0047781419487216295 0 -0.0063594991297521988 -0.0047652515337280764 0 -0.0060796090009436667 -0.0047781419487216295 0 -0.0062297266308445802 -0.0049104027681097472 0 -0.0073911795265397331 -0.0031597968771211811 0 -0.0073745196247081545 -0.0028798794999345743 0 -0.009248338031463332 -0.0021329430468746244 0 -0.0084910202592538599 -0.0017264724174903595 0 -0.0091949191269306146 -0.0015701844226278037 0 -0.0084910202592538599 -0.0017264724174903595 0 -0.0089726210850022779 -0.00097868257869787286 0 -0.0091949191269306146 -0.0015701844226278037 0 -0.0098359568298036649 -0.0019631846642884734 0 -0.009248338031463332 -0.0021329430468746244 0 -0.0091949191269306146 -0.0015701844226278037 0 -0.0098359568298036649 -0.0019631846642884734 0 -0.0091949191269306146 -0.0015701844226278037 0 -0.0099303976009131913 -0.0011000963509527847 0 -0.010517905615714531 -0.0021895160485997261 0 -0.010548009627273508 -0.0013941759068879264 0 -0.010549680245254855 -0.002103357552856787 0 -0.0098359568298036649 -0.0019631846642884734 0 -0.0099303976009131913 -0.0011000963509527847 0 -0.0089726210850022779 -0.00097868257869787286 0 -0.0091949191269306146 -0.0015701844226278037 0 -0.0099303976009131913 -0.0011000963509527847 0 -0.0073745196247081545 -0.0028798794999345743 0 -0.0088632097036126303 -0.0028663953945199487 0 -0.010548009627273508 -0.0013941759068879264 0 -0.0088632097036126303 -0.0028663953945199487 0 -0.0089726210850022779 -0.00097868257869787286 0 -0.0099303976009131913 -0.0011000963509527847 0 -0.0094309466536664621 -0.00026356531791015046 0 -0.010821737868902767 -0.0021976196213378991 0 -0.010782648916868007 -0.0024394551573826582 0 -0.011021011765240113 -0.0025305185157370302 0 -0.010786740789105289 -0.0026307240057412539 0 -0.011021011765240113 -0.0025305185157370302 0 -0.010859208535494665 -0.0028483538974364664 0 -0.010782648916868007 -0.0024394551573826582 0 -0.010786740789105289 -0.0026307240057412539 0 -0.011021011765240113 -0.0025305185157370302 0 -0.0088632097036126303 -0.0028663953945199487 0 -0.0090819544623739912 -0.0037115416019659164 0 -0.0083478233775606814 -0.0039684144267645811 0 -0.0082669030397267904 -0.00381954702801106 0 -0.0085991095627720743 -0.0035727261109609167 0 -0.0059581884051347527 -0.00504626342358619 0 -0.0060118514747532449 -0.0051431676941788677 0 -0.0061328548459595577 -0.0050646823902723796 0 -0.0088632097036126303 -0.0028663953945199487 0 -0.0068495859712634256 -0.0046595638764853776 0 -0.0061328548459595577 -0.0050646823902723796 0 -0.0063025761487358984 -0.0051156035514385578 0 -0.0060415219228572379 -0.0052229608499627326 0 -0.0060097253516950338 -0.0051569523626198667 0 -0.0061328548459595577 -0.0050646823902723796 0 -0.0060415219228572379 -0.0052229608499627326 0 -0.0062732547616271006 -0.0052356313841146257 0 -0.0063025761487358984 -0.0051156035514385578 0 -0.0058888775813374129 -0.0055037849058502111 0 -0.0061704969425947194 -0.0051798632301877029 0 -0.0062755701626704052 -0.0052612671367382848 0 -0.0068495859712634256 -0.0046595638764853776 0 -0.0058961113954336813 -0.0052575700497955666 0 -0.0062732547616271006 -0.0052356313841146257 0 -0.0063762634493220475 -0.005222794430628756 0 -0.0063227877587922372 -0.0053801780475017909 0 -0.0063025761487358984 -0.0051156035514385578 0 -0.0063564501597830761 -0.0049722828817923576 0 -0.006441406081964478 -0.0051138934874671365 0 -0.0062732547616271006 -0.0052356313841146257 0 -0.0063762634493220475 -0.005222794430628756 0 -0.0063025761487358984 -0.0051156035514385578 0 -0.0063762634493220475 -0.005222794430628756 0 -0.0063025761487358984 -0.0051156035514385578 0 -0.006441406081964478 -0.0051138934874671365 0 -0.0063025761487358984 -0.0051156035514385578 0 -0.0063564501597830761 -0.0049722828817923576 0 -0.0062297266308445802 -0.0049104027681097472 0 -0.0061328548459595577 -0.0050646823902723796 0 -0.0063025761487358984 -0.0051156035514385578 0 -0.0062297266308445802 -0.0049104027681097472 0 -0.0063594991297521988 -0.0047652515337280764 0 -0.0063564501597830761 -0.0049722828817923576 0 -0.0062297266308445802 -0.0049104027681097472 0 -0.0060796090009436667 -0.0047781419487216295 0 -0.0061328548459595577 -0.0050646823902723796 0 -0.0062297266308445802 -0.0049104027681097472 0 -0.0060796090009436667 -0.0047781419487216295 0 -0.0059581884051347527 -0.00504626342358619 0 -0.0061328548459595577 -0.0050646823902723796 0 -0.011675826853046601 -0.0019840177035974895 0 -0.011404833768338089 -0.0020301196744883874 0 -0.01154895031828944 -0.0018913427644459756 0 -0.011675826853046601 -0.0019840177035974895 0 -0.011639829557375006 -0.0020684304908038533 0 -0.011404833768338089 -0.0020301196744883874 0 -0.011639829557375006 -0.0020684304908038533 0 -0.011384311102073047 -0.0021802884297417537 0 -0.011404833768338089 -0.0020301196744883874 0 -0.011643699534637706 -0.0021824185881023791 0 -0.011639829557375006 -0.0020684304908038533 0 -0.011384311102073047 -0.0021802884297417537 0 -0.011643699534637706 -0.0021824185881023791 0 -0.011559393677553084 -0.002307455750017535 0 -0.011384311102073047 -0.0021802884297417537 0 -0.011211046028412127 -0.0023139495971465449 0 -0.011384311102073047 -0.0021802884297417537 0 -0.011039142110409969 -0.0021689552866108962 0 -0.011384311102073047 -0.0021802884297417537 0 -0.011039142110409969 -0.0021689552866108962 0 -0.011404833768338089 -0.0020301196744883874 0 -0.011039142110409969 -0.0021689552866108962 0 -0.011404833768338089 -0.0020301196744883874 0 -0.011071793950013561 -0.0019102193947530786 0 -0.011404833768338089 -0.0020301196744883874 0 -0.011071793950013561 -0.0019102193947530786 0 -0.01154895031828944 -0.0018913427644459756 0 -0.010444673866600633 -0.0022535800770699132 0 -0.010661356531983503 -0.0020919516123391289 0 -0.010647513874038197 -0.0023212842097859242 0 -0.010545140071315738 -0.0022079973638859927 0 -0.010736922930220232 -0.0020504541783228076 0 -0.011039142110409969 -0.0021689552866108962 0 -0.011071793950013561 -0.0019102193947530786 0 -0.010661356531983503 -0.0020919516123391289 0 -0.010760289710868802 -0.0021898042392538811 0 -0.011039142110409969 -0.0021689552866108962 0 -0.010661356531983503 -0.0020919516123391289 0 -0.010549680245254855 -0.002103357552856787 0 -0.010821737868902767 -0.0021976196213378991 0 -0.010661356531983503 -0.0020919516123391289 0 -0.010549680245254855 -0.002103357552856787 0 -0.010760289710868802 -0.0021898042392538811 0 -0.010661356531983503 -0.0020919516123391289 0 -0.010821737868902767 -0.0021976196213378991 0 -0.010661356531983503 -0.0020919516123391289 0 -0.010647513874038197 -0.0023212842097859242 0 -0.010782648916868007 -0.0024394551573826582 0 -0.010647513874038197 -0.0023212842097859242 0 -0.010631133909844478 -0.0025385608646870494 0 -0.010821737868902767 -0.0021976196213378991 0 -0.010782648916868007 -0.0024394551573826582 0 -0.010647513874038197 -0.0023212842097859242 0 -0.010786740789105289 -0.0026307240057412539 0 -0.010631133909844478 -0.0025385608646870494 0 -0.010589990348798144 -0.002796213557603928 0 -0.010782648916868007 -0.0024394551573826582 0 -0.010786740789105289 -0.0026307240057412539 0 -0.010631133909844478 -0.0025385608646870494 0 -0.010631133909844478 -0.0025385608646870494 0 -0.010476719556343375 -0.0026728729432632672 0 -0.010589990348798144 -0.002796213557603928 0 -0.010631133909844478 -0.0025385608646870494 0 -0.010476719556343375 -0.0026728729432632672 0 -0.010461906422633971 -0.0024682502419528592 0 -0.010476719556343375 -0.0026728729432632672 0 -0.010461906422633971 -0.0024682502419528592 0 -0.010319231736091297 -0.0026824398833493841 0 -0.010647513874038197 -0.0023212842097859242 0 -0.010631133909844478 -0.0025385608646870494 0 -0.010461906422633971 -0.0024682502419528592 0 -0.010444673866600633 -0.0022535800770699132 0 -0.010647513874038197 -0.0023212842097859242 0 -0.010461906422633971 -0.0024682502419528592 0 -0.010444673866600633 -0.0022535800770699132 0 -0.010461906422633971 -0.0024682502419528592 0 -0.010263175603712362 -0.0024248651233828955 0 -0.011071793950013561 -0.0019102193947530786 0 -0.01151826030989235 -0.0017678307018774463 0 -0.01154895031828944 -0.0018913427644459756 0 -0.010545140071315738 -0.0022079973638859927 0 -0.012387665996022765 -0.0020769182867154084 0 -0.012387665996022765 -0.0020769182867154084 0 -0.012092552999163415 -0.0018429451821279231 0 -0.010461906422633971 -0.0024682502419528592 0 -0.010263175603712362 -0.0024248651233828955 0 -0.010319231736091297 -0.0026824398833493841 0 -0.015120502016814646 -0.0011930297189313127 0 -0.015582244853723407 -0.0027124212571518701 0 -0.014834326735025005 -0.0022901049471356323 0 -0.012387665996022765 -0.0020769182867154084 0 -0.012969855005829589 -0.0027011210456776387 0 -0.012387665996022765 -0.0020769182867154084 0 -0.013163274914615214 -0.0020623447201340958 0 -0.015120502016814646 -0.0011930297189313127 0 -0.014834326735025005 -0.0022901049471356323 0 -0.01400859362524425 -0.002236938058972245 0 -0.014834326735025005 -0.0022901049471356323 0 -0.01400859362524425 -0.002236938058972245 0 -0.014557139412586262 -0.0029958569165324297 0 -0.015582244853723407 -0.0027124212571518701 0 -0.014834326735025005 -0.0022901049471356323 0 -0.014557139412586262 -0.0029958569165324297 0 -0.011615918267307068 -0.0018942417288480002 0 -0.012017662136533203 -0.0020858919899907264 0 -0.011813100563760483 -0.0019741766628438985 0 -0.011615918267307068 -0.0018942417288480002 0 -0.011813100563760483 -0.0019741766628438985 0 -0.01154895031828944 -0.0018913427644459756 0 -0.011675826853046601 -0.0019840177035974895 0 -0.011813100563760483 -0.0019741766628438985 0 -0.01154895031828944 -0.0018913427644459756 0 -0.013800119704008709 -0.0050348253190978329 0 -0.014799558159497541 -0.0048347239106319899 0 -0.01451715968256812 -0.0040139985331929667 0 -0.013800119704008709 -0.0050348253190978329 0 -0.014799558159497541 -0.0048347239106319899 0 -0.014408813149781066 -0.005557121481204989 0 -0.015582244853723407 -0.0027124212571518701 0 -0.01451715968256812 -0.0040139985331929667 0 -0.014557139412586262 -0.0029958569165324297 0 -0.012864824255077813 -0.0032802543324040351 0 -0.01451715968256812 -0.0040139985331929667 0 -0.014557139412586262 -0.0029958569165324297 0 -0.012969855005829589 -0.0027011210456776387 0 -0.013257613491113374 -0.0034207421517566889 0 -0.010476719556343375 -0.0026728729432632672 0 -0.010319231736091297 -0.0026824398833493841 0 -0.010375844613675762 -0.0029558527417053566 0 -0.015582244853723407 -0.0027124212571518701 0 -0.01451715968256812 -0.0040139985331929667 0 -0.016067719749436504 -0.0042978995673542695 0 -0.014799558159497541 -0.0048347239106319899 0 -0.016067719749436504 -0.0042978995673542695 0 -0.015351915899809863 -0.0053737141284961347 0 -0.014799558159497541 -0.0048347239106319899 0 -0.01451715968256812 -0.0040139985331929667 0 -0.016067719749436504 -0.0042978995673542695 0 -0.016067719749436504 -0.0042978995673542695 0 -0.015938089695863904 -0.0055036697272595539 0 -0.015351915899809863 -0.0053737141284961347 0 -0.013257613491113374 -0.0034207421517566889 0 -0.012345296027038622 -0.0059489451148429821 0 -0.010375844613675762 -0.0029558527417053566 0 -0.010517920961700164 -0.0030416203502241107 0 -0.010589990348798144 -0.002796213557603928 0 -0.010517920961700164 -0.0030416203502241107 0 -0.010675506556175924 -0.0030265358711670659 0 -0.010474060465943928 -0.003230009680585687 0 -0.010375844613675762 -0.0029558527417053566 0 -0.010517920961700164 -0.0030416203502241107 0 -0.010474060465943928 -0.003230009680585687 0 -0.010517920961700164 -0.0030416203502241107 0 -0.010589990348798144 -0.002796213557603928 0 -0.010675506556175924 -0.0030265358711670659 0 -0.010476719556343375 -0.0026728729432632672 0 -0.010375844613675762 -0.0029558527417053566 0 -0.010589990348798144 -0.002796213557603928 0 -0.010589990348798144 -0.002796213557603928 0 -0.010675506556175924 -0.0030265358711670659 0 -0.010859208535494665 -0.0028483538974364664 0 -0.010786740789105289 -0.0026307240057412539 0 -0.010589990348798144 -0.002796213557603928 0 -0.010859208535494665 -0.0028483538974364664 0 -0.0098327943564534923 -0.0036360603648265153 0 -0.0090819544623739912 -0.0037115416019659164 0 -0.0085957568493900249 -0.0046952075008058949 0 -0.0085820222433880752 -0.0047412124114941849 0 -0.0085080297249600107 -0.0048557029972805246 0 -0.0085957568493900249 -0.0046952075008058949 0 -0.0085820222433880752 -0.0047412124114941849 0 -0.0086785665219544211 -0.0046390479577960416 0 -0.0068325115233281103 -0.005521326298307338 0 -0.0071115538596115534 -0.0052048457169639973 0 -0.005712397877000887 -0.0058904442372442129 0 -0.0059063337821889461 -0.0059293138659045931 0 -0.006000742314738506 -0.0058181281746833664 0 -0.005712397877000887 -0.0058904442372442129 0 -0.0059063337821889461 -0.0059293138659045931 0 -0.0058507058740108796 -0.0061735489228240282 0 -0.0059063337821889461 -0.0059293138659045931 0 -0.0058507058740108796 -0.0061735489228240282 0 -0.0059506897004952142 -0.0060665130161465944 0 -0.005712397877000887 -0.0058904442372442129 0 -0.0058507058740108796 -0.0061735489228240282 0 -0.0054861987309384229 -0.0061857460325560401 0 -0.0058507058740108796 -0.0061735489228240282 0 -0.0053659219422522225 -0.0066109428329763145 0 -0.0054861987309384229 -0.0061857460325560401 0 -0.0059244170600942433 -0.0062244735502215492 0 -0.0063663019454645699 -0.0065410260646652785 0 -0.0059395383390391998 -0.0071404061224568591 0 -0.0053659219422522225 -0.0066109428329763145 0 -0.0051367545197488649 -0.0078692228143464361 0 -0.0058507058740108796 -0.0061735489228240282 0 -0.0059395383390391998 -0.0071404061224568591 0 -0.0068645127733798052 -0.0070591569951624564 0 -0.0059395383390391998 -0.0071404061224568591 0 -0.0068645127733798052 -0.0070591569951624564 0 -0.0064560330086700195 -0.007959567096475495 0 -0.0058507058740108796 -0.0061735489228240282 0 -0.0059395383390391998 -0.0071404061224568591 0 -0.0053659219422522225 -0.0066109428329763145 0 -0.014639812408097207 -0.0074709482721395564 0 -0.014371510416441458 -0.0077103675415609585 0 -0.01480313061291927 -0.0081387494631989243 0 -0.012345296027038622 -0.0059489451148429821 0 -0.009624300396017341 -0.0081926687966702334 0 -0.0048414037973429887 -0.0062256693557497253 0 -0.0053659219422522225 -0.0066109428329763145 0 -0.0051367545197488649 -0.0078692228143464361 0 -0.010375844613675762 -0.0029558527417053566 0 -0.010443385209483713 -0.003253110537350105 0 -0.010474060465943928 -0.003230009680585687 0 -0.0048414037973429887 -0.0062256693557497253 0 -0.0053659219422522225 -0.0066109428329763145 0 -0.0049823497177342111 -0.0061494181921382014 0 -0.0098327943564534923 -0.0036360603648265153 0 -0.0095545467955592787 -0.0056615410641724399 0 -0.012345296027038622 -0.0059489451148429821 0 -0.0095545467955592787 -0.0056615410641724399 0 -0.0053659219422522225 -0.0066109428329763145 0 -0.0054861987309384229 -0.0061857460325560401 0 -0.0049823497177342111 -0.0061494181921382014 0 -0.0068325115233281103 -0.005521326298307338 0 -0.0095545467955592787 -0.0056615410641724399 0 -0.005712397877000887 -0.0058904442372442129 0 -0.0054861987309384229 -0.0061857460325560401 0 -0.0049823497177342111 -0.0061494181921382014 0 -0.016067719749436504 -0.0042978995673542695 0 -0.016536853265375021 -0.005934101473162751 0 -0.015938089695863904 -0.0055036697272595539 0 -0.016536853265375021 -0.005934101473162751 0 -0.015938089695863904 -0.0055036697272595539 0 -0.015936401137323884 -0.0060040784721534565 0 -0.015938089695863904 -0.0055036697272595539 0 -0.01561811534063175 -0.006010533015414047 0 -0.015936401137323884 -0.0060040784721534565 0 -0.015351915899809863 -0.0053737141284961347 0 -0.01561811534063175 -0.006010533015414047 0 -0.014973116327352045 -0.0060376437666740928 0 -0.015938089695863904 -0.0055036697272595539 0 -0.015351915899809863 -0.0053737141284961347 0 -0.01561811534063175 -0.006010533015414047 0 -0.01561811534063175 -0.006010533015414047 0 -0.015266605463623489 -0.0063211634134051819 0 -0.015377466263077632 -0.0067246495381358771 0 -0.01561811534063175 -0.006010533015414047 0 -0.015936401137323884 -0.0060040784721534565 0 -0.015377466263077632 -0.0067246495381358771 0 -0.01561811534063175 -0.006010533015414047 0 -0.015266605463623489 -0.0063211634134051819 0 -0.014973116327352045 -0.0060376437666740928 0 -0.015266605463623489 -0.0063211634134051819 0 -0.015377466263077632 -0.0067246495381358771 0 -0.015093384816742973 -0.006484465925636341 0 -0.015266605463623489 -0.0063211634134051819 0 -0.015093384816742973 -0.006484465925636341 0 -0.014973116327352045 -0.0060376437666740928 0 -0.012345296027038622 -0.0059489451148429821 0 -0.015212211870300842 -0.0069757479439258767 0 -0.014548258229019071 -0.0074099634040682757 0 -0.014401384599753977 -0.0076222381588557462 0 -0.014356240538371038 -0.0076161873825226619 0 -0.012345296027038622 -0.0059489451148429821 0 -0.014430156610545553 -0.0075227849958044756 0 -0.016536853265375021 -0.005934101473162751 0 -0.015936401137323884 -0.0060040784721534565 0 -0.015377466263077632 -0.0067246495381358771 0 -0.014371510416441458 -0.0077103675415609585 0 -0.014154582981224692 -0.0078021663204634059 0 -0.014444442647375684 -0.0081233332654013866 0 -0.014371510416441458 -0.0077103675415609585 0 -0.014444442647375684 -0.0081233332654013866 0 -0.01480313061291927 -0.0081387494631989243 0 -0.014401384599753977 -0.0076222381588557462 0 -0.014356240538371038 -0.0076161873825226619 0 -0.014154582981224692 -0.0078021663204634059 0 -0.015377466263077632 -0.0067246495381358771 0 -0.014733544502803052 -0.0066403687660247582 0 -0.01401417805434583 -0.0076651508321963404 0 -0.015377466263077632 -0.0067246495381358771 0 -0.014733544502803052 -0.0066403687660247582 0 -0.015093384816742973 -0.006484465925636341 0 -0.015212211870300842 -0.0069757479439258767 0 -0.013970815761635939 -0.0077008893694191574 0 -0.014430156610545553 -0.0075227849958044756 0 -0.014152882035456858 -0.0078135813732851701 0 -0.014356240538371038 -0.0076161873825226619 0 -0.014154582981224692 -0.0078021663204634059 0 -0.01401417805434583 -0.0076651508321963404 0 -0.014154582981224692 -0.0078021663204634059 0 -0.01401417805434583 -0.0076651508321963404 0 -0.013985208459264327 -0.0081129397187134147 0 -0.01349193998274569 -0.0075233781790856923 0 -0.01401417805434583 -0.0076651508321963404 0 -0.013985208459264327 -0.0081129397187134147 0 -0.013777901047939219 -0.007247398246810372 0 -0.01401417805434583 -0.0076651508321963404 0 -0.014066109441546213 -0.006931486994588754 0 -0.014733544502803052 -0.0066403687660247582 0 -0.014066109441546213 -0.006931486994588754 0 -0.014242328937092322 -0.0063286908355894948 0 -0.013572963788072871 -0.0068551628071650862 0 -0.014066109441546213 -0.006931486994588754 0 -0.014242328937092322 -0.0063286908355894948 0 -0.014733544502803052 -0.0066403687660247582 0 -0.01401417805434583 -0.0076651508321963404 0 -0.014066109441546213 -0.006931486994588754 0 -0.013531538144341913 -0.0060174468901172283 0 -0.014242328937092322 -0.0063286908355894948 0 -0.014408813149781066 -0.005557121481204989 0 -0.014242328937092322 -0.0063286908355894948 0 -0.014973116327352045 -0.0060376437666740928 0 -0.014408813149781066 -0.005557121481204989 0 -0.014733544502803052 -0.0066403687660247582 0 -0.014242328937092322 -0.0063286908355894948 0 -0.014973116327352045 -0.0060376437666740928 0 -0.014733544502803052 -0.0066403687660247582 0 -0.015093384816742973 -0.006484465925636341 0 -0.014973116327352045 -0.0060376437666740928 0 -0.015351915899809863 -0.0053737141284961347 0 -0.014973116327352045 -0.0060376437666740928 0 -0.014408813149781066 -0.005557121481204989 0 -0.014799558159497541 -0.0048347239106319899 0 -0.015351915899809863 -0.0053737141284961347 0 -0.014408813149781066 -0.005557121481204989 0 -0.013531538144341913 -0.0060174468901172283 0 -0.013800119704008709 -0.0050348253190978329 0 -0.014408813149781066 -0.005557121481204989 0 -0.0061376243497255623 -0.005922357833944617 0 -0.0062645608062011013 -0.0058331380928792432 0 -0.0061977808311839272 -0.0060952910943756515 0 -0.0060770512222660805 -0.0058002334612630548 0 -0.0061376243497255623 -0.005922357833944617 0 -0.0062645608062011013 -0.0058331380928792432 0 -0.0060770512222660805 -0.0058002334612630548 0 -0.0061376243497255623 -0.005922357833944617 0 -0.006049509646167653 -0.0058948615894834546 0 -0.0061376243497255623 -0.005922357833944617 0 -0.006049509646167653 -0.0058948615894834546 0 -0.0061011356183542868 -0.0059910185888969849 0 -0.0063628763536684495 -0.0055494416072880189 0 -0.0044547112564268876 -0.0069269918061689471 0 -0.0063047471370809866 -0.0058944164354109247 0 -0.0060793708805218886 -0.0056674782484732577 0 -0.0059354136904091227 -0.006269842015216018 0 -0.0063047471370809866 -0.0058944164354109247 0 -0.0062999289312848658 -0.0056632555101018703 0 -0.0060793708805218886 -0.0056674782484732577 0 -0.0062152076935978722 -0.0053674449435148867 0 -0.0063628763536684495 -0.0055494416072880189 0 -0.0062732547616271006 -0.0052356313841146257 0 -0.0062645608062011013 -0.0058331380928792432 0 -0.0061407911589617765 -0.0055392588468962077 0 -0.0060793708805218886 -0.0056674782484732577 0 -0.0063578704883059797 -0.0054996037685497295 0 -0.0063227877587922372 -0.0053801780475017909 0 -0.0062732547616271006 -0.0052356313841146257 0 -0.0060793708805218886 -0.0056674782484732577 0 -0.0063227877587922372 -0.0053801780475017909 0 -0.0062999289312848658 -0.0056632555101018703 0 -0.0060793708805218886 -0.0056674782484732577 0 -0.0063578704883059797 -0.0054996037685497295 0 -0.0062732547616271006 -0.0052356313841146257 0 -0.0061407911589617765 -0.0055392588468962077 0 -0.0058888775813374129 -0.0055037849058502111 0 -0.0060770512222660805 -0.0058002334612630548 0 -0.0062645608062011013 -0.0058331380928792432 0 -0.0061407911589617765 -0.0055392588468962077 0 -0.0060770512222660805 -0.0058002334612630548 0 -0.0061407911589617765 -0.0055392588468962077 0 -0.0058888775813374129 -0.0055037849058502111 0 -0.006136929996554419 -0.0057927994466190035 0 -0.0062755701626704052 -0.0052612671367382848 0 -0.0060770512222660805 -0.0058002334612630548 0 -0.006065074995126392 -0.0057861533561890917 0 -0.0060534453680406971 -0.0058232938380175141 0 -0.0068495859712634256 -0.0046595638764853776 0 -0.0062755701626704052 -0.0052612671367382848 0 -0.0069784849855342211 -0.0050321416239956073 0 -0.0072693387072074213 -0.0046293365992823568 0 -0.0075106080416692629 -0.0046294182735344778 0 -0.0062755701626704052 -0.0052612671367382848 0 -0.0066235627627981245 -0.0052398584601311129 0 -0.0069784849855342211 -0.0050321416239956073 0 -0.0068862313607339996 -0.0048592298626679957 0 -0.0072693387072074213 -0.0046293365992823568 0 -0.0068495859712634256 -0.0046595638764853776 0 -0.0090819544623739912 -0.0037115416019659164 0 -0.006065074995126392 -0.0057861533561890917 0 -0.006006201283690559 -0.0058269953820214507 0 -0.0060534453680406971 -0.0058232938380175141 0 -0.0072693387072074213 -0.0046293365992823568 0 -0.0075106080416692629 -0.0046294182735344778 0 -0.0076499115455348392 -0.0044074630275775266 0 -0.0085957568493900249 -0.0046952075008058949 0 -0.0087146664096478827 -0.0045492404209897695 0 -0.0086785665219544211 -0.0046390479577960416 0 -0.0090819544623739912 -0.0037115416019659164 0 -0.0071115538596115534 -0.0052048457169639973 0 -0.0066235627627981245 -0.0052398584601311129 0 -0.0071115538596115534 -0.0052048457169639973 0 -0.006006201283690559 -0.0058269953820214507 0 -0.0059288800629486689 -0.0058969801609772858 0 -0.0059755629359799622 -0.0059408545300553032 0 -0.0059063337821889461 -0.0059293138659045931 0 -0.0059288800629486689 -0.0058969801609772858 0 -0.0059755629359799622 -0.0059408545300553032 0 -0.0059063337821889461 -0.0059293138659045931 0 -0.0059755629359799622 -0.0059408545300553032 0 -0.0059506897004952142 -0.0060665130161465944 0 -0.0062057578857126162 -0.0060727675339463513 0 -0.0071115538596115534 -0.0052048457169639973 0 -0.0059755629359799622 -0.0059408545300553032 0 -0.006049509646167653 -0.0058948615894834546 0 -0.0060160877517207081 -0.006053385744558281 0 -0.006006201283690559 -0.0058269953820214507 0 -0.0059755629359799622 -0.0059408545300553032 0 -0.006049509646167653 -0.0058948615894834546 0 -0.0060770512222660805 -0.0058002334612630548 0 -0.0060534453680406971 -0.0058232938380175141 0 -0.006049509646167653 -0.0058948615894834546 0 -0.006006201283690559 -0.0058269953820214507 0 -0.0060534453680406971 -0.0058232938380175141 0 -0.006049509646167653 -0.0058948615894834546 0 -0.0060160877517207081 -0.006053385744558281 0 -0.0060851490356774946 -0.006092418060662257 0 -0.0061011356183542868 -0.0059910185888969849 0 -0.006049509646167653 -0.0058948615894834546 0 -0.0060160877517207081 -0.006053385744558281 0 -0.0061011356183542868 -0.0059910185888969849 0 -0.0060160877517207081 -0.006053385744558281 0 -0.0060851490356774946 -0.006092418060662257 0 -0.0060348722092909207 -0.0061596163040685279 0 -0.0060160877517207081 -0.006053385744558281 0 -0.0059506897004952142 -0.0060665130161465944 0 -0.0059493403327728223 -0.006173642722078744 0 -0.0058507058740108796 -0.0061735489228240282 0 -0.0059506897004952142 -0.0060665130161465944 0 -0.0059493403327728223 -0.006173642722078744 0 -0.0059755629359799622 -0.0059408545300553032 0 -0.0060160877517207081 -0.006053385744558281 0 -0.0059506897004952142 -0.0060665130161465944 0 -0.0060160877517207081 -0.006053385744558281 0 -0.0059493403327728223 -0.006173642722078744 0 -0.0060348722092909207 -0.0061596163040685279 0 -0.0063663019454645699 -0.0065410260646652785 0 -0.0066898387611278257 -0.0078848276358197827 0 -0.0060851490356774946 -0.006092418060662257 0 -0.0060348722092909207 -0.0061596163040685279 0 -0.0061122413381669996 -0.0061826209207280205 0 -0.0059493403327728223 -0.006173642722078744 0 -0.0060348722092909207 -0.0061596163040685279 0 -0.0060396772445744824 -0.0062700889054231818 0 -0.0053424305728883787 -0.0070330910220797929 0 -0.0066898387611278257 -0.0078848276358197827 0 -0.0060348722092909207 -0.0061596163040685279 0 -0.0061122413381669996 -0.0061826209207280205 0 -0.0060396772445744824 -0.0062700889054231818 0 -0.00017371608838948624 -0.0079037892807388623 0 -0.00043484427491061666 -0.0082143333043804816 0 -0.00014735842172172511 -0.0084024689189861231 0 -0.0045302951866518053 -0.0079212749234322897 0 -0.0046435831290874644 -0.0078381193730220587 0 -0.0046144436067899891 -0.0080395189811665168 0 -0.0032472834083375284 -0.0078462531195560969 0 -0.002347637267563837 -0.0081452860619625669 0 -0.0060851490356774946 -0.006092418060662257 0 -0.0061122413381669996 -0.0061826209207280205 0 -0.0061977808311839272 -0.0060952910943756515 0 -0.0045302951866518053 -0.0079212749234322897 0 -0.0046435831290874644 -0.0078381193730220587 0 -0.0046502177233494844 -0.0077800321818028212 0 -0.0053424305728883787 -0.0070330910220797929 0 -0.0044547112564268876 -0.0069269918061689471 0 -0.0060851490356774946 -0.006092418060662257 0 -0.0061977808311839272 -0.0060952910943756515 0 -0.0061011356183542868 -0.0059910185888969849 0 -0.0061376243497255623 -0.005922357833944617 0 -0.0061977808311839272 -0.0060952910943756515 0 -0.0061011356183542868 -0.0059910185888969849 0 -0.0032472834083375284 -0.0078462531195560969 0 -0.0044547112564268876 -0.0069269918061689471 0 -0.00056647538046577118 -0.0071368245653950224 0 -0.00055126384423855111 -0.0076557163827584004 0 -0.00079230988872440445 -0.0074233195394960688 0 -0.0032483154105509113 -0.0066220882283703746 0 -0.0044547112564268876 -0.0069269918061689471 0 -0.00056647538046577118 -0.0071368245653950224 0 -0.00017530135237165258 -0.0077530648522132024 0 -0.00055126384423855111 -0.0076557163827584004 0 -0.00017530135237165258 -0.0077530648522132024 0 -0.00055126384423855111 -0.0076557163827584004 0 -0.00040216298351370403 -0.0078825514163083348 0 -0.00017371608838948624 -0.0079037892807388623 0 -0.00017530135237165258 -0.0077530648522132024 0 -0.00040216298351370403 -0.0078825514163083348 0 -0.00055126384423855111 -0.0076557163827584004 0 -0.00059950589799119352 -0.0078871029035522955 0 -0.00040216298351370403 -0.0078825514163083348 0 -0.00055126384423855111 -0.0076557163827584004 0 -0.00059950589799119352 -0.0078871029035522955 0 -0.00078210395063676096 -0.0077659983827936515 0 -0.00059950589799119352 -0.0078871029035522955 0 -0.00043484427491061666 -0.0082143333043804816 0 -0.00081296948421496411 -0.0080445291165460644 0 -0.00059950589799119352 -0.0078871029035522955 0 -0.00040216298351370403 -0.0078825514163083348 0 -0.00043484427491061666 -0.0082143333043804816 0 -0.00017371608838948624 -0.0079037892807388623 0 -0.00040216298351370403 -0.0078825514163083348 0 -0.00043484427491061666 -0.0082143333043804816 0 -0.00043484427491061666 -0.0082143333043804816 0 -0.00081296948421496411 -0.0080445291165460644 0 -0.00081129367590714811 -0.0083672287354725743 0 -0.00081296948421496411 -0.0080445291165460644 0 -0.00078210395063676096 -0.0077659983827936515 0 -0.0010669870224461918 -0.0078193770715406057 0 -0.00059950589799119352 -0.0078871029035522955 0 -0.00081296948421496411 -0.0080445291165460644 0 -0.00078210395063676096 -0.0077659983827936515 0 -0.00081296948421496411 -0.0080445291165460644 0 -0.0011088738250106703 -0.0082040510281871405 0 -0.0010669870224461918 -0.0078193770715406057 0 -0.00081296948421496411 -0.0080445291165460644 0 -0.0011088738250106703 -0.0082040510281871405 0 -0.00081129367590714811 -0.0083672287354725743 0 -0.0011088738250106703 -0.0082040510281871405 0 -0.0013638971792008772 -0.0079873666190731739 0 -0.0014790638316732954 -0.0083466095159214441 0 -0.0011088738250106703 -0.0082040510281871405 0 -0.0013638971792008772 -0.0079873666190731739 0 -0.0010669870224461918 -0.0078193770715406057 0 -0.0014427103384441688 -0.0076253137369156126 0 -0.00079230988872440445 -0.0074233195394960688 0 -0.0010669870224461918 -0.0078193770715406057 0 -0.0013638971792008772 -0.0079873666190731739 0 -0.0014427103384441688 -0.0076253137369156126 0 -0.0010669870224461918 -0.0078193770715406057 0 -0.0021953914895620247 -0.0071875108568799587 0 -0.00079230988872440445 -0.0074233195394960688 0 -0.0015104140278901202 -0.0069186653832965335 0 -0.0018014587371494057 -0.0073960144353129509 0 -0.00081891776673848993 -0.0074250654682076469 0 -0.00079230988872440445 -0.0074233195394960688 0 -0.00078210395063676096 -0.0077659983827936515 0 -0.0010669870224461918 -0.0078193770715406057 0 -0.00055126384423855111 -0.0076557163827584004 0 -0.00079230988872440445 -0.0074233195394960688 0 -0.00078210395063676096 -0.0077659983827936515 0 -0.0019625809197633985 -0.0083005642332538779 0 -0.0021742209271792506 -0.0081465568323764535 0 -0.0019168627659702363 -0.0083211999889866578 0 -0.0019744894760008037 -0.0079228056388601226 0 -0.0023142023920542792 -0.0079605558055130671 0 -0.0019168627659702363 -0.0083211999889866578 0 -0.0016614688958809102 -0.0079696604197469142 0 -0.0019744894760008037 -0.0079228056388601226 0 -0.0019168627659702363 -0.0083211999889866578 0 -0.0014790638316732954 -0.0083466095159214441 0 -0.0016614688958809102 -0.0079696604197469142 0 -0.0013638971792008772 -0.0079873666190731739 0 -0.0014790638316732954 -0.0083466095159214441 0 -0.0016614688958809102 -0.0079696604197469142 0 -0.0018014587371494057 -0.0073960144353129509 0 -0.0027137125945247706 -0.0073986648007257991 0 -0.0014427103384441688 -0.0076253137369156126 0 -0.001875328309894527 -0.0076699307392777078 0 -0.0021021025062881961 -0.0076492481367544385 0 -0.0014427103384441688 -0.0076253137369156126 0 -0.0016614688958809102 -0.0079696604197469142 0 -0.001875328309894527 -0.0076699307392777078 0 -0.0013638971792008772 -0.0079873666190731739 0 -0.0014427103384441688 -0.0076253137369156126 0 -0.0016614688958809102 -0.0079696604197469142 0 -0.0016614688958809102 -0.0079696604197469142 0 -0.0019744894760008037 -0.0079228056388601226 0 -0.001875328309894527 -0.0076699307392777078 0 -0.0019744894760008037 -0.0079228056388601226 0 -0.001875328309894527 -0.0076699307392777078 0 -0.0021324583345019351 -0.0076283087953346136 0 -0.0018896643672118973 -0.0076035736038660637 0 -0.0027137125945247706 -0.0073986648007257991 0 -0.0019744894760008037 -0.0079228056388601226 0 -0.0021324583345019351 -0.0076283087953346136 0 -0.0023142023920542792 -0.0079605558055130671 0 -0.003329436068107114 -0.0065186235964754102 0 -0.0030217123026085196 -0.0063892275275045356 0 -0.0034259608836410306 -0.0061324341603211652 0 -0.003329436068107114 -0.0065186235964754102 0 -0.0034259608836410306 -0.0061324341603211652 0 -0.0038180146552548064 -0.0063074169525543259 0 -0.0034078678190559764 -0.0070430495773472178 0 -0.003329436068107114 -0.0065186235964754102 0 -0.0037539619001084545 -0.0066925455094178406 0 -0.0034078678190559764 -0.0070430495773472178 0 -0.003329436068107114 -0.0065186235964754102 0 -0.0028344993695212884 -0.0067453090407688931 0 -0.003329436068107114 -0.0065186235964754102 0 -0.0030217123026085196 -0.0063892275275045356 0 -0.0028344993695212884 -0.0067453090407688931 0 -0.0021953914895620247 -0.0071875108568799587 0 -0.0034078678190559764 -0.0070430495773472178 0 -0.0028344993695212884 -0.0067453090407688931 0 -0.0030217123026085196 -0.0063892275275045356 0 -0.0028344993695212884 -0.0067453090407688931 0 -0.0026498830361459409 -0.0061885273382563553 0 -0.0028344993695212884 -0.0067453090407688931 0 -0.0023236549365373573 -0.0066924123353776328 0 -0.0026498830361459409 -0.0061885273382563553 0 -0.0021953914895620247 -0.0071875108568799587 0 -0.0028344993695212884 -0.0067453090407688931 0 -0.0023236549365373573 -0.0066924123353776328 0 -0.0023236549365373573 -0.0066924123353776328 0 -0.0022842001406253908 -0.0062900835331425676 0 -0.0026498830361459409 -0.0061885273382563553 0 -0.0024004357139338775 -0.0060476794701621907 0 -0.0025267987664680282 -0.0058010886349652725 0 -0.0026498830361459409 -0.0061885273382563553 0 -0.0022842001406253908 -0.0062900835331425676 0 -0.0024004357139338775 -0.0060476794701621907 0 -0.0026498830361459409 -0.0061885273382563553 0 -0.0024004357139338775 -0.0060476794701621907 0 -0.0023462951261846595 -0.0058734092030287566 0 -0.0021844480787654415 -0.0059666373642805809 0 -0.0022842001406253908 -0.0062900835331425676 0 -0.0024004357139338775 -0.0060476794701621907 0 -0.0021844480787654415 -0.0059666373642805809 0 -0.0022720715180205605 -0.0056778533043354423 0 -0.0025267987664680282 -0.0058010886349652725 0 -0.0025558488990128705 -0.0054239157869208259 0 -0.0023462951261846595 -0.0058734092030287566 0 -0.0022720715180205605 -0.0056778533043354423 0 -0.0021844480787654415 -0.0059666373642805809 0 -0.0023462951261846595 -0.0058734092030287566 0 -0.0022720715180205605 -0.0056778533043354423 0 -0.0025267987664680282 -0.0058010886349652725 0 -0.0024004357139338775 -0.0060476794701621907 0 -0.0023462951261846595 -0.0058734092030287566 0 -0.0025267987664680282 -0.0058010886349652725 0 -0.0025267987664680282 -0.0058010886349652725 0 -0.0028322600904746595 -0.0057767820644138747 0 -0.0025558488990128705 -0.0054239157869208259 0 -0.0025267987664680282 -0.0058010886349652725 0 -0.0028322600904746595 -0.0057767820644138747 0 -0.0026498830361459409 -0.0061885273382563553 0 -0.0028322600904746595 -0.0057767820644138747 0 -0.0026498830361459409 -0.0061885273382563553 0 -0.0030637752603504807 -0.0060426767657477901 0 -0.0030217123026085196 -0.0063892275275045356 0 -0.0026498830361459409 -0.0061885273382563553 0 -0.0030637752603504807 -0.0060426767657477901 0 -0.0030217123026085196 -0.0063892275275045356 0 -0.0030637752603504807 -0.0060426767657477901 0 -0.0034259608836410306 -0.0061324341603211652 0 -0.0028322600904746595 -0.0057767820644138747 0 -0.0030637752603504807 -0.0060426767657477901 0 -0.003335447204269005 -0.0057138445207859647 0 -0.0028322600904746595 -0.0057767820644138747 0 -0.003335447204269005 -0.0057138445207859647 0 -0.0029614555972831743 -0.0054802881356595763 0 -0.003335447204269005 -0.0057138445207859647 0 -0.0034259608836410306 -0.0061324341603211652 0 -0.0036946321743557367 -0.0059368826536404483 0 -0.0030637752603504807 -0.0060426767657477901 0 -0.003335447204269005 -0.0057138445207859647 0 -0.0034259608836410306 -0.0061324341603211652 0 -0.00056647538046577118 -0.0071368245653950224 0 -0.0015104140278901202 -0.0069186653832965335 0 -0.0012919828071736022 -0.0062316376154552293 0 -0.00056647538046577118 -0.0071368245653950224 0 -0.00079230988872440445 -0.0074233195394960688 0 -0.0015104140278901202 -0.0069186653832965335 0 -0.0063047471370809866 -0.0058944164354109247 0 -0.0062999289312848658 -0.0056632555101018703 0 -0.0065722386292564753 -0.0055559863963323408 0 -0.0032483154105509113 -0.0066220882283703746 0 -0.0040597282588375645 -0.0058392227551640145 0 -0.0023236549365373573 -0.0066924123353776328 0 -0.0015104140278901202 -0.0069186653832965335 0 -0.0018340166362877134 -0.0063171942191009118 0 -0.0021953914895620247 -0.0071875108568799587 0 -0.0023236549365373573 -0.0066924123353776328 0 -0.0015104140278901202 -0.0069186653832965335 0 -0.0023236549365373573 -0.0066924123353776328 0 -0.0022842001406253908 -0.0062900835331425676 0 -0.0018340166362877134 -0.0063171942191009118 0 -0.0015104140278901202 -0.0069186653832965335 0 -0.0018340166362877134 -0.0063171942191009118 0 -0.0012919828071736022 -0.0062316376154552293 0 -0.0018340166362877134 -0.0063171942191009118 0 -0.0012919828071736022 -0.0062316376154552293 0 -0.0020056032953102393 -0.0055542842944965197 0 -0.0022842001406253908 -0.0062900835331425676 0 -0.0018340166362877134 -0.0063171942191009118 0 -0.0021844480787654415 -0.0059666373642805809 0 -0.0022720715180205605 -0.0056778533043354423 0 -0.0021844480787654415 -0.0059666373642805809 0 -0.0020056032953102393 -0.0055542842944965197 0 -0.0018340166362877134 -0.0063171942191009118 0 -0.0021844480787654415 -0.0059666373642805809 0 -0.0020056032953102393 -0.0055542842944965197 0 -0.0012919828071736022 -0.0062316376154552293 0 -0.0020176023346666328 -0.0054760998644676536 0 -0.0020056032953102393 -0.0055542842944965197 0 -0.0040597282588375645 -0.0058392227551640145 0 -0.0035543994046798263 -0.0052197096341121164 0 -0.0065722386292564753 -0.0055559863963323408 0 -0.0064901760954324409 -0.0052922997046826251 0 -0.0067831917646510899 -0.0052850799143925598 0 -0.0062999289312848658 -0.0056632555101018703 0 -0.0063578704883059797 -0.0054996037685497295 0 -0.0065722386292564753 -0.0055559863963323408 0 -0.0063578704883059797 -0.0054996037685497295 0 -0.0063227877587922372 -0.0053801780475017909 0 -0.0064901760954324409 -0.0052922997046826251 0 -0.0063578704883059797 -0.0054996037685497295 0 -0.0065722386292564753 -0.0055559863963323408 0 -0.0064901760954324409 -0.0052922997046826251 0 -0.0063762634493220475 -0.005222794430628756 0 -0.0063227877587922372 -0.0053801780475017909 0 -0.0064901760954324409 -0.0052922997046826251 0 -0.0063762634493220475 -0.005222794430628756 0 -0.0064901760954324409 -0.0052922997046826251 0 -0.006441406081964478 -0.0051138934874671365 0 -0.0064901760954324409 -0.0052922997046826251 0 -0.006441406081964478 -0.0051138934874671365 0 -0.0066223979236066984 -0.0051028319379734458 0 -0.0063564501597830761 -0.0049722828817923576 0 -0.006441406081964478 -0.0051138934874671365 0 -0.0065219795333151731 -0.0049416355953218992 0 -0.006441406081964478 -0.0051138934874671365 0 -0.0065219795333151731 -0.0049416355953218992 0 -0.0066223979236066984 -0.0051028319379734458 0 -0.0063594991297521988 -0.0047652515337280764 0 -0.0063564501597830761 -0.0049722828817923576 0 -0.0065219795333151731 -0.0049416355953218992 0 -0.0047310621216078187 -0.0045685001981809288 0 -0.0035543994046798263 -0.0052197096341121164 0 -0.0065219795333151731 -0.0049416355953218992 0 -0.0068234659455644851 -0.0048280062824811497 0 -0.0066223979236066984 -0.0051028319379734458 0 -0.0064901760954324409 -0.0052922997046826251 0 -0.0066223979236066984 -0.0051028319379734458 0 -0.0067831917646510899 -0.0052850799143925598 0 -0.0023860206376494896 -0.0042370473926603147 0 -0.0020964956243322516 -0.0054345188486824743 0 -0.00245033460194403 -0.0050857501947503313 0 -0.0068234659455644851 -0.0048280062824811497 0 -0.0066223979236066984 -0.0051028319379734458 0 -0.0067831917646510899 -0.0052850799143925598 0 -0.0035543994046798263 -0.0052197096341121164 0 -0.0023768229798088155 -0.0054939239013921679 0 -0.0035543994046798263 -0.0052197096341121164 0 -0.0035113541985317331 -0.0052635776136132628 0 -0.0022720715180205605 -0.0056778533043354423 0 -0.002019365252333245 -0.0054807623912573765 0 -0.0020056032953102393 -0.0055542842944965197 0 -0.002019365252333245 -0.0054807623912573765 0 -0.0025558488990128705 -0.0054239157869208259 0 -0.00245033460194403 -0.0050857501947503313 0 -0.0022720715180205605 -0.0056778533043354423 0 -0.002019365252333245 -0.0054807623912573765 0 -0.0025558488990128705 -0.0054239157869208259 0 -0.0025558488990128705 -0.0054239157869208259 0 -0.002901942356496772 -0.0049477060763859554 0 -0.0029614555972831743 -0.0054802881356595763 0 -0.0028322600904746595 -0.0057767820644138747 0 -0.0025558488990128705 -0.0054239157869208259 0 -0.0029614555972831743 -0.0054802881356595763 0 -0.0025558488990128705 -0.0054239157869208259 0 -0.002901942356496772 -0.0049477060763859554 0 -0.00245033460194403 -0.0050857501947503313 0 -0.003335447204269005 -0.0057138445207859647 0 -0.0035163893647851634 -0.0053730611833656457 0 -0.0032398294979200052 -0.0053961542973980049 0 -0.0035163893647851634 -0.0053730611833656457 0 -0.0032398294979200052 -0.0053961542973980049 0 -0.0033515396771883923 -0.0051056261833095501 0 -0.002901942356496772 -0.0049477060763859554 0 -0.0032398294979200052 -0.0053961542973980049 0 -0.0029614555972831743 -0.0054802881356595763 0 -0.003335447204269005 -0.0057138445207859647 0 -0.0032398294979200052 -0.0053961542973980049 0 -0.0029614555972831743 -0.0054802881356595763 0 -0.002901942356496772 -0.0049477060763859554 0 -0.0032398294979200052 -0.0053961542973980049 0 -0.0033515396771883923 -0.0051056261833095501 0 -0.002901942356496772 -0.0049477060763859554 0 -0.0033515396771883923 -0.0051056261833095501 0 -0.0033393035315559152 -0.0046984904394020491 0 -0.0033515396771883923 -0.0051056261833095501 0 -0.0033393035315559152 -0.0046984904394020491 0 -0.0037472901895090681 -0.0050591262506830435 0 -0.002901942356496772 -0.0049477060763859554 0 -0.0033393035315559152 -0.0046984904394020491 0 -0.0030129989701848832 -0.0043083933594903366 0 -0.0033393035315559152 -0.0046984904394020491 0 -0.0033745358187478266 -0.0042718360529939896 0 -0.0036368386226869119 -0.0045292808329451557 0 -0.0033393035315559152 -0.0046984904394020491 0 -0.0030129989701848832 -0.0043083933594903366 0 -0.0033745358187478266 -0.0042718360529939896 0 -0.0023860206376494896 -0.0042370473926603147 0 -0.002901942356496772 -0.0049477060763859554 0 -0.00245033460194403 -0.0050857501947503313 0 -0.0023860206376494896 -0.0042370473926603147 0 -0.002901942356496772 -0.0049477060763859554 0 -0.0030129989701848832 -0.0043083933594903366 0 -0.0023860206376494896 -0.0042370473926603147 0 -0.0030129989701848832 -0.0043083933594903366 0 -0.0029950365635919799 -0.0037466262662947084 0 -0.0047310621216078187 -0.0045685001981809288 0 -0.0048408548748677524 -0.003904296656038214 0 -0.0023860206376494896 -0.0042370473926603147 0 -0.0029950365635919799 -0.0037466262662947084 0 -0.0028151405952755643 -0.0033650941009101347 0 -0.0030129989701848832 -0.0043083933594903366 0 -0.0032630054854818949 -0.0039496176528854279 0 -0.0029950365635919799 -0.0037466262662947084 0 -0.0033745358187478266 -0.0042718360529939896 0 -0.0032630054854818949 -0.0039496176528854279 0 -0.0036247724969603857 -0.0038989953230675195 0 -0.0030129989701848832 -0.0043083933594903366 0 -0.0033745358187478266 -0.0042718360529939896 0 -0.0032630054854818949 -0.0039496176528854279 0 -0.0032630054854818949 -0.0039496176528854279 0 -0.0029950365635919799 -0.0037466262662947084 0 -0.0032909058621765071 -0.0035705823553705738 0 -0.0032630054854818949 -0.0039496176528854279 0 -0.0032909058621765071 -0.0035705823553705738 0 -0.0036247724969603857 -0.0038989953230675195 0 -0.0033363686510541066 -0.002713362962974556 0 -0.0032909058621765071 -0.0035705823553705738 0 -0.003502468910320963 -0.003305613017503187 0 -0.0029950365635919799 -0.0037466262662947084 0 -0.0032909058621765071 -0.0035705823553705738 0 -0.0031028846696624741 -0.0033617941446181603 0 -0.0029950365635919799 -0.0037466262662947084 0 -0.0031028846696624741 -0.0033617941446181603 0 -0.0028151405952755643 -0.0033650941009101347 0 -0.0068519345424636006 -0.0044164232393038086 0 -0.0065307608798914002 -0.0044547345345666133 0 -0.0066195976051546465 -0.00467798201568689 0 -0.0063594991297521988 -0.0047652515337280764 0 -0.0065307608798914002 -0.0044547345345666133 0 -0.0066195976051546465 -0.00467798201568689 0 -0.0063594991297521988 -0.0047652515337280764 0 -0.0065219795333151731 -0.0049416355953218992 0 -0.0066195976051546465 -0.00467798201568689 0 -0.0065219795333151731 -0.0049416355953218992 0 -0.0068234659455644851 -0.0048280062824811497 0 -0.0066195976051546465 -0.00467798201568689 0 -0.0068234659455644851 -0.0048280062824811497 0 -0.0068519345424636006 -0.0044164232393038086 0 -0.0066195976051546465 -0.00467798201568689 0 0.00019814183428800211 -0.0056436517221655925 0 0.001100702347626764 -0.0048826901797013903 0 0.0015807836756787086 -0.0061523333498068305 0 0.00019814183428800211 -0.0056436517221655925 0 0.00012965725099982502 -0.0046584210964295556 0 0.001100702347626764 -0.0048826901797013903 0 0.001100702347626764 -0.0048826901797013903 0 0.0020541236308058725 -0.0052898915264368192 0 0.0015807836756787086 -0.0061523333498068305 0 0.001100702347626764 -0.0048826901797013903 0 0.0020541236308058725 -0.0052898915264368192 0 0.0017964477027112168 -0.0045301179450713902 0 0.0017703041878656626 -0.0074759924590679797 0 0.0015807836756787086 -0.0061523333498068305 0 0.002934922726064197 -0.0058529825323971546 0 0.00051919273893122342 -0.0068883490810465516 0 0.00019814183428800211 -0.0056436517221655925 0 -0.00073269510454478798 -0.0062901591882345296 0 0.00051919273893122342 -0.0068883490810465516 0 0.00019814183428800211 -0.0056436517221655925 0 0.0015807836756787086 -0.0061523333498068305 0 -0.0015277540725802349 -0.0045952990781270063 0 -0.0025873800877615066 -0.004078930943993306 0 -0.0040399180351969304 -0.0033597663636506674 0 -0.0038903353053385873 -0.0035481459609814588 0 -0.0040381256253355455 -0.0039377603738314174 0 -0.0040399180351969304 -0.0033597663636506674 0 -0.0038903353053385873 -0.0035481459609814588 0 -0.0037821158091867488 -0.0032780987158924856 0 -0.0035473392306443405 -0.0030144344141699668 0 -0.003502468910320963 -0.003305613017503187 0 -0.0037821158091867488 -0.0032780987158924856 0 -0.003502468910320963 -0.003305613017503187 0 -0.0037821158091867488 -0.0032780987158924856 0 -0.0036965149374078446 -0.003597092323643422 0 -0.0038903353053385873 -0.0035481459609814588 0 -0.0037821158091867488 -0.0032780987158924856 0 -0.0036965149374078446 -0.003597092323643422 0 -0.0032909058621765071 -0.0035705823553705738 0 -0.003502468910320963 -0.003305613017503187 0 -0.0036965149374078446 -0.003597092323643422 0 -0.0036965149374078446 -0.003597092323643422 0 -0.0036247724969603857 -0.0038989953230675195 0 -0.0040381256253355455 -0.0039377603738314174 0 -0.0032909058621765071 -0.0035705823553705738 0 -0.0036965149374078446 -0.003597092323643422 0 -0.0036247724969603857 -0.0038989953230675195 0 -0.0033745358187478266 -0.0042718360529939896 0 -0.0036247724969603857 -0.0038989953230675195 0 -0.0036368386226869119 -0.0045292808329451557 0 -0.0036247724969603857 -0.0038989953230675195 0 -0.0040381256253355455 -0.0039377603738314174 0 -0.0040225212371537734 -0.0043821485986510348 0 -0.0025873800877615066 -0.004078930943993306 0 -0.0023766014501063952 -0.0045541165697746029 0 0.00019814183428800211 -0.0056436517221655925 0 -0.00073269510454478798 -0.0062901591882345296 0 -0.00074393997740276668 -0.005009279830277857 0 -0.0038903353053385873 -0.0035481459609814588 0 -0.0036965149374078446 -0.003597092323643422 0 -0.0040381256253355455 -0.0039377603738314174 0 0.00019814183428800211 -0.0056436517221655925 0 0.00012965725099982502 -0.0046584210964295556 0 -0.00074393997740276668 -0.005009279830277857 0 0.00012965725099982502 -0.0046584210964295556 0 -0.00074393997740276668 -0.005009279830277857 0 -0.00076375266352654949 -0.003727137533860636 0 -0.0023766014501063952 -0.0045541165697746029 0 -0.0029940082422195329 -0.0043281629662857875 0 -0.0044522767933424957 -0.0047348324828209842 0 -0.0039395021546539885 -0.0046548436610087352 0 -0.0042233234551737253 -0.0050718101898920964 0 -0.0036247724969603857 -0.0038989953230675195 0 -0.0036368386226869119 -0.0045292808329451557 0 -0.0039395021546539885 -0.0046548436610087352 0 -0.0036247724969603857 -0.0038989953230675195 0 -0.0044522767933424957 -0.0047348324828209842 0 -0.0039395021546539885 -0.0046548436610087352 0 -0.0040709473814795468 -0.0041311742265396027 0 -0.0029940082422195329 -0.0043281629662857875 0 -0.0036368386226869119 -0.0045292808329451557 0 -0.0039395021546539885 -0.0046548436610087352 0 -0.0037472901895090681 -0.0050591262506830435 0 -0.0033393035315559152 -0.0046984904394020491 0 -0.0036368386226869119 -0.0045292808329451557 0 -0.0037472901895090681 -0.0050591262506830435 0 -0.0035163893647851634 -0.0053730611833656457 0 -0.0033515396771883923 -0.0051056261833095501 0 -0.0037472901895090681 -0.0050591262506830435 0 -0.0039395021546539885 -0.0046548436610087352 0 -0.0037472901895090681 -0.0050591262506830435 0 -0.0042233234551737253 -0.0050718101898920964 0 -0.0037472901895090681 -0.0050591262506830435 0 -0.0040147327816281485 -0.0053120732102955705 0 -0.0042233234551737253 -0.0050718101898920964 0 -0.0040147327816281485 -0.0053120732102955705 0 -0.0038176533235558074 -0.0055802808937276413 0 -0.0041494395863502153 -0.0056160012602273091 0 -0.003335447204269005 -0.0057138445207859647 0 -0.0035163893647851634 -0.0053730611833656457 0 -0.0038176533235558074 -0.0055802808937276413 0 -0.0037472901895090681 -0.0050591262506830435 0 -0.0040147327816281485 -0.0053120732102955705 0 -0.0038176533235558074 -0.0055802808937276413 0 -0.0035163893647851634 -0.0053730611833656457 0 -0.0037472901895090681 -0.0050591262506830435 0 -0.0038176533235558074 -0.0055802808937276413 0 -0.0029940082422195329 -0.0043281629662857875 0 -0.0010093793646124606 -0.0035162773810290368 0 -0.002440277403783578 -0.0047278155518010005 0 -0.0024407327664335014 -0.0044542777700519558 0 -0.0022308924572372641 -0.0044892102943163911 0 -0.0029940082422195329 -0.0043281629662857875 0 -0.0039567980634124568 -0.0050809511722164722 0 -0.0044522767933424957 -0.0047348324828209842 0 -0.0042233234551737253 -0.0050718101898920964 0 -0.0044417522199415123 -0.0053763397442879585 0 -0.0042128247640945858 -0.005241597830686096 0 -0.0039567980634124568 -0.0050809511722164722 0 -0.0040147327816281485 -0.0053120732102955705 0 -0.0042233234551737253 -0.0050718101898920964 0 -0.0044573171140558088 -0.0053860647990363816 0 -0.0039567980634124568 -0.0050809511722164722 0 -0.0041936507532037183 -0.0056270726694293127 0 -0.0040147327816281485 -0.0053120732102955705 0 -0.0044573171140558088 -0.0053860647990363816 0 -0.0041494395863502153 -0.0056160012602273091 0 -0.0024407327664335014 -0.0044542777700519558 0 -0.0022308924572372641 -0.0044892102943163911 0 -0.002184707147707523 -0.0042990149433698851 0 -0.00076375266352654949 -0.003727137533860636 0 -3.5180661704086457e-06 -0.0028206852459086843 0 0.00055788931352434288 -0.0037606965473635581 0 -0.0010093793646124606 -0.0035162773810290368 0 -0.00022190602833205273 -0.0036045657290526053 0 -3.5180661704086457e-06 -0.0028206852459086843 0 0.00090504291044887157 -0.0029623880719560135 0 0.00074180707389885398 -0.0019260598830322688 0 0.00090504291044887157 -0.0029623880719560135 0 0.00055788931352434288 -0.0037606965473635581 0 0.0011336809272217102 -0.0035329424242275627 0 -3.5180661704086457e-06 -0.0028206852459086843 0 0.00090504291044887157 -0.0029623880719560135 0 0.00055788931352434288 -0.0037606965473635581 0 0.00012965725099982502 -0.0046584210964295556 0 -0.00076375266352654949 -0.003727137533860636 0 0.00055788931352434288 -0.0037606965473635581 0 0.00012965725099982502 -0.0046584210964295556 0 0.001100702347626764 -0.0048826901797013903 0 0.00055788931352434288 -0.0037606965473635581 0 0.001100702347626764 -0.0048826901797013903 0 0.00055788931352434288 -0.0037606965473635581 0 0.0013120857520615295 -0.0039930435694386255 0 0.00055788931352434288 -0.0037606965473635581 0 0.0013120857520615295 -0.0039930435694386255 0 0.0011336809272217102 -0.0035329424242275627 0 0.001100702347626764 -0.0048826901797013903 0 0.0017964477027112168 -0.0045301179450713902 0 0.0013120857520615295 -0.0039930435694386255 0 0.0013120857520615295 -0.0039930435694386255 0 0.0011336809272217102 -0.0035329424242275627 0 0.001761490693925198 -0.0034180937033983028 0 0.0017964477027112168 -0.0045301179450713902 0 0.0019616463647579938 -0.0037068604610722019 0 0.001761490693925198 -0.0034180937033983028 0 0.001813259873380249 -0.0038511887305277084 0 0.0015472738345964157 -0.0034042579554541272 0 0.0017964477027112168 -0.0045301179450713902 0 0.0013120857520615295 -0.0039930435694386255 0 0.001761490693925198 -0.0034180937033983028 0 0.001813259873380249 -0.0038511887305277084 0 0.001426322096597371 -0.0032049360783547465 0 0.0011837673443336784 -0.0039653353955252111 0 0.0010841979154237063 -0.0038185065751895272 0 0.0010569754189962914 -0.0034601934001506078 0 0.00090504291044887157 -0.0029623880719560135 0 0.001761490693925198 -0.0034180937033983028 0 0.00074180707389885398 -0.0019260598830322688 0 0.0010841979154237063 -0.0038185065751895272 0 0.0010569754189962914 -0.0034601934001506078 0 0.00055083331630047033 -0.0030404097332218105 0 0.0015472738345964157 -0.0034042579554541272 0 -0.00022190602833205273 -0.0036045657290526053 0 0.0021802502970814132 -0.0039080189262974963 0 0.0022739474143854102 -0.0033094895197180803 0 0.001959888549685406 -0.0030183253610337525 0 0.00090504291044887157 -0.0029623880719560135 0 0.0011336809272217102 -0.0035329424242275627 0 0.001761490693925198 -0.0034180937033983028 0 0.0022739474143854102 -0.0033094895197180803 0 0.0019474658460573531 -0.0030083818208263228 0 0.0023287994194529276 -0.0025653172908444576 0 0.0018638288287524069 -0.0033817110937467204 0 0.001426322096597371 -0.0032049360783547465 0 0.0019474658460573531 -0.0030083818208263228 0 0.0021205685676011768 -0.0021227855421813886 0 0.0015505624799245362 -0.0016258550713661975 0 0.00078411407840401042 -0.0035239093240920041 0 0.00070194672330944311 -0.0032509244483247047 0 0.00060086919910454922 -0.0033722813062355915 0 0.0019474658460573531 -0.0030083818208263228 0 0.0023287994194529276 -0.0025653172908444576 0 0.0021205685676011768 -0.0021227855421813886 0 0.001426322096597371 -0.0032049360783547465 0 0.00061519577355851392 -0.0033647894737726049 0 0.0021205685676011768 -0.0021227855421813886 0 0.0015505624799245362 -0.0016258550713661975 0 0.0023586357168473987 -0.0015787010768849692 0 0.00061519577355851392 -0.0033647894737726049 0 -0.00022190602833205273 -0.0036045657290526053 0 0.001426322096597371 -0.0032049360783547465 0 -0.00022190602833205273 -0.0036045657290526053 0 -0.0020224248248870533 -0.0042503266699521107 0 -0.002184707147707523 -0.0042990149433698851 0 -0.0020574394235602722 -0.0042006634433385433 0 -0.00022190602833205273 -0.0036045657290526053 0 -0.0011244402717253926 -0.0043274287371611927 0 -0.0022308924572372641 -0.0044892102943163911 0 -0.0020224248248870533 -0.0042503266699521107 0 -0.002184707147707523 -0.0042990149433698851 0 -0.002184707147707523 -0.0042990149433698851 0 -0.0021708421751642747 -0.0041006555942176056 0 -0.0020574394235602722 -0.0042006634433385433 0 -0.0014823606567470002 -0.0049075982210675237 0 -0.0017003566420392918 -0.0046947729484160079 0 -0.0015274827065975467 -0.0049697434888571661 0 -0.0025620706579459981 -0.0053144307992300521 0 -0.0011244402717253926 -0.0043274287371611927 0 -0.0025620706579459981 -0.0053144307992300521 0 -0.0019218424324143851 -0.0052993901272109945 0 -0.00095317688179838965 -0.0046748706409286047 0 -0.00058806533178989789 -0.0042299793466708448 0 -0.00060522984748121508 -0.0045768656043987874 0 -0.00058806533178989789 -0.0042299793466708448 0 -0.00050416305406895002 -0.0043609187825462067 0 -0.00060522984748121508 -0.0045768656043987874 0 -0.0011244402717253926 -0.0043274287371611927 0 -0.0019218424324143851 -0.0052993901272109945 0 -0.00050416305406895002 -0.0043609187825462067 0 -0.00060522984748121508 -0.0045768656043987874 0 -0.00028251175951002442 -0.0047083932767953782 0 -0.00067558498664510201 -0.0048826360004713227 0 -0.00028251175951002442 -0.0047083932767953782 0 -0.00064901114190103401 -0.0052207781547923687 0 -0.00060522984748121508 -0.0045768656043987874 0 -0.00067558498664510201 -0.0048826360004713227 0 -0.00028251175951002442 -0.0047083932767953782 0 -0.0018031083864057244 -0.0063311934520675983 0 -0.0018586405600179137 -0.0064130109499855713 0 -0.0017423273078915062 -0.0064327262018810637 0 -0.0022507637437936255 -0.0083622206076600404 0 -0.0023069130439903425 -0.0083187549843478127 0 -0.0022758828453268961 -0.00833289713646229 0 -0.0011903240146522681 -0.0064920564587020576 0 -0.0022395472032433602 -0.0072107114507109684 0 -0.0019218424324143851 -0.0052993901272109945 0 -0.0011903240146522681 -0.0064920564587020576 0 -0.00095317688179838965 -0.0046748706409286047 0 -0.00060522984748121508 -0.0045768656043987874 0 -0.00067558498664510201 -0.0048826360004713227 0 -0.0028381760478547258 -0.0060783149401094942 0 -0.0028733741009803193 -0.006127000068636936 0 -0.002632629035735841 -0.0065140543727136672 0 -0.0019218424324143851 -0.0052993901272109945 0 -0.0022395472032433602 -0.0072107114507109684 0 -0.0022507637437936255 -0.0083622206076600404 0 -0.0022442260894080194 -0.0083615372280784091 0 -0.0022758828453268961 -0.00833289713646229 0 -0.00067558498664510201 -0.0048826360004713227 0 -0.00064901114190103401 -0.0052207781547923687 0 -0.00081108359851467672 -0.0051977706526248431 0 -0.0011903240146522681 -0.0064920564587020576 0 -0.00032849604887718437 -0.0060218165758719466 0 -0.0011903240146522681 -0.0064920564587020576 0 -0.00098364483803032188 -0.0074261965621136303 0 -0.0006535735684104737 -0.0063316504531079664 0 -0.00067122813360215143 -0.0063581641877248031 0 -0.00067868210854871028 -0.0063277888732756566 0 0.00065995910021877989 -0.0065281510227813647 0 0.00071678047681712634 -0.0067270697273379204 0 0.0010431460331342018 -0.0065286166849860376 0 -0.00032849604887718437 -0.0060218165758719466 0 0.0019204945387174483 -0.0042475355205909438 0 0.00071678047681712634 -0.0067270697273379204 0 0.0010431460331342018 -0.0065286166849860376 0 0.0013019439491817981 -0.0068018582090730402 0 -0.00098364483803032188 -0.0074261965621136303 0 -0.00032849604887718437 -0.0060218165758719466 0 0.0010431460331342018 -0.0065286166849860376 0 0.0013019439491817981 -0.0068018582090730402 0 0.0014122356902023302 -0.0062421779235998249 0 0.0015505624799245362 -0.0016258550713661975 0 0.0020583580245183302 -0.0010120169646718423 0 0.0023586357168473987 -0.0015787010768849692 0 -0.00095317688179838965 -0.0046748706409286047 0 -0.00067558498664510201 -0.0048826360004713227 0 -0.00081108359851467672 -0.0051977706526248431 0 0.00061519577355851392 -0.0033647894737726049 0 -0.00032849604887718437 -0.0060218165758719466 0 0.00061519577355851392 -0.0033647894737726049 0 0.0019204945387174483 -0.0042475355205909438 0 0.00066075947019039532 -0.0045646386755227603 0 0.00067765672502455992 -0.0046358107665097365 0 0.00061847700320950382 -0.0046236223127193148 0 -0.0036946321743557367 -0.0059368826536404483 0 -0.0040747497631622937 -0.0059479276034913658 0 -0.0038180146552548064 -0.0063074169525543259 0 -0.0034259608836410306 -0.0061324341603211652 0 -0.0036946321743557367 -0.0059368826536404483 0 -0.0038180146552548064 -0.0063074169525543259 0 -0.003335447204269005 -0.0057138445207859647 0 -0.0038176533235558074 -0.0055802808937276413 0 -0.0036946321743557367 -0.0059368826536404483 0 -0.0038176533235558074 -0.0055802808937276413 0 -0.0036946321743557367 -0.0059368826536404483 0 -0.0040747497631622937 -0.0059479276034913658 0 -0.0038176533235558074 -0.0055802808937276413 0 -0.0041494395863502153 -0.0056160012602273091 0 -0.0040747497631622937 -0.0059479276034913658 0 -0.0040747497631622937 -0.0059479276034913658 0 -0.0042795425104626581 -0.0063292093169009106 0 -0.0038180146552548064 -0.0063074169525543259 0 -0.0039567980634124568 -0.0050809511722164722 0 -0.0025620706579459981 -0.0053144307992300521 0 -0.0024407327664335014 -0.0044542777700519558 0 -0.002184707147707523 -0.0042990149433698851 0 -0.0021708421751642747 -0.0041006555942176056 0 -0.0044540237595522211 -0.0054039648129729197 0 -0.0050204496343993201 -0.0062048030619504925 0 -0.0044498652735979125 -0.0057606441967601348 0 -0.0050204496343993201 -0.0062048030619504925 0 -0.0044571447846670498 -0.006061039479318092 0 -0.0042795425104626581 -0.0063292093169009106 0 -0.0040747497631622937 -0.0059479276034913658 0 -0.0044571447846670498 -0.006061039479318092 0 -0.0042795425104626581 -0.0063292093169009106 0 -0.0044573171140558088 -0.0053860647990363816 0 -0.0041494395863502153 -0.0056160012602273091 0 -0.0044498652735979125 -0.0057606441967601348 0 -0.0041494395863502153 -0.0056160012602273091 0 -0.0040747497631622937 -0.0059479276034913658 0 -0.0044498652735979125 -0.0057606441967601348 0 -0.0040747497631622937 -0.0059479276034913658 0 -0.0044571447846670498 -0.006061039479318092 0 -0.0044498652735979125 -0.0057606441967601348 0 -0.0050204496343993201 -0.0062048030619504925 0 -0.0044571447846670498 -0.006061039479318092 0 -0.0044498652735979125 -0.0057606441967601348 0 -0.0050204496343993201 -0.0062048030619504925 0 -0.0043385490381847623 -0.0068735449546848855 0 -0.0042795425104626581 -0.0063292093169009106 0 -0.0025620706579459981 -0.0053144307992300521 0 -0.0032615969981000395 -0.0070651242800411889 0 -0.0028381760478547258 -0.0060783149401094942 0 -0.002632629035735841 -0.0065140543727136672 0 -0.0023552374848439077 -0.0065572075178283208 0 -0.0023311737237449856 -0.0082341706391719921 0 -0.0022785975261218872 -0.0082428246844702575 0 -0.0022968230642462749 -0.0082599714773268825 0 -0.0022395472032433602 -0.0072107114507109684 0 -0.0032615969981000395 -0.0070651242800411889 0 -0.0022395472032433602 -0.0072107114507109684 0 -0.0020568867679345913 -0.0078093994282111461 0 -0.0043385490381847623 -0.0068735449546848855 0 -0.0042795425104626581 -0.0063292093169009106 0 -0.0040483363830272944 -0.0065514782896305508 0 -0.0034078678190559764 -0.0070430495773472178 0 -0.0043385490381847623 -0.0068735449546848855 0 -0.0037539619001084545 -0.0066925455094178406 0 -0.0042795425104626581 -0.0063292093169009106 0 -0.0040483363830272944 -0.0065514782896305508 0 -0.0038180146552548064 -0.0063074169525543259 0 -0.0043385490381847623 -0.0068735449546848855 0 -0.0040483363830272944 -0.0065514782896305508 0 -0.0037539619001084545 -0.0066925455094178406 0 -0.0040483363830272944 -0.0065514782896305508 0 -0.0037539619001084545 -0.0066925455094178406 0 -0.0038180146552548064 -0.0063074169525543259 0 -0.003329436068107114 -0.0065186235964754102 0 -0.0037539619001084545 -0.0066925455094178406 0 -0.0038180146552548064 -0.0063074169525543259 0 -0.0027137125945247706 -0.0073986648007257991 0 -0.0032615969981000395 -0.0070651242800411889 0 -0.0027054658128305323 -0.0073942744784869724 0 -0.0029064728258113917 -0.0073588823131732596 0 -0.0028789949323710213 -0.0073858971143070471 0 -0.0021324583345019351 -0.0076283087953346136 0 -0.0023142023920542792 -0.0079605558055130671 0 -0.002673336190753336 -0.0076220941323752664 0 -0.0027137125945247706 -0.0073986648007257991 0 -0.0025739863938636868 -0.0077520342447588682 0 -0.002112765228119803 -0.0082642525020884747 0 -0.0022555746804008544 -0.008227806250198989 0 -0.0022634450573739439 -0.0083087662045282333 0 -0.0021742209271792506 -0.0081465568323764535 0 -0.0025739863938636868 -0.0077520342447588682 0 -0.0022950547854779695 -0.008278544527148702 0 -0.0023241795126259482 -0.0082965835482335226 0 -0.0022634450573739439 -0.0083087662045282333 0 -0.0022950547854779695 -0.008278544527148702 0 -0.0022555746804008544 -0.008227806250198989 0 -0.0022634450573739439 -0.0083087662045282333 0 -0.0025739863938636868 -0.0077520342447588682 0 -0.0023226231381307692 -0.0079372338981862738 0 -0.0022785975261218872 -0.0082428246844702575 0 -0.0022659128375973493 -0.0082553773010883031 0 -0.0022968230642462749 -0.0082599714773268825 0 -0.0032615969981000395 -0.0070651242800411889 0 -0.0025739863938636868 -0.0077520342447588682 0 -0.0022555746804008544 -0.008227806250198989 0 -0.0022968230642462749 -0.0082599714773268825 0 -0.0022979749303035863 -0.0082694916101709419 0 -0.0022950547854779695 -0.008278544527148702 0 -0.0022555746804008544 -0.008227806250198989 0 -0.0022979749303035863 -0.0082694916101709419 0 -0.0022950547854779695 -0.008278544527148702 0 -0.0022979749303035863 -0.0082694916101709419 0 -0.0023083231085138608 -0.0082817448340272506 0 -0.0022979749303035863 -0.0082694916101709419 0 -0.0023083231085138608 -0.0082817448340272506 0 -0.0023121906448908534 -0.0082756328544550221 0 -0.0022968230642462749 -0.0082599714773268825 0 -0.0022979749303035863 -0.0082694916101709419 0 -0.0023121906448908534 -0.0082756328544550221 0 -0.0023311737237449856 -0.0082341706391719921 0 -0.0022968230642462749 -0.0082599714773268825 0 -0.0023121906448908534 -0.0082756328544550221 0 -0.0023069130439903425 -0.0083187549843478127 0 -0.0023121906448908534 -0.0082756328544550221 0 -0.0023016550208299685 -0.0083027618673258575 0 -0.0023083231085138608 -0.0082817448340272506 0 -0.0023121906448908534 -0.0082756328544550221 0 -0.0023016550208299685 -0.0083027618673258575 0 -0.0023083231085138608 -0.0082817448340272506 0 -0.0023016550208299685 -0.0083027618673258575 0 -0.0023147319387387443 -0.0082939152107095303 0 -0.0022950547854779695 -0.008278544527148702 0 -0.0023147319387387443 -0.0082939152107095303 0 -0.0023241795126259482 -0.0082965835482335226 0 -0.0022950547854779695 -0.008278544527148702 0 -0.0023083231085138608 -0.0082817448340272506 0 -0.0023147319387387443 -0.0082939152107095303 0 -0.0023147319387387443 -0.0082939152107095303 0 -0.0023241795126259482 -0.0082965835482335226 0 -0.002323720362828081 -0.0082967765877943987 0 -0.0023241795126259482 -0.0082965835482335226 0 -0.0023400387830956274 -0.0083696163684436262 0 -0.0023550908289373287 -0.0082842115996622136 0 -0.0023241795126259482 -0.0082965835482335226 0 -0.0023400387830956274 -0.0083696163684436262 0 -0.0022634450573739439 -0.0083087662045282333 0 -0.0023400387830956274 -0.0083696163684436262 0 -0.0022767094223611344 -0.0083816960369363664 0 -0.0023348345200918412 -0.0085090533189881197 0 -0.0022767094223611344 -0.0083816960369363664 0 -0.0021820481143673244 -0.0083976552532639744 0 -0.0023348345200918412 -0.0085090533189881197 0 -0.0023400387830956274 -0.0083696163684436262 0 -0.0022767094223611344 -0.0083816960369363664 0 -0.0022634450573739439 -0.0083087662045282333 0 -0.0022767094223611344 -0.0083816960369363664 0 -0.0022634450573739439 -0.0083087662045282333 0 -0.0021820481143673244 -0.0083976552532639744 0 -0.0019168627659702363 -0.0083211999889866578 0 -0.002112765228119803 -0.0082642525020884747 0 -0.0021820481143673244 -0.0083976552532639744 0 -0.002112765228119803 -0.0082642525020884747 0 -0.0022634450573739439 -0.0083087662045282333 0 -0.0021820481143673244 -0.0083976552532639744 0 0.00065995910021877989 -0.0065281510227813647 0 0.0010431460331342018 -0.0065286166849860376 0 0.0013310176301152353 -0.005625624845282973 0 -0.0017935422748118956 -0.0092903967805895733 0 -0.0012645905873531959 -0.0085548387787992373 0 -0.001681486963762987 -0.0085028970551800868 0 -0.00098364483803032188 -0.0074261965621136303 0 -3.0305944060646439e-05 -0.0071824329387092543 0 0.0010431460331342018 -0.0065286166849860376 0 0.0013310176301152353 -0.005625624845282973 0 0.0014122356902023302 -0.0062421779235998249 0 -0.00098364483803032188 -0.0074261965621136303 0 -0.0023316643304236357 -0.008730885728906998 0 -0.0017935422748118956 -0.0092903967805895733 0 -0.0021548498475473725 -0.0081926068686207654 0 -0.001681486963762987 -0.0085028970551800868 0 -0.0022442260894080194 -0.0083615372280784091 0 -0.0022803887448225213 -0.0083188303535355994 0 -0.0021548498475473725 -0.0081926068686207654 0 -0.0022803887448225213 -0.0083188303535355994 0 -0.002323720362828081 -0.0082967765877943987 0 -0.0021548498475473725 -0.0081926068686207654 0 -0.0022442260894080194 -0.0083615372280784091 0 -0.0022758828453268961 -0.00833289713646229 0 -0.0022803887448225213 -0.0083188303535355994 0 -0.0023069130439903425 -0.0083187549843478127 0 -0.0023016550208299685 -0.0083027618673258575 0 -0.0022758828453268961 -0.00833289713646229 0 -0.0023016550208299685 -0.0083027618673258575 0 -0.0022758828453268961 -0.00833289713646229 0 -0.0022803887448225213 -0.0083188303535355994 0 -0.0023016550208299685 -0.0083027618673258575 0 -0.0023147319387387443 -0.0082939152107095303 0 -0.0022803887448225213 -0.0083188303535355994 0 -0.0023147319387387443 -0.0082939152107095303 0 -0.0022803887448225213 -0.0083188303535355994 0 -0.002323720362828081 -0.0082967765877943987 0 -0.0023589288833760491 -0.0082165802572663395 0 -0.0023929917769501016 -0.0082272741390871061 0 -0.0021548498475473725 -0.0081926068686207654 0 -0.0023550908289373287 -0.0082842115996622136 0 -0.0020779335299024974 -0.0074488937124208574 0 -0.0023400387830956274 -0.0083696163684436262 0 -0.0023550908289373287 -0.0082842115996622136 0 -0.0026660104713612728 -0.0086491855143520577 0 -0.002323720362828081 -0.0082967765877943987 0 -0.0021548498475473725 -0.0081926068686207654 0 -0.0023550908289373287 -0.0082842115996622136 0 -0.0023241795126259482 -0.0082965835482335226 0 -0.002323720362828081 -0.0082967765877943987 0 -0.0023550908289373287 -0.0082842115996622136 0 -0.0012645905873531959 -0.0085548387787992373 0 -0.0015148326765975543 -0.0079849433964760061 0 -0.00072975685505194746 -0.0078494840689279314 0 -0.0012645905873531959 -0.0085548387787992373 0 -0.0015148326765975543 -0.0079849433964760061 0 -0.001681486963762987 -0.0085028970551800868 0 -0.0021548498475473725 -0.0081926068686207654 0 -0.0015148326765975543 -0.0079849433964760061 0 -0.001681486963762987 -0.0085028970551800868 0 -0.0015148326765975543 -0.0079849433964760061 0 -0.0012285220323063732 -0.0074708281946971522 0 -0.00072975685505194746 -0.0078494840689279314 0 -0.0012285220323063732 -0.0074708281946971522 0 -0.0020779335299024974 -0.0074488937124208574 0 -0.001285556338833651 -0.0068796186475031471 0 -0.0015148326765975543 -0.0079849433964760061 0 -0.0012285220323063732 -0.0074708281946971522 0 -0.0020779335299024974 -0.0074488937124208574 0 -0.0021548498475473725 -0.0081926068686207654 0 -0.0015148326765975543 -0.0079849433964760061 0 -0.0020779335299024974 -0.0074488937124208574 0 -0.0023929917769501016 -0.0082272741390871061 0 -0.0022802489074515014 -0.007026572467941309 0 -0.0026660104713612728 -0.0086491855143520577 0 -0.0028398048482432122 -0.0091138277395555346 0 -0.0024426005343775371 -0.0089582925771939364 0 -0.0020779335299024974 -0.0074488937124208574 0 -0.001285556338833651 -0.0068796186475031471 0 -0.0017822328436553803 -0.0064840238415757182 0 -0.0012285220323063732 -0.0074708281946971522 0 -0.001285556338833651 -0.0068796186475031471 0 -0.00067404699198857633 -0.0070728069921114 0 -0.001285556338833651 -0.0068796186475031471 0 -0.0010759944402689852 -0.0062229190822549515 0 -0.00074479052388822713 -0.0065935353612152662 0 -0.0010759944402689852 -0.0062229190822549515 0 -0.0017822328436553803 -0.0064840238415757182 0 -0.0015162970231575128 -0.0055431997776983254 0 -0.0022802489074515014 -0.007026572467941309 0 -0.0012757671779342157 -0.011555036252601592 0 -0.001285556338833651 -0.0068796186475031471 0 -0.0010759944402689852 -0.0062229190822549515 0 -0.0017822328436553803 -0.0064840238415757182 0 -0.0028398048482432122 -0.0091138277395555346 0 -0.0025060370480047296 -0.0093652041114051301 0 -0.0024426005343775371 -0.0089582925771939364 0 -0.0028398048482432122 -0.0091138277395555346 0 -0.0029525733531154882 -0.0095929801176082661 0 -0.0025060370480047296 -0.0093652041114051301 0 -0.0012757671779342157 -0.011555036252601592 0 -0.0023073606243305123 -0.014360011052260658 0 -0.0029525733531154882 -0.0095929801176082661 0 -0.0024728937405579634 -0.0097283550319632265 0 -0.0025060370480047296 -0.0093652041114051301 0 -0.0014342424839281882 -0.018452673389719468 0 -0.0018634143064439202 -0.018432735873150741 0 -0.0015849089022034082 -0.018265940854727027 0 0.0013971715103001171 -0.012587348892136897 0 0.00079014341346149571 -0.012416478462282719 0 0.0010221404447492836 -0.012840163827886953 0 -0.0012757671779342157 -0.011555036252601592 0 8.6991772775080886e-05 -0.008975039171829716 0 -0.0010759944402689852 -0.0062229190822549515 0 -0.0015162970231575128 -0.0055431997776983254 0 -0.00065721335763912353 -0.0057176692102564397 0 -0.0021889154822135114 -0.0095778208008730804 0 -0.0021248220242056528 -0.0092426816344984147 0 -0.0017983739515201427 -0.0096630690082652859 0 -0.0021889154822135114 -0.0095778208008730804 0 -0.0024728937405579634 -0.0097283550319632265 0 -0.0020221384783003986 -0.0098924413605934527 0 -0.0021889154822135114 -0.0095778208008730804 0 -0.0024728937405579634 -0.0097283550319632265 0 -0.0025060370480047296 -0.0093652041114051301 0 -0.0025060370480047296 -0.0093652041114051301 0 -0.0021248220242056528 -0.0092426816344984147 0 -0.0024426005343775371 -0.0089582925771939364 0 -0.0021889154822135114 -0.0095778208008730804 0 -0.0025060370480047296 -0.0093652041114051301 0 -0.0021248220242056528 -0.0092426816344984147 0 -0.0021379601111052434 -0.0088938366906550527 0 -0.0024426005343775371 -0.0089582925771939364 0 -0.0022358260445731514 -0.0086555289133930877 0 -0.0021248220242056528 -0.0092426816344984147 0 -0.0021379601111052434 -0.0088938366906550527 0 -0.0024426005343775371 -0.0089582925771939364 0 -0.0021248220242056528 -0.0092426816344984147 0 -0.0021379601111052434 -0.0088938366906550527 0 -0.0018857422240767009 -0.0089118152992267163 0 -0.0024426005343775371 -0.0089582925771939364 0 -0.0024379833872058844 -0.0086994894126331494 0 -0.0022358260445731514 -0.0086555289133930877 0 -0.0026660104713612728 -0.0086491855143520577 0 -0.0024426005343775371 -0.0089582925771939364 0 -0.0024379833872058844 -0.0086994894126331494 0 -0.0023400387830956274 -0.0083696163684436262 0 -0.0026660104713612728 -0.0086491855143520577 0 -0.0023348345200918412 -0.0085090533189881197 0 -0.0026660104713612728 -0.0086491855143520577 0 -0.0024379833872058844 -0.0086994894126331494 0 -0.0023348345200918412 -0.0085090533189881197 0 -0.0024379833872058844 -0.0086994894126331494 0 -0.0023348345200918412 -0.0085090533189881197 0 -0.0022358260445731514 -0.0086555289133930877 0 -0.0021379601111052434 -0.0088938366906550527 0 -0.0022358260445731514 -0.0086555289133930877 0 -0.002027033233293736 -0.0086276450743183238 0 -0.0021820481143673244 -0.0083976552532639744 0 -0.0023348345200918412 -0.0085090533189881197 0 -0.0022358260445731514 -0.0086555289133930877 0 -0.0021820481143673244 -0.0083976552532639744 0 -0.0022358260445731514 -0.0086555289133930877 0 -0.002027033233293736 -0.0086276450743183238 0 -0.0019168627659702363 -0.0083211999889866578 0 -0.002027033233293736 -0.0086276450743183238 0 -0.0017463628107458899 -0.0086096845580654197 0 -0.002027033233293736 -0.0086276450743183238 0 -0.0017463628107458899 -0.0086096845580654197 0 -0.0018857422240767009 -0.0089118152992267163 0 -0.0019168627659702363 -0.0083211999889866578 0 -0.0021820481143673244 -0.0083976552532639744 0 -0.002027033233293736 -0.0086276450743183238 0 -0.0014790638316732954 -0.0083466095159214441 0 -0.0017463628107458899 -0.0086096845580654197 0 -0.0014070115225270049 -0.0087315141309108075 0 -0.0019168627659702363 -0.0083211999889866578 0 -0.0014790638316732954 -0.0083466095159214441 0 -0.0017463628107458899 -0.0086096845580654197 0 -0.0017463628107458899 -0.0086096845580654197 0 -0.00161096390359237 -0.009036368288179164 0 -0.0014070115225270049 -0.0087315141309108075 0 -0.00161096390359237 -0.009036368288179164 0 -0.0018857422240767009 -0.0089118152992267163 0 -0.0017363791729504625 -0.0093325813572052545 0 -0.0017463628107458899 -0.0086096845580654197 0 -0.00161096390359237 -0.009036368288179164 0 -0.0018857422240767009 -0.0089118152992267163 0 -0.0021379601111052434 -0.0088938366906550527 0 -0.002027033233293736 -0.0086276450743183238 0 -0.0018857422240767009 -0.0089118152992267163 0 -0.00081129367590714811 -0.0083672287354725743 0 -0.001085854093745102 -0.0086302205745760873 0 -0.00056665373097073931 -0.0087144739734933523 0 -0.0011088738250106703 -0.0082040510281871405 0 -0.00081129367590714811 -0.0083672287354725743 0 -0.001085854093745102 -0.0086302205745760873 0 -0.0014790638316732954 -0.0083466095159214441 0 -0.0014070115225270049 -0.0087315141309108075 0 -0.001085854093745102 -0.0086302205745760873 0 -0.0011088738250106703 -0.0082040510281871405 0 -0.0014790638316732954 -0.0083466095159214441 0 -0.001085854093745102 -0.0086302205745760873 0 -0.00161096390359237 -0.009036368288179164 0 -0.0014070115225270049 -0.0087315141309108075 0 -0.0010814483469304375 -0.0090769290821015956 0 -0.0014070115225270049 -0.0087315141309108075 0 -0.001085854093745102 -0.0086302205745760873 0 -0.0010814483469304375 -0.0090769290821015956 0 -0.001085854093745102 -0.0086302205745760873 0 -0.0010814483469304375 -0.0090769290821015956 0 -0.00056665373097073931 -0.0087144739734933523 0 -0.0010814483469304375 -0.0090769290821015956 0 -0.00056665373097073931 -0.0087144739734933523 0 -0.0005432469776645519 -0.0092781325209185268 0 -0.0014340042604118323 -0.010051956569492967 0 -0.00093718123444241062 -0.0099023268361105501 0 -0.0010814483469304375 -0.0090769290821015956 0 -0.00096977884600237961 -0.0096654140406441207 0 -0.0005432469776645519 -0.0092781325209185268 0 -0.0010814483469304375 -0.0090769290821015956 0 -0.0013912244418594869 -0.0094131000403482167 0 -0.00096977884600237961 -0.0096654140406441207 0 -0.00161096390359237 -0.009036368288179164 0 -0.0010814483469304375 -0.0090769290821015956 0 -0.0013912244418594869 -0.0094131000403482167 0 -0.0013988976980139056 -0.0097239599494269198 0 -0.00096977884600237961 -0.0096654140406441207 0 -0.0014977901355834222 -0.010054795971921384 0 -0.0013912244418594869 -0.0094131000403482167 0 -0.0013988976980139056 -0.0097239599494269198 0 -0.00096977884600237961 -0.0096654140406441207 0 -0.0017601191573759097 -0.010389238509371871 0 -0.0018851419474566413 -0.010193402114407118 0 -0.0021208631527685324 -0.01030863180725226 0 -0.0021248220242056528 -0.0092426816344984147 0 -0.0018857422240767009 -0.0089118152992267163 0 -0.0017363791729504625 -0.0093325813572052545 0 -0.0021248220242056528 -0.0092426816344984147 0 -0.0017363791729504625 -0.0093325813572052545 0 -0.0017983739515201427 -0.0096630690082652859 0 -0.00161096390359237 -0.009036368288179164 0 -0.0013912244418594869 -0.0094131000403482167 0 -0.0017363791729504625 -0.0093325813572052545 0 -0.0013912244418594869 -0.0094131000403482167 0 -0.0017363791729504625 -0.0093325813572052545 0 -0.0015516305298278251 -0.009619801650535182 0 -0.0017363791729504625 -0.0093325813572052545 0 -0.0015516305298278251 -0.009619801650535182 0 -0.0017983739515201427 -0.0096630690082652859 0 -0.0013912244418594869 -0.0094131000403482167 0 -0.0013988976980139056 -0.0097239599494269198 0 -0.0015516305298278251 -0.009619801650535182 0 -0.0013988976980139056 -0.0097239599494269198 0 -0.0015516305298278251 -0.009619801650535182 0 -0.0015243721465621339 -0.0098439128000358464 0 -0.0015516305298278251 -0.009619801650535182 0 -0.0017983739515201427 -0.0096630690082652859 0 -0.0015243721465621339 -0.0098439128000358464 0 -0.0021889154822135114 -0.0095778208008730804 0 -0.0017983739515201427 -0.0096630690082652859 0 -0.0020221384783003986 -0.0098924413605934527 0 -0.0017983739515201427 -0.0096630690082652859 0 -0.0014901097383776822 -0.010053755112292808 0 -0.0020221384783003986 -0.0098924413605934527 0 -0.0022151470009172921 -0.014314652694522888 0 -0.00216579559283573 -0.014136945208457338 0 -0.002899196299774105 -0.018571676747791525 0 -0.0026481375828479609 -0.01825513664364865 0 -0.0023383030664790938 -0.018435717719891831 0 -0.0017983739515201427 -0.0096630690082652859 0 -0.0015243721465621339 -0.0098439128000358464 0 -0.0014901097383776822 -0.010053755112292808 0 -0.0013988976980139056 -0.0097239599494269198 0 -0.0015243721465621339 -0.0098439128000358464 0 -0.0014977901355834222 -0.010054795971921384 0 -0.0015243721465621339 -0.0098439128000358464 0 -0.0014901097383776822 -0.010053755112292808 0 -0.0014977901355834222 -0.010054795971921384 0 -0.00262249082641832 -0.018818883654641946 0 -0.0032224807649720712 -0.018693589772704799 0 -0.0029843040392989787 -0.018480110931055137 0 -0.0026310939394889868 -0.018546794737813461 0 -0.0031532394363561161 -0.018667710784467641 0 -0.00262249082641832 -0.018818883654641946 0 -0.0026001994447224989 -0.018385150403996398 0 -0.0029843040392989787 -0.018480110931055137 0 -0.002899196299774105 -0.018571676747791525 0 -0.0026481375828479609 -0.01825513664364865 0 -0.0032224807649720712 -0.018693589772704799 0 -0.0026310939394889868 -0.018546794737813461 0 -0.0019480067531412175 -0.018430527872927847 0 -0.0026481375828479609 -0.01825513664364865 0 -0.0023383030664790938 -0.018435717719891831 0 -0.0021353682154246676 -0.018054869054892311 0 -0.00262249082641832 -0.018818883654641946 0 -0.0022130750926261157 -0.01843934665197575 0 -0.0018724830148745719 -0.018847548216991077 0 -0.0018851419474566413 -0.010193402114407118 0 -0.0014977901355834222 -0.010054795971921384 0 -0.0017079342644767564 -0.01000297580339508 0 -0.0017601191573759097 -0.010389238509371871 0 -0.0018851419474566413 -0.010193402114407118 0 -0.0014977901355834222 -0.010054795971921384 0 -0.0014901097383776822 -0.010053755112292808 0 -0.0014977901355834222 -0.010054795971921384 0 -0.0017079342644767564 -0.01000297580339508 0 -0.0022151470009172921 -0.014314652694522888 0 -0.0026472401452146662 -0.014377737191560611 0 -0.0014340042604118323 -0.010051956569492967 0 -0.0014578214960415015 -0.010044890392128048 0 -0.002899196299774105 -0.018571676747791525 0 -0.0032224807649720712 -0.018693589772704799 0 -0.0034725431127771967 -0.018792137847854315 0 -0.0032224807649720712 -0.018693589772704799 0 -0.0033015713312932026 -0.018510576098944746 0 -0.0029843040392989787 -0.018480110931055137 0 -0.0032224807649720712 -0.018693589772704799 0 -0.0033015713312932026 -0.018510576098944746 0 -0.0034725431127771967 -0.018792137847854315 0 -0.0018851419474566413 -0.010193402114407118 0 -0.0017079342644767564 -0.01000297580339508 0 -0.0021514748267856721 -0.0099517991368122116 0 -0.0034725431127771967 -0.018792137847854315 0 -0.003696800746475137 -0.018509458189059504 0 -0.004184612668080033 -0.018689027699592711 0 -0.0033015713312932026 -0.018510576098944746 0 -0.0034725431127771967 -0.018792137847854315 0 -0.003696800746475137 -0.018509458189059504 0 -0.003696800746475137 -0.018509458189059504 0 -0.0035258563683496272 -0.018258298616346078 0 -0.0039036035504574533 -0.01818367743317939 0 -0.0033015713312932026 -0.018510576098944746 0 -0.003696800746475137 -0.018509458189059504 0 -0.0035258563683496272 -0.018258298616346078 0 -0.0033015713312932026 -0.018510576098944746 0 -0.0035258563683496272 -0.018258298616346078 0 -0.0032225611965919694 -0.01820655622080335 0 -0.0033015713312932026 -0.018510576098944746 0 -0.0032225611965919694 -0.01820655622080335 0 -0.0029843040392989787 -0.018480110931055137 0 -0.0035258563683496272 -0.018258298616346078 0 -0.0032225611965919694 -0.01820655622080335 0 -0.0035191400276658679 -0.017869159860039875 0 -0.0032225611965919694 -0.01820655622080335 0 -0.003102150473140739 -0.017871410192945282 0 -0.0035191400276658679 -0.017869159860039875 0 -0.0032225611965919694 -0.01820655622080335 0 -0.003102150473140739 -0.017871410192945282 0 -0.0028479526378927182 -0.01812930809065201 0 -0.0035191400276658679 -0.017869159860039875 0 -0.0039036035504574533 -0.01818367743317939 0 -0.0040047718431576104 -0.017698984280246625 0 -0.0035258563683496272 -0.018258298616346078 0 -0.0035191400276658679 -0.017869159860039875 0 -0.0039036035504574533 -0.01818367743317939 0 -0.00262249082641832 -0.018818883654641946 0 -0.0022130750926261157 -0.01843934665197575 0 -0.0026001994447224989 -0.018385150403996398 0 -0.0026001994447224989 -0.018385150403996398 0 -0.0028479526378927182 -0.01812930809065201 0 -0.0023742768841757472 -0.01805693962950412 0 -0.0022130750926261157 -0.01843934665197575 0 -0.0026001994447224989 -0.018385150403996398 0 -0.0023742768841757472 -0.01805693962950412 0 -0.0032225611965919694 -0.01820655622080335 0 -0.0029843040392989787 -0.018480110931055137 0 -0.0028479526378927182 -0.01812930809065201 0 -0.0026001994447224989 -0.018385150403996398 0 -0.0029843040392989787 -0.018480110931055137 0 -0.0028479526378927182 -0.01812930809065201 0 -0.0028479526378927182 -0.01812930809065201 0 -0.0023742768841757472 -0.01805693962950412 0 -0.0027267574846602518 -0.017659163606853538 0 -0.003102150473140739 -0.017871410192945282 0 -0.0028479526378927182 -0.01812930809065201 0 -0.0027267574846602518 -0.017659163606853538 0 -0.0023742768841757472 -0.01805693962950412 0 -0.0021694668359910365 -0.017548055853936841 0 -0.0027267574846602518 -0.017659163606853538 0 -0.0023742768841757472 -0.01805693962950412 0 -0.0017557123217366239 -0.018123039879767735 0 -0.0021694668359910365 -0.017548055853936841 0 -0.0022130750926261157 -0.01843934665197575 0 -0.0023742768841757472 -0.01805693962950412 0 -0.0017557123217366239 -0.018123039879767735 0 -0.0022130750926261157 -0.01843934665197575 0 -0.0017557123217366239 -0.018123039879767735 0 -0.0018724830148745719 -0.018847548216991077 0 -0.0017557123217366239 -0.018123039879767735 0 -0.0011045545744484491 -0.017915137122448899 0 -0.0010192690639357698 -0.018817232385255685 0 -0.0017557123217366239 -0.018123039879767735 0 -0.0010192690639357698 -0.018817232385255685 0 -0.0018724830148745719 -0.018847548216991077 0 -0.0017557123217366239 -0.018123039879767735 0 -0.0011045545744484491 -0.017915137122448899 0 -0.0016393121649268209 -0.017378413879356777 0 -0.0011045545744484491 -0.017915137122448899 0 -0.00049808879026027263 -0.017632569643923353 0 -0.000545564816780465 -0.018258185815883371 0 -0.00049808879026027263 -0.017632569643923353 0 -0.000545564816780465 -0.018258185815883371 0 0.00012731621767937394 -0.018097733364649302 0 -0.00049808879026027263 -0.017632569643923353 0 0.00035799355469073277 -0.017400453162101686 0 0.00012731621767937394 -0.018097733364649302 0 -0.000545564816780465 -0.018258185815883371 0 -6.9180413549780817e-05 -0.01873132062358247 0 0.00012731621767937394 -0.018097733364649302 0 -0.000545564816780465 -0.018258185815883371 0 -6.9180413549780817e-05 -0.01873132062358247 0 -0.0010192690639357698 -0.018817232385255685 0 -0.0011045545744484491 -0.017915137122448899 0 -0.000545564816780465 -0.018258185815883371 0 -0.0010192690639357698 -0.018817232385255685 0 -0.001687174788116463 -0.017932820106372031 0 -0.0013448479201713815 -0.018174116906628297 0 -0.0015849089022034082 -0.018265940854727027 0 0.00017374649618217552 -0.017053480486824962 0 -8.3745648737522583e-05 -0.016169444201178829 0 0.00017374649618217552 -0.017053480486824962 0 -0.0015452613765635126 -0.018521729251152762 0 -0.0012481607255014394 -0.01784184082613445 0 -0.001687174788116463 -0.017932820106372031 0 -0.0013448479201713815 -0.018174116906628297 0 0.0013971715103001171 -0.012587348892136897 0 0.0012514370554667599 -0.01324674122241541 0 0.0010221404447492836 -0.012840163827886953 0 -0.0012757671779342157 -0.011555036252601592 0 -8.3745648737522583e-05 -0.016169444201178829 0 -0.0014342424839281882 -0.018452673389719468 0 -0.0013448479201713815 -0.018174116906628297 0 -0.0015849089022034082 -0.018265940854727027 0 -0.0018634143064439202 -0.018432735873150741 0 -0.001687174788116463 -0.017932820106372031 0 -0.0015849089022034082 -0.018265940854727027 0 -0.0018634143064439202 -0.018432735873150741 0 -0.0023383030664790938 -0.018435717719891831 0 -0.0021353682154246676 -0.018054869054892311 0 -0.0023073606243305123 -0.014360011052260658 0 -0.00216579559283573 -0.014136945208457338 0 -0.0015452613765635126 -0.018521729251152762 0 -0.0019480067531412175 -0.018430527872927847 0 -0.0018634143064439202 -0.018432735873150741 0 -0.001687174788116463 -0.017932820106372031 0 -0.0021353682154246676 -0.018054869054892311 0 -0.011573706294977795 -0.012882258701185699 0 -0.010133645203245929 -0.015573390152638228 0 -0.013691838703041132 -0.011684724712339487 0 -0.011573706294977795 -0.012882258701185699 0 -0.013569758487860408 -0.012907456983005914 0 -0.014322999010879934 -0.011977723488045539 0 -0.014728684488185964 -0.013715353448385483 0 -0.0058421161311090746 -0.016436507917204492 0 -0.0059457844766243485 -0.016605144200488375 0 -0.0058475133109002972 -0.016777029155945974 0 -0.0058421161311090746 -0.016436507917204492 0 -0.0059457844766243485 -0.016605144200488375 0 -0.0060761142585130578 -0.01650473631812906 0 -0.011573706294977795 -0.012882258701185699 0 -0.010291988769739174 -0.013042045029423074 0 -0.0059457844766243485 -0.016605144200488375 0 -0.0060761142585130578 -0.01650473631812906 0 -0.0060169005200106972 -0.016706518262118088 0 -0.014208938664434982 -0.0089572989651237334 0 -0.014495494986399069 -0.0086881896253635949 0 -0.014495678549530254 -0.00931926140764139 0 -0.014013646298450068 -0.0092415532824961458 0 -0.014208938664434982 -0.0089572989651237334 0 -0.014495678549530254 -0.00931926140764139 0 -0.011573706294977795 -0.012882258701185699 0 -0.014091407278744604 -0.0092452187530711327 0 -0.014013646298450068 -0.0092415532824961458 0 -0.014208938664434982 -0.0089572989651237334 0 -0.01393723525390368 -0.0088650415512408903 0 -0.013328139736354416 -0.011496096168005463 0 -0.014725293244512735 -0.011737398963005977 0 -0.014343435848130611 -0.010242453843547291 0 -0.014208938664434982 -0.0089572989651237334 0 -0.01393723525390368 -0.0088650415512408903 0 -0.01416580247428161 -0.0085465113583262208 0 -0.013895518959447949 -0.0088090734840730635 0 -0.014091407278744604 -0.0092452187530711327 0 -0.013822241116287048 -0.0086079600240520169 0 -0.01393723525390368 -0.0088650415512408903 0 -0.01416580247428161 -0.0085465113583262208 0 -0.013822241116287048 -0.0086079600240520169 0 -0.01416580247428161 -0.0085465113583262208 0 -0.013985208459264327 -0.0081129397187134147 0 -0.01416580247428161 -0.0085465113583262208 0 -0.014192234003291698 -0.0081526567611333225 0 -0.013985208459264327 -0.0081129397187134147 0 -0.014154582981224692 -0.0078021663204634059 0 -0.014192234003291698 -0.0081526567611333225 0 -0.013985208459264327 -0.0081129397187134147 0 -0.014154582981224692 -0.0078021663204634059 0 -0.014192234003291698 -0.0081526567611333225 0 -0.014444442647375684 -0.0081233332654013866 0 -0.01416580247428161 -0.0085465113583262208 0 -0.014444442647375684 -0.0081233332654013866 0 -0.014495494986399069 -0.0086881896253635949 0 -0.01416580247428161 -0.0085465113583262208 0 -0.014192234003291698 -0.0081526567611333225 0 -0.014444442647375684 -0.0081233332654013866 0 -0.014208938664434982 -0.0089572989651237334 0 -0.01416580247428161 -0.0085465113583262208 0 -0.014495494986399069 -0.0086881896253635949 0 -0.014495494986399069 -0.0086881896253635949 0 -0.01480313061291927 -0.0081387494631989243 0 -0.014873963488162278 -0.0088325827026263758 0 -0.009624300396017341 -0.0081926687966702334 0 -0.01041529771731938 -0.0089664331560966194 0 -0.014444442647375684 -0.0081233332654013866 0 -0.014495494986399069 -0.0086881896253635949 0 -0.01480313061291927 -0.0081387494631989243 0 -0.0059395383390391998 -0.0071404061224568591 0 -0.0051367545197488649 -0.0078692228143464361 0 -0.0064560330086700195 -0.007959567096475495 0 -0.0051367545197488649 -0.0078692228143464361 0 -0.0060444439238720726 -0.008844873929922361 0 -0.0064560330086700195 -0.007959567096475495 0 -0.0051367545197488649 -0.0078692228143464361 0 -0.0060444439238720726 -0.008844873929922361 0 -0.0055789837206971903 -0.0096703410816921243 0 -0.0060444439238720726 -0.008844873929922361 0 -0.0060375811905260682 -0.0098152822125991881 0 -0.0069642755479989698 -0.0088805605994241293 0 -0.0060444439238720726 -0.008844873929922361 0 -0.0055789837206971903 -0.0096703410816921243 0 -0.0060375811905260682 -0.0098152822125991881 0 -0.0055789837206971903 -0.0096703410816921243 0 -0.0060375811905260682 -0.0098152822125991881 0 -0.0059717583257098972 -0.011151544411822596 0 -0.01041529771731938 -0.0089664331560966194 0 -0.0090939141441550159 -0.011602537224499965 0 -0.0060375811905260682 -0.0098152822125991881 0 -0.0059717583257098972 -0.011151544411822596 0 -0.0064520769503877582 -0.010531895013730464 0 -0.014495494986399069 -0.0086881896253635949 0 -0.014873963488162278 -0.0088325827026263758 0 -0.014495678549530254 -0.00931926140764139 0 -0.014873963488162278 -0.0088325827026263758 0 -0.014495678549530254 -0.00931926140764139 0 -0.014935719523360171 -0.0094059718592856469 0 -0.010291988769739174 -0.013042045029423074 0 -0.0090939141441550159 -0.011602537224499965 0 -0.0060761142585130578 -0.01650473631812906 0 -0.0063616040934313086 -0.016532110644116409 0 -0.0061935879097903442 -0.01669985367480379 0 -0.0090939141441550159 -0.011602537224499965 0 -0.0059063285402361984 -0.011113443589663334 0 -0.0068307024663362137 -0.010782413840985805 0 -0.0073160373696948789 -0.011051454544432675 0 -0.0070639338211177377 -0.010340275797648511 0 -0.0068307024663362137 -0.010782413840985805 0 -0.0065231287314688243 -0.011254036763403242 0 -0.0073160373696948789 -0.011051454544432675 0 -0.0068307024663362137 -0.010782413840985805 0 -0.0065231287314688243 -0.011254036763403242 0 -0.0064520769503877582 -0.010531895013730464 0 -0.0059717583257098972 -0.011151544411822596 0 -0.0065231287314688243 -0.011254036763403242 0 -0.0064520769503877582 -0.010531895013730464 0 -0.0065231287314688243 -0.011254036763403242 0 -0.0073160373696948789 -0.011051454544432675 0 -0.0069579876768019883 -0.011868066545000758 0 -0.0073160373696948789 -0.011051454544432675 0 -0.0080355603969510785 -0.010536739291761424 0 -0.007839593065195492 -0.011878729958167042 0 -0.0073160373696948789 -0.011051454544432675 0 -0.0070639338211177377 -0.010340275797648511 0 -0.0080355603969510785 -0.010536739291761424 0 -0.0070639338211177377 -0.010340275797648511 0 -0.0073545049245248009 -0.009589972141032365 0 -0.0080355603969510785 -0.010536739291761424 0 -0.0073545049245248009 -0.009589972141032365 0 -0.0081628787166802275 -0.0097645617036342738 0 -0.0080355603969510785 -0.010536739291761424 0 -0.0067219871952688363 -0.00987931270530161 0 -0.0070639338211177377 -0.010340275797648511 0 -0.0073545049245248009 -0.009589972141032365 0 -0.0068307024663362137 -0.010782413840985805 0 -0.0070639338211177377 -0.010340275797648511 0 -0.0064520769503877582 -0.010531895013730464 0 -0.0067219871952688363 -0.00987931270530161 0 -0.0070639338211177377 -0.010340275797648511 0 -0.0064520769503877582 -0.010531895013730464 0 -0.0060375811905260682 -0.0098152822125991881 0 -0.0067219871952688363 -0.00987931270530161 0 -0.0064520769503877582 -0.010531895013730464 0 -0.0060375811905260682 -0.0098152822125991881 0 -0.0067219871952688363 -0.00987931270530161 0 -0.0067021869999491493 -0.0091590180808990822 0 -0.0060973985687722259 -0.0097573478425922941 0 -0.0068896930779580442 -0.0089982330696329483 0 -0.0067219871952688363 -0.00987931270530161 0 -0.0067021869999491493 -0.0091590180808990822 0 -0.0073545049245248009 -0.009589972141032365 0 -0.0069642755479989698 -0.0088805605994241293 0 -0.0064560330086700195 -0.007959567096475495 0 -0.0078271089404406569 -0.0079720631818536326 0 -0.0068645127733798052 -0.0070591569951624564 0 -0.0064560330086700195 -0.007959567096475495 0 -0.0078271089404406569 -0.0079720631818536326 0 -0.0060444439238720726 -0.008844873929922361 0 -0.0069642755479989698 -0.0088805605994241293 0 -0.0064560330086700195 -0.007959567096475495 0 -0.0068896930779580442 -0.0089982330696329483 0 -0.0066898387611278257 -0.0078848276358197827 0 -0.0066898387611278257 -0.0078848276358197827 0 -0.0036519357133863099 -0.0092895295728120976 0 -0.0067021869999491493 -0.0091590180808990822 0 -0.007365483633063958 -0.0084641253257389543 0 -0.0073545049245248009 -0.009589972141032365 0 -0.007365483633063958 -0.0084641253257389543 0 -0.0073545049245248009 -0.009589972141032365 0 -0.0082434635592095185 -0.009301336690928929 0 -0.0048610191380337653 -0.010153785437639598 0 -0.0036519357133863099 -0.0092895295728120976 0 -0.0023464126970847319 -0.010738034989414506 0 -0.002323763165839102 -0.010860511679962132 0 -0.0020475209893566979 -0.010636766210200771 0 -0.0073545049245248009 -0.009589972141032365 0 -0.0081628787166802275 -0.0097645617036342738 0 -0.0082434635592095185 -0.009301336690928929 0 -0.00010499464105173962 -0.0088739696726756016 0 -0.00014735842172172511 -0.0084024689189861231 0 -0.00029597551008795421 -0.0086253019373364378 0 -0.0036519357133863099 -0.0092895295728120976 0 -0.002347637267563837 -0.0081452860619625669 0 -0.0045302951866518053 -0.0079212749234322897 0 -0.0044128206527471736 -0.0080562776322163649 0 -0.0046144436067899891 -0.0080395189811665168 0 -0.0044128206527471736 -0.0080562776322163649 0 -0.004581998611636569 -0.0082406691174663222 0 -0.0046144436067899891 -0.0080395189811665168 0 -0.00043484427491061666 -0.0082143333043804816 0 -0.00081129367590714811 -0.0083672287354725743 0 -0.00056665373097073931 -0.0087144739734933523 0 -0.00043484427491061666 -0.0082143333043804816 0 -0.00056665373097073931 -0.0087144739734933523 0 -0.00029597551008795421 -0.0086253019373364378 0 -0.00043484427491061666 -0.0082143333043804816 0 -0.00014735842172172511 -0.0084024689189861231 0 -0.00029597551008795421 -0.0086253019373364378 0 -0.00010499464105173962 -0.0088739696726756016 0 -0.00056665373097073931 -0.0087144739734933523 0 -0.0005432469776645519 -0.0092781325209185268 0 -0.0036519357133863099 -0.0092895295728120976 0 -0.00093718123444241062 -0.0099023268361105501 0 -0.00010499464105173962 -0.0088739696726756016 0 -0.00056665373097073931 -0.0087144739734933523 0 -0.00029597551008795421 -0.0086253019373364378 0 -0.0023464126970847319 -0.010738034989414506 0 -0.0020475209893566979 -0.010636766210200771 0 -0.0023893070947055097 -0.010533203636269577 0 -0.0048610191380337653 -0.010153785437639598 0 -0.0051849149569879105 -0.010691291498380776 0 -0.0051849149569879105 -0.010691291498380776 0 -0.0052364038117272372 -0.010439410702106914 0 -0.0023893070947055097 -0.010533203636269577 0 -0.0021208631527685324 -0.01030863180725226 0 -0.0024539558280629141 -0.010204179768260364 0 -0.0020475209893566979 -0.010636766210200771 0 -0.0023893070947055097 -0.010533203636269577 0 -0.0021208631527685324 -0.01030863180725226 0 -0.0017601191573759097 -0.010389238509371871 0 -0.0020475209893566979 -0.010636766210200771 0 -0.0021208631527685324 -0.01030863180725226 0 -0.0018851419474566413 -0.010193402114407118 0 -0.0021208631527685324 -0.01030863180725226 0 -0.0021514748267856721 -0.0099517991368122116 0 -0.0021208631527685324 -0.01030863180725226 0 -0.0021514748267856721 -0.0099517991368122116 0 -0.0024539558280629141 -0.010204179768260364 0 -0.0021514748267856721 -0.0099517991368122116 0 -0.002526319752640966 -0.0099104270150569829 0 -0.0024539558280629141 -0.010204179768260364 0 -0.0029437670552667321 -0.014324743316969235 0 -0.0047462362465274912 -0.014397518503133771 0 -0.0026472401452146662 -0.014377737191560611 0 -0.0029437670552667321 -0.014324743316969235 0 -0.003696800746475137 -0.018509458189059504 0 -0.004184612668080033 -0.018689027699592711 0 -0.0039036035504574533 -0.01818367743317939 0 -0.004184612668080033 -0.018689027699592711 0 -0.0039036035504574533 -0.01818367743317939 0 -0.0044979667505738565 -0.018242614704402568 0 -0.0039036035504574533 -0.01818367743317939 0 -0.0043672858074105415 -0.017913938663566612 0 -0.0044979667505738565 -0.018242614704402568 0 -0.0039036035504574533 -0.01818367743317939 0 -0.0043672858074105415 -0.017913938663566612 0 -0.0040047718431576104 -0.017698984280246625 0 -0.0046727885883819627 -0.017959664890720786 0 -0.0043672858074105415 -0.017913938663566612 0 -0.0046436264876704549 -0.017772897332314491 0 -0.0046727885883819627 -0.017959664890720786 0 -0.0048627232427414209 -0.017782279857603642 0 -0.0046436264876704549 -0.017772897332314491 0 -0.0046727885883819627 -0.017959664890720786 0 -0.0043672858074105415 -0.017913938663566612 0 -0.0044979667505738565 -0.018242614704402568 0 -0.004184612668080033 -0.018689027699592711 0 -0.0044979667505738565 -0.018242614704402568 0 -0.0048755651590473978 -0.01853123255988064 0 -0.0044979667505738565 -0.018242614704402568 0 -0.0048755651590473978 -0.01853123255988064 0 -0.004991686263697552 -0.018077430459767466 0 -0.0052028964316434322 -0.017641960581994111 0 -0.0051836772733147773 -0.017713054339368588 0 -0.005165460934700712 -0.017675777791528752 0 -0.0047462362465274912 -0.014397518503133771 0 -0.0049943588891643896 -0.018565607949388239 0 -0.004991686263697552 -0.018077430459767466 0 -0.0048627232427414209 -0.017782279857603642 0 -0.005145648248358098 -0.017568671722722945 0 -0.0046727885883819627 -0.017959664890720786 0 -0.0044979667505738565 -0.018242614704402568 0 -0.004991686263697552 -0.018077430459767466 0 -0.0049943588891643896 -0.018565607949388239 0 -0.0051858545698704487 -0.017346467416112402 0 -0.0051836772733147773 -0.017713054339368588 0 -0.0052028687376821474 -0.017693144783881273 0 -0.005145648248358098 -0.017568671722722945 0 -0.0046727885883819627 -0.017959664890720786 0 -0.004991686263697552 -0.018077430459767466 0 -0.0048627232427414209 -0.017782279857603642 0 -0.0051836772733147773 -0.017713054339368588 0 -0.0052028687376821474 -0.017693144783881273 0 -0.005165460934700712 -0.017675777791528752 0 -0.0056808916190062954 -0.017347717680454143 0 -0.0058415952614098059 -0.017353109212787338 0 -0.0058294453631088797 -0.017449694595873297 0 -0.00538693771652295 -0.017700177903015903 0 -0.0059907802223967662 -0.016580591981722799 0 -0.0056808916190062954 -0.017347717680454143 0 -0.0058415952614098059 -0.017353109212787338 0 -0.0057614388530997842 -0.017304602157493097 0 -0.0047462362465274912 -0.014397518503133771 0 -0.0059907802223967662 -0.016580591981722799 0 -0.0075890048467865245 -0.013298150036706069 0 -0.0065013417639073513 -0.01359450658616721 0 -0.0070187320085608211 -0.012597669727618744 0 -0.0059907802223967662 -0.016580591981722799 0 -0.0061409252542924692 -0.014722921266238974 0 -0.0065013417639073513 -0.01359450658616721 0 -0.0070187320085608211 -0.012597669727618744 0 -0.0061943950138786908 -0.012362185511771416 0 -0.0075890048467865245 -0.013298150036706069 0 -0.0070187320085608211 -0.012597669727618744 0 -0.007839593065195492 -0.011878729958167042 0 -0.0047462362465274912 -0.014397518503133771 0 -0.0052364038117272372 -0.010439410702106914 0 -0.0070187320085608211 -0.012597669727618744 0 -0.007839593065195492 -0.011878729958167042 0 -0.0069579876768019883 -0.011868066545000758 0 -0.0073160373696948789 -0.011051454544432675 0 -0.007839593065195492 -0.011878729958167042 0 -0.0069579876768019883 -0.011868066545000758 0 -0.0065231287314688243 -0.011254036763403242 0 -0.0069579876768019883 -0.011868066545000758 0 -0.0061943950138786908 -0.012362185511771416 0 -0.0070187320085608211 -0.012597669727618744 0 -0.0069579876768019883 -0.011868066545000758 0 -0.0061943950138786908 -0.012362185511771416 0 -0.0064119058803851717 -0.016840233651543173 0 -0.0061935879097903442 -0.01669985367480379 0 -0.0062008846621735211 -0.017029380752053399 0 -0.0090939141441550159 -0.011602537224499965 0 -0.0061409252542924692 -0.014722921266238974 0 -0.0059055186306437718 -0.011149769706997282 0 -0.0065231287314688243 -0.011254036763403242 0 -0.0061943950138786908 -0.012362185511771416 0 -0.0063616040934313086 -0.016532110644116409 0 -0.0064119058803851717 -0.016840233651543173 0 -0.0061935879097903442 -0.01669985367480379 0 -0.0060761142585130578 -0.01650473631812906 0 -0.0061935879097903442 -0.01669985367480379 0 -0.0060169005200106972 -0.016706518262118088 0 -0.0061935879097903442 -0.01669985367480379 0 -0.0060870428905724621 -0.01690067052446468 0 -0.0060169005200106972 -0.016706518262118088 0 -0.0060870428905724621 -0.01690067052446468 0 -0.0059721227220682878 -0.016940883817122759 0 -0.0060169005200106972 -0.016706518262118088 0 -0.0061935879097903442 -0.01669985367480379 0 -0.0060870428905724621 -0.01690067052446468 0 -0.0062008846621735211 -0.017029380752053399 0 -0.0060870428905724621 -0.01690067052446468 0 -0.0060228934960945496 -0.01714987720592916 0 -0.0059721227220682878 -0.016940883817122759 0 -0.0060870428905724621 -0.01690067052446468 0 -0.0062008846621735211 -0.017029380752053399 0 -0.0060228934960945496 -0.01714987720592916 0 -0.0064973111252397131 -0.017205243319130002 0 -0.0064119058803851717 -0.016840233651543173 0 -0.0062008846621735211 -0.017029380752053399 0 -0.0059907802223967662 -0.016580591981722799 0 -0.0060876408025463515 -0.017406869151171678 0 -0.0064973111252397131 -0.017205243319130002 0 -0.0062008846621735211 -0.017029380752053399 0 -0.0060684449923253348 -0.017307644619874017 0 -0.0058415952614098059 -0.017353109212787338 0 -0.0058294453631088797 -0.017449694595873297 0 -0.0060684449923253348 -0.017307644619874017 0 -0.0058415952614098059 -0.017353109212787338 0 -0.0060684449923253348 -0.017307644619874017 0 -0.005899493072460152 -0.017321745594979222 0 -0.0060684449923253348 -0.017307644619874017 0 -0.005899493072460152 -0.017321745594979222 0 -0.0059957011519701387 -0.017316844397937514 0 -0.0058415952614098059 -0.017353109212787338 0 -0.005899493072460152 -0.017321745594979222 0 -0.0057614388530997842 -0.017304602157493097 0 -0.0060684449923253348 -0.017307644619874017 0 -0.0059957011519701387 -0.017316844397937514 0 -0.0060157914829856631 -0.017333632252626005 0 -0.0060684449923253348 -0.017307644619874017 0 -0.0060228934960945496 -0.01714987720592916 0 -0.0060157914829856631 -0.017333632252626005 0 -0.0062008846621735211 -0.017029380752053399 0 -0.0060684449923253348 -0.017307644619874017 0 -0.0060228934960945496 -0.01714987720592916 0 -0.0060228934960945496 -0.01714987720592916 0 -0.0059108907020316657 -0.017154642266729529 0 -0.0060157914829856631 -0.017333632252626005 0 -0.0081367932238985471 -0.015861245184431556 0 -0.0079649811211473555 -0.016127608851225599 0 -0.0079832147197306316 -0.016062070247475704 0 -0.0072152380919139657 -0.016485311545161498 0 -0.0069567993979058503 -0.0167037073350743 0 -0.0080280433026744362 -0.016012391447336176 0 -0.0079832147197306316 -0.016062070247475704 0 -0.0080956679652405168 -0.015800398596032633 0 -0.0081367932238985471 -0.015861245184431556 0 -0.0079832147197306316 -0.016062070247475704 0 -0.0080956679652405168 -0.015800398596032633 0 -0.013153683372007553 -0.014165403974287236 0 -0.014900121645392226 -0.014443868347886508 0 -0.014728684488185964 -0.013715353448385483 0 -0.0081367932238985471 -0.015861245184431556 0 -0.0080956679652405168 -0.015800398596032633 0 -0.008166594888021142 -0.015758993762177254 0 -0.00813085670244682 -0.015608641023143124 0 -0.0080956679652405168 -0.015800398596032633 0 -0.008166594888021142 -0.015758993762177254 0 -0.010945049938878454 -0.014907773593906742 0 -0.010135055809129274 -0.015162482913518176 0 -0.0059108907020316657 -0.017154642266729529 0 -0.0059721227220682878 -0.016940883817122759 0 -0.0058593388063591361 -0.016947655068449509 0 -0.0072152380919139657 -0.016485311545161498 0 -0.010135055809129274 -0.015162482913518176 0 -0.0060228934960945496 -0.01714987720592916 0 -0.0059108907020316657 -0.017154642266729529 0 -0.0059721227220682878 -0.016940883817122759 0 -0.010135055809129274 -0.015162482913518176 0 -0.010133645203245929 -0.015573390152638228 0 -0.0059721227220682878 -0.016940883817122759 0 -0.0058593388063591361 -0.016947655068449509 0 -0.0058475133109002972 -0.016777029155945974 0 -0.0059721227220682878 -0.016940883817122759 0 -0.0060169005200106972 -0.016706518262118088 0 -0.0058475133109002972 -0.016777029155945974 0 -0.0059457844766243485 -0.016605144200488375 0 -0.0060169005200106972 -0.016706518262118088 0 -0.0058475133109002972 -0.016777029155945974 0 -0.013153683372007553 -0.014165403974287236 0 -0.013569758487860408 -0.012907456983005914 0 -0.014728684488185964 -0.013715353448385483 0 -0.0077811064601358898 -0.01611429606207988 0 -0.0076850417529862542 -0.01618109806841363 0 -0.007519493135197397 -0.016085033337072584 0 -0.0076850417529862542 -0.01618109806841363 0 -0.0075105763321904823 -0.016165521458228825 0 -0.007648664612765213 -0.016220073812058054 0 -0.0076850417529862542 -0.01618109806841363 0 -0.0075105763321904823 -0.016165521458228825 0 -0.007519493135197397 -0.016085033337072584 0 -0.0075105763321904823 -0.016165521458228825 0 -0.0073488349981639294 -0.016076977612534474 0 -0.007519493135197397 -0.016085033337072584 0 -0.0073912320836079194 -0.016176780629874644 0 -0.0075105763321904823 -0.016165521458228825 0 -0.0073488349981639294 -0.016076977612534474 0 -0.0073912320836079194 -0.016176780629874644 0 -0.0075105763321904823 -0.016165521458228825 0 -0.0075405877421878126 -0.01621165902044305 0 -0.0073912320836079194 -0.016176780629874644 0 -0.0075405877421878126 -0.01621165902044305 0 -0.0075813539251140868 -0.016281599152685063 0 -0.0075105763321904823 -0.016165521458228825 0 -0.0075405877421878126 -0.01621165902044305 0 -0.007648664612765213 -0.016220073812058054 0 -0.0075405877421878126 -0.01621165902044305 0 -0.0076240981825710617 -0.016238250467520834 0 -0.0075813539251140868 -0.016281599152685063 0 -0.0071839034559439208 -0.016247170428186641 0 -0.0075086180986311023 -0.01631217820985819 0 -0.0075405877421878126 -0.01621165902044305 0 -0.0076240981825710617 -0.016238250467520834 0 -0.007648664612765213 -0.016220073812058054 0 -0.0076240981825710617 -0.016238250467520834 0 -0.007648664612765213 -0.016220073812058054 0 -0.0077448278106218458 -0.016249276747120785 0 -0.007648664612765213 -0.016220073812058054 0 -0.0078002864485862498 -0.016244746595496549 0 -0.0077448278106218458 -0.016249276747120785 0 -0.0076850417529862542 -0.01618109806841363 0 -0.007648664612765213 -0.016220073812058054 0 -0.0078002864485862498 -0.016244746595496549 0 -0.0078002864485862498 -0.016244746595496549 0 -0.0078831181304006726 -0.016216847766435245 0 -0.0077448278106218458 -0.016249276747120785 0 -0.0078831181304006726 -0.016216847766435245 0 -0.0077448278106218458 -0.016249276747120785 0 -0.0078068557489723951 -0.016225553135240517 0 -0.0079832147197306316 -0.016062070247475704 0 -0.0078831181304006726 -0.016216847766435245 0 -0.0078068557489723951 -0.016225553135240517 0 -0.0080280433026744362 -0.016012391447336176 0 -0.0079832147197306316 -0.016062070247475704 0 -0.0078831181304006726 -0.016216847766435245 0 -0.0079649811211473555 -0.016127608851225599 0 -0.0078068557489723951 -0.016225553135240517 0 -0.0075705435948657494 -0.016293294934805466 0 -0.0079649811211473555 -0.016127608851225599 0 -0.0079832147197306316 -0.016062070247475704 0 -0.0078068557489723951 -0.016225553135240517 0 -0.0078068557489723951 -0.016225553135240517 0 -0.0075813539251140868 -0.016281599152685063 0 -0.0075705435948657494 -0.016293294934805466 0 -0.0077448278106218458 -0.016249276747120785 0 -0.0078068557489723951 -0.016225553135240517 0 -0.0075813539251140868 -0.016281599152685063 0 -0.0076240981825710617 -0.016238250467520834 0 -0.0077448278106218458 -0.016249276747120785 0 -0.0075813539251140868 -0.016281599152685063 0 -0.0061001299681172931 -0.017140761321463676 0 -0.0059592935261130473 -0.017141803402029174 0 -0.0060289300803092853 -0.016966378438062774 0 -0.0061001299681172931 -0.017140761321463676 0 -0.0059775970772064733 -0.017248288153689281 0 -0.0059592935261130473 -0.017141803402029174 0 -0.0059957011519701387 -0.017316844397937514 0 -0.0060157914829856631 -0.017333632252626005 0 -0.0059775970772064733 -0.017248288153689281 0 -0.0060157914829856631 -0.017333632252626005 0 -0.0061001299681172931 -0.017140761321463676 0 -0.0059775970772064733 -0.017248288153689281 0 -0.0069567993979058503 -0.0167037073350743 0 -0.0068189540701117241 -0.016684855741691252 0 -0.005899493072460152 -0.017321745594979222 0 -0.0058676107584912903 -0.017266087663047661 0 -0.0057614388530997842 -0.017304602157493097 0 -0.005899493072460152 -0.017321745594979222 0 -0.0059775970772064733 -0.017248288153689281 0 -0.0058676107584912903 -0.017266087663047661 0 -0.005899493072460152 -0.017321745594979222 0 -0.0059957011519701387 -0.017316844397937514 0 -0.0059775970772064733 -0.017248288153689281 0 -0.0059775970772064733 -0.017248288153689281 0 -0.0058676107584912903 -0.017266087663047661 0 -0.0059592935261130473 -0.017141803402029174 0 -0.0058676107584912903 -0.017266087663047661 0 -0.0057903026779932377 -0.017187173419021755 0 -0.0057614388530997842 -0.017304602157493097 0 -0.0057903026779932377 -0.017187173419021755 0 -0.0057874047695029227 -0.017051291368861018 0 -0.0056152873258710628 -0.017126418510782514 0 -0.0057903026779932377 -0.017187173419021755 0 -0.0059592935261130473 -0.017141803402029174 0 -0.0057874047695029227 -0.017051291368861018 0 -0.0058676107584912903 -0.017266087663047661 0 -0.0057903026779932377 -0.017187173419021755 0 -0.0059592935261130473 -0.017141803402029174 0 -0.0059592935261130473 -0.017141803402029174 0 -0.0059493397596700809 -0.016974605434998936 0 -0.0060289300803092853 -0.016966378438062774 0 -0.0059592935261130473 -0.017141803402029174 0 -0.0057874047695029227 -0.017051291368861018 0 -0.0059493397596700809 -0.016974605434998936 0 -0.0057874047695029227 -0.017051291368861018 0 -0.0058475473052448804 -0.01674095868283914 0 -0.0055932587165197266 -0.016937819471663559 0 -0.0057874047695029227 -0.017051291368861018 0 -0.0058475473052448804 -0.01674095868283914 0 -0.0059493397596700809 -0.016974605434998936 0 -0.0058475473052448804 -0.01674095868283914 0 -0.0059968548684988564 -0.01682202918384974 0 -0.0059493397596700809 -0.016974605434998936 0 -0.0058475473052448804 -0.01674095868283914 0 -0.0059968548684988564 -0.01682202918384974 0 -0.0061532760508363161 -0.016714261790094675 0 -0.0059968548684988564 -0.01682202918384974 0 -0.0059493397596700809 -0.016974605434998936 0 -0.0060289300803092853 -0.016966378438062774 0 -0.0061001299681172931 -0.017140761321463676 0 -0.0060289300803092853 -0.016966378438062774 0 -0.0061532760508363161 -0.016714261790094675 0 -0.0075813539251140868 -0.016281599152685063 0 -0.0075705435948657494 -0.016293294934805466 0 -0.0068912382082975832 -0.016323042304821612 0 -0.0069508571222795731 -0.01630098363909338 0 -0.0075813539251140868 -0.016281599152685063 0 -0.0068912382082975832 -0.016323042304821612 0 -0.0068189540701117241 -0.016684855741691252 0 -0.0065132808768701136 -0.016465894780300482 0 -0.0059968548684988564 -0.01682202918384974 0 -0.0060289300803092853 -0.016966378438062774 0 -0.0061532760508363161 -0.016714261790094675 0 -0.0069508571222795731 -0.01630098363909338 0 -0.0068912382082975832 -0.016323042304821612 0 -0.0062337861002743728 -0.016099115713496998 0 -0.0065132808768701136 -0.016465894780300482 0 -0.0062611579493292973 -0.016083381223029172 0 -0.0061532760508363161 -0.016714261790094675 0 -0.005891777707524545 -0.016484259308729883 0 -0.0062337861002743728 -0.016099115713496998 0 -0.0058475473052448804 -0.01674095868283914 0 -0.005891777707524545 -0.016484259308729883 0 -0.0055032998504338957 -0.016561974184660617 0 -0.0058475473052448804 -0.01674095868283914 0 -0.0061532760508363161 -0.016714261790094675 0 -0.005891777707524545 -0.016484259308729883 0 -0.0055032998504338957 -0.016561974184660617 0 -0.0052121469220614931 -0.016239600678804308 0 -0.0056858209364896439 -0.016201142598612502 0 -0.005891777707524545 -0.016484259308729883 0 -0.0055032998504338957 -0.016561974184660617 0 -0.0056858209364896439 -0.016201142598612502 0 -0.0055032998504338957 -0.016561974184660617 0 -0.0049789929959972983 -0.016737296035442665 0 -0.0052121469220614931 -0.016239600678804308 0 -0.0049789929959972983 -0.016737296035442665 0 -0.0046424464210094146 -0.016353932964647235 0 -0.0052121469220614931 -0.016239600678804308 0 -0.0049789929959972983 -0.016737296035442665 0 -0.0053320713007814022 -0.016817537760092715 0 -0.0052071620658309097 -0.017170803627815437 0 -0.0055032998504338957 -0.016561974184660617 0 -0.0049789929959972983 -0.016737296035442665 0 -0.0053320713007814022 -0.016817537760092715 0 -0.0049789929959972983 -0.016737296035442665 0 -0.0052071620658309097 -0.017170803627815437 0 -0.0046289383946888103 -0.016926917076444455 0 -0.0053320713007814022 -0.016817537760092715 0 -0.0055932587165197266 -0.016937819471663559 0 -0.0052071620658309097 -0.017170803627815437 0 -0.0058475473052448804 -0.01674095868283914 0 -0.0055032998504338957 -0.016561974184660617 0 -0.0055932587165197266 -0.016937819471663559 0 -0.0055032998504338957 -0.016561974184660617 0 -0.0053320713007814022 -0.016817537760092715 0 -0.0055932587165197266 -0.016937819471663559 0 -0.0057874047695029227 -0.017051291368861018 0 -0.0055932587165197266 -0.016937819471663559 0 -0.0056152873258710628 -0.017126418510782514 0 -0.0055932587165197266 -0.016937819471663559 0 -0.0056152873258710628 -0.017126418510782514 0 -0.0052071620658309097 -0.017170803627815437 0 -0.0056152873258710628 -0.017126418510782514 0 -0.0056123834351586837 -0.017243930816352296 0 -0.0052071620658309097 -0.017170803627815437 0 -0.0057903026779932377 -0.017187173419021755 0 -0.0056152873258710628 -0.017126418510782514 0 -0.0056123834351586837 -0.017243930816352296 0 -0.0056808916190062954 -0.017347717680454143 0 -0.0056123834351586837 -0.017243930816352296 0 -0.0052071620658309097 -0.017170803627815437 0 -0.0057903026779932377 -0.017187173419021755 0 -0.0056123834351586837 -0.017243930816352296 0 -0.0057614388530997842 -0.017304602157493097 0 -0.0056808916190062954 -0.017347717680454143 0 -0.0056123834351586837 -0.017243930816352296 0 -0.0057614388530997842 -0.017304602157493097 0 -0.00538693771652295 -0.017700177903015903 0 -0.005230091617251258 -0.017077092377097373 0 -0.005145648248358098 -0.017568671722722945 0 -0.0048275428394249269 -0.017500994356619587 0 -0.0052071620658309097 -0.017170803627815437 0 -0.0052028687376821474 -0.017693144783881273 0 -0.005145648248358098 -0.017568671722722945 0 -0.0052071620658309097 -0.017170803627815437 0 -0.0048627232427414209 -0.017782279857603642 0 -0.005145648248358098 -0.017568671722722945 0 -0.0048275428394249269 -0.017500994356619587 0 -0.0048627232427414209 -0.017782279857603642 0 -0.0048275428394249269 -0.017500994356619587 0 -0.0046436264876704549 -0.017772897332314491 0 -0.0048275428394249269 -0.017500994356619587 0 -0.0052071620658309097 -0.017170803627815437 0 -0.0045272054894768612 -0.017276655699781627 0 -0.0052071620658309097 -0.017170803627815437 0 -0.0045272054894768612 -0.017276655699781627 0 -0.0046289383946888103 -0.016926917076444455 0 -0.0045272054894768612 -0.017276655699781627 0 -0.0044134145399078433 -0.017588342994840894 0 -0.0041239338093201775 -0.017357872670390049 0 -0.0048275428394249269 -0.017500994356619587 0 -0.0045272054894768612 -0.017276655699781627 0 -0.0044134145399078433 -0.017588342994840894 0 -0.0043672858074105415 -0.017913938663566612 0 -0.0044134145399078433 -0.017588342994840894 0 -0.0046436264876704549 -0.017772897332314491 0 -0.0048275428394249269 -0.017500994356619587 0 -0.0044134145399078433 -0.017588342994840894 0 -0.0046436264876704549 -0.017772897332314491 0 -0.0040047718431576104 -0.017698984280246625 0 -0.0041239338093201775 -0.017357872670390049 0 -0.0037243772854864267 -0.017259942968986537 0 -0.0043672858074105415 -0.017913938663566612 0 -0.0044134145399078433 -0.017588342994840894 0 -0.0040047718431576104 -0.017698984280246625 0 -0.0044134145399078433 -0.017588342994840894 0 -0.0040047718431576104 -0.017698984280246625 0 -0.0041239338093201775 -0.017357872670390049 0 -0.0045272054894768612 -0.017276655699781627 0 -0.0041239338093201775 -0.017357872670390049 0 -0.0041756767556323359 -0.016855884413645508 0 -0.0041239338093201775 -0.017357872670390049 0 -0.0041756767556323359 -0.016855884413645508 0 -0.0037243772854864267 -0.017259942968986537 0 -0.0045272054894768612 -0.017276655699781627 0 -0.0041756767556323359 -0.016855884413645508 0 -0.0046289383946888103 -0.016926917076444455 0 -0.0041756767556323359 -0.016855884413645508 0 -0.0046289383946888103 -0.016926917076444455 0 -0.0046424464210094146 -0.016353932964647235 0 -0.0049789929959972983 -0.016737296035442665 0 -0.0046289383946888103 -0.016926917076444455 0 -0.0046424464210094146 -0.016353932964647235 0 -0.0041756767556323359 -0.016855884413645508 0 -0.0046424464210094146 -0.016353932964647235 0 -0.0040555922121100927 -0.016362022642407284 0 -0.0041756767556323359 -0.016855884413645508 0 -0.0040555922121100927 -0.016362022642407284 0 -0.0036844981837189632 -0.016679324396063226 0 -0.0040555922121100927 -0.016362022642407284 0 -0.0042661065154355584 -0.015644728700301112 0 -0.0034831475873993538 -0.016195253163305355 0 -0.0046424464210094146 -0.016353932964647235 0 -0.0040555922121100927 -0.016362022642407284 0 -0.0042661065154355584 -0.015644728700301112 0 -0.0046424464210094146 -0.016353932964647235 0 -0.0042661065154355584 -0.015644728700301112 0 -0.004999538905825481 -0.015784890065107651 0 -0.0042661065154355584 -0.015644728700301112 0 -0.0049340577639878057 -0.015276405264459451 0 -0.004999538905825481 -0.015784890065107651 0 -0.0039825792107924338 -0.015901934718527844 0 -0.0040856749882408807 -0.015397005038812464 0 -0.0035193328890816191 -0.015555607367119296 0 -0.0037565279542378927 -0.014999946404777666 0 -0.0040856749882408807 -0.015397005038812464 0 -0.0035193328890816191 -0.015555607367119296 0 -0.0037565279542378927 -0.014999946404777666 0 -0.0040856749882408807 -0.015397005038812464 0 -0.0045585505155955252 -0.014999940552480662 0 -0.0040856749882408807 -0.015397005038812464 0 -0.0045585505155955252 -0.014999940552480662 0 -0.0046695523352955149 -0.015507214186018605 0 -0.0039825792107924338 -0.015901934718527844 0 -0.0040856749882408807 -0.015397005038812464 0 -0.0046695523352955149 -0.015507214186018605 0 -0.0041204195314915679 -0.015780957907960701 0 -0.0047969805279732053 -0.015386719865444789 0 -0.0049340577639878057 -0.015276405264459451 0 -0.005385460598820363 -0.015432894009304043 0 -0.004999538905825481 -0.015784890065107651 0 -0.0049340577639878057 -0.015276405264459451 0 -0.0053611330874904703 -0.014999761820923113 0 -0.005385460598820363 -0.015432894009304043 0 -0.0045585505155955252 -0.014999940552480662 0 -0.0046695523352955149 -0.015507214186018605 0 -0.0053606744075477908 -0.015000017634425572 0 -0.0047969805279732053 -0.015386719865444789 0 -0.0053605884569280027 -0.01500006205257812 0 -0.0053611330874904703 -0.014999761820923113 0 -0.005385460598820363 -0.015432894009304043 0 -0.0058031049486938569 -0.015276802373954068 0 -0.005385460598820363 -0.015432894009304043 0 -0.0058770292654786727 -0.015625197590529747 0 -0.0058031049486938569 -0.015276802373954068 0 -0.005385460598820363 -0.015432894009304043 0 -0.005484150318699965 -0.015855211305874976 0 -0.0058770292654786727 -0.015625197590529747 0 -0.005385460598820363 -0.015432894009304043 0 -0.005484150318699965 -0.015855211305874976 0 -0.004999538905825481 -0.015784890065107651 0 -0.0046424464210094146 -0.016353932964647235 0 -0.004999538905825481 -0.015784890065107651 0 -0.0052121469220614931 -0.016239600678804308 0 -0.005484150318699965 -0.015855211305874976 0 -0.004999538905825481 -0.015784890065107651 0 -0.0052121469220614931 -0.016239600678804308 0 -0.005484150318699965 -0.015855211305874976 0 -0.0052121469220614931 -0.016239600678804308 0 -0.0056858209364896439 -0.016201142598612502 0 -0.005484150318699965 -0.015855211305874976 0 -0.0056858209364896439 -0.016201142598612502 0 -0.005889558006732732 -0.01591473140335253 0 -0.0056858209364896439 -0.016201142598612502 0 -0.0062337861002743728 -0.016099115713496998 0 -0.005889558006732732 -0.01591473140335253 0 -0.005891777707524545 -0.016484259308729883 0 -0.0056858209364896439 -0.016201142598612502 0 -0.0062337861002743728 -0.016099115713496998 0 -0.0069508571222795731 -0.01630098363909338 0 -0.0062337861002743728 -0.016099115713496998 0 -0.0065566944202928874 -0.015970992284696259 0 -0.0071839034559439208 -0.016247170428186641 0 -0.0067853916370880646 -0.015937734107584742 0 -0.0065566944202928874 -0.015970992284696259 0 -0.0062170039293528538 -0.015820146790662688 0 -0.0065152248303626528 -0.015463005902250922 0 -0.0062337861002743728 -0.016099115713496998 0 -0.0065566944202928874 -0.015970992284696259 0 -0.0062170039293528538 -0.015820146790662688 0 -0.0067853916370880646 -0.015937734107584742 0 -0.0065512968780384847 -0.015466495546890509 0 -0.0062170039293528538 -0.015820146790662688 0 -0.005889558006732732 -0.01591473140335253 0 -0.0058770292654786727 -0.015625197590529747 0 -0.0062337861002743728 -0.016099115713496998 0 -0.0062170039293528538 -0.015820146790662688 0 -0.005889558006732732 -0.01591473140335253 0 -0.005484150318699965 -0.015855211305874976 0 -0.005889558006732732 -0.01591473140335253 0 -0.0058770292654786727 -0.015625197590529747 0 -0.0062170039293528538 -0.015820146790662688 0 -0.0058770292654786727 -0.015625197590529747 0 -0.0065152248303626528 -0.015463005902250922 0 -0.0058770292654786727 -0.015625197590529747 0 -0.0058031049486938569 -0.015276802373954068 0 -0.0065152248303626528 -0.015463005902250922 0 -0.0053611330874904703 -0.014999761820923113 0 -0.0058031049486938569 -0.015276802373954068 0 -0.0061715505460254961 -0.014999877635592218 0 -0.0061715505460254961 -0.014999877635592218 0 -0.0065152248303626528 -0.015463005902250922 0 -0.0069825058142573655 -0.01499989971385194 0 -0.0058031049486938569 -0.015276802373954068 0 -0.0061715505460254961 -0.014999877635592218 0 -0.0065152248303626528 -0.015463005902250922 0 -0.0065152248303626528 -0.015463005902250922 0 -0.0072171743275195885 -0.015356474954504852 0 -0.0072190391343422405 -0.015693060666415383 0 -0.0065152248303626528 -0.015463005902250922 0 -0.0069825058142573655 -0.01499989971385194 0 -0.0072171743275195885 -0.015356474954504852 0 -0.0077933177262568803 -0.01499991107104127 0 -0.0069825058142573655 -0.01499989971385194 0 -0.0072171743275195885 -0.015356474954504852 0 -0.0076267209234332015 -0.015536527812168743 0 -0.0072171743275195885 -0.015356474954504852 0 -0.0072190391343422405 -0.015693060666415383 0 -0.0076754018740292224 -0.015856411296699579 0 -0.0072190391343422405 -0.015693060666415383 0 -0.0073646420426654174 -0.015944128418698147 0 -0.0076754018740292224 -0.015856411296699579 0 -0.0076267209234332015 -0.015536527812168743 0 -0.0072190391343422405 -0.015693060666415383 0 -0.007003142781076427 -0.015955121219691192 0 -0.0072190391343422405 -0.015693060666415383 0 -0.0073646420426654174 -0.015944128418698147 0 -0.007003142781076427 -0.015955121219691192 0 -0.0065152248303626528 -0.015463005902250922 0 -0.0072190391343422405 -0.015693060666415383 0 -0.0073912320836079194 -0.016176780629874644 0 -0.007003142781076427 -0.015955121219691192 0 -0.0073488349981639294 -0.016076977612534474 0 -0.007003142781076427 -0.015955121219691192 0 -0.0073488349981639294 -0.016076977612534474 0 -0.0073646420426654174 -0.015944128418698147 0 -0.0073488349981639294 -0.016076977612534474 0 -0.007519493135197397 -0.016085033337072584 0 -0.0073646420426654174 -0.015944128418698147 0 -0.0077811064601358898 -0.01611429606207988 0 -0.007519493135197397 -0.016085033337072584 0 -0.0076402523518521483 -0.01601478384647128 0 -0.0076754018740292224 -0.015856411296699579 0 -0.0076402523518521483 -0.01601478384647128 0 -0.0073646420426654174 -0.015944128418698147 0 -0.007519493135197397 -0.016085033337072584 0 -0.0076402523518521483 -0.01601478384647128 0 -0.0073646420426654174 -0.015944128418698147 0 -0.0015493305198519642 -0.016930279765853009 0 -0.0019688331243563287 -0.016432988146206584 0 -0.0020250827004055566 -0.017040524004354348 0 -0.0015493305198519642 -0.016930279765853009 0 -0.0019688331243563287 -0.016432988146206584 0 -0.0013560705582844697 -0.01640190066688621 0 -0.0014676396072283435 -0.016590659238827413 0 -0.0012436562278997888 -0.015833923195748324 0 -0.0011314274433429266 -0.015227474095311354 0 -0.00030721065131246005 -0.015739875463448169 0 -0.00044856265828584668 -0.014949995772503052 0 -0.0013956640116925371 -0.01624033697447054 0 -0.0011314274433429266 -0.015227474095311354 0 -0.00030721065131246005 -0.015739875463448169 0 -0.00030721065131246005 -0.015739875463448169 0 -0.00044856265828584668 -0.014949995772503052 0 0.00025711822324444976 -0.014912234996591219 0 -0.00030721065131246005 -0.015739875463448169 0 -8.8628756296981295e-06 -0.016292972785653774 0 0.00038978252961898 -0.016040621851842407 0 -0.00030721065131246005 -0.015739875463448169 0 -8.8628756296981295e-06 -0.016292972785653774 0 -0.00044244174087939008 -0.016563779470153261 0 -0.0013956640116925371 -0.01624033697447054 0 -0.00030721065131246005 -0.015739875463448169 0 -0.00044244174087939008 -0.016563779470153261 0 -0.0013956640116925371 -0.01624033697447054 0 -0.00044244174087939008 -0.016563779470153261 0 -0.00091060216655696857 -0.017152943852323462 0 -0.00044244174087939008 -0.016563779470153261 0 -0.00025279883012217308 -0.017089909466703208 0 0.00030546946364381122 -0.016734065700663388 0 -8.8628756296981295e-06 -0.016292972785653774 0 -0.00044244174087939008 -0.016563779470153261 0 0.00030546946364381122 -0.016734065700663388 0 -0.00044244174087939008 -0.016563779470153261 0 -0.00025279883012217308 -0.017089909466703208 0 -0.00091060216655696857 -0.017152943852323462 0 -0.00049808879026027263 -0.017632569643923353 0 -0.00025279883012217308 -0.017089909466703208 0 -0.00091060216655696857 -0.017152943852323462 0 -0.00049808879026027263 -0.017632569643923353 0 -0.00025279883012217308 -0.017089909466703208 0 0.00035799355469073277 -0.017400453162101686 0 -0.0011045545744484491 -0.017915137122448899 0 -0.00049808879026027263 -0.017632569643923353 0 -0.00091060216655696857 -0.017152943852323462 0 -0.0011045545744484491 -0.017915137122448899 0 -0.00091060216655696857 -0.017152943852323462 0 -0.0016393121649268209 -0.017378413879356777 0 -0.0015493305198519642 -0.016930279765853009 0 -0.0016393121649268209 -0.017378413879356777 0 -0.0020250827004055566 -0.017040524004354348 0 -0.0013956640116925371 -0.01624033697447054 0 -0.00091060216655696857 -0.017152943852323462 0 -0.0016393121649268209 -0.017378413879356777 0 -0.0014676396072283435 -0.016590659238827413 0 -0.001633448302985402 -0.017333774485654051 0 -0.0016393121649268209 -0.017378413879356777 0 -0.0020250827004055566 -0.017040524004354348 0 -0.0021694668359910365 -0.017548055853936841 0 -0.0017557123217366239 -0.018123039879767735 0 -0.0016393121649268209 -0.017378413879356777 0 -0.0021694668359910365 -0.017548055853936841 0 -0.0021694668359910365 -0.017548055853936841 0 -0.0027267574846602518 -0.017659163606853538 0 -0.0024353718285507839 -0.017238674556724416 0 -0.003102150473140739 -0.017871410192945282 0 -0.0027267574846602518 -0.017659163606853538 0 -0.0031870622391794693 -0.017490442099409784 0 -0.0027267574846602518 -0.017659163606853538 0 -0.0028584176430524332 -0.017097385952531331 0 -0.0031870622391794693 -0.017490442099409784 0 -0.0027267574846602518 -0.017659163606853538 0 -0.0028584176430524332 -0.017097385952531331 0 -0.0024353718285507839 -0.017238674556724416 0 -0.0020250827004055566 -0.017040524004354348 0 -0.0021694668359910365 -0.017548055853936841 0 -0.0024353718285507839 -0.017238674556724416 0 -0.0035191400276658679 -0.017869159860039875 0 -0.0040047718431576104 -0.017698984280246625 0 -0.0037243772854864267 -0.017259942968986537 0 -0.0035191400276658679 -0.017869159860039875 0 -0.0031870622391794693 -0.017490442099409784 0 -0.0037243772854864267 -0.017259942968986537 0 -0.003102150473140739 -0.017871410192945282 0 -0.0035191400276658679 -0.017869159860039875 0 -0.0031870622391794693 -0.017490442099409784 0 -0.0028584176430524332 -0.017097385952531331 0 -0.0031870622391794693 -0.017490442099409784 0 -0.0033019886459977961 -0.016928005840614022 0 -0.0031870622391794693 -0.017490442099409784 0 -0.0037243772854864267 -0.017259942968986537 0 -0.0033019886459977961 -0.016928005840614022 0 -0.0041756767556323359 -0.016855884413645508 0 -0.0037243772854864267 -0.017259942968986537 0 -0.0036844981837189632 -0.016679324396063226 0 -0.0037243772854864267 -0.017259942968986537 0 -0.0033019886459977961 -0.016928005840614022 0 -0.0036844981837189632 -0.016679324396063226 0 -0.0033019886459977961 -0.016928005840614022 0 -0.0030145325646336158 -0.016566529097509362 0 -0.0036844981837189632 -0.016679324396063226 0 -0.0028584176430524332 -0.017097385952531331 0 -0.0033019886459977961 -0.016928005840614022 0 -0.0030145325646336158 -0.016566529097509362 0 -0.0040555922121100927 -0.016362022642407284 0 -0.0036844981837189632 -0.016679324396063226 0 -0.0034831475873993538 -0.016195253163305355 0 -0.0030145325646336158 -0.016566529097509362 0 -0.0036844981837189632 -0.016679324396063226 0 -0.0034831475873993538 -0.016195253163305355 0 -0.0019688331243563287 -0.016432988146206584 0 -0.0020250827004055566 -0.017040524004354348 0 -0.0025009732105885077 -0.016707327747331566 0 -0.0020250827004055566 -0.017040524004354348 0 -0.0024353718285507839 -0.017238674556724416 0 -0.0025009732105885077 -0.016707327747331566 0 -0.0028584176430524332 -0.017097385952531331 0 -0.0024353718285507839 -0.017238674556724416 0 -0.0025009732105885077 -0.016707327747331566 0 -0.0028584176430524332 -0.017097385952531331 0 -0.0030145325646336158 -0.016566529097509362 0 -0.0025009732105885077 -0.016707327747331566 0 -0.0030145325646336158 -0.016566529097509362 0 -0.0025009732105885077 -0.016707327747331566 0 -0.0027002592476315034 -0.016181358335489036 0 -0.0019688331243563287 -0.016432988146206584 0 -0.0025009732105885077 -0.016707327747331566 0 -0.0027002592476315034 -0.016181358335489036 0 -0.0019688331243563287 -0.016432988146206584 0 -0.0027002592476315034 -0.016181358335489036 0 -0.0021124013863412861 -0.015874499783786772 0 -0.0027002592476315034 -0.016181358335489036 0 -0.0021124013863412861 -0.015874499783786772 0 -0.002918964786913082 -0.015701657268306822 0 -0.0039825792107924338 -0.015901934718527844 0 -0.0034831475873993538 -0.016195253163305355 0 -0.0035193328890816191 -0.015555607367119296 0 -0.0034831475873993538 -0.016195253163305355 0 -0.0035193328890816191 -0.015555607367119296 0 -0.002918964786913082 -0.015701657268306822 0 -0.0030145325646336158 -0.016566529097509362 0 -0.0027002592476315034 -0.016181358335489036 0 -0.0034831475873993538 -0.016195253163305355 0 -0.0027002592476315034 -0.016181358335489036 0 -0.0034831475873993538 -0.016195253163305355 0 -0.002918964786913082 -0.015701657268306822 0 -0.0041204195314915679 -0.015780957907960701 0 -0.0035208549363313544 -0.016181689263318023 0 -0.0035193328890816191 -0.015555607367119296 0 -0.002918964786913082 -0.015701657268306822 0 -0.0029545896499158361 -0.014999935928160828 0 -0.0037565279542378927 -0.014999946404777666 0 -0.0035193328890816191 -0.015555607367119296 0 -0.0029545896499158361 -0.014999935928160828 0 -0.0021124013863412861 -0.015874499783786772 0 -0.0023491809968608662 -0.015461835811176248 0 -0.0016245250349506426 -0.015506411623944181 0 -0.002918964786913082 -0.015701657268306822 0 -0.0029545896499158361 -0.014999935928160828 0 -0.0023491809968608662 -0.015461835811176248 0 -0.0021124013863412861 -0.015874499783786772 0 -0.002918964786913082 -0.015701657268306822 0 -0.0023491809968608662 -0.015461835811176248 0 -0.0029545896499158361 -0.014999935928160828 0 -0.0023491809968608662 -0.015461835811176248 0 -0.0021523928051140097 -0.014999896670121263 0 -0.0023491809968608662 -0.015461835811176248 0 -0.0021523928051140097 -0.014999896670121263 0 -0.0016245250349506426 -0.015506411623944181 0 -0.0021523928051140097 -0.014999896670121263 0 -0.0013511251020611027 -0.0149999698825906 0 -0.0016245250349506426 -0.015506411623944181 0 -0.0013511251020611027 -0.0149999698825906 0 -0.0016245250349506426 -0.015506411623944181 0 -0.00095263445600689257 -0.015307520685378131 0 -0.001350327777027073 -0.015000441303205925 0 -0.00058971039674321024 -0.014845232228000207 0 -0.0016245250349506426 -0.015506411623944181 0 -0.0011459820909397078 -0.015850090365655017 0 -0.00095263445600689257 -0.015307520685378131 0 -0.0021124013863412861 -0.015874499783786772 0 -0.0016245250349506426 -0.015506411623944181 0 -0.0016371649316037076 -0.016013716486622226 0 -0.0016245250349506426 -0.015506411623944181 0 -0.0016371649316037076 -0.016013716486622226 0 -0.0011459820909397078 -0.015850090365655017 0 -0.0013560705582844697 -0.01640190066688621 0 -0.0016371649316037076 -0.016013716486622226 0 -0.0011459820909397078 -0.015850090365655017 0 -0.0019688331243563287 -0.016432988146206584 0 -0.0013560705582844697 -0.01640190066688621 0 -0.0016371649316037076 -0.016013716486622226 0 -0.0019688331243563287 -0.016432988146206584 0 -0.0021124013863412861 -0.015874499783786772 0 -0.0016371649316037076 -0.016013716486622226 0 -0.00044856265828584668 -0.014949995772503052 0 -0.00016880129208199246 -0.014354017211791168 0 0.00025711822324444976 -0.014912234996591219 0 -0.0011314274433429266 -0.015227474095311354 0 -0.00044856265828584668 -0.014949995772503052 0 -0.00087341881073153978 -0.014260823264851489 0 -0.0012436562278997888 -0.015833923195748324 0 -0.0010235515504049262 -0.014943469762855873 0 -0.00087341881073153978 -0.014260823264851489 0 -0.00016880129208199246 -0.014354017211791168 0 -0.00064299596972598511 -0.013319502389039325 0 -0.00044856265828584668 -0.014949995772503052 0 -0.00087341881073153978 -0.014260823264851489 0 -0.00016880129208199246 -0.014354017211791168 0 -0.00058971039674321024 -0.014845232228000207 0 0.00017996617308619644 -0.014634094023844134 0 -0.00056514193793645465 -0.015413274221048306 0 -0.00010452567656511959 -0.015437467429736097 0 0.00015805739006412582 -0.015781507910332272 0 -0.00016880129208199246 -0.014354017211791168 0 -0.00064299596972598511 -0.013319502389039325 0 0.00028391121001470129 -0.013807784154189057 0 -0.0010235515504049262 -0.014943469762855873 0 -0.00058971039674321024 -0.014845232228000207 0 -0.0013503885254319136 -0.01499997273611264 0 -0.00057557054425742696 -0.015419501991025998 0 -0.00056885481654794508 -0.015000048717532974 0 -0.00056514193793645465 -0.015413274221048306 0 -0.00051247472067252465 -0.015153870986907587 0 -0.00033825021062452781 -0.015306963663720615 0 -0.00058971039674321024 -0.014845232228000207 0 -0.00060007817493389428 -0.015239166762039624 0 -0.00057557054425742696 -0.015419501991025998 0 -0.00056885481654794508 -0.015000048717532974 0 -0.00051247472067252465 -0.015153870986907587 0 -0.00056885481654794508 -0.015000048717532974 0 -0.0001717494494634229 -0.015221063828874585 0 0.00021271842467649352 -0.014999770256551144 0 -0.00010452567656511959 -0.015437467429736097 0 -0.0001717494494634229 -0.015221063828874585 0 0.00014958448260311808 -0.015467581957114311 0 -0.00010452567656511959 -0.015437467429736097 0 -0.00033825021062452781 -0.015306963663720615 0 -0.0001717494494634229 -0.015221063828874585 0 -0.00051247472067252465 -0.015153870986907587 0 -0.00033825021062452781 -0.015306963663720615 0 -0.0001717494494634229 -0.015221063828874585 0 -0.00056514193793645465 -0.015413274221048306 0 -0.00010452567656511959 -0.015437467429736097 0 -0.00033825021062452781 -0.015306963663720615 0 -0.00056885481654794508 -0.015000048717532974 0 -0.00051247472067252465 -0.015153870986907587 0 -0.0001717494494634229 -0.015221063828874585 0 0.00021271842467649352 -0.014999770256551144 0 0.00062634476296006723 -0.015413046950803947 0 0.00014958448260311808 -0.015467581957114311 0 -0.0001717494494634229 -0.015221063828874585 0 0.00021271842467649352 -0.014999770256551144 0 0.00014958448260311808 -0.015467581957114311 0 0.00062634476296006723 -0.015413046950803947 0 0.0011281207845721718 -0.015089918409211162 0 0.0012007735141071805 -0.015692158545037499 0 0.00021286387414964333 -0.015000020278525502 0 0.0010520004902527481 -0.015162578124843056 0 0.00021271842467649352 -0.014999770256551144 0 0.00062634476296006723 -0.015413046950803947 0 0.0011281207845721718 -0.015089918409211162 0 0.00021267343763203443 -0.014999998208139076 0 0.00095883874802938252 -0.01522336918530493 0 0.0010154786603005009 -0.015000000670387665 0 0.00057941679700662869 -0.015892272983595107 0 0.0012007735141071805 -0.015692158545037499 0 0.0010522081278910452 -0.016367662817188565 0 0.00062634476296006723 -0.015413046950803947 0 0.00057941679700662869 -0.015892272983595107 0 0.0012007735141071805 -0.015692158545037499 0 0.00048423080341823173 -0.015804566790693614 0 0.00015805739006412582 -0.015781507910332272 0 0.00014958448260311808 -0.015467581957114311 0 -0.00010452567656511959 -0.015437467429736097 0 0.00015805739006412582 -0.015781507910332272 0 0.00014958448260311808 -0.015467581957114311 0 0.00062634476296006723 -0.015413046950803947 0 0.00057941679700662869 -0.015892272983595107 0 0.00014958448260311808 -0.015467581957114311 0 0.00055693299441487737 -0.015874064655758306 0 0.0001827130387861467 -0.015500142167285425 0 0.0017013099876008759 -0.015449611187279128 0 0.00181829234369371 -0.01499999651618821 0 0.0010154786603005009 -0.015000000670387665 0 0.0019479398903782463 -0.015365318297767477 0 0.0010520004902527481 -0.015162578124843056 0 0.0017013099876008759 -0.015449611187279128 0 0.00095883874802938252 -0.01522336918530493 0 0.0010154786603005009 -0.015000000670387665 0 0.0021725334634051527 -0.01528098447599513 0 0.0011281207845721718 -0.015089918409211162 0 0.0012007735141071805 -0.015692158545037499 0 0.0021725334634051527 -0.01528098447599513 0 0.0012007735141071805 -0.015692158545037499 0 0.0017547938922710105 -0.01610548945960142 0 0.0021725334634051527 -0.01528098447599513 0 0.0024170446022623629 -0.01598219424687599 0 0.0017547938922710105 -0.01610548945960142 0 0.002161571388226589 -0.016611046744865767 0 0.0024170446022623629 -0.01598219424687599 0 0.0017547938922710105 -0.01610548945960142 0 0.002161571388226589 -0.016611046744865767 0 0.0017547938922710105 -0.01610548945960142 0 0.0016572702289088534 -0.016702219404777632 0 0.0012007735141071805 -0.015692158545037499 0 0.0017547938922710105 -0.01610548945960142 0 0.0010522081278910452 -0.016367662817188565 0 0.0017547938922710105 -0.01610548945960142 0 0.0016572702289088534 -0.016702219404777632 0 0.0010522081278910452 -0.016367662817188565 0 0.0016673507218951241 -0.016698133203030877 0 0.0010156519415821246 -0.015815502680061849 0 0.0013967795348697137 -0.014988256079233854 0 0.0018725030902079149 -0.014926097390575412 0 0.0012326409688550417 -0.014304749109544893 0 0.0017441905691555487 -0.017076674632973139 0 0.0016572702289088534 -0.016702219404777632 0 0.0010152161507393301 -0.016340835578645456 0 0.001949168130885861 -0.015293465397348497 0 0.0010156519415821246 -0.015815502680061849 0 0.001504163077680726 -0.015048485426633583 0 0.001949168130885861 -0.015293465397348497 0 0.0013967795348697137 -0.014988256079233854 0 0.0019273074121732069 -0.014882767718280577 0 0.001662982130605538 -0.015348437534225844 0 0.002161571388226589 -0.016611046744865767 0 0.0017441905691555487 -0.017076674632973139 0 0.0025367972908311113 -0.016978435597252168 0 0.001949168130885861 -0.015293465397348497 0 0.0023214791045221908 -0.015862219468613714 0 0.0018704720018658332 -0.01472227759071619 0 0.002870497402859769 -0.015044117948877176 0 0.0027334087045003696 -0.014597302771594675 0 0.002161571388226589 -0.016611046744865767 0 0.0017441905691555487 -0.017076674632973139 0 0.0016572702289088534 -0.016702219404777632 0 -0.00016880129208199246 -0.014354017211791168 0 0.00028391121001470129 -0.013807784154189057 0 0.00064983386967064208 -0.014573857116907474 0 0.00055693299441487737 -0.015874064655758306 0 0.0010156519415821246 -0.015815502680061849 0 0.00017996617308619644 -0.014634094023844134 0 0.0010156519415821246 -0.015815502680061849 0 0.00028391121001470129 -0.013807784154189057 0 0.0012326409688550417 -0.014304749109544893 0 0.00064983386967064208 -0.014573857116907474 0 0.00048423080341823173 -0.015804566790693614 0 0.00015805739006412582 -0.015781507910332272 0 0.00082108017273072476 -0.01612403454936772 0 0.0013967795348697137 -0.014988256079233854 0 0.00081016532779205864 -0.015100035545083828 0 0.00064983386967064208 -0.014573857116907474 0 0.0013967795348697137 -0.014988256079233854 0 0.0012326409688550417 -0.014304749109544893 0 0.00064983386967064208 -0.014573857116907474 0 0.00081016532779205864 -0.015100035545083828 0 0.00064983386967064208 -0.014573857116907474 0 0.00025711822324444976 -0.014912234996591219 0 -0.00016880129208199246 -0.014354017211791168 0 0.00064983386967064208 -0.014573857116907474 0 0.00025711822324444976 -0.014912234996591219 0 0.00048171996721441763 -0.01549947878215591 0 0.00038978252961898 -0.016040621851842407 0 0.0010959059568078108 -0.015640406676241878 0 -0.00030721065131246005 -0.015739875463448169 0 0.00025711822324444976 -0.014912234996591219 0 0.00048171996721441763 -0.01549947878215591 0 0.00081016532779205864 -0.015100035545083828 0 0.00025711822324444976 -0.014912234996591219 0 0.00048171996721441763 -0.01549947878215591 0 0.00038978252961898 -0.016040621851842407 0 0.00086629698842119549 -0.016245168162137839 0 0.00030546946364381122 -0.016734065700663388 0 -0.00030721065131246005 -0.015739875463448169 0 0.00048171996721441763 -0.01549947878215591 0 0.00038978252961898 -0.016040621851842407 0 0.00038978252961898 -0.016040621851842407 0 0.00086629698842119549 -0.016245168162137839 0 0.0010959059568078108 -0.015640406676241878 0 0.00086629698842119549 -0.016245168162137839 0 0.0013590979000046991 -0.016160755585756872 0 0.0012989607971640913 -0.016553977318088452 0 0.00086629698842119549 -0.016245168162137839 0 0.0010959059568078108 -0.015640406676241878 0 0.0013590979000046991 -0.016160755585756872 0 0.00081016532779205864 -0.015100035545083828 0 0.00048171996721441763 -0.01549947878215591 0 0.0010959059568078108 -0.015640406676241878 0 0.0013967795348697137 -0.014988256079233854 0 0.00081016532779205864 -0.015100035545083828 0 0.0010959059568078108 -0.015640406676241878 0 0.0013967795348697137 -0.014988256079233854 0 0.0010959059568078108 -0.015640406676241878 0 0.001662982130605538 -0.015348437534225844 0 0.0010959059568078108 -0.015640406676241878 0 0.001662982130605538 -0.015348437534225844 0 0.0017271331747545494 -0.015788981123767663 0 0.0019273074121732069 -0.014882767718280577 0 0.001662982130605538 -0.015348437534225844 0 0.0020580404156903148 -0.015523253321037662 0 0.001662982130605538 -0.015348437534225844 0 0.0020580404156903148 -0.015523253321037662 0 0.0017271331747545494 -0.015788981123767663 0 0.0019273074121732069 -0.014882767718280577 0 0.0020580404156903148 -0.015523253321037662 0 0.0026928250518502219 -0.015542419235517123 0 0.0018704720018658332 -0.01472227759071619 0 0.0026928250518502219 -0.015542419235517123 0 0.002870497402859769 -0.015044117948877176 0 0.001949168130885861 -0.015293465397348497 0 0.0025800656499735271 -0.015350201733668337 0 0.0022885549608322986 -0.016067104338272756 0 0.0028723705015694131 -0.016299666977670629 0 0.0026928250518502219 -0.015542419235517123 0 0.0020580404156903148 -0.015523253321037662 0 0.0022885549608322986 -0.016067104338272756 0 0.0026928250518502219 -0.015542419235517123 0 0.0020580404156903148 -0.015523253321037662 0 0.0022885549608322986 -0.016067104338272756 0 0.0017271331747545494 -0.015788981123767663 0 0.0022885549608322986 -0.016067104338272756 0 0.0018391480894363679 -0.016196231570989369 0 0.0021186574696218851 -0.016368564393727591 0 0.0022885549608322986 -0.016067104338272756 0 0.0025045972705081947 -0.016366618577842697 0 0.0028723705015694131 -0.016299666977670629 0 0.0022885549608322986 -0.016067104338272756 0 0.0025045972705081947 -0.016366618577842697 0 0.0021186574696218851 -0.016368564393727591 0 0.0010959059568078108 -0.015640406676241878 0 0.0017271331747545494 -0.015788981123767663 0 0.0013590979000046991 -0.016160755585756872 0 0.0022885549608322986 -0.016067104338272756 0 0.0017271331747545494 -0.015788981123767663 0 0.0018391480894363679 -0.016196231570989369 0 0.0017271331747545494 -0.015788981123767663 0 0.0018391480894363679 -0.016196231570989369 0 0.0013590979000046991 -0.016160755585756872 0 0.0018391480894363679 -0.016196231570989369 0 0.0013590979000046991 -0.016160755585756872 0 0.0017194324298086953 -0.016603531440637847 0 0.0017194324298086953 -0.016603531440637847 0 0.0021576433660780328 -0.01692545680797557 0 0.0017113230416709985 -0.017194753504954426 0 0.0013590979000046991 -0.016160755585756872 0 0.0017194324298086953 -0.016603531440637847 0 0.0012989607971640913 -0.016553977318088452 0 0.0017194324298086953 -0.016603531440637847 0 0.0013030830937122548 -0.016953210537238854 0 0.0017113230416709985 -0.017194753504954426 0 0.0018391480894363679 -0.016196231570989369 0 0.0017194324298086953 -0.016603531440637847 0 0.0021186574696218851 -0.016368564393727591 0 0.0017194324298086953 -0.016603531440637847 0 0.0013030830937122548 -0.016953210537238854 0 0.0012989607971640913 -0.016553977318088452 0 0.0025045972705081947 -0.016366618577842697 0 0.0023081202769046423 -0.016667522856752413 0 0.0025589686332793881 -0.017113132560299515 0 0.0025045972705081947 -0.016366618577842697 0 0.0021186574696218851 -0.016368564393727591 0 0.0023081202769046423 -0.016667522856752413 0 0.0017194324298086953 -0.016603531440637847 0 0.0021186574696218851 -0.016368564393727591 0 0.0023081202769046423 -0.016667522856752413 0 0.0017194324298086953 -0.016603531440637847 0 0.0023081202769046423 -0.016667522856752413 0 0.0023149404973152547 -0.016998688119437749 0 0.0017575077411612096 -0.016541041544341682 0 0.0031174131855889577 -0.016179517265051679 0 0.0027989851577615295 -0.016698696609755995 0 0.0031174131855889577 -0.016179517265051679 0 0.0023081202769046423 -0.016667522856752413 0 0.0025589686332793881 -0.017113132560299515 0 0.0023229264077752471 -0.016956440814665512 0 0.0038057764078445865 -0.01519621791140119 0 0.0038587078460988887 -0.015236508818501924 0 0.0038564819278770293 -0.015055316676607531 0 0.0021576433660780328 -0.01692545680797557 0 0.0017113230416709985 -0.017194753504954426 0 0.0021511136688579591 -0.017587461892263137 0 0.0031174131855889577 -0.016179517265051679 0 0.0039748671114869542 -0.015190180293819883 0 0.0051652152743609401 -0.014014999911535295 0 0.0031174131855889577 -0.016179517265051679 0 0.0051652152743609401 -0.014014999911535295 0 0.0039748671114869542 -0.015190180293819883 0 0.0013030830937122548 -0.016953210537238854 0 0.0017113230416709985 -0.017194753504954426 0 0.0012706384023351801 -0.017459930394406003 0 0.0017113230416709985 -0.017194753504954426 0 0.0016613358092091286 -0.017640354361991434 0 0.0021511136688579591 -0.017587461892263137 0 0.0017113230416709985 -0.017194753504954426 0 0.0012706384023351801 -0.017459930394406003 0 0.0016613358092091286 -0.017640354361991434 0 0.0013030830937122548 -0.016953210537238854 0 0.0012706384023351801 -0.017459930394406003 0 0.00084370016999396581 -0.017144718280008242 0 0.0013030830937122548 -0.016953210537238854 0 0.00084370016999396581 -0.017144718280008242 0 0.00091770837228510394 -0.016717813721871991 0 0.0012706384023351801 -0.017459930394406003 0 0.00084370016999396581 -0.017144718280008242 0 0.00075447612030146076 -0.017587477731770544 0 -0.00025279883012217308 -0.017089909466703208 0 0.00035799355469073277 -0.017400453162101686 0 0.00030546946364381122 -0.016734065700663388 0 0.00084370016999396581 -0.017144718280008242 0 0.00035799355469073277 -0.017400453162101686 0 0.00030546946364381122 -0.016734065700663388 0 0.00084370016999396581 -0.017144718280008242 0 0.00035799355469073277 -0.017400453162101686 0 0.00075447612030146076 -0.017587477731770544 0 -8.8628756296981295e-06 -0.016292972785653774 0 0.00038978252961898 -0.016040621851842407 0 0.00030546946364381122 -0.016734065700663388 0 0.00086629698842119549 -0.016245168162137839 0 0.00030546946364381122 -0.016734065700663388 0 0.00091770837228510394 -0.016717813721871991 0 0.00084370016999396581 -0.017144718280008242 0 0.00030546946364381122 -0.016734065700663388 0 0.00091770837228510394 -0.016717813721871991 0 0.00086629698842119549 -0.016245168162137839 0 0.0012989607971640913 -0.016553977318088452 0 0.00091770837228510394 -0.016717813721871991 0 0.0013030830937122548 -0.016953210537238854 0 0.0012989607971640913 -0.016553977318088452 0 0.00091770837228510394 -0.016717813721871991 0 0.008211480209721584 -0.011367265515470699 0 0.0082580954778023845 -0.011374656637553798 0 0.0083113626847481359 -0.011537177057946629 0 0.0082127702825438628 -0.011382601482233233 0 0.0085517234915700284 -0.011013958842191807 0 0.008211480209721584 -0.011367265515470699 0 0.0086980743428626151 -0.01080327335987958 0 0.0082277773585061418 -0.010443907125035918 0 0.0082580954778023845 -0.011374656637553798 0 0.0083327565856773055 -0.01137642284590191 0 0.0083179563039355205 -0.011312954184140613 0 0.0083327565856773055 -0.01137642284590191 0 0.0083893698181240692 -0.011371404932346485 0 0.008367443746451108 -0.011453300458481397 0 0.0082580954778023845 -0.011374656637553798 0 0.0083327565856773055 -0.01137642284590191 0 0.008367443746451108 -0.011453300458481397 0 0.0065902372107179818 -0.012871942010818555 0 0.0063764074450003965 -0.012694951107367717 0 0.0066726444597301673 -0.012654395574213871 0 0.0084642805241460402 -0.011447729740576585 0 0.0083893698181240692 -0.011371404932346485 0 0.008367443746451108 -0.011453300458481397 0 0.0051652152743609401 -0.014014999911535295 0 0.0075034251706855588 -0.012059340389864604 0 0.0025045972705081947 -0.016366618577842697 0 0.0025589686332793881 -0.017113132560299515 0 0.0028723705015694131 -0.016299666977670629 0 0.0084642805241460402 -0.011447729740576585 0 0.008367443746451108 -0.011453300458481397 0 0.0084511683568030543 -0.011561096557710922 0 0.0051652152743609401 -0.014014999911535295 0 0.0056575796108559503 -0.014025455218152181 0 0.0082580954778023845 -0.011374656637553798 0 0.008367443746451108 -0.011453300458481397 0 0.0083113626847481359 -0.011537177057946629 0 0.008367443746451108 -0.011453300458481397 0 0.0083113626847481359 -0.011537177057946629 0 0.0084511683568030543 -0.011561096557710922 0 0.0083113626847481359 -0.011537177057946629 0 0.0084364494642086927 -0.011732028820314931 0 0.0082708834665457705 -0.011758261573261704 0 0.0083113626847481359 -0.011537177057946629 0 0.0084511683568030543 -0.011561096557710922 0 0.0084364494642086927 -0.011732028820314931 0 0.0056575796108559503 -0.014025455218152181 0 0.0059808350173814308 -0.013274506932756579 0 0.0028723705015694131 -0.016299666977670629 0 0.0026928250518502219 -0.015542419235517123 0 0.0032386754891762628 -0.015426063690709015 0 0.0032386754891762628 -0.015426063690709015 0 0.002870497402859769 -0.015044117948877176 0 0.0036174184565978141 -0.014470741409732819 0 0.0026928250518502219 -0.015542419235517123 0 0.0032386754891762628 -0.015426063690709015 0 0.002870497402859769 -0.015044117948877176 0 0.0059808350173814308 -0.013274506932756579 0 0.004973692122041959 -0.014575240665554968 0 0.0084364494642086927 -0.011732028820314931 0 0.0082708834665457705 -0.011758261573261704 0 0.0083779565381371449 -0.011951546192355318 0 0.0082708834665457705 -0.011758261573261704 0 0.0080472336189891039 -0.011783753201431619 0 0.0081845281806503124 -0.011999904397240573 0 0.0082708834665457705 -0.011758261573261704 0 0.0082066461569906858 -0.011584349514629833 0 0.0080472336189891039 -0.011783753201431619 0 0.0083113626847481359 -0.011537177057946629 0 0.0082708834665457705 -0.011758261573261704 0 0.0082066461569906858 -0.011584349514629833 0 0.008211480209721584 -0.011367265515470699 0 0.0083113626847481359 -0.011537177057946629 0 0.0082066461569906858 -0.011584349514629833 0 0.0082066461569906858 -0.011584349514629833 0 0.0080472336189891039 -0.011783753201431619 0 0.007953381292196679 -0.011492679601792564 0 0.008211480209721584 -0.011367265515470699 0 0.0082066461569906858 -0.011584349514629833 0 0.007953381292196679 -0.011492679601792564 0 0.0080472336189891039 -0.011783753201431619 0 0.0081845281806503124 -0.011999904397240573 0 0.0079520808726530265 -0.01206379693277207 0 0.0064590382022901502 -0.014323205149690713 0 0.0066425745845407952 -0.014420528348291856 0 0.0082708834665457705 -0.011758261573261704 0 0.0081845281806503124 -0.011999904397240573 0 0.0083779565381371449 -0.011951546192355318 0 0.0043712684409431182 -0.016718905054389926 0 0.0035412070093328424 -0.016418913792359491 0 0.0044534032725004145 -0.015814752778325742 0 0.0048162598411900827 -0.014741945794180129 0 0.0056218693368404399 -0.014971660309786023 0 0.0055353665344845138 -0.015340773458780118 0 0.0040824651183014099 -0.015575542556922518 0 0.0066425745845407952 -0.014420528348291856 0 0.0040824651183014099 -0.015575542556922518 0 0.0051351303774514485 -0.0153187051704526 0 0.0043712684409431182 -0.016718905054389926 0 0.0044534032725004145 -0.015814752778325742 0 0.0053775917584444593 -0.016563678799081317 0 0.0025367972908311113 -0.016978435597252168 0 0.0033691303462541414 -0.016868670778445356 0 0.0028800161734658376 -0.016412445661729433 0 0.002161571388226589 -0.016611046744865767 0 0.0025367972908311113 -0.016978435597252168 0 0.0028800161734658376 -0.016412445661729433 0 0.002870497402859769 -0.015044117948877176 0 0.0027334087045003696 -0.014597302771594675 0 0.0036174184565978141 -0.014470741409732819 0 0.0023214791045221908 -0.015862219468613714 0 0.004973692122041959 -0.014575240665554968 0 0.0064590382022901502 -0.014323205149690713 0 0.004973692122041959 -0.014575240665554968 0 0.0043712684409431182 -0.016718905054389926 0 0.0033859373280639145 -0.016852697073282002 0 0.0035412070093328424 -0.016418913792359491 0 0.004973692122041959 -0.014575240665554968 0 0.0036176346467589773 -0.016932164472618513 0 0.0035412070093328424 -0.016418913792359491 0 0.0032966778299354429 -0.01552215944765235 0 0.0044534032725004145 -0.015814752778325742 0 0.0035412070093328424 -0.016418913792359491 0 0.0028800161734658376 -0.016412445661729433 0 0.0032966778299354429 -0.01552215944765235 0 0.0033691303462541414 -0.016868670778445356 0 0.0035412070093328424 -0.016418913792359491 0 0.0028800161734658376 -0.016412445661729433 0 0.002161571388226589 -0.016611046744865767 0 0.0024170446022623629 -0.01598219424687599 0 0.0028800161734658376 -0.016412445661729433 0 0.0024170446022623629 -0.01598219424687599 0 0.0028800161734658376 -0.016412445661729433 0 0.0032966778299354429 -0.01552215944765235 0 0.0021725334634051527 -0.01528098447599513 0 0.0024170446022623629 -0.01598219424687599 0 0.0032966778299354429 -0.01552215944765235 0 0.0019479398903782463 -0.015365318297767477 0 0.0028606880736742816 -0.015645397648241355 0 0.0017013099876008759 -0.015449611187279128 0 0.0024757898619318288 -0.01570003916027601 0 0.0021138930233400174 -0.015289750869975029 0 0.0024757898619318288 -0.01570003916027601 0 0.0025576787210229942 -0.015305508544897106 0 0.0033370823285092622 -0.015947354763938319 0 0.0026211145175733161 -0.01499999742864 0 0.0025270106897299005 -0.015311442288169162 0 0.0031366421456636884 -0.015399093119219465 0 0.0026211145175733161 -0.01499999742864 0 0.0023577372026031087 -0.015163907742152427 0 0.0025270106897299005 -0.015311442288169162 0 0.0023577372026031087 -0.015163907742152427 0 0.0023643403100820741 -0.015287434573853061 0 0.0025381276913604128 -0.0153109901305501 0 0.002515040624318073 -0.015131782191525582 0 0.0026803204269436245 -0.015088473343017793 0 0.0025270503298544583 -0.015102986797115001 0 0.0026803204269436245 -0.015088473343017793 0 0.0024757898619318288 -0.01570003916027601 0 0.0023643403100820741 -0.015287434573853061 0 0.0025576787210229942 -0.015305508544897106 0 0.00181829234369371 -0.01499999651618821 0 0.0023577372026031087 -0.015163907742152427 0 0.0021138930233400174 -0.015289750869975029 0 0.00181829234369371 -0.01499999651618821 0 0.0026211145175733161 -0.01499999742864 0 0.0023577372026031087 -0.015163907742152427 0 0.0023577372026031087 -0.015163907742152427 0 0.0023643403100820741 -0.015287434573853061 0 0.0021138930233400174 -0.015289750869975029 0 0.0024757898619318288 -0.01570003916027601 0 0.0023643403100820741 -0.015287434573853061 0 0.0021138930233400174 -0.015289750869975029 0 0.0017013099876008759 -0.015449611187279128 0 0.00181829234369371 -0.01499999651618821 0 0.0021138930233400174 -0.015289750869975029 0 0.0045497421456260146 -0.014939721464978873 0 0.0039014848791448413 -0.015422253150477901 0 0.0046846399149519232 -0.015647028542968122 0 0.0045497421456260146 -0.014939721464978873 0 0.0039014848791448413 -0.015422253150477901 0 0.0038254317183848423 -0.01483842373442381 0 0.0026803204269436245 -0.015088473343017793 0 0.0040824651183014099 -0.015575542556922518 0 0.0028606880736742816 -0.015645397648241355 0 0.0040824651183014099 -0.015575542556922518 0 0.0030947786265752074 -0.014739913260083304 0 0.0039014848791448413 -0.015422253150477901 0 0.0038254317183848423 -0.01483842373442381 0 0.0026803204269436245 -0.015088473343017793 0 0.0035016175822444422 -0.015118360001067716 0 0.0026211145175733161 -0.01499999742864 0 0.0031366421456636884 -0.015399093119219465 0 0.0034239055594606172 -0.014999997582693296 0 0.0037478439132345282 -0.015486124493362775 0 0.0031366421456636884 -0.015399093119219465 0 0.0034239055594606172 -0.014999997582693296 0 0.0041649932221143916 -0.015199504188975902 0 0.0035016175822444422 -0.015118360001067716 0 0.0037478439132345282 -0.015486124493362775 0 0.0043585657666471373 -0.01557307504843612 0 0.0042267193265876765 -0.014999999017161227 0 0.0037478439132345282 -0.015486124493362775 0 0.0034239055594606172 -0.014999997582693296 0 0.0042267193265876765 -0.014999999017161227 0 0.0041649932221143916 -0.015199504188975902 0 0.0046751589455891421 -0.015586117848609832 0 0.0045497421456260146 -0.014939721464978873 0 0.0052645383509647417 -0.015040682335652519 0 0.0046846399149519232 -0.015647028542968122 0 0.0049816117516794404 -0.015650344342370774 0 0.0051979207985173772 -0.015678571222917007 0 0.0051184557072136965 -0.015829937701674433 0 0.0043629897948934265 -0.015567561339736224 0 0.0047413198574618211 -0.015310776364182524 0 0.0048936886498648748 -0.015638237094663932 0 0.0046751589455891421 -0.015586117848609832 0 0.0063278535051221095 -0.014908354892182523 0 0.0046751589455891421 -0.015586117848609832 0 0.005054506285937981 -0.015656298118284857 0 0.0046751589455891421 -0.015586117848609832 0 0.0042266871929827745 -0.015000066252912583 0 0.0042267156497363834 -0.015000002786864752 0 0.0050290144664185783 -0.014999971424508851 0 0.0047413198574618211 -0.015310776364182524 0 0.0043629897948934265 -0.015567561339736224 0 0.0042267156497363834 -0.015000002786864752 0 0.0047413198574618211 -0.015310776364182524 0 0.0050290144664185783 -0.014999971424508851 0 0.0047413198574618211 -0.015310776364182524 0 0.0051974683808416805 -0.015349807246595907 0 0.0047413198574618211 -0.015310776364182524 0 0.0051974683808416805 -0.015349807246595907 0 0.0048936886498648748 -0.015638237094663932 0 0.0051974683808416805 -0.015349807246595907 0 0.005438428267916658 -0.015688945504659237 0 0.0058311801585775175 -0.01500002618725821 0 0.0050290144664185783 -0.014999971424508851 0 0.0051974683808416805 -0.015349807246595907 0 0.0058311801585775175 -0.01500002618725821 0 0.0059194088308874415 -0.015599708717565622 0 0.0069457725728059722 -0.015517384527209918 0 0.005438428267916658 -0.015688945504659237 0 0.0053939867890722536 -0.015871063368150012 0 0.0058101962471671306 -0.015761228602812618 0 0.0051974683808416805 -0.015349807246595907 0 0.005438428267916658 -0.015688945504659237 0 0.0048936886498648748 -0.015638237094663932 0 0.005438428267916658 -0.015688945504659237 0 0.005244619938674951 -0.015822591424269079 0 0.0053939867890722536 -0.015871063368150012 0 0.0053930081722564438 -0.015690662466580428 0 0.005054506285937981 -0.015656298118284857 0 0.005438428267916658 -0.015688945504659237 0 0.0051979207985173772 -0.015678571222917007 0 0.005244619938674951 -0.015822591424269079 0 0.0051979207985173772 -0.015678571222917007 0 0.005244619938674951 -0.015822591424269079 0 0.0051184557072136965 -0.015829937701674433 0 0.005244619938674951 -0.015822591424269079 0 0.0051722966595995215 -0.015932488710829369 0 0.0051184557072136965 -0.015829937701674433 0 0.005244619938674951 -0.015822591424269079 0 0.0051722966595995215 -0.015932488710829369 0 0.0053939867890722536 -0.015871063368150012 0 0.006188630797121935 -0.015117784755808125 0 0.0059194088308874415 -0.015599708717565622 0 0.0069668118347283609 -0.014405470289652429 0 0.0075824541344486135 -0.014322764088565506 0 0.0074908453990132516 -0.014702620261825105 0 0.0069668118347283609 -0.014405470289652429 0 0.0074908453990132516 -0.014702620261825105 0 0.0067707313593637986 -0.014489756727766322 0 0.006188630797121935 -0.015117784755808125 0 0.007141161447986078 -0.014839330023055063 0 0.00619640822006437 -0.015418596330932312 0 0.0067470375891012964 -0.015192406759115384 0 0.006749956370209401 -0.015351679497248099 0 0.006188630797121935 -0.015117784755808125 0 0.0070660026910632215 -0.014418493615780783 0 0.007141161447986078 -0.014839330023055063 0 0.0083802509148018095 -0.015179424904605445 0 0.0067470375891012964 -0.015192406759115384 0 0.006749956370209401 -0.015351679497248099 0 0.0073056552058805117 -0.01527938597370425 0 0.0075824541344486135 -0.014322764088565506 0 0.0078669508267902657 -0.014544497244889432 0 0.0081902844969797498 -0.01424311677624869 0 0.0075824541344486135 -0.014322764088565506 0 0.0078669508267902657 -0.014544497244889432 0 0.0074908453990132516 -0.014702620261825105 0 0.0078669508267902657 -0.014544497244889432 0 0.0074908453990132516 -0.014702620261825105 0 0.0082020728017785614 -0.014909415751574661 0 0.0080275875631606059 -0.012964818863467826 0 0.0076769432298255018 -0.012862679787713951 0 0.0079457130187037244 -0.01259737554899619 0 0.0076633195524439179 -0.013763326302636669 0 0.0088105430312464816 -0.014060315664072098 0 0.0080275875631606059 -0.012964818863467826 0 0.0083730401978734225 -0.013074059954912664 0 0.0083395044465867652 -0.012534148633707894 0 0.0076633195524439179 -0.013763326302636669 0 0.0070660026910632215 -0.014418493615780783 0 0.0074070299004296899 -0.013230356042160279 0 0.0069338927679623288 -0.013910280058032794 0 0.0083730401978734225 -0.013074059954912664 0 0.0084374486825137332 -0.013045688291879076 0 0.0083395044465867652 -0.012534148633707894 0 0.0069500160288905348 -0.012935326445752725 0 0.0068572915021611041 -0.013468844300543154 0 0.0066384865289374397 -0.012427178661328933 0 0.0069338927679623288 -0.013910280058032794 0 0.007982177947189445 -0.011464445722217382 0 0.0069500160288905348 -0.012935326445752725 0 0.0074455156352491196 -0.013220475013320378 0 0.0068572915021611041 -0.013468844300543154 0 0.0074455156352491196 -0.013220475013320378 0 0.0068533834130844471 -0.01360682499385584 0 0.0068288034727005476 -0.013497100863799816 0 0.0069500160288905348 -0.012935326445752725 0 0.0074455156352491196 -0.013220475013320378 0 0.0069718698175858301 -0.012732700709724043 0 0.0066425745845407952 -0.014420528348291856 0 0.0077648274036500467 -0.011667121734363071 0 0.0079520808726530265 -0.01206379693277207 0 0.0078780261576269061 -0.011847479910537109 0 0.0076664974917137144 -0.011843847944144319 0 0.0080472336189891039 -0.011783753201431619 0 0.0079520808726530265 -0.01206379693277207 0 0.0078780261576269061 -0.011847479910537109 0 0.0074455156352491196 -0.013220475013320378 0 0.0077668290952547419 -0.01345721479217207 0 0.0069718698175858301 -0.012732700709724043 0 0.0074455156352491196 -0.013220475013320378 0 0.0077668290952547419 -0.01345721479217207 0 0.0068533834130844471 -0.01360682499385584 0 0.0056218693368404399 -0.014971660309786023 0 0.0055353665344845138 -0.015340773458780118 0 0.0064133782203624192 -0.015204064228702362 0 0.0051351303774514485 -0.0153187051704526 0 0.0063278535051221095 -0.014908354892182523 0 0.0066425745845407952 -0.014420528348291856 0 0.0063278535051221095 -0.014908354892182523 0 0.0049816117516794404 -0.015650344342370774 0 0.0051184557072136965 -0.015829937701674433 0 0.0050562258830758999 -0.015942393655648195 0 0.0052645383509647417 -0.015040682335652519 0 0.0046846399149519232 -0.015647028542968122 0 0.005459464080107888 -0.015870797728413492 0 0.0064252404645668126 -0.014953296896870492 0 0.0065432725920669789 -0.014899260282343724 0 0.0066353601075749584 -0.014925037514316727 0 0.0051722966595995215 -0.015932488710829369 0 0.0051184557072136965 -0.015829937701674433 0 0.0050562258830758999 -0.015942393655648195 0 0.006188630797121935 -0.015117784755808125 0 0.0063278535051221095 -0.014908354892182523 0 0.0070660026910632215 -0.014418493615780783 0 0.0063278535051221095 -0.014908354892182523 0 0.0070660026910632215 -0.014418493615780783 0 0.0069338927679623288 -0.013910280058032794 0 0.0068803368438768824 -0.014651284589394279 0 0.0063529732330669794 -0.014493574566187746 0 0.0064323470085394466 -0.014844312051410492 0 0.0063278535051221095 -0.014908354892182523 0 0.0069338927679623288 -0.013910280058032794 0 0.0073758068730478852 -0.015654560050523007 0 0.0072922408160351893 -0.015212367332352645 0 0.0077382207618221944 -0.015439948269592482 0 0.0070957714657672267 -0.014999998566005856 0 0.0071684935115028494 -0.015241018489752104 0 0.007728042810522388 -0.014999999701791391 0 0.0071336472476481337 -0.015250310600494974 0 0.0077280292275185656 -0.015000015498890247 0 0.0071684935115028494 -0.015241018489752104 0 0.0068291571186097442 -0.015200846099310626 0 0.0066128197457197896 -0.015479822275416872 0 0.0068291571186097442 -0.015200846099310626 0 0.0066128197457197896 -0.015479822275416872 0 0.0064635028488394539 -0.015000000303839446 0 0.0070957714657672267 -0.014999998566005856 0 0.0068291571186097442 -0.015200846099310626 0 0.0064635028488394539 -0.015000000303839446 0 0.0071336472476481337 -0.015250310600494974 0 0.0073295251821006904 -0.015524854998805224 0 0.0070957714657672267 -0.014999998566005856 0 0.0071684935115028494 -0.015241018489752104 0 0.0068291571186097442 -0.015200846099310626 0 0.0078664737582107742 -0.01567863666410288 0 0.0073295251821006904 -0.015524854998805224 0 0.0073758068730478852 -0.015654560050523007 0 0.0072922408160351893 -0.015212367332352645 0 0.0068295829800904713 -0.015418101352904948 0 0.0085717318485549355 -0.015794112740256078 0 0.0085819679813285091 -0.01554691079752852 0 0.008349336527167496 -0.015544702743077086 0 0.0082038251521940522 -0.015650201068677965 0 0.0085717318485549355 -0.015794112740256078 0 0.008349336527167496 -0.015544702743077086 0 0.0073295251821006904 -0.015524854998805224 0 0.0069457725728059722 -0.015517384527209918 0 0.0085717318485549355 -0.015794112740256078 0 0.0088778638908275798 -0.015631997679490587 0 0.0085819679813285091 -0.01554691079752852 0 0.0066222371189368521 -0.015479789429670631 0 0.0061609109498663665 -0.015289049694236648 0 0.005859833440220689 -0.01580638291434441 0 0.0064635028488394539 -0.015000000303839446 0 0.0061609109498663665 -0.015289049694236648 0 0.0058312556690716172 -0.014999993101972826 0 0.0073295251821006904 -0.015524854998805224 0 0.0060226734426962582 -0.015221748677504499 0 0.0066128197457197896 -0.015479822275416872 0 0.0064635028488394539 -0.015000000303839446 0 0.0061609109498663665 -0.015289049694236648 0 0.0058306326615954942 -0.015000547427997174 0 0.0069457725728059722 -0.015517384527209918 0 0.0061609109498663665 -0.015289049694236648 0 0.0058312556690716172 -0.014999993101972826 0 0.005859833440220689 -0.01580638291434441 0 0.005438428267916658 -0.015688945504659237 0 0.0058311801585775175 -0.01500002618725821 0 0.0058101962471671306 -0.015761228602812618 0 0.0083802509148018095 -0.015179424904605445 0 0.0088105430312464816 -0.014060315664072098 0 0.0067470375891012964 -0.015192406759115384 0 0.0072990365049062696 -0.014960573961834492 0 0.0073056552058805117 -0.01527938597370425 0 0.0078669508267902657 -0.014544497244889432 0 0.0081902844969797498 -0.01424311677624869 0 0.0082020728017785614 -0.014909415751574661 0 0.0096354807543200059 -0.015423336310846098 0 0.0096693793746058087 -0.014577120598091147 0 0.0089632563201325118 -0.015094162751884084 0 0.0069457725728059722 -0.015517384527209918 0 0.0083802509148018095 -0.015179424904605445 0 0.0088105430312464816 -0.014060315664072098 0 0.0089046514906244226 -0.014311616434152795 0 0.0096693793746058087 -0.014577120598091147 0 0.0089632563201325118 -0.015094162751884084 0 0.0084039387115689874 -0.014097550652173522 0 0.0096354807543200059 -0.015423336310846098 0 0.0089632563201325118 -0.015094162751884084 0 0.0085819679813285091 -0.01554691079752852 0 0.0083802509148018095 -0.015179424904605445 0 0.0089777608403788997 -0.015591955968241976 0 0.0088778638908275798 -0.015631997679490587 0 0.0088752160430739472 -0.015515505070035979 0 0.0085819679813285091 -0.01554691079752852 0 0.0089632563201325118 -0.015094162751884084 0 0.0085819679813285091 -0.01554691079752852 0 0.0083374068801049441 -0.015316449307890185 0 0.0090186498436838746 -0.015112157378290171 0 0.0079070324444085148 -0.015230226141420767 0 0.0085819679813285091 -0.01554691079752852 0 0.008349336527167496 -0.015544702743077086 0 0.0083374068801049441 -0.015316449307890185 0 0.0089632563201325118 -0.015094162751884084 0 0.0079754454577499814 -0.015050137339419071 0 0.0084039387115689874 -0.014097550652173522 0 0.0079754454577499814 -0.015050137339419071 0 0.0074619546650211482 -0.014056994285648291 0 0.0084039387115689874 -0.014097550652173522 0 0.0079754454577499814 -0.015050137339419071 0 0.0074619546650211482 -0.014056994285648291 0 0.0069676054656302947 -0.015024335006647932 0 0.009457705378573501 -0.012920198555720326 0 0.0089147276186805936 -0.014388364866484938 0 0.0079070324444085148 -0.015230226141420767 0 0.0089147276186805936 -0.014388364866484938 0 0.0082038251521940522 -0.015650201068677965 0 0.0082043468107418985 -0.01552723543286072 0 0.0080983654443866071 -0.015640370397619372 0 0.0083374068801049441 -0.015316449307890185 0 0.0082043468107418985 -0.01552723543286072 0 0.0081174657993493982 -0.015454109956620887 0 0.008349336527167496 -0.015544702743077086 0 0.0083374068801049441 -0.015316449307890185 0 0.0082043468107418985 -0.01552723543286072 0 0.0082038251521940522 -0.015650201068677965 0 0.008349336527167496 -0.015544702743077086 0 0.0082043468107418985 -0.01552723543286072 0 0.011324485785634813 -0.011895946977504365 0 0.011350303889822775 -0.012065573461039886 0 0.011431440607924209 -0.011926344910724458 0 0.011324485785634813 -0.011895946977504365 0 0.011431440607924209 -0.011926344910724458 0 0.011374474289184295 -0.011781169579639527 0 0.009457705378573501 -0.012920198555720326 0 0.0097766967385968327 -0.012409352647328726 0 0.011324485785634813 -0.011895946977504365 0 0.011350303889822775 -0.012065573461039886 0 0.011263588351586131 -0.011963401334799478 0 0.0074619546650211482 -0.014056994285648291 0 0.0084039387115689874 -0.014097550652173522 0 0.0079866529720112669 -0.012973761168761734 0 0.0084039387115689874 -0.014097550652173522 0 0.0079866529720112669 -0.012973761168761734 0 0.0087651056216995447 -0.013254053688961809 0 0.0079866529720112669 -0.012973761168761734 0 0.0086988558508752124 -0.012552108408491166 0 0.0087651056216995447 -0.013254053688961809 0 0.0093233129438969383 -0.012756023340519781 0 0.0087651056216995447 -0.013254053688961809 0 0.009336927238309093 -0.013717349228749882 0 0.0086988558508752124 -0.012552108408491166 0 0.0093233129438969383 -0.012756023340519781 0 0.0087651056216995447 -0.013254053688961809 0 0.0099651247193349342 -0.014554115202836988 0 0.0084039387115689874 -0.014097550652173522 0 0.009336927238309093 -0.013717349228749882 0 0.0084039387115689874 -0.014097550652173522 0 0.0087651056216995447 -0.013254053688961809 0 0.009336927238309093 -0.013717349228749882 0 0.0076769432298255018 -0.012862679787713951 0 0.0076669576571684554 -0.012391274465347175 0 0.0079457130187037244 -0.01259737554899619 0 0.0088105430312464816 -0.014060315664072098 0 0.0088278966219799346 -0.012949153457570146 0 0.0099651247193349342 -0.014554115202836988 0 0.009336927238309093 -0.013717349228749882 0 0.0099581600845315126 -0.013162329097584727 0 0.0076669576571684554 -0.012391274465347175 0 0.0076670840464877609 -0.011897256745811784 0 0.008011308840770396 -0.012223868195581777 0 0.0093233129438969383 -0.012756023340519781 0 0.0099581600845315126 -0.013162329097584727 0 0.0099537369848432655 -0.011737241118757034 0 0.0093233129438969383 -0.012756023340519781 0 0.009336927238309093 -0.013717349228749882 0 0.0099581600845315126 -0.013162329097584727 0 0.0088278966219799346 -0.012949153457570146 0 0.0086950827038664233 -0.010632537482905626 0 0.008016400946441014 -0.0098920700842993897 0 0.0080642378437989232 -0.0098194245196657915 0 0.0081420710525306993 -0.0098246580369991381 0 0.008016400946441014 -0.0098920700842993897 0 0.0080642378437989232 -0.0098194245196657915 0 0.0080238999982384235 -0.0097448487669543685 0 0.0080642378437989232 -0.0098194245196657915 0 0.0080678727240796212 -0.0097645397558863839 0 0.0081061578874773478 -0.0097616841537847502 0 0.0080642378437989232 -0.0098194245196657915 0 0.0080678727240796212 -0.0097645397558863839 0 0.0080238999982384235 -0.0097448487669543685 0 0.0080678727240796212 -0.0097645397558863839 0 0.0080754888443453562 -0.0097328064004039393 0 0.0080238999982384235 -0.0097448487669543685 0 0.0080754888443453562 -0.0097328064004039393 0 0.0080238999982384235 -0.0097448487669543685 0 0.0080751454207633501 -0.0096861950188494618 0 0.0080678727240796212 -0.0097645397558863839 0 0.0080754888443453562 -0.0097328064004039393 0 0.0081061578874773478 -0.0097616841537847502 0 0.0080754888443453562 -0.0097328064004039393 0 0.0081061578874773478 -0.0097616841537847502 0 0.0081149851677264784 -0.0097058566319808328 0 0.0092270778370582753 -0.0079256772861991606 0 0.0092334274274045239 -0.0079175665363380755 0 0.0092416320155794714 -0.0079288247382891669 0 0.0092270778370582753 -0.0079256772861991606 0 0.0092416320155794714 -0.0079288247382891669 0 0.00922551401287839 -0.0079437155221342252 0 0.0092270778370582753 -0.0079256772861991606 0 0.0092174087285974635 -0.0079227744596463996 0 0.00922551401287839 -0.0079437155221342252 0 0.0092270778370582753 -0.0079256772861991606 0 0.0092174087285974635 -0.0079227744596463996 0 0.0092334274274045239 -0.0079175665363380755 0 0.0086950827038664233 -0.010632537482905626 0 0.0087564308514115237 -0.0084409378554503086 0 0.0092119743010959237 -0.0079119761836176205 0 0.0092334274274045239 -0.0079175665363380755 0 0.0092792395124148361 -0.0079072419076571514 0 0.0092119743010959237 -0.0079119761836176205 0 0.0092174087285974635 -0.0079227744596463996 0 0.0092334274274045239 -0.0079175665363380755 0 0.0091134587248608186 -0.010989376382545119 0 0.0086927373267210728 -0.011583737544480688 0 0.0082786029125088562 -0.010242947979575997 0 0.0086950827038664233 -0.010632537482905626 0 0.0091064787860919202 -0.0093081098313056599 0 0.0099537369848432655 -0.011737241118757034 0 0.0091134587248608186 -0.010989376382545119 0 0.0091965100019945813 -0.011617410235233137 0 0.0092334274274045239 -0.0079175665363380755 0 0.0092416320155794714 -0.0079288247382891669 0 0.0092792395124148361 -0.0079072419076571514 0 0.0091134587248608186 -0.010989376382545119 0 0.0086927373267210728 -0.011583737544480688 0 0.0091965100019945813 -0.011617410235233137 0 0.0093233129438969383 -0.012756023340519781 0 0.0099537369848432655 -0.011737241118757034 0 0.0092349203913986346 -0.012093699288577318 0 0.0086927373267210728 -0.011583737544480688 0 0.0089347916176693888 -0.011879554530204955 0 0.0091965100019945813 -0.011617410235233137 0 0.0086927373267210728 -0.011583737544480688 0 0.0089347916176693888 -0.011879554530204955 0 0.0085567975711747443 -0.011830799194916815 0 0.0099537369848432655 -0.011737241118757034 0 0.0091965100019945813 -0.011617410235233137 0 0.0092349203913986346 -0.012093699288577318 0 0.0089347916176693888 -0.011879554530204955 0 0.0091965100019945813 -0.011617410235233137 0 0.0092349203913986346 -0.012093699288577318 0 0.0086988558508752124 -0.012552108408491166 0 0.0089347916176693888 -0.011879554530204955 0 0.0085567975711747443 -0.011830799194916815 0 0.0086988558508752124 -0.012552108408491166 0 0.0089347916176693888 -0.011879554530204955 0 0.0092349203913986346 -0.012093699288577318 0 0.0086988558508752124 -0.012552108408491166 0 0.0093233129438969383 -0.012756023340519781 0 0.0092349203913986346 -0.012093699288577318 0 0.0097766967385968327 -0.012409352647328726 0 0.0094462795726143918 -0.012013177730967994 0 0.011431440607924209 -0.011926344910724458 0 0.011446952460416231 -0.011738287568171848 0 0.011533016122534297 -0.011759786118445538 0 0.011431440607924209 -0.011926344910724458 0 0.011446952460416231 -0.011738287568171848 0 0.011374474289184295 -0.011781169579639527 0 0.0079866529720112669 -0.012973761168761734 0 0.0086988558508752124 -0.012552108408491166 0 0.0085721599186804488 -0.011863984215679864 0 0.0088380415830625527 -0.012314059737046613 0 0.0094462795726143918 -0.012013177730967994 0 0.0092678188062053739 -0.011966444678613566 0 0.0094462795726143918 -0.012013177730967994 0 0.0086927373267210728 -0.011583737544480688 0 0.0085614338165398533 -0.011825748474503819 0 0.0082786029125088562 -0.010242947979575997 0 0.011533016122534297 -0.011759786118445538 0 0.01147399712505187 -0.011623166167232132 0 0.011513586321923279 -0.011457142696781936 0 0.0094462795726143918 -0.012013177730967994 0 0.0097810016039922756 -0.0096029422259260415 0 0.01147399712505187 -0.011623166167232132 0 0.011385509421667909 -0.011578672461842096 0 0.011441193924067396 -0.011535655084895737 0 0.011446952460416231 -0.011738287568171848 0 0.011533016122534297 -0.011759786118445538 0 0.01147399712505187 -0.011623166167232132 0 0.011446952460416231 -0.011738287568171848 0 0.01147399712505187 -0.011623166167232132 0 0.011398165253396542 -0.011674923505051921 0 0.011398165253396542 -0.011674923505051921 0 0.011317191868045669 -0.011648334403652229 0 0.011374474289184295 -0.011781169579639527 0 0.011398165253396542 -0.011674923505051921 0 0.011385509421667909 -0.011578672461842096 0 0.011317191868045669 -0.011648334403652229 0 0.01147399712505187 -0.011623166167232132 0 0.011398165253396542 -0.011674923505051921 0 0.011385509421667909 -0.011578672461842096 0 0.011385509421667909 -0.011578672461842096 0 0.011317191868045669 -0.011648334403652229 0 0.011292642386882653 -0.011500797887011922 0 0.011324485785634813 -0.011895946977504365 0 0.011374474289184295 -0.011781169579639527 0 0.011285090171883439 -0.011743698467635648 0 0.011317191868045669 -0.011648334403652229 0 0.011374474289184295 -0.011781169579639527 0 0.011285090171883439 -0.011743698467635648 0 0.011446952460416231 -0.011738287568171848 0 0.011398165253396542 -0.011674923505051921 0 0.011374474289184295 -0.011781169579639527 0 0.008492727049724173 -0.010069094697398008 0 0.0083327745349063183 -0.010324662136497863 0 0.0082960650355915593 -0.0099952468155102819 0 0.0081126431875383001 -0.010632368733432823 0 0.0077648274036500467 -0.011667121734363071 0 0.007648086230963534 -0.011444875606976823 0 0.0078443600148450192 -0.011694920003193913 0 0.0076664974917137144 -0.011843847944144319 0 0.0080472336189891039 -0.011783753201431619 0 0.007953381292196679 -0.011492679601792564 0 0.0078443600148450192 -0.011694920003193913 0 0.007648086230963534 -0.011444875606976823 0 0.007953381292196679 -0.011492679601792564 0 0.0078443600148450192 -0.011694920003193913 0 0.0078443600148450192 -0.011694920003193913 0 0.0078780261576269061 -0.011847479910537109 0 0.0076664974917137144 -0.011843847944144319 0 0.0080472336189891039 -0.011783753201431619 0 0.0078443600148450192 -0.011694920003193913 0 0.0078780261576269061 -0.011847479910537109 0 0.008492727049724173 -0.010069094697398008 0 0.0084588730976009798 -0.010444226854037057 0 0.0083327745349063183 -0.010324662136497863 0 0.0074988529866697375 -0.012504707206671094 0 0.0077648274036500467 -0.011667121734363071 0 0.0077648274036500467 -0.011667121734363071 0 0.007982177947189445 -0.011464445722217382 0 0.0069500160288905348 -0.012935326445752725 0 0.0069776815595979395 -0.012730346205214932 0 0.0066384865289374397 -0.012427178661328933 0 0.0080275875631606059 -0.012964818863467826 0 0.0083395044465867652 -0.012534148633707894 0 0.0079457130187037244 -0.01259737554899619 0 0.0076669576571684554 -0.012391274465347175 0 0.0079457130187037244 -0.01259737554899619 0 0.008011308840770396 -0.012223868195581777 0 0.0083395044465867652 -0.012534148633707894 0 0.0079457130187037244 -0.01259737554899619 0 0.008011308840770396 -0.012223868195581777 0 0.007982177947189445 -0.011464445722217382 0 0.0083192052078573924 -0.0095606166856791568 0 0.007982177947189445 -0.011464445722217382 0 0.0080195124797955274 -0.011149825242158889 0 0.0083526019886020313 -0.01025631605830409 0 0.0081687732643279075 -0.010066198725904561 0 0.0082960650355915593 -0.0099952468155102819 0 0.0082960650355915593 -0.0099952468155102819 0 0.0081792524408797872 -0.0099215588489193676 0 0.0082760703906834647 -0.0098334664049728841 0 0.008016400946441014 -0.0098920700842993897 0 0.0081792524408797872 -0.0099215588489193676 0 0.0081420710525306993 -0.0098246580369991381 0 0.008016400946441014 -0.0098920700842993897 0 0.0081687732643279075 -0.010066198725904561 0 0.0081792524408797872 -0.0099215588489193676 0 0.0086950827038664233 -0.010632537482905626 0 0.0080195124797955274 -0.011149825242158889 0 0.0081687732643279075 -0.010066198725904561 0 0.0082960650355915593 -0.0099952468155102819 0 0.0081792524408797872 -0.0099215588489193676 0 0.0081420710525306993 -0.0098246580369991381 0 0.0081807328747918098 -0.0097238383180177392 0 0.0082760703906834647 -0.0098334664049728841 0 0.0081792524408797872 -0.0099215588489193676 0 0.0081420710525306993 -0.0098246580369991381 0 0.0082760703906834647 -0.0098334664049728841 0 0.0080642378437989232 -0.0098194245196657915 0 0.0081420710525306993 -0.0098246580369991381 0 0.0081061578874773478 -0.0097616841537847502 0 0.0081420710525306993 -0.0098246580369991381 0 0.0081807328747918098 -0.0097238383180177392 0 0.0081061578874773478 -0.0097616841537847502 0 0.0081807328747918098 -0.0097238383180177392 0 0.0081061578874773478 -0.0097616841537847502 0 0.0081149851677264784 -0.0097058566319808328 0 0.0082760703906834647 -0.0098334664049728841 0 0.0083479591362608293 -0.009717201548759628 0 0.0082747206139068292 -0.0096740132675294105 0 0.0081807328747918098 -0.0097238383180177392 0 0.0082760703906834647 -0.0098334664049728841 0 0.0082747206139068292 -0.0096740132675294105 0 0.0082960650355915593 -0.0099952468155102819 0 0.0082760703906834647 -0.0098334664049728841 0 0.0084818897093198141 -0.0097649440205698473 0 0.0082760703906834647 -0.0098334664049728841 0 0.0083479591362608293 -0.009717201548759628 0 0.0084818897093198141 -0.0097649440205698473 0 0.0081126431875383001 -0.010632368733432823 0 0.0080812123140513708 -0.010300964051560568 0 0.008492727049724173 -0.010069094697398008 0 0.0082960650355915593 -0.0099952468155102819 0 0.0084818897093198141 -0.0097649440205698473 0 0.007648086230963534 -0.011444875606976823 0 0.007953381292196679 -0.011492679601792564 0 0.0076849140792731021 -0.010774189536107752 0 0.008211480209721584 -0.011367265515470699 0 0.007953381292196679 -0.011492679601792564 0 0.0076849140792731021 -0.010774189536107752 0 0.008211480209721584 -0.011367265515470699 0 0.0076849140792731021 -0.010774189536107752 0 0.0082277773585061418 -0.010443907125035918 0 0.0080812123140513708 -0.010300964051560568 0 0.0081713419099234963 -0.0097668277234097788 0 0.0076849140792731021 -0.010774189536107752 0 0.0079141446307427719 -0.0099735358529159206 0 0.0082277773585061418 -0.010443907125035918 0 0.0084167950932113288 -0.0095329112017698593 0 0.0083402299586959154 -0.0095844269160546645 0 0.0083331562014659147 -0.0094536926037043414 0 0.0084818897093198141 -0.0097649440205698473 0 0.0084167950932113288 -0.0095329112017698593 0 0.0083402299586959154 -0.0095844269160546645 0 0.0083479591362608293 -0.009717201548759628 0 0.0084818897093198141 -0.0097649440205698473 0 0.0083402299586959154 -0.0095844269160546645 0 0.0083479591362608293 -0.009717201548759628 0 0.0083402299586959154 -0.0095844269160546645 0 0.0082747206139068292 -0.0096740132675294105 0 0.0082747206139068292 -0.0096740132675294105 0 0.0082614125876460387 -0.0095854646759347961 0 0.0082069197701203252 -0.0096268294755488173 0 0.0083402299586959154 -0.0095844269160546645 0 0.0082747206139068292 -0.0096740132675294105 0 0.0082614125876460387 -0.0095854646759347961 0 0.0081807328747918098 -0.0097238383180177392 0 0.0081408177322522569 -0.0096554490588611243 0 0.0081149851677264784 -0.0097058566319808328 0 0.0081408177322522569 -0.0096554490588611243 0 0.0081149851677264784 -0.0097058566319808328 0 0.0080751454207633501 -0.0096861950188494618 0 0.0081807328747918098 -0.0097238383180177392 0 0.0081408177322522569 -0.0096554490588611243 0 0.0082069197701203252 -0.0096268294755488173 0 0.0081807328747918098 -0.0097238383180177392 0 0.0082747206139068292 -0.0096740132675294105 0 0.0082069197701203252 -0.0096268294755488173 0 0.0082614125876460387 -0.0095854646759347961 0 0.0082069197701203252 -0.0096268294755488173 0 0.0082083234682433868 -0.0095479744812722277 0 0.0081408177322522569 -0.0096554490588611243 0 0.0082069197701203252 -0.0096268294755488173 0 0.0081559655077990054 -0.0095844200665616518 0 0.0081408177322522569 -0.0096554490588611243 0 0.0081559655077990054 -0.0095844200665616518 0 0.0081182627845562128 -0.0096166623431290441 0 0.0081890507086859379 -0.0094869714493552547 0 0.0082034587555716229 -0.0094118789393123677 0 0.0081063522810595392 -0.009549152769368012 0 0.0081655271590813944 -0.0095412238602774948 0 0.0081559655077990054 -0.0095844200665616518 0 0.0081063522810595392 -0.009549152769368012 0 0.0081655271590813944 -0.0095412238602774948 0 0.0081559655077990054 -0.0095844200665616518 0 0.0082083234682433868 -0.0095479744812722277 0 0.0082069197701203252 -0.0096268294755488173 0 0.0081559655077990054 -0.0095844200665616518 0 0.0082083234682433868 -0.0095479744812722277 0 0.0082083234682433868 -0.0095479744812722277 0 0.0081890507086859379 -0.0094869714493552547 0 0.00827174641982748 -0.0095065645825023869 0 0.0081655271590813944 -0.0095412238602774948 0 0.0081890507086859379 -0.0094869714493552547 0 0.0081063522810595392 -0.009549152769368012 0 0.0081655271590813944 -0.0095412238602774948 0 0.0082083234682433868 -0.0095479744812722277 0 0.0081890507086859379 -0.0094869714493552547 0 0.0083402299586959154 -0.0095844269160546645 0 0.00827174641982748 -0.0095065645825023869 0 0.0083331562014659147 -0.0094536926037043414 0 0.0083402299586959154 -0.0095844269160546645 0 0.0082614125876460387 -0.0095854646759347961 0 0.00827174641982748 -0.0095065645825023869 0 0.0082614125876460387 -0.0095854646759347961 0 0.0082083234682433868 -0.0095479744812722277 0 0.00827174641982748 -0.0095065645825023869 0 0.0082622317695450614 -0.009436947838812387 0 0.0083180670086776855 -0.009378188128134065 0 0.0083331562014659147 -0.0094536926037043414 0 0.00827174641982748 -0.0095065645825023869 0 0.0082622317695450614 -0.009436947838812387 0 0.0083331562014659147 -0.0094536926037043414 0 0.0082622317695450614 -0.009436947838812387 0 0.0082034587555716229 -0.0094118789393123677 0 0.0083180670086776855 -0.009378188128134065 0 0.0081890507086859379 -0.0094869714493552547 0 0.0082622317695450614 -0.009436947838812387 0 0.0082034587555716229 -0.0094118789393123677 0 0.0081890507086859379 -0.0094869714493552547 0 0.00827174641982748 -0.0095065645825023869 0 0.0082622317695450614 -0.009436947838812387 0 0.0082034587555716229 -0.0094118789393123677 0 0.0083180670086776855 -0.009378188128134065 0 0.0083127495747675178 -0.0092986069733471 0 0.0085605427813772953 -0.0088463278753517036 0 0.008527572536008372 -0.0090080515334400105 0 0.0083180670086776855 -0.009378188128134065 0 0.0083399247092163266 -0.0093743698865645479 0 0.0083331562014659147 -0.0094536926037043414 0 0.0083180670086776855 -0.009378188128134065 0 0.0083399247092163266 -0.0093743698865645479 0 0.0083842293442893401 -0.0092766745555207825 0 0.0083399247092163266 -0.0093743698865645479 0 0.0082861673834949724 -0.0094618622459459803 0 0.0083331562014659147 -0.0094536926037043414 0 0.0082861673834949724 -0.0094618622459459803 0 0.0083747183717937362 -0.0093792186165747027 0 0.0084121469526516404 -0.0095751450308057401 0 0.0083399247092163266 -0.0093743698865645479 0 0.0082861673834949724 -0.0094618622459459803 0 0.0083747183717937362 -0.0093792186165747027 0 0.0079141446307427719 -0.0099735358529159206 0 0.0082861673834949724 -0.0094618622459459803 0 0.0084121469526516404 -0.0095751450308057401 0 0.0081713419099234963 -0.0097668277234097788 0 0.0082650102302298974 -0.0094991482738068043 0 0.0084167950932113288 -0.0095329112017698593 0 0.0082861673834949724 -0.0094618622459459803 0 0.0083331562014659147 -0.0094536926037043414 0 0.010861482802470724 -0.010210835344575271 0 0.0097810016039922756 -0.0096029422259260415 0 0.011292872133672338 -0.011230002249411489 0 0.011394476292707397 -0.011481079833826237 0 0.011513586321923279 -0.011457142696781936 0 0.010861482802470724 -0.010210835344575271 0 0.011537732412405721 -0.011816018029873929 0 0.011337713130014852 -0.01132163002351151 0 0.011292642386882653 -0.011500797887011922 0 0.011394476292707397 -0.011481079833826237 0 0.011385509421667909 -0.011578672461842096 0 0.011292642386882653 -0.011500797887011922 0 0.011394476292707397 -0.011481079833826237 0 0.011385509421667909 -0.011578672461842096 0 0.011394476292707397 -0.011481079833826237 0 0.011441193924067396 -0.011535655084895737 0 0.01147399712505187 -0.011623166167232132 0 0.011441193924067396 -0.011535655084895737 0 0.011513586321923279 -0.011457142696781936 0 0.011394476292707397 -0.011481079833826237 0 0.011441193924067396 -0.011535655084895737 0 0.011513586321923279 -0.011457142696781936 0 0.0094326345655816567 -0.0079652483472206579 0 0.0093888145018105624 -0.0080739552934892874 0 0.0093262429180134224 -0.0079741823665156301 0 0.0099303908574636876 -0.0083515059020279805 0 0.0098793624523896909 -0.0083273044674790683 0 0.0098699359329635396 -0.0083953638561134088 0 0.0097810016039922756 -0.0096029422259260415 0 0.0096827812062706912 -0.0079748529011151037 0 0.0094326345655816567 -0.0079652483472206579 0 0.0093888145018105624 -0.0080739552934892874 0 0.0095792890885144037 -0.0082127287734863018 0 0.0093888145018105624 -0.0080739552934892874 0 0.0094267061158332388 -0.0081993748695100201 0 0.0095792890885144037 -0.0082127287734863018 0 0.0093888145018105624 -0.0080739552934892874 0 0.0093196504715544193 -0.0081046892211335802 0 0.0094267061158332388 -0.0081993748695100201 0 0.0093196504715544193 -0.0081046892211335802 0 0.0092198481825182584 -0.0080823191196573649 0 0.0092484584703768687 -0.0082150704524524259 0 0.0092198481825182584 -0.0080823191196573649 0 0.0092824126271403469 -0.0080259394868592397 0 0.0092255068332145439 -0.0080063003162326573 0 0.0093196504715544193 -0.0081046892211335802 0 0.0092198481825182584 -0.0080823191196573649 0 0.0092824126271403469 -0.0080259394868592397 0 0.0093888145018105624 -0.0080739552934892874 0 0.0093196504715544193 -0.0081046892211335802 0 0.0092824126271403469 -0.0080259394868592397 0 0.0093888145018105624 -0.0080739552934892874 0 0.0092824126271403469 -0.0080259394868592397 0 0.0093262429180134224 -0.0079741823665156301 0 0.0091064787860919202 -0.0093081098313056599 0 0.0097810016039922756 -0.0096029422259260415 0 0.0092792395124148361 -0.0079072419076571514 0 0.0094326345655816567 -0.0079652483472206579 0 0.0093262429180134224 -0.0079741823665156301 0 0.0092416320155794714 -0.0079288247382891669 0 0.0092792395124148361 -0.0079072419076571514 0 0.0092494196953808172 -0.0079618992335852724 0 0.0092792395124148361 -0.0079072419076571514 0 0.0093262429180134224 -0.0079741823665156301 0 0.0092494196953808172 -0.0079618992335852724 0 0.0092824126271403469 -0.0080259394868592397 0 0.0092494196953808172 -0.0079618992335852724 0 0.0092255068332145439 -0.0080063003162326573 0 0.0092824126271403469 -0.0080259394868592397 0 0.0093262429180134224 -0.0079741823665156301 0 0.0092494196953808172 -0.0079618992335852724 0 0.0092174087285974635 -0.0079227744596463996 0 0.0092132815454412757 -0.0079682409774646645 0 0.0091676065112292222 -0.0080140839662138103 0 0.0087564308514115237 -0.0084409378554503086 0 0.0091206974303990069 -0.0079429452315046278 0 0.0080751454207633501 -0.0096861950188494618 0 0.0081182627845562128 -0.0096166623431290441 0 0.0081063522810595392 -0.009549152769368012 0 0.0090586398058032803 -0.0079460056130186592 0 0.0090242809189656215 -0.0080617722299032701 0 0.0090559566129669502 -0.0080373256928903524 0 0.0080238999982384235 -0.0097448487669543685 0 0.0080751454207633501 -0.0096861950188494618 0 0.0081063522810595392 -0.009549152769368012 0 0.0087564308514115237 -0.0084409378554503086 0 0.0085332209380589181 -0.0089014717796242412 0 0.0092255068332145439 -0.0080063003162326573 0 0.0092132815454412757 -0.0079682409774646645 0 0.0091676065112292222 -0.0080140839662138103 0 0.0092494196953808172 -0.0079618992335852724 0 0.0092255068332145439 -0.0080063003162326573 0 0.0092132815454412757 -0.0079682409774646645 0 0.0092174087285974635 -0.0079227744596463996 0 0.0092132815454412757 -0.0079682409774646645 0 0.00922551401287839 -0.0079437155221342252 0 0.0092494196953808172 -0.0079618992335852724 0 0.0092132815454412757 -0.0079682409774646645 0 0.00922551401287839 -0.0079437155221342252 0 0.0092416320155794714 -0.0079288247382891669 0 0.0092494196953808172 -0.0079618992335852724 0 0.00922551401287839 -0.0079437155221342252 0 0.0081408177322522569 -0.0096554490588611243 0 0.0080751454207633501 -0.0096861950188494618 0 0.0081182627845562128 -0.0096166623431290441 0 0.0080754888443453562 -0.0097328064004039393 0 0.0081149851677264784 -0.0097058566319808328 0 0.0080751454207633501 -0.0096861950188494618 0 0.0081559655077990054 -0.0095844200665616518 0 0.0081182627845562128 -0.0096166623431290441 0 0.0081063522810595392 -0.009549152769368012 0 0.0090242809189656215 -0.0080617722299032701 0 0.0090559566129669502 -0.0080373256928903524 0 0.0090778032623875897 -0.0082084014427344695 0 0.0092198481825182584 -0.0080823191196573649 0 0.0091676065112292222 -0.0080140839662138103 0 0.0090778032623875897 -0.0082084014427344695 0 0.0085605427813772953 -0.0088463278753517036 0 0.0085332209380589181 -0.0089014717796242412 0 0.0091206974303990069 -0.0079429452315046278 0 0.0090881849516274375 -0.0082307941252205488 0 0.0092198481825182584 -0.0080823191196573649 0 0.0092255068332145439 -0.0080063003162326573 0 0.0091676065112292222 -0.0080140839662138103 0 0.0092198481825182584 -0.0080823191196573649 0 0.0090778032623875897 -0.0082084014427344695 0 0.0092484584703768687 -0.0082150704524524259 0 0.0089166733159669435 -0.0083009968107154858 0 0.0090242809189656215 -0.0080617722299032701 0 0.0090778032623875897 -0.0082084014427344695 0 0.0090778032623875897 -0.0082084014427344695 0 0.0091018003233024648 -0.0084056932424252037 0 0.0092484584703768687 -0.0082150704524524259 0 0.0089166733159669435 -0.0083009968107154858 0 0.0090778032623875897 -0.0082084014427344695 0 0.0091018003233024648 -0.0084056932424252037 0 0.0091018003233024648 -0.0084056932424252037 0 0.0090633417342593798 -0.0087737107649279687 0 0.0087322353736509501 -0.0086708204835875546 0 0.0089166733159669435 -0.0083009968107154858 0 0.0091018003233024648 -0.0084056932424252037 0 0.0087322353736509501 -0.0086708204835875546 0 0.0091018003233024648 -0.0084056932424252037 0 0.009295992458879087 -0.008536076129305922 0 0.0090633417342593798 -0.0087737107649279687 0 0.009295992458879087 -0.008536076129305922 0 0.0095026906040159807 -0.0084367027566065803 0 0.0094366214083212441 -0.0087515266004815663 0 0.0091018003233024648 -0.0084056932424252037 0 0.009295992458879087 -0.008536076129305922 0 0.0093241557041221328 -0.0083410943161106449 0 0.009295992458879087 -0.008536076129305922 0 0.0093241557041221328 -0.0083410943161106449 0 0.0095026906040159807 -0.0084367027566065803 0 0.0091018003233024648 -0.0084056932424252037 0 0.0093241557041221328 -0.0083410943161106449 0 0.0092484584703768687 -0.0082150704524524259 0 0.0093241557041221328 -0.0083410943161106449 0 0.0092484584703768687 -0.0082150704524524259 0 0.0094267061158332388 -0.0081993748695100201 0 0.0093196504715544193 -0.0081046892211335802 0 0.0092484584703768687 -0.0082150704524524259 0 0.0094267061158332388 -0.0081993748695100201 0 0.0094267061158332388 -0.0081993748695100201 0 0.0095792890885144037 -0.0082127287734863018 0 0.0095026906040159807 -0.0084367027566065803 0 0.0093241557041221328 -0.0083410943161106449 0 0.0094267061158332388 -0.0081993748695100201 0 0.0095026906040159807 -0.0084367027566065803 0 0.0095792890885144037 -0.0082127287734863018 0 0.0095026906040159807 -0.0084367027566065803 0 0.0098194118300589592 -0.0086310643709605686 0 0.0096827812062706912 -0.0079748529011151037 0 0.0098364199301428402 -0.0087748563058177732 0 0.0098194118300589592 -0.0086310643709605686 0 0.01004385325665394 -0.0084617067387922733 0 0.010063215346512205 -0.0087126662755597373 0 0.0098699359329635396 -0.0083953638561134088 0 0.0098194118300589592 -0.0086310643709605686 0 0.01004385325665394 -0.0084617067387922733 0 0.010861482802470724 -0.010210835344575271 0 0.010249314646058889 -0.0089289991542976302 0 0.0099303908574636876 -0.0083515059020279805 0 0.0098699359329635396 -0.0083953638561134088 0 0.01004385325665394 -0.0084617067387922733 0 0.0098194118300589592 -0.0086310643709605686 0 0.009726368053581385 -0.009019261760457269 0 0.010099083414607166 -0.0089403375983039077 0 0.009726368053581385 -0.009019261760457269 0 0.010099083414607166 -0.0089403375983039077 0 0.01014821473433546 -0.0092051699087246381 0 0.0098194118300589592 -0.0086310643709605686 0 0.010063215346512205 -0.0087126662755597373 0 0.010099083414607166 -0.0089403375983039077 0 0.0098194118300589592 -0.0086310643709605686 0 0.009726368053581385 -0.009019261760457269 0 0.0094366214083212441 -0.0087515266004815663 0 0.0095026906040159807 -0.0084367027566065803 0 0.0098194118300589592 -0.0086310643709605686 0 0.0094366214083212441 -0.0087515266004815663 0 0.009726368053581385 -0.009019261760457269 0 0.0092316879691148965 -0.009113605108458319 0 0.0094366214083212441 -0.0087515266004815663 0 0.009295992458879087 -0.008536076129305922 0 0.0094366214083212441 -0.0087515266004815663 0 0.0090633417342593798 -0.0087737107649279687 0 0.0092316879691148965 -0.009113605108458319 0 0.0094366214083212441 -0.0087515266004815663 0 0.0090633417342593798 -0.0087737107649279687 0 0.0092316879691148965 -0.009113605108458319 0 0.0090633417342593798 -0.0087737107649279687 0 0.0085468988325846824 -0.0091848810333127976 0 0.0092316879691148965 -0.009113605108458319 0 0.008982849585394137 -0.0094147460954045106 0 0.0085468988325846824 -0.0091848810333127976 0 0.0094917140876801549 -0.0061222130480572687 0 0.009631792588037166 -0.0062426612571906889 0 0.008982849585394137 -0.0094147460954045106 0 0.0086423022441141379 -0.0095437866524351409 0 0.0092018277309001417 -0.0097545602408672608 0 0.008982849585394137 -0.0094147460954045106 0 0.0096010306207540228 -0.0094191345870561303 0 0.0092018277309001417 -0.0097545602408672608 0 0.0092316879691148965 -0.009113605108458319 0 0.008982849585394137 -0.0094147460954045106 0 0.0096010306207540228 -0.0094191345870561303 0 0.009726368053581385 -0.009019261760457269 0 0.0092316879691148965 -0.009113605108458319 0 0.0096010306207540228 -0.0094191345870561303 0 0.0096010306207540228 -0.0094191345870561303 0 0.0098168270131011471 -0.0099001567377394999 0 0.0092018277309001417 -0.0097545602408672608 0 0.0096010306207540228 -0.0094191345870561303 0 0.010149771477509595 -0.0095568844181102963 0 0.0098168270131011471 -0.0099001567377394999 0 0.01068153537543008 -0.0091262247410111314 0 0.011080479858897419 -0.0064252942833937683 0 0.009726368053581385 -0.009019261760457269 0 0.0096010306207540228 -0.0094191345870561303 0 0.01014821473433546 -0.0092051699087246381 0 0.0096010306207540228 -0.0094191345870561303 0 0.01014821473433546 -0.0092051699087246381 0 0.010149771477509595 -0.0095568844181102963 0 0.0083763944422298887 -0.0092946492521254857 0 0.0083999598217419716 -0.0092652277849225514 0 0.0083980049873789014 -0.0092466955611098904 0 0.0083763944422298887 -0.0092946492521254857 0 0.0083842293442893401 -0.0092766745555207825 0 0.0083999598217419716 -0.0092652277849225514 0 0.0083763944422298887 -0.0092946492521254857 0 0.0083980049873789014 -0.0092466955611098904 0 0.008450509547607666 -0.0092852629814542138 0 0.0083399247092163266 -0.0093743698865645479 0 0.0083763944422298887 -0.0092946492521254857 0 0.0083747183717937362 -0.0093792186165747027 0 0.0083763944422298887 -0.0092946492521254857 0 0.0083747183717937362 -0.0093792186165747027 0 0.008450509547607666 -0.0092852629814542138 0 0.0083399247092163266 -0.0093743698865645479 0 0.0083763944422298887 -0.0092946492521254857 0 0.0083842293442893401 -0.0092766745555207825 0 0.0083180670086776855 -0.009378188128134065 0 0.0083842293442893401 -0.0092766745555207825 0 0.0083127495747675178 -0.0092986069733471 0 0.0083842293442893401 -0.0092766745555207825 0 0.0083127495747675178 -0.0092986069733471 0 0.0085468988325846824 -0.0091848810333127976 0 0.0090633417342593798 -0.0087737107649279687 0 0.0087322353736509501 -0.0086708204835875546 0 0.0085468988325846824 -0.0091848810333127976 0 0.008527572536008372 -0.0090080515334400105 0 0.0085318440232073859 -0.0091824513733235504 0 0.0083842293442893401 -0.0092766745555207825 0 0.0085468988325846824 -0.0091848810333127976 0 0.0083999598217419716 -0.0092652277849225514 0 0.0083999598217419716 -0.0092652277849225514 0 0.0086423022441141379 -0.0095437866524351409 0 0.0083975611211485474 -0.0093450444022223824 0 0.008982849585394137 -0.0094147460954045106 0 0.0085468988325846824 -0.0091848810333127976 0 0.0086423022441141379 -0.0095437866524351409 0 0.0085468988325846824 -0.0091848810333127976 0 0.0083999598217419716 -0.0092652277849225514 0 0.0086423022441141379 -0.0095437866524351409 0 0.0094917140876801549 -0.0061222130480572687 0 0.0091832469365535942 -0.0059644771483787435 0 0.010239598380696484 -0.0026863910483516541 0 0.0099891204615308055 -0.0025827850750222009 0 0.010088810498283906 -0.0027665641386851263 0 0.0083999598217419716 -0.0092652277849225514 0 0.0083975611211485474 -0.0093450444022223824 0 0.0083980049873789014 -0.0092466955611098904 0 0.0099891204615308055 -0.0025827850750222009 0 0.0098437571631263317 -0.002710667481763305 0 0.010088810498283906 -0.0027665641386851263 0 0.0091832469365535942 -0.0059644771483787435 0 0.0090764358247983779 -0.005869281740635909 0 0.0097004342323548723 -0.0024837318988066436 0 0.0096259552879722227 -0.0026956168724256656 0 0.0098437571631263317 -0.002710667481763305 0 0.0099891204615308055 -0.0025827850750222009 0 0.0097004342323548723 -0.0024837318988066436 0 0.0098437571631263317 -0.002710667481763305 0 0.0094678663827513013 -0.002563769628148456 0 0.0097004342323548723 -0.0024837318988066436 0 0.0096259552879722227 -0.0026956168724256656 0 0.0094678663827513013 -0.002563769628148456 0 0.0093233310733270083 -0.0026396795886757807 0 0.0094594601732390978 -0.0027119974475029521 0 0.0094678663827513013 -0.002563769628148456 0 0.0094594601732390978 -0.0027119974475029521 0 0.0096259552879722227 -0.0026956168724256656 0 0.0094678663827513013 -0.002563769628148456 0 0.00928861213714695 -0.0024869638205819674 0 0.0093233310733270083 -0.0026396795886757807 0 0.0094678663827513013 -0.002563769628148456 0 0.0093790245370947885 -0.0023727227338983907 0 0.00928861213714695 -0.0024869638205819674 0 0.0094678663827513013 -0.002563769628148456 0 0.0093790245370947885 -0.0023727227338983907 0 0.0097004342323548723 -0.0024837318988066436 0 0.0088473041628117435 -0.0058278955604681749 0 0.0090764358247983779 -0.005869281740635909 0 0.0085299179251441225 -0.0092609710186386009 0 0.0083980049873789014 -0.0092466955611098904 0 0.008450509547607666 -0.0092852629814542138 0 0.0085299179251441225 -0.0092609710186386009 0 0.008450509547607666 -0.0092852629814542138 0 0.0085258736177277594 -0.0092258643453794649 0 0.008450509547607666 -0.0092852629814542138 0 0.0085633640356670825 -0.0093692080794643365 0 0.0084913742501814583 -0.0094448158533775601 0 0.008450509547607666 -0.0092852629814542138 0 0.0085633640356670825 -0.0093692080794643365 0 0.0085258736177277594 -0.0092258643453794649 0 0.0083747183717937362 -0.0093792186165747027 0 0.008450509547607666 -0.0092852629814542138 0 0.0084913742501814583 -0.0094448158533775601 0 0.0081948849168243278 -0.009022132637406189 0 0.0083578618675362645 -0.0089957972570938599 0 0.0083712804743174326 -0.0091799534780350172 0 0.0083578618675362645 -0.0089957972570938599 0 0.0085258736177277594 -0.0092258643453794649 0 0.0083712804743174326 -0.0091799534780350172 0 0.0085633640356670825 -0.0093692080794643365 0 0.0087431379153251557 -0.0093875335551415195 0 0.0085258736177277594 -0.0092258643453794649 0 0.00862105035278838 -0.0090973776825824058 0 0.0085296234395326621 -0.0092436588918593209 0 0.0085299179251441225 -0.0092609710186386009 0 0.0083712804743174326 -0.0091799534780350172 0 0.0082480007695144349 -0.0092728850382828333 0 0.0085299179251441225 -0.0092609710186386009 0 0.0085258736177277594 -0.0092258643453794649 0 0.0083712804743174326 -0.0091799534780350172 0 0.0088473041628117435 -0.0058278955604681749 0 0.0090593849435376024 -0.0055525382036927971 0 0.0081948849168243278 -0.009022132637406189 0 0.0082480007695144349 -0.0092728850382828333 0 0.0080688391087742322 -0.0091101767027284772 0 0.0081948849168243278 -0.009022132637406189 0 0.0083712804743174326 -0.0091799534780350172 0 0.0082480007695144349 -0.0092728850382828333 0 0.0089970716653971754 -0.0021553489865306077 0 0.009127722874851649 -0.002396774488057037 0 0.0088108740019674728 -0.0024165784721967595 0 0.009127722874851649 -0.002396774488057037 0 0.0090439907875050664 -0.0025861709863895209 0 0.0088108740019674728 -0.0024165784721967595 0 0.0090439907875050664 -0.0025861709863895209 0 0.0088108740019674728 -0.0024165784721967595 0 0.0087456262895913729 -0.0025405899523938042 0 0.009127722874851649 -0.002396774488057037 0 0.00928861213714695 -0.0024869638205819674 0 0.0090439907875050664 -0.0025861709863895209 0 0.0093790245370947885 -0.0023727227338983907 0 0.009127722874851649 -0.002396774488057037 0 0.00928861213714695 -0.0024869638205819674 0 0.0093790245370947885 -0.0023727227338983907 0 0.0089970716653971754 -0.0021553489865306077 0 0.009127722874851649 -0.002396774488057037 0 0.00928861213714695 -0.0024869638205819674 0 0.0093233310733270083 -0.0026396795886757807 0 0.0090439907875050664 -0.0025861709863895209 0 0.0093233310733270083 -0.0026396795886757807 0 0.0090439907875050664 -0.0025861709863895209 0 0.0091613552955968642 -0.0027752625771458074 0 0.0090439907875050664 -0.0025861709863895209 0 0.008960046884586341 -0.0027593040629361526 0 0.0091613552955968642 -0.0027752625771458074 0 0.0090439907875050664 -0.0025861709863895209 0 0.0087730221351794875 -0.0026404804350985815 0 0.0087456262895913729 -0.0025405899523938042 0 0.0090439907875050664 -0.0025861709863895209 0 0.0087730221351794875 -0.0026404804350985815 0 0.008960046884586341 -0.0027593040629361526 0 0.0084645170762264379 -0.0025195637530781938 0 0.0087240921314882258 -0.0029789974211920519 0 0.0087730221351794875 -0.0026404804350985815 0 0.0084627695723289553 -0.0025107959594895795 0 0.0088149975627767295 -0.0028305776827392878 0 0.008104223020139259 -0.0027756950226002896 0 0.0084627695723289553 -0.0025107959594895795 0 0.0085006856397615745 -0.003184305300204417 0 0.0074933806200019951 -0.0037132100581425916 0 0.0076154619573058843 -0.0027067374171818666 0 0.0084255141601594155 -0.0023635602099226546 0 0.008104223020139259 -0.0027756950226002896 0 0.0084255141601594155 -0.0023635602099226546 0 0.0084627695723289553 -0.0025107959594895795 0 0.0080198797614633444 -0.0031523621778975349 0 0.0083186018653464994 -0.0024865044003811528 0 0.0076154619573058843 -0.0027067374171818666 0 0.0066584644790802462 -0.00285384723740613 0 0.0078269067338622329 -0.0016602267737961256 0 0.0074933806200019951 -0.0037132100581425916 0 0.0076154619573058843 -0.0027067374171818666 0 0.0066584644790802462 -0.00285384723740613 0 0.0084255141601594155 -0.0023635602099226546 0 0.0088108740019674728 -0.0024165784721967595 0 0.0084627695723289553 -0.0025107959594895795 0 0.0089970716653971754 -0.0021553489865306077 0 0.0084255141601594155 -0.0023635602099226546 0 0.0088108740019674728 -0.0024165784721967595 0 0.0088108740019674728 -0.0024165784721967595 0 0.0087456262895913729 -0.0025405899523938042 0 0.0084627695723289553 -0.0025107959594895795 0 0.0087730221351794875 -0.0026404804350985815 0 0.0087456262895913729 -0.0025405899523938042 0 0.0084627695723289553 -0.0025107959594895795 0 -0.0012285220323063732 -0.0074708281946971522 0 -0.00061774960593702865 -0.0079340142907348282 0 -0.00067404699198857633 -0.0070728069921114 0 -0.00061774960593702865 -0.0079340142907348282 0 0.0001079815975209511 -0.0069925077392298451 0 -0.00067404699198857633 -0.0070728069921114 0 -0.0011855151749668676 -0.0072758139054524239 0 0.0013764222938639789 -0.0062706683336308279 0 0.0074933806200019951 -0.0037132100581425916 0 0.0064744653203508444 -0.0040339293462165193 0 0.0063269398225172307 -0.0051514484793320171 0 0.0013764222938639789 -0.0062706683336308279 0 0.0034816357792894414 -0.0044219786322151492 0 0.0080198797614633444 -0.0031523621778975349 0 0.0054291099037896921 -0.0040641096014741099 0 0.0054071194235059431 -0.0044377439998355131 0 0.0064744653203508444 -0.0040339293462165193 0 0.0066584644790802462 -0.00285384723740613 0 0.0074933806200019951 -0.0037132100581425916 0 0.0064744653203508444 -0.0040339293462165193 0 0.0066584644790802462 -0.00285384723740613 0 0.0001079815975209511 -0.0069925077392298451 0 -0.00028850565456201396 -0.0066040602050706897 0 0.000132694477285846 -0.0062245361100096396 0 0.0001079815975209511 -0.0069925077392298451 0 -0.00028850565456201396 -0.0066040602050706897 0 -0.00067404699198857633 -0.0070728069921114 0 -0.00028850565456201396 -0.0066040602050706897 0 -0.00074479052388822713 -0.0065935353612152662 0 -0.00067404699198857633 -0.0070728069921114 0 -0.001285556338833651 -0.0068796186475031471 0 -0.00074479052388822713 -0.0065935353612152662 0 -0.00067404699198857633 -0.0070728069921114 0 -0.0010759944402689852 -0.0062229190822549515 0 -0.00039438134910699891 -0.0061376968876544263 0 -0.00065721335763912353 -0.0057176692102564397 0 -0.0010759944402689852 -0.0062229190822549515 0 -0.00074479052388822713 -0.0065935353612152662 0 -0.00039438134910699891 -0.0061376968876544263 0 -0.00028850565456201396 -0.0066040602050706897 0 -0.00074479052388822713 -0.0065935353612152662 0 -0.00039438134910699891 -0.0061376968876544263 0 -0.00039438134910699891 -0.0061376968876544263 0 0.00024790382315675495 -0.0059169530063393301 0 -0.00065721335763912353 -0.0057176692102564397 0 0.0001079815975209511 -0.0069925077392298451 0 0.000132694477285846 -0.0062245361100096396 0 0.0008720234388499749 -0.0060533421835149079 0 -0.00039438134910699891 -0.0061376968876544263 0 0.000132694477285846 -0.0062245361100096396 0 0.00024790382315675495 -0.0059169530063393301 0 -0.00028850565456201396 -0.0066040602050706897 0 -0.00039438134910699891 -0.0061376968876544263 0 0.000132694477285846 -0.0062245361100096396 0 0.000132694477285846 -0.0062245361100096396 0 0.00026612210020724537 -0.0058988101437807382 0 0.0008720234388499749 -0.0060533421835149079 0 0.00099241421936490759 -0.0066975421534278641 0 0.00089142757389233781 -0.0088179459708827707 0 0.00089142757389233781 -0.0088179459708827707 0 8.6991772775080886e-05 -0.008975039171829716 0 0.00079014341346149571 -0.012416478462282719 0 0.00065065618796487695 -0.013112234951878 0 0.0010221404447492836 -0.012840163827886953 0 0.00018137338774677512 -0.012240144487001411 0 0.00079014341346149571 -0.012416478462282719 0 0.00065065618796487695 -0.013112234951878 0 0.0089970716653971754 -0.0021553489865306077 0 0.0084255141601594155 -0.0023635602099226546 0 0.0078269067338622329 -0.0016602267737961256 0 0.0082480007695144349 -0.0092728850382828333 0 0.007805725467803731 -0.0091811840308467455 0 0.0080688391087742322 -0.0091101767027284772 0 0.0090593849435376024 -0.0055525382036927971 0 0.0056516550845462799 -0.0067779012275745341 0 0.0034816357792894414 -0.0044219786322151492 0 0.0056516550845462799 -0.0067779012275745341 0 0.0076154619573058843 -0.0027067374171818666 0 0.0084255141601594155 -0.0023635602099226546 0 0.0078269067338622329 -0.0016602267737961256 0 0.00089142757389233781 -0.0088179459708827707 0 0.0056516550845462799 -0.0067779012275745341 0 0.0039056783925142113 -0.0087595378042739317 0 0.0026000239197780856 -0.010585411714762677 0 0.004085895844029807 -0.011158228841924602 0 0.0048572693454380792 -0.0090123754549479539 0 0.0039056783925142113 -0.0087595378042739317 0 0.004085895844029807 -0.011158228841924602 0 0.00089142757389233781 -0.0088179459708827707 0 0.0020913791215568423 -0.012337285753432677 0 0.007805725467803731 -0.0091811840308467455 0 0.0080688391087742322 -0.0091101767027284772 0 0.0080484919963059592 -0.0088611139862609309 0 0.0080550342260980647 -0.0087082608856550361 0 0.0060479556209704251 -0.010068161547909746 0 0.0056516550845462799 -0.0067779012275745341 0 0.0060479556209704251 -0.010068161547909746 0 0.0081948849168243278 -0.009022132637406189 0 0.0080688391087742322 -0.0091101767027284772 0 0.0080768687461150734 -0.0089306718753582575 0 0.0059562562758818886 -0.010193270748081417 0 0.0059656251325613105 -0.011576343503982661 0 0.0054463803074646447 -0.010895895453540855 0 0.0060479556209704251 -0.010068161547909746 0 0.0046055019224197679 -0.012317359437554142 0 0.0081948849168243278 -0.009022132637406189 0 0.0080768687461150734 -0.0089306718753582575 0 0.008173625087124943 -0.0088003553576226096 0 0.0026000239197780856 -0.010585411714762677 0 0.004085895844029807 -0.011158228841924602 0 0.0026116716790330003 -0.012418253705216653 0 0.0060479556209704251 -0.010068161547909746 0 0.007395311579385876 -0.010272540207024883 0 0.004085895844029807 -0.011158228841924602 0 0.0026116716790330003 -0.012418253705216653 0 0.0032967858862086217 -0.013316778508309309 0 -0.00012733133557589566 -0.013148472270333915 0 0.00035258627050419928 -0.013985807854075548 0 -0.00042147479404227054 -0.014030477111756178 0 0.0020913791215568423 -0.012337285753432677 0 0.0020979133900196649 -0.014463602328440631 0 0.0046055019224197679 -0.012317359437554142 0 0.0020979133900196649 -0.014463602328440631 0 0.0066835320974454352 -0.012123549505870922 0 0.0066027654616832706 -0.01223883247721682 0 0.0065534477063041493 -0.011939358466214045 0 0.0046055019224197679 -0.012317359437554142 0 0.007395311579385876 -0.010272540207024883 0 0.0012514370554667599 -0.01324674122241541 0 0.00065065618796487695 -0.013112234951878 0 0.0010221404447492836 -0.012840163827886953 0 0.00018137338774677512 -0.012240144487001411 0 -0.00012733133557589566 -0.013148472270333915 0 0.00065065618796487695 -0.013112234951878 0 -0.00012733133557589566 -0.013148472270333915 0 0.00065065618796487695 -0.013112234951878 0 0.00035258627050419928 -0.013985807854075548 0 0.0010963494045391653 -0.013891410705638145 0 0.00065065618796487695 -0.013112234951878 0 0.00035258627050419928 -0.013985807854075548 0 0.0010963494045391653 -0.013891410705638145 0 0.0012514370554667599 -0.01324674122241541 0 0.00065065618796487695 -0.013112234951878 0 0.00017374649618217552 -0.017053480486824962 0 0.00012565066043728168 -0.018296665358793408 0 0.00010798413111125284 -0.018556893038022129 0 0.00092825704547721774 -0.018445880770798437 0 0.0002513517877915202 -0.017972476963445644 0 0.00017374649618217552 -0.017053480486824962 0 0.00054648216925248371 -0.016194158433036551 0 0.00092825704547721774 -0.018445880770798437 0 0.0010800435919109291 -0.017911724366364727 0 0.0002513517877915202 -0.017972476963445644 0 0.00092825704547721774 -0.018445880770798437 0 0.0010800435919109291 -0.017911724366364727 0 0.0016220302233693688 -0.018110636541023295 0 0.0012706384023351801 -0.017459930394406003 0 0.0010800435919109291 -0.017911724366364727 0 0.0014085357665234695 -0.017780685268919339 0 0.0012706384023351801 -0.017459930394406003 0 0.0010800435919109291 -0.017911724366364727 0 0.00075447612030146076 -0.017587477731770544 0 0.0010800435919109291 -0.017911724366364727 0 0.00075447612030146076 -0.017587477731770544 0 0.0002513517877915202 -0.017972476963445644 0 0.00035799355469073277 -0.017400453162101686 0 0.00075447612030146076 -0.017587477731770544 0 0.0002513517877915202 -0.017972476963445644 0 0.00036253793146204607 -0.017368576922177956 0 0.00012565066043728168 -0.018296665358793408 0 0.0036038403880577297 -0.014592115296250052 0 0.0037291850047156444 -0.014574777570262867 0 0.0036149918127103605 -0.014916648414440892 0 0.0045607167763648815 -0.013528643827344259 0 0.0021768931634699434 -0.015432887181981315 0 0.0065736408554616316 -0.012422317820840524 0 0.0066798700906161752 -0.012359606703219615 0 0.0065872481706574339 -0.012337291873969709 0 0.0066835320974454352 -0.012123549505870922 0 0.0066798700906161752 -0.012359606703219615 0 0.0066027654616832706 -0.01223883247721682 0 0.0046055019224197679 -0.012317359437554142 0 0.0045607167763648815 -0.013528643827344259 0 0.0066798700906161752 -0.012359606703219615 0 0.0065872481706574339 -0.012337291873969709 0 0.0066027654616832706 -0.01223883247721682 0 0.0035130359035843097 -0.013245467913143263 0 0.0035167306301486499 -0.013898585403304971 0 0.0038919985892753393 -0.013750688678684052 0 0.0035167306301486499 -0.013898585403304971 0 0.0038551962764837022 -0.013850139492343301 0 0.0038919985892753393 -0.013750688678684052 0 0.0021768931634699434 -0.015432887181981315 0 0.0020979133900196649 -0.014463602328440631 0 0.00054648216925248371 -0.016194158433036551 0 0.0016325637056179279 -0.015679079204762358 0 0.00092825704547721774 -0.018445880770798437 0 0.0017849139293957875 -0.018311461681403809 0 0.0016220302233693688 -0.018110636541023295 0 0.00035258627050419928 -0.013985807854075548 0 -0.00037484407315918188 -0.014090614088780729 0 -0.00042147479404227054 -0.014030477111756178 0 0.0021768931634699434 -0.015432887181981315 0 0.0016325637056179279 -0.015679079204762358 0 0.0023096778240759243 -0.015553315901678419 0 0.0018959822134500454 -0.015614114162921787 0 0.0021609135751195132 -0.015952364385831627 0 0.0016325637056179279 -0.015679079204762358 0 0.0020979133900196649 -0.014463602328440631 0 0.0018668239551826553 -0.018293252575773869 0 0.0017856126603887329 -0.018305069377001396 0 0.0016220302233693688 -0.018110636541023295 0 0.0016325637056179279 -0.015679079204762358 0 0.0022495577592644383 -0.017445279656903623 0 0.0016220302233693688 -0.018110636541023295 0 0.0016613358092091286 -0.017640354361991434 0 0.0021511136688579591 -0.017587461892263137 0 0.0016220302233693688 -0.018110636541023295 0 0.0014085357665234695 -0.017780685268919339 0 0.0016613358092091286 -0.017640354361991434 0 0.0010800435919109291 -0.017911724366364727 0 0.0016220302233693688 -0.018110636541023295 0 0.0014085357665234695 -0.017780685268919339 0 0.0012706384023351801 -0.017459930394406003 0 0.0014085357665234695 -0.017780685268919339 0 0.0016613358092091286 -0.017640354361991434 0 0.0045607167763648815 -0.013528643827344259 0 0.0039748671114869542 -0.015190180293819883 0 0.0065736408554616316 -0.012422317820840524 0 0.0066798700906161752 -0.012359606703219615 0 0.0066726444597301673 -0.012654395574213871 0 0.0018668239551826553 -0.018293252575773869 0 0.0016220302233693688 -0.018110636541023295 0 0.0021511136688579591 -0.017587461892263137 0 0.0021768931634699434 -0.015432887181981315 0 0.0039748671114869542 -0.015190180293819883 0 0.0065736408554616316 -0.012422317820840524 0 0.0066726444597301673 -0.012654395574213871 0 0.0064901892495782629 -0.012524684132809206 0 0.0063764074450003965 -0.012694951107367717 0 0.0066726444597301673 -0.012654395574213871 0 0.0064901892495782629 -0.012524684132809206 0 0.0063764074450003965 -0.012694951107367717 0 0.0063617551119845763 -0.012482713114901546 0 0.0064901892495782629 -0.012524684132809206 0 0.0065736408554616316 -0.012422317820840524 0 0.0064901892495782629 -0.012524684132809206 0 0.0064965565761201565 -0.012347789241763272 0 0.0063617551119845763 -0.012482713114901546 0 0.0063492690116732269 -0.012245237501120746 0 0.0064965565761201565 -0.012347789241763272 0 0.0066027654616832706 -0.01223883247721682 0 0.0063492690116732269 -0.012245237501120746 0 0.0064965565761201565 -0.012347789241763272 0 0.0065736408554616316 -0.012422317820840524 0 0.0065872481706574339 -0.012337291873969709 0 0.0064965565761201565 -0.012347789241763272 0 0.0063617551119845763 -0.012482713114901546 0 0.0064901892495782629 -0.012524684132809206 0 0.0064965565761201565 -0.012347789241763272 0 0.0065872481706574339 -0.012337291873969709 0 0.0066027654616832706 -0.01223883247721682 0 0.0064965565761201565 -0.012347789241763272 0 0.0063617551119845763 -0.012482713114901546 0 0.0063492690116732269 -0.012245237501120746 0 0.0061659213865844211 -0.012522527545504977 0 0.0087688918896981286 -0.009771411966996631 0 0.0086567790457226217 -0.0099719291690725988 0 0.0085949812250399309 -0.0097035022268016601 0 0.007469145629875217 -0.011142865495603109 0 0.0081532636626370104 -0.011044913815136911 0 0.0075034251706855588 -0.012059340389864604 0 0.0081532636626370104 -0.011044913815136911 0 0.0063764074450003965 -0.012694951107367717 0 0.0063617551119845763 -0.012482713114901546 0 0.0061659213865844211 -0.012522527545504977 0 0.0083327565856773055 -0.01137642284590191 0 0.0083893698181240692 -0.011371404932346485 0 0.0083179563039355205 -0.011312954184140613 0 0.0086980743428626151 -0.01080327335987958 0 0.0090798205441014208 -0.010284443630334775 0 0.008621432720770511 -0.010351475894497909 0 0.0090798205441014208 -0.010284443630334775 0 0.008621432720770511 -0.010351475894497909 0 0.0084941454213590933 -0.0098694257464406378 0 0.0085517234915700284 -0.011013958842191807 0 0.0081532636626370104 -0.011044913815136911 0 0.008621432720770511 -0.010351475894497909 0 0.0082277773585061418 -0.010443907125035918 0 0.0084941454213590933 -0.0098694257464406378 0 0.0086980743428626151 -0.01080327335987958 0 0.008621432720770511 -0.010351475894497909 0 0.0082277773585061418 -0.010443907125035918 0 0.0079141446307427719 -0.0099735358529159206 0 0.0082277773585061418 -0.010443907125035918 0 0.0084941454213590933 -0.0098694257464406378 0 0.0079141446307427719 -0.0099735358529159206 0 0.0084941454213590933 -0.0098694257464406378 0 0.0084121469526516404 -0.0095751450308057401 0 0.0086567790457226217 -0.0099719291690725988 0 0.0084941454213590933 -0.0098694257464406378 0 0.0085949812250399309 -0.0097035022268016601 0 0.0081532636626370104 -0.011044913815136911 0 0.0086670412642921735 -0.0097117147075191368 0 0.0085949812250399309 -0.0097035022268016601 0 0.0084121469526516404 -0.0095751450308057401 0 0.0084913742501814583 -0.0094448158533775601 0 0.0084941454213590933 -0.0098694257464406378 0 0.0085949812250399309 -0.0097035022268016601 0 0.0084121469526516404 -0.0095751450308057401 0 0.0083747183717937362 -0.0093792186165747027 0 0.0084121469526516404 -0.0095751450308057401 0 0.0084913742501814583 -0.0094448158533775601 0 0.0085949812250399309 -0.0097035022268016601 0 0.0084913742501814583 -0.0094448158533775601 0 0.0086812572266368546 -0.0095494219355910376 0 0.0085633640356670825 -0.0093692080794643365 0 0.0084913742501814583 -0.0094448158533775601 0 0.0086812572266368546 -0.0095494219355910376 0 0.0085633640356670825 -0.0093692080794643365 0 0.0087431379153251557 -0.0093875335551415195 0 0.0086812572266368546 -0.0095494219355910376 0 0.00862105035278838 -0.0090973776825824058 0 0.007395311579385876 -0.010272540207024883 0 0.0087431379153251557 -0.0093875335551415195 0 0.0086812572266368546 -0.0095494219355910376 0 0.0088877662618752976 -0.0095762963640615949 0 0.0081948849168243278 -0.009022132637406189 0 0.0083578618675362645 -0.0089957972570938599 0 0.008173625087124943 -0.0088003553576226096 0 0.0066027654616832706 -0.01223883247721682 0 0.0063492690116732269 -0.012245237501120746 0 0.0065534477063041493 -0.011939358466214045 0 0.007469145629875217 -0.011142865495603109 0 0.007395311579385876 -0.010272540207024883 0 0.0087688918896981286 -0.009771411966996631 0 0.0086812572266368546 -0.0095494219355910376 0 0.0088877662618752976 -0.0095762963640615949 0 0.0087688918896981286 -0.009771411966996631 0 0.0085949812250399309 -0.0097035022268016601 0 0.0086812572266368546 -0.0095494219355910376 0 0.015679430525071768 -0.01188213060181224 0 0.015486006047773152 -0.01159717199865588 0 0.015815776148556813 -0.011545251490216298 0 0.015679430525071768 -0.01188213060181224 0 0.015328396210351413 -0.011941984531008441 0 0.015449915879561677 -0.012129494174219293 0 0.015679430525071768 -0.01188213060181224 0 0.015328396210351413 -0.011941984531008441 0 0.015486006047773152 -0.01159717199865588 0 0.015000016727797254 -0.011626552490662662 0 0.015051933993182061 -0.012215949296671691 0 0.01499957213105226 -0.012504571096908838 0 0.015328396210351413 -0.011941984531008441 0 0.015000016727797254 -0.011626552490662662 0 0.015486006047773152 -0.01159717199865588 0 0.015328396210351413 -0.011941984531008441 0 0.015000016727797254 -0.011626552490662662 0 0.015051933993182061 -0.012215949296671691 0 0.015312451251285801 -0.011254827668653329 0 0.015000016727797254 -0.011626552490662662 0 0.015486006047773152 -0.01159717199865588 0 0.015486006047773152 -0.01159717199865588 0 0.015733284586580361 -0.011209637990260663 0 0.015815776148556813 -0.011545251490216298 0 0.015312451251285801 -0.011254827668653329 0 0.015486006047773152 -0.01159717199865588 0 0.015733284586580361 -0.011209637990260663 0 0.015733284586580361 -0.011209637990260663 0 0.016038201170177423 -0.011261451101217099 0 0.015815776148556813 -0.011545251490216298 0 0.015733284586580361 -0.011209637990260663 0 0.016038201170177423 -0.011261451101217099 0 0.015990853103670238 -0.010985738998652367 0 0.016038201170177423 -0.011261451101217099 0 0.016133140607637958 -0.011703111156971773 0 0.016319748550141792 -0.011157143735419114 0 0.016038201170177423 -0.011261451101217099 0 0.016319748550141792 -0.011157143735419114 0 0.016132799300327925 -0.010973255252806048 0 0.015295276755987896 -0.011872013775238192 0 0.01557842879790235 -0.011444905429676824 0 0.015679430525071768 -0.01188213060181224 0 0.016133140607637958 -0.011703111156971773 0 0.015815776148556813 -0.011545251490216298 0 0.016038201170177423 -0.011261451101217099 0 0.016133140607637958 -0.011703111156971773 0 0.015815776148556813 -0.011545251490216298 0 0.015295276755987896 -0.011872013775238192 0 0.014998707937718309 -0.01320709814737389 0 0.015679430525071768 -0.01188213060181224 0 0.016133140607637958 -0.011703111156971773 0 0.01582460367713015 -0.012185505940888934 0 0.014418182058330453 -0.012247593757851399 0 0.01396060029524737 -0.012796913537418396 0 0.01472185478454653 -0.01300488225995722 0 0.014418182058330453 -0.012247593757851399 0 0.01472185478454653 -0.01300488225995722 0 0.014939611304302441 -0.01250777748185772 0 0.014998707937718309 -0.01320709814737389 0 0.013840309047437374 -0.014264429182115498 0 0.014390015064367745 -0.015432590252939853 0 0.01338303889886794 -0.015353315724220469 0 0.014165424964028601 -0.014578912608688264 0 0.01338303889886794 -0.015353315724220469 0 0.014165424964028601 -0.014578912608688264 0 0.013629889201105654 -0.014745002957766935 0 0.014390015064367745 -0.015432590252939853 0 0.015225932620638939 -0.013894527195190553 0 0.014165424964028601 -0.014578912608688264 0 0.015225932620638939 -0.013894527195190553 0 0.015383056109989147 -0.01252164879127253 0 0.015128454777265928 -0.013067325330843326 0 0.014998707937718309 -0.01320709814737389 0 0.015256075752334029 -0.014197546789341594 0 0.015679430525071768 -0.01188213060181224 0 0.01582460367713015 -0.012185505940888934 0 0.015449915879561677 -0.012129494174219293 0 0.016327457066193079 -0.012804836861693276 0 0.015225932620638939 -0.013894527195190553 0 0.015383056109989147 -0.01252164879127253 0 0.014998707937718309 -0.01320709814737389 0 0.015568101892719333 -0.012346000463995655 0 0.015383056109989147 -0.01252164879127253 0 0.01499957213105226 -0.012504571096908838 0 0.015128454777265928 -0.013067325330843326 0 0.015568101892719333 -0.012346000463995655 0 0.015001600747947682 -0.012207212406310361 0 0.015383056109989147 -0.01252164879127253 0 0.015051933993182061 -0.012215949296671691 0 0.01499957213105226 -0.012504571096908838 0 0.015328396210351413 -0.011941984531008441 0 0.015449915879561677 -0.012129494174219293 0 0.015051933993182061 -0.012215949296671691 0 0.015225932620638939 -0.013894527195190553 0 0.015128454777265928 -0.013067325330843326 0 0.014999922619767471 -0.013382333970384323 0 0.01499957213105226 -0.012504571096908838 0 0.015128454777265928 -0.013067325330843326 0 0.014999922619767471 -0.013382333970384323 0 0.014999859067889794 -0.013381633514031517 0 0.014823760735429783 -0.014037353005955332 0 0.01499960417356574 -0.014998340966687087 0 0.013873553885752456 -0.014866399769467636 0 0.012208833269685002 -0.014998938091723032 0 0.015225932620638939 -0.013894527195190553 0 0.014999922619767471 -0.013382333970384323 0 0.015045300719532539 -0.013847661994163938 0 0.015225932620638939 -0.013894527195190553 0 0.015045300719532539 -0.013847661994163938 0 0.014674502018286578 -0.014132510995032422 0 0.015045300719532539 -0.013847661994163938 0 0.014674502018286578 -0.014132510995032422 0 0.014188240114241973 -0.014154906460697416 0 0.014704058661293278 -0.014267474948384496 0 0.014637182583351343 -0.014580610331838016 0 0.014152517706580306 -0.014871063056221524 0 0.014823760735429783 -0.014037353005955332 0 0.014180763138651962 -0.014515263011178049 0 0.014998795633072326 -0.013384894176428033 0 0.014704058661293278 -0.014267474948384496 0 0.014637182583351343 -0.014580610331838016 0 0.01499960417356574 -0.014998340966687087 0 0.014637182583351343 -0.014580610331838016 0 0.013873553885752456 -0.014866399769467636 0 0.014998795633072326 -0.013384894176428033 0 0.01499960417356574 -0.014998340966687087 0 0.014637182583351343 -0.014580610331838016 0 0.013873553885752456 -0.014866399769467636 0 0.013444947493266109 -0.01487983787989691 0 0.012936980723259694 -0.015067927193683224 0 0.014637182583351343 -0.014580610331838016 0 0.013873553885752456 -0.014866399769467636 0 0.014152517706580306 -0.014871063056221524 0 0.013583216926874881 -0.014771818987473675 0 0.014180763138651962 -0.014515263011178049 0 0.013444947493266109 -0.01487983787989691 0 0.014188240114241973 -0.014154906460697416 0 0.013629889201105654 -0.014745002957766935 0 0.013873553885752456 -0.014866399769467636 0 0.013444947493266109 -0.01487983787989691 0 0.014152517706580306 -0.014871063056221524 0 0.015225932620638939 -0.013894527195190553 0 0.014674502018286578 -0.014132510995032422 0 0.014165424964028601 -0.014578912608688264 0 0.014188240114241973 -0.014154906460697416 0 0.014165424964028601 -0.014578912608688264 0 0.013629889201105654 -0.014745002957766935 0 0.014674502018286578 -0.014132510995032422 0 0.014188240114241973 -0.014154906460697416 0 0.014165424964028601 -0.014578912608688264 0 0.01338303889886794 -0.015353315724220469 0 0.013629889201105654 -0.014745002957766935 0 0.013092972195028167 -0.015082327121165438 0 0.013444947493266109 -0.01487983787989691 0 0.013629889201105654 -0.014745002957766935 0 0.013092972195028167 -0.015082327121165438 0 0.013092972195028167 -0.015082327121165438 0 0.012667093773359938 -0.015300661803502211 0 0.012781849069458274 -0.015421077249356638 0 0.013092972195028167 -0.015082327121165438 0 0.012667093773359938 -0.015300661803502211 0 0.012859830256605878 -0.015157788007648514 0 0.012859830256605878 -0.015157788007648514 0 0.012936980723259694 -0.015067927193683224 0 0.012330297230503507 -0.015424714370779465 0 0.012667093773359938 -0.015300661803502211 0 0.012859830256605878 -0.015157788007648514 0 0.012330297230503507 -0.015424714370779465 0 0.013444947493266109 -0.01487983787989691 0 0.012859830256605878 -0.015157788007648514 0 0.012936980723259694 -0.015067927193683224 0 0.013444947493266109 -0.01487983787989691 0 0.013092972195028167 -0.015082327121165438 0 0.012859830256605878 -0.015157788007648514 0 0.012208833269685002 -0.014998938091723032 0 0.012936980723259694 -0.015067927193683224 0 0.012330297230503507 -0.015424714370779465 0 0.013873553885752456 -0.014866399769467636 0 0.012208833269685002 -0.014998938091723032 0 0.012936980723259694 -0.015067927193683224 0 0.012208833269685002 -0.014998938091723032 0 0.012330297230503507 -0.015424714370779465 0 0.011235454260549079 -0.015369164808573393 0 0.012330297230503507 -0.015424714370779465 0 0.011317317003112488 -0.015912287027365187 0 0.011235454260549079 -0.015369164808573393 0 0.012066109121478803 -0.015832278861833724 0 0.013005921983619819 -0.015161115794127872 0 0.012667093773359938 -0.015300661803502211 0 0.012563580333620851 -0.015366499191406178 0 0.012781849069458274 -0.015421077249356638 0 0.012667093773359938 -0.015300661803502211 0 0.012330297230503507 -0.015424714370779465 0 0.012563580333620851 -0.015366499191406178 0 0.012330297230503507 -0.015424714370779465 0 0.011913281146637882 -0.016630216197406737 0 0.011317317003112488 -0.015912287027365187 0 0.011913281146637882 -0.016630216197406737 0 0.0111541665928074 -0.016408382308221166 0 0.011317317003112488 -0.015912287027365187 0 0.013005921983619819 -0.015161115794127872 0 0.010567597628982786 -0.016215878956362673 0 0.010419340420704849 -0.015937092124585193 0 0.010543537388454977 -0.015872622776421021 0 0.01059903857765097 -0.016006447760859618 0 0.01623435205481371 -0.013429845993360839 0 0.016463620051579416 -0.012824618760328296 0 0.015999253776549524 -0.012992543084725501 0 0.013005921983619819 -0.015161115794127872 0 0.013517516649145314 -0.014293028581547469 0 0.010419340420704849 -0.015937092124585193 0 0.010472626123206659 -0.015723326397023851 0 0.010543537388454977 -0.015872622776421021 0 0.016463620051579416 -0.012824618760328296 0 0.015980641491692312 -0.012484185930074505 0 0.016274014817411801 -0.012208103267348284 0 0.013517516649145314 -0.014293028581547469 0 0.012943379693766344 -0.012982216798624401 0 0.015980641491692312 -0.012484185930074505 0 0.015999253776549524 -0.012992543084725501 0 0.015478548679012176 -0.012401324008858034 0 0.016463620051579416 -0.012824618760328296 0 0.015980641491692312 -0.012484185930074505 0 0.015999253776549524 -0.012992543084725501 0 0.013005921983619819 -0.015161115794127872 0 0.014438758354201345 -0.014249160711732859 0 0.01623435205481371 -0.013429845993360839 0 0.015999253776549524 -0.012992543084725501 0 0.015487256333252927 -0.013214992490749432 0 0.01338303889886794 -0.015353315724220469 0 0.013092972195028167 -0.015082327121165438 0 0.012781849069458274 -0.015421077249356638 0 0.013840309047437374 -0.014264429182115498 0 0.014438758354201345 -0.014249160711732859 0 0.01472185478454653 -0.01300488225995722 0 0.015487256333252927 -0.013214992490749432 0 0.014939611304302441 -0.01250777748185772 0 0.015999253776549524 -0.012992543084725501 0 0.015487256333252927 -0.013214992490749432 0 0.015478548679012176 -0.012401324008858034 0 0.015487256333252927 -0.013214992490749432 0 0.014939611304302441 -0.01250777748185772 0 0.015478548679012176 -0.012401324008858034 0 0.015478548679012176 -0.012401324008858034 0 0.01563818884002716 -0.011851616238412811 0 0.015841228468417259 -0.012154023934889364 0 0.015478548679012176 -0.012401324008858034 0 0.014885691029951485 -0.011680199597041519 0 0.01563818884002716 -0.011851616238412811 0 0.014418182058330453 -0.012247593757851399 0 0.014939611304302441 -0.01250777748185772 0 0.014885691029951485 -0.011680199597041519 0 0.014939611304302441 -0.01250777748185772 0 0.015478548679012176 -0.012401324008858034 0 0.014885691029951485 -0.011680199597041519 0 0.014885691029951485 -0.011680199597041519 0 0.01563818884002716 -0.011851616238412811 0 0.015532068454394985 -0.011452388002720153 0 0.015532068454394985 -0.011452388002720153 0 0.01589387907104424 -0.011613136220754 0 0.015884140003907438 -0.011321578783826409 0 0.01563818884002716 -0.011851616238412811 0 0.015532068454394985 -0.011452388002720153 0 0.01589387907104424 -0.011613136220754 0 0.016088269973568849 -0.011873475330470618 0 0.016274867951402202 -0.011623281282718946 0 0.016274014817411801 -0.012208103267348284 0 0.01563818884002716 -0.011851616238412811 0 0.01589387907104424 -0.011613136220754 0 0.016088269973568849 -0.011873475330470618 0 0.016038915694186993 -0.011680584637450789 0 0.015778130983634394 -0.011523283355587732 0 0.01589387907104424 -0.011613136220754 0 0.016088269973568849 -0.011873475330470618 0 0.016325637465051383 -0.01157775207945393 0 0.01589387907104424 -0.011613136220754 0 0.016325637465051383 -0.01157775207945393 0 0.015884140003907438 -0.011321578783826409 0 0.01369543380402069 -0.011817781289043152 0 0.013934552985395639 -0.012171298854073736 0 0.014060840870460424 -0.011817065227910059 0 0.015778130983634394 -0.011523283355587732 0 0.012943379693766344 -0.012982216798624401 0 0.016463620051579416 -0.012824618760328296 0 0.016274014817411801 -0.012208103267348284 0 0.016676392645803565 -0.012216690457829809 0 0.016274867951402202 -0.011623281282718946 0 0.016274014817411801 -0.012208103267348284 0 0.016676392645803565 -0.012216690457829809 0 0.015980641491692312 -0.012484185930074505 0 0.015478548679012176 -0.012401324008858034 0 0.015841228468417259 -0.012154023934889364 0 0.015980641491692312 -0.012484185930074505 0 0.016274014817411801 -0.012208103267348284 0 0.015841228468417259 -0.012154023934889364 0 0.01563818884002716 -0.011851616238412811 0 0.016088269973568849 -0.011873475330470618 0 0.015841228468417259 -0.012154023934889364 0 0.016088269973568849 -0.011873475330470618 0 0.016274014817411801 -0.012208103267348284 0 0.015841228468417259 -0.012154023934889364 0 0.011684897110447097 -0.012282909916421801 0 0.011661609972973854 -0.012346405759789021 0 0.011683589872941099 -0.012373565012981536 0 0.011684897110447097 -0.012282909916421801 0 0.011776796560052864 -0.012270243281803348 0 0.011683589872941099 -0.012373565012981536 0 0.011684897110447097 -0.012282909916421801 0 0.011661609972973854 -0.012346405759789021 0 0.011612456249031591 -0.012330660983154782 0 0.011661609972973854 -0.012346405759789021 0 0.011612456249031591 -0.012330660983154782 0 0.011675030089110727 -0.012381664850587492 0 0.011684897110447097 -0.012282909916421801 0 0.011612456249031591 -0.012330660983154782 0 0.011638555593607963 -0.012223356648187073 0 0.012943379693766344 -0.012982216798624401 0 0.012887350636785979 -0.011908436172853783 0 0.011680716974664643 -0.012172270938769311 0 0.011784748925177231 -0.012271008697375949 0 0.011684897110447097 -0.012282909916421801 0 0.011724108326433226 -0.012204466451759436 0 0.011776796560052864 -0.012270243281803348 0 0.011684897110447097 -0.012282909916421801 0 0.011638555593607963 -0.012223356648187073 0 0.011724108326433226 -0.012204466451759436 0 0.011731100223964933 -0.012151253527728325 0 0.01182421977035842 -0.012165791465547115 0 0.011776796560052864 -0.012270243281803348 0 0.01182421977035842 -0.012165791465547115 0 0.011939114574038427 -0.012283486111861719 0 0.011898147598116958 -0.012095549223844329 0 0.01182421977035842 -0.012165791465547115 0 0.011939114574038427 -0.012283486111861719 0 0.011776796560052864 -0.012270243281803348 0 0.011562129957199622 -0.012055081198621387 0 0.011564921858533875 -0.011904268623190075 0 0.011939114574038427 -0.012283486111861719 0 0.011776796560052864 -0.012270243281803348 0 0.011832716267182379 -0.012417463718811174 0 0.011776796560052864 -0.012270243281803348 0 0.011832716267182379 -0.012417463718811174 0 0.011683589872941099 -0.012373565012981536 0 0.011539885584623892 -0.012398017989107793 0 0.011574883102251889 -0.01232151480868483 0 0.011632545851722468 -0.012357618332867174 0 0.011539885584623892 -0.012398017989107793 0 0.011632545851722468 -0.012357618332867174 0 0.011683589872941099 -0.012373565012981536 0 0.011733728276288132 -0.012436114141121763 0 0.011655793531951918 -0.012367477890828621 0 0.011939114574038427 -0.012283486111861719 0 0.011832716267182379 -0.012417463718811174 0 0.011926448655915974 -0.012406553863512726 0 0.011832716267182379 -0.012417463718811174 0 0.011926448655915974 -0.012406553863512726 0 0.011970500632404128 -0.012459091517408814 0 0.011733728276288132 -0.012436114141121763 0 0.011476236013472748 -0.012184067584412631 0 0.011539885584623892 -0.012398017989107793 0 0.011498137741445764 -0.012326850586611702 0 0.011360578919929898 -0.012350822599661415 0 0.011498137741445764 -0.012326850586611702 0 0.011411425134159997 -0.012289860013585093 0 0.011360578919929898 -0.012350822599661415 0 0.011498137741445764 -0.012326850586611702 0 0.011492968720504921 -0.012282611975606404 0 0.011532465339675606 -0.01229217517110601 0 0.011492968720504921 -0.012282611975606404 0 0.011532465339675606 -0.01229217517110601 0 0.011509089494880725 -0.012256540731806242 0 0.011492968720504921 -0.012282611975606404 0 0.011458928714640743 -0.012283834619324089 0 0.011459797270687433 -0.012254008040070315 0 0.011498137741445764 -0.012326850586611702 0 0.011492968720504921 -0.012282611975606404 0 0.011458928714640743 -0.012283834619324089 0 0.011434472820335167 -0.01226666469478567 0 0.011411425134159997 -0.012289860013585093 0 0.011407232844643863 -0.012239244154893105 0 0.011498137741445764 -0.012326850586611702 0 0.011458928714640743 -0.012283834619324089 0 0.011411425134159997 -0.012289860013585093 0 0.011434472820335167 -0.01226666469478567 0 0.011458928714640743 -0.012283834619324089 0 0.011411425134159997 -0.012289860013585093 0 0.011434472820335167 -0.01226666469478567 0 0.011458928714640743 -0.012283834619324089 0 0.011459797270687433 -0.012254008040070315 0 0.011574883102251889 -0.01232151480868483 0 0.011637783412412703 -0.012299496828772823 0 0.011632545851722468 -0.012357618332867174 0 0.011539885584623892 -0.012398017989107793 0 0.011498137741445764 -0.012326850586611702 0 0.011574883102251889 -0.01232151480868483 0 0.011498137741445764 -0.012326850586611702 0 0.011574883102251889 -0.01232151480868483 0 0.011532465339675606 -0.01229217517110601 0 0.011574883102251889 -0.01232151480868483 0 0.011532465339675606 -0.01229217517110601 0 0.011558860090797762 -0.012273394740953238 0 0.011532465339675606 -0.01229217517110601 0 0.011558860090797762 -0.012273394740953238 0 0.011509089494880725 -0.012256540731806242 0 0.011574883102251889 -0.01232151480868483 0 0.011637783412412703 -0.012299496828772823 0 0.011558860090797762 -0.012273394740953238 0 0.010756321451510908 -0.015984764124779775 0 0.010659148804336011 -0.015901328454621711 0 0.01059903857765097 -0.016006447760859618 0 0.011637783412412703 -0.012299496828772823 0 0.011632545851722468 -0.012357618332867174 0 0.011675030089110727 -0.012381664850587492 0 0.011230460332477449 -0.014013313748591702 0 0.010999916905928744 -0.014108159329818279 0 0.010756321451510908 -0.015984764124779775 0 0.010692274808276715 -0.01572651309212467 0 0.010659148804336011 -0.015901328454621711 0 0.011632545851722468 -0.012357618332867174 0 0.011683589872941099 -0.012373565012981536 0 0.011675030089110727 -0.012381664850587492 0 0.011661609972973854 -0.012346405759789021 0 0.011683589872941099 -0.012373565012981536 0 0.011675030089110727 -0.012381664850587492 0 0.010472626123206659 -0.015723326397023851 0 0.010692274808276715 -0.01572651309212467 0 0.010543537388454977 -0.015872622776421021 0 0.012943379693766344 -0.012982216798624401 0 0.010999916905928744 -0.014108159329818279 0 0.010472626123206659 -0.015723326397023851 0 0.010565568916784823 -0.015461181324596451 0 0.010692274808276715 -0.01572651309212467 0 0.010692274808276715 -0.01572651309212467 0 0.010543537388454977 -0.015872622776421021 0 0.010659148804336011 -0.015901328454621711 0 0.010543537388454977 -0.015872622776421021 0 0.010659148804336011 -0.015901328454621711 0 0.01059903857765097 -0.016006447760859618 0 0.012208833269685002 -0.014998938091723032 0 0.011235454260549079 -0.015369164808573393 0 0.010202208499450171 -0.014999897378583331 0 0.0111541665928074 -0.016408382308221166 0 0.010749209622330783 -0.016092290385577128 0 0.011317317003112488 -0.015912287027365187 0 0.0111541665928074 -0.016408382308221166 0 0.010724668729996606 -0.016117916384274025 0 0.010749209622330783 -0.016092290385577128 0 0.010724668729996606 -0.016117916384274025 0 0.010749209622330783 -0.016092290385577128 0 0.010772715996803257 -0.016158863660054819 0 0.010756321451510908 -0.015984764124779775 0 0.01059903857765097 -0.016006447760859618 0 0.010724668729996606 -0.016117916384274025 0 0.010567597628982786 -0.016215878956362673 0 0.010866328984337443 -0.016157089735985414 0 0.010677153075025312 -0.016168316035131022 0 0.010556403834259183 -0.015145850434756381 0 0.010749209622330783 -0.016092290385577128 0 0.010842957337667535 -0.01571237232005929 0 0.010366107420215801 -0.015811693551803351 0 0.010842957337667535 -0.01571237232005929 0 0.011317317003112488 -0.015912287027365187 0 0.011235454260549079 -0.015369164808573393 0 0.010749209622330783 -0.016092290385577128 0 0.010842957337667535 -0.01571237232005929 0 0.011317317003112488 -0.015912287027365187 0 0.010842957337667535 -0.01571237232005929 0 0.011235454260549079 -0.015369164808573393 0 0.010526785216504402 -0.015487525879481779 0 0.010842957337667535 -0.01571237232005929 0 0.010526785216504402 -0.015487525879481779 0 0.010366107420215801 -0.015811693551803351 0 0.011235454260549079 -0.015369164808573393 0 0.010526785216504402 -0.015487525879481779 0 0.010202208499450171 -0.014999897378583331 0 0.010202208499450171 -0.014999897378583331 0 0.0094079119081573129 -0.015458646950687703 0 0.0087622176570136875 -0.014999887024567416 0 0.010526785216504402 -0.015487525879481779 0 0.010202208499450171 -0.014999897378583331 0 0.0099986160707986934 -0.015566945594029571 0 0.010202208499450171 -0.014999897378583331 0 0.0099986160707986934 -0.015566945594029571 0 0.0094079119081573129 -0.015458646950687703 0 0.010526785216504402 -0.015487525879481779 0 0.0099986160707986934 -0.015566945594029571 0 0.010366107420215801 -0.015811693551803351 0 0.0099986160707986934 -0.015566945594029571 0 0.0094079119081573129 -0.015458646950687703 0 0.0095147247539344535 -0.015814251915387097 0 0.0099626379678181571 -0.016029110854992281 0 0.010097365710220806 -0.016207271680002092 0 0.009240165142858069 -0.016203439443259925 0 0.0095147247539344535 -0.015814251915387097 0 0.0099626379678181571 -0.016029110854992281 0 0.009240165142858069 -0.016203439443259925 0 0.0099986160707986934 -0.015566945594029571 0 0.0095147247539344535 -0.015814251915387097 0 0.0099626379678181571 -0.016029110854992281 0 0.010556403834259183 -0.015145850434756381 0 0.010327311925601134 -0.014066236348488826 0 0.0099986160707986934 -0.015566945594029571 0 0.010366107420215801 -0.015811693551803351 0 0.0099626379678181571 -0.016029110854992281 0 0.010749209622330783 -0.016092290385577128 0 0.010366107420215801 -0.015811693551803351 0 0.010108812605837774 -0.016191109517850199 0 0.010366107420215801 -0.015811693551803351 0 0.0099626379678181571 -0.016029110854992281 0 0.010108812605837774 -0.016191109517850199 0 0.010471604237837731 -0.015672059369832611 0 0.010556403834259183 -0.015145850434756381 0 0.011637783412412703 -0.012299496828772823 0 0.011548621426744973 -0.012178780964681044 0 0.011551511608612033 -0.012234923089035205 0 0.010756321451510908 -0.015984764124779775 0 0.010724668729996606 -0.016117916384274025 0 0.010772715996803257 -0.016158863660054819 0 0.011230460332477449 -0.014013313748591702 0 0.010556403834259183 -0.015145850434756381 0 0.011548621426744973 -0.012178780964681044 0 0.011514196919006339 -0.012205563584817881 0 0.011551511608612033 -0.012234923089035205 0 0.011514196919006339 -0.012205563584817881 0 0.011551511608612033 -0.012234923089035205 0 0.011504212797727099 -0.012222141107020846 0 0.011530274354618801 -0.012244307078556402 0 0.011504212797727099 -0.012222141107020846 0 0.011509089494880725 -0.012256540731806242 0 0.011530274354618801 -0.012244307078556402 0 0.011551511608612033 -0.012234923089035205 0 0.011504212797727099 -0.012222141107020846 0 0.011530274354618801 -0.012244307078556402 0 0.011558860090797762 -0.012273394740953238 0 0.011509089494880725 -0.012256540731806242 0 0.011530274354618801 -0.012244307078556402 0 0.011558860090797762 -0.012273394740953238 0 0.011551511608612033 -0.012234923089035205 0 0.011637783412412703 -0.012299496828772823 0 0.011558860090797762 -0.012273394740953238 0 0.011551511608612033 -0.012234923089035205 0 0.011548621426744973 -0.012178780964681044 0 0.011434260852823201 -0.012199749060906913 0 0.011355657574750695 -0.01216005453684667 0 0.011548621426744973 -0.012178780964681044 0 0.011514196919006339 -0.012205563584817881 0 0.011434260852823201 -0.012199749060906913 0 0.011434260852823201 -0.012199749060906913 0 0.011407232844643863 -0.012239244154893105 0 0.011355657574750695 -0.01216005453684667 0 0.011434260852823201 -0.012199749060906913 0 0.011504212797727099 -0.012222141107020846 0 0.011476877176543691 -0.012233153082380849 0 0.011514196919006339 -0.012205563584817881 0 0.011434260852823201 -0.012199749060906913 0 0.011504212797727099 -0.012222141107020846 0 0.011434260852823201 -0.012199749060906913 0 0.011476877176543691 -0.012233153082380849 0 0.011459797270687433 -0.012254008040070315 0 0.011504212797727099 -0.012222141107020846 0 0.011476877176543691 -0.012233153082380849 0 0.011509089494880725 -0.012256540731806242 0 0.011492968720504921 -0.012282611975606404 0 0.011509089494880725 -0.012256540731806242 0 0.011459797270687433 -0.012254008040070315 0 0.011476877176543691 -0.012233153082380849 0 0.011509089494880725 -0.012256540731806242 0 0.011459797270687433 -0.012254008040070315 0 0.011434260852823201 -0.012199749060906913 0 0.011459797270687433 -0.012254008040070315 0 0.011407232844643863 -0.012239244154893105 0 0.011434472820335167 -0.01226666469478567 0 0.011459797270687433 -0.012254008040070315 0 0.011407232844643863 -0.012239244154893105 0 0.011407232844643863 -0.012239244154893105 0 0.011347307418531722 -0.012236437255019238 0 0.011355657574750695 -0.01216005453684667 0 0.011411425134159997 -0.012289860013585093 0 0.011407232844643863 -0.012239244154893105 0 0.011347307418531722 -0.012236437255019238 0 0.011347307418531722 -0.012236437255019238 0 0.01127102297221746 -0.012206586207077329 0 0.011305714261812698 -0.01225685262844863 0 0.011347307418531722 -0.012236437255019238 0 0.01127102297221746 -0.012206586207077329 0 0.011355657574750695 -0.01216005453684667 0 0.01127102297221746 -0.012206586207077329 0 0.011355657574750695 -0.01216005453684667 0 0.011204647174279636 -0.012169927355751101 0 0.011225030715809721 -0.012190547643319583 0 0.01127102297221746 -0.012206586207077329 0 0.011224668454430035 -0.012241512724025893 0 0.011225030715809721 -0.012190547643319583 0 0.01127102297221746 -0.012206586207077329 0 0.011204647174279636 -0.012169927355751101 0 0.010327311925601134 -0.014066236348488826 0 0.010002296131480848 -0.014093865469528488 0 0.0086467456110306158 -0.016071996982524421 0 0.009240165142858069 -0.016203439443259925 0 0.0084983359022980983 -0.01608655486545723 0 0.0086467456110306158 -0.016071996982524421 0 0.0085936745825485623 -0.015791799951998187 0 0.0089638203558402071 -0.015754784058151547 0 0.0086467456110306158 -0.016071996982524421 0 0.0085936745825485623 -0.015791799951998187 0 0.0083711464049728308 -0.015857806515734846 0 0.0086467456110306158 -0.016071996982524421 0 0.009240165142858069 -0.016203439443259925 0 0.0089638203558402071 -0.015754784058151547 0 0.0095147247539344535 -0.015814251915387097 0 0.009240165142858069 -0.016203439443259925 0 0.0089638203558402071 -0.015754784058151547 0 0.0094079119081573129 -0.015458646950687703 0 0.0095147247539344535 -0.015814251915387097 0 0.0089638203558402071 -0.015754784058151547 0 0.0094079119081573129 -0.015458646950687703 0 0.0089638203558402071 -0.015754784058151547 0 0.0087622176570136875 -0.014999887024567416 0 0.0085936745825485623 -0.015791799951998187 0 0.0089638203558402071 -0.015754784058151547 0 0.0084464340669901487 -0.015485429254196397 0 0.0089638203558402071 -0.015754784058151547 0 0.0087622176570136875 -0.014999887024567416 0 0.0084464340669901487 -0.015485429254196397 0 0.0087622176570136875 -0.014999887024567416 0 0.0077282889886481996 -0.014999982200307399 0 0.0084464340669901487 -0.015485429254196397 0 0.0077282889886481996 -0.014999982200307399 0 0.0080587332588009809 -0.015512140411099421 0 0.0077382207618221944 -0.015439948269592482 0 0.0072922408160351893 -0.015212367332352645 0 0.0077282889886481996 -0.014999982200307399 0 0.0077382207618221944 -0.015439948269592482 0 0.0077282889886481996 -0.014999982200307399 0 0.0080587332588009809 -0.015512140411099421 0 0.0084464340669901487 -0.015485429254196397 0 0.0080587332588009809 -0.015512140411099421 0 0.0084464340669901487 -0.015485429254196397 0 0.0083306805795226209 -0.015675904898979257 0 0.0083306805795226209 -0.015675904898979257 0 0.0081270167200202161 -0.015724674297387053 0 0.0083711464049728308 -0.015857806515734846 0 0.0085936745825485623 -0.015791799951998187 0 0.0083306805795226209 -0.015675904898979257 0 0.0083711464049728308 -0.015857806515734846 0 0.0085936745825485623 -0.015791799951998187 0 0.0084464340669901487 -0.015485429254196397 0 0.0083306805795226209 -0.015675904898979257 0 0.0080587332588009809 -0.015512140411099421 0 0.0083306805795226209 -0.015675904898979257 0 0.0081270167200202161 -0.015724674297387053 0 0.0073758068730478852 -0.015654560050523007 0 0.0078617258419876497 -0.015663598555824668 0 0.0077382207618221944 -0.015439948269592482 0 0.0081270167200202161 -0.015724674297387053 0 0.0078617258419876497 -0.015663598555824668 0 0.007985002859205172 -0.015912456633804837 0 0.0080587332588009809 -0.015512140411099421 0 0.0081270167200202161 -0.015724674297387053 0 0.0078617258419876497 -0.015663598555824668 0 0.0078664737582107742 -0.01567863666410288 0 0.0080351968928152832 -0.015779573906583133 0 0.0073758068730478852 -0.015654560050523007 0 0.0078617258419876497 -0.015663598555824668 0 0.007985002859205172 -0.015912456633804837 0 0.0080587332588009809 -0.015512140411099421 0 0.0078617258419876497 -0.015663598555824668 0 0.0077382207618221944 -0.015439948269592482 0 0.0082038251521940522 -0.015650201068677965 0 0.0080943372740703706 -0.015644015074430011 0 0.0080983654443866071 -0.015640370397619372 0 0.0082043468107418985 -0.01552723543286072 0 0.0080983654443866071 -0.015640370397619372 0 0.0081174657993493982 -0.015454109956620887 0 0.0080943372740703706 -0.015644015074430011 0 0.0080983654443866071 -0.015640370397619372 0 0.0078921151987292135 -0.01585747125491203 0 0.0079222687949101478 -0.015971139389093704 0 0.0089147276186805936 -0.014388364866484938 0 0.0080943372740703706 -0.015644015074430011 0 0.0078921151987292135 -0.01585747125491203 0 0.0084983359022980983 -0.01608655486545723 0 0.0086467456110306158 -0.016071996982524421 0 0.0080943372740703706 -0.015644015074430011 0 0.0084983359022980983 -0.01608655486545723 0 0.0086467456110306158 -0.016071996982524421 0 0.007985002859205172 -0.015912456633804837 0 0.0083711464049728308 -0.015857806515734846 0 0.0085928146918772593 -0.016040642344164597 0 0.0080351968928152832 -0.015779573906583133 0 0.0089147276186805936 -0.014388364866484938 0 0.010002296131480848 -0.014093865469528488 0 0.0081270167200202161 -0.015724674297387053 0 0.007985002859205172 -0.015912456633804837 0 0.0083711464049728308 -0.015857806515734846 0 0.011216684277167441 -0.012160387517250694 0 0.011233111513741125 -0.012121622119205817 0 0.011224668454430035 -0.012241512724025893 0 0.011259259005194519 -0.012189115932525713 0 0.011204647174279636 -0.012169927355751101 0 0.011216684277167441 -0.012160387517250694 0 0.011259498065524575 -0.012133757018648562 0 0.011161064734573633 -0.012104619944044895 0 0.011225030715809721 -0.012190547643319583 0 0.011204647174279636 -0.012169927355751101 0 0.011216684277167441 -0.012160387517250694 0 0.011225030715809721 -0.012190547643319583 0 0.011216684277167441 -0.012160387517250694 0 0.011224668454430035 -0.012241512724025893 0 0.011259259005194519 -0.012189115932525713 0 0.011216684277167441 -0.012160387517250694 0 0.011233111513741125 -0.012121622119205817 0 0.011350303889822775 -0.012065573461039886 0 0.011259259005194519 -0.012189115932525713 0 0.011233111513741125 -0.012121622119205817 0 0.011233111513741125 -0.012121622119205817 0 0.011263588351586131 -0.011963401334799478 0 0.011214078536688998 -0.012008767923225245 0 0.011350303889822775 -0.012065573461039886 0 0.011233111513741125 -0.012121622119205817 0 0.011263588351586131 -0.011963401334799478 0 0.011324485785634813 -0.011895946977504365 0 0.011263588351586131 -0.011963401334799478 0 0.011248294558679151 -0.011833704768913527 0 0.011263588351586131 -0.011963401334799478 0 0.011223452608594638 -0.011877649569258148 0 0.011248294558679151 -0.011833704768913527 0 0.011263588351586131 -0.011963401334799478 0 0.011223452608594638 -0.011877649569258148 0 0.011192912894212615 -0.011937380493475416 0 0.011223452608594638 -0.011877649569258148 0 0.011192912894212615 -0.011937380493475416 0 0.011196203731976129 -0.011867388098358718 0 0.011233111513741125 -0.012121622119205817 0 0.011214078536688998 -0.012008767923225245 0 0.011170328353027392 -0.011991997185030115 0 0.011263588351586131 -0.011963401334799478 0 0.011192912894212615 -0.011937380493475416 0 0.011214078536688998 -0.012008767923225245 0 0.011192912894212615 -0.011937380493475416 0 0.011214078536688998 -0.012008767923225245 0 0.011170328353027392 -0.011991997185030115 0 0.011161064734573633 -0.012104619944044895 0 0.011476236013472748 -0.012184067584412631 0 0.011170328353027392 -0.011991997185030115 0 0.01113247336026812 -0.01193053957853425 0 0.011172053951228104 -0.011918487107746645 0 0.011224668454430035 -0.012241512724025893 0 0.011305714261812698 -0.01225685262844863 0 0.011360578919929898 -0.012350822599661415 0 0.01127102297221746 -0.012206586207077329 0 0.011224668454430035 -0.012241512724025893 0 0.011305714261812698 -0.01225685262844863 0 0.011192912894212615 -0.011937380493475416 0 0.011170328353027392 -0.011991997185030115 0 0.011172053951228104 -0.011918487107746645 0 0.011411425134159997 -0.012289860013585093 0 0.011347307418531722 -0.012236437255019238 0 0.011353783346109467 -0.012279394594377874 0 0.011411425134159997 -0.012289860013585093 0 0.011353783346109467 -0.012279394594377874 0 0.011360578919929898 -0.012350822599661415 0 0.011353783346109467 -0.012279394594377874 0 0.011305714261812698 -0.01225685262844863 0 0.011360578919929898 -0.012350822599661415 0 0.011347307418531722 -0.012236437255019238 0 0.011353783346109467 -0.012279394594377874 0 0.011305714261812698 -0.01225685262844863 0 0.01113247336026812 -0.01193053957853425 0 0.011170562042701381 -0.01186650076326839 0 0.011172053951228104 -0.011918487107746645 0 0.011562129957199622 -0.012055081198621387 0 0.011476236013472748 -0.012184067584412631 0 0.011939114574038427 -0.012283486111861719 0 0.011926448655915974 -0.012406553863512726 0 0.011970500632404128 -0.012459091517408814 0 0.011159940473797128 -0.01181368214912752 0 0.01113247336026812 -0.01193053957853425 0 0.011170562042701381 -0.01186650076326839 0 0.011192912894212615 -0.011937380493475416 0 0.011172053951228104 -0.011918487107746645 0 0.011196203731976129 -0.011867388098358718 0 0.011170562042701381 -0.01186650076326839 0 0.011172053951228104 -0.011918487107746645 0 0.011196203731976129 -0.011867388098358718 0 0.011196203731976129 -0.011867388098358718 0 0.011198030956289065 -0.011820125139041475 0 0.011233288616310745 -0.011813231823700089 0 0.011170562042701381 -0.01186650076326839 0 0.011196203731976129 -0.011867388098358718 0 0.011198030956289065 -0.011820125139041475 0 0.011159940473797128 -0.01181368214912752 0 0.011170562042701381 -0.01186650076326839 0 0.011198030956289065 -0.011820125139041475 0 0.011159940473797128 -0.01181368214912752 0 0.011229564397714413 -0.011748656899149173 0 0.011227798187870473 -0.01170531377276267 0 0.011159940473797128 -0.01181368214912752 0 0.011198030956289065 -0.011820125139041475 0 0.011229564397714413 -0.011748656899149173 0 0.011198030956289065 -0.011820125139041475 0 0.011233288616310745 -0.011813231823700089 0 0.011229564397714413 -0.011748656899149173 0 0.011274461858360795 -0.011771289778614451 0 0.011233288616310745 -0.011813231823700089 0 0.011229564397714413 -0.011748656899149173 0 0.011221625222287713 -0.011674404722506491 0 0.011242918914305284 -0.011822599954057773 0 0.011317191868045669 -0.011648334403652229 0 0.011292642386882653 -0.011500797887011922 0 0.011168637329785479 -0.011610387010244473 0 0.011317191868045669 -0.011648334403652229 0 0.011168637329785479 -0.011610387010244473 0 0.011285090171883439 -0.011743698467635648 0 0.011168637329785479 -0.011610387010244473 0 0.011248294558679151 -0.011833704768913527 0 0.011285090171883439 -0.011743698467635648 0 0.011324485785634813 -0.011895946977504365 0 0.011248294558679151 -0.011833704768913527 0 0.011285090171883439 -0.011743698467635648 0 0.011223452608594638 -0.011877649569258148 0 0.011196203731976129 -0.011867388098358718 0 0.011233288616310745 -0.011813231823700089 0 0.011223452608594638 -0.011877649569258148 0 0.011248294558679151 -0.011833704768913527 0 0.011233288616310745 -0.011813231823700089 0 0.011274461858360795 -0.011771289778614451 0 0.011248294558679151 -0.011833704768913527 0 0.011233288616310745 -0.011813231823700089 0 0.011265524598220861 -0.011702267932272723 0 0.011280817049716908 -0.011717330045849511 0 0.011275033732479317 -0.011687389972621341 0 0.011265524598220861 -0.011702267932272723 0 0.011280817049716908 -0.011717330045849511 0 0.011254845007260003 -0.011721367594750801 0 0.011265524598220861 -0.011702267932272723 0 0.011254845007260003 -0.011721367594750801 0 0.011256880344811192 -0.01170121330250358 0 0.011233366961668751 -0.011613195950020989 0 0.010931126491404842 -0.011085057041074859 0 0.011337713130014852 -0.01132163002351151 0 0.011141134868297287 -0.011372239356363801 0 0.011126842047529468 -0.011135168912712611 0 0.011337713130014852 -0.01132163002351151 0 0.011292642386882653 -0.011500797887011922 0 0.011141134868297287 -0.011372239356363801 0 0.011292642386882653 -0.011500797887011922 0 0.011168637329785479 -0.011610387010244473 0 0.011141134868297287 -0.011372239356363801 0 0.011221625222287713 -0.011674404722506491 0 0.011233366961668751 -0.011613195950020989 0 0.011274461858360795 -0.011771289778614451 0 0.011254845007260003 -0.011721367594750801 0 0.011229564397714413 -0.011748656899149173 0 0.011274461858360795 -0.011771289778614451 0 0.011280817049716908 -0.011717330045849511 0 0.011254845007260003 -0.011721367594750801 0 0.011254845007260003 -0.011721367594750801 0 0.011229564397714413 -0.011748656899149173 0 0.011245236150832895 -0.011708430937591743 0 0.011229564397714413 -0.011748656899149173 0 0.011245236150832895 -0.011708430937591743 0 0.011227798187870473 -0.01170531377276267 0 0.011245236150832895 -0.011708430937591743 0 0.011284311426571131 -0.011701933291684544 0 0.011227798187870473 -0.01170531377276267 0 0.011245236150832895 -0.011708430937591743 0 0.011284311426571131 -0.011701933291684544 0 0.011258985982935272 -0.01170022166526615 0 0.011254845007260003 -0.011721367594750801 0 0.011245236150832895 -0.011708430937591743 0 0.011256880344811192 -0.01170121330250358 0 0.011245236150832895 -0.011708430937591743 0 0.011256880344811192 -0.01170121330250358 0 0.011258985982935272 -0.01170022166526615 0 0.011256880344811192 -0.01170121330250358 0 0.011257539924552277 -0.011692587537357049 0 0.011258985982935272 -0.01170022166526615 0 0.011256880344811192 -0.01170121330250358 0 0.011257539924552277 -0.011692587537357049 0 0.011264112196052783 -0.0116910405085312 0 0.011257539924552277 -0.011692587537357049 0 0.011284311426571131 -0.011701933291684544 0 0.011236255607618793 -0.011676624734201845 0 0.011279207941259094 -0.01158727870927404 0 0.011328895688896027 -0.012070943228972741 0 0.011257539924552277 -0.011692587537357049 0 0.011284311426571131 -0.011701933291684544 0 0.011258985982935272 -0.01170022166526615 0 0.011257539924552277 -0.011692587537357049 0 0.011236255607618793 -0.011676624734201845 0 0.011255029798203453 -0.011653753627225221 0 0.011257539924552277 -0.011692587537357049 0 0.011265083598902732 -0.011678467138199209 0 0.011255029798203453 -0.011653753627225221 0 0.011257539924552277 -0.011692587537357049 0 0.011265083598902732 -0.011678467138199209 0 0.011264112196052783 -0.0116910405085312 0 0.01072641752882589 -0.011331916447685738 0 0.010125241695442587 -0.010836245914292292 0 0.010047328326717359 -0.010819285568254131 0 0.01075821255483035 -0.011427486765686718 0 0.010725063933399637 -0.010682595201108867 0 0.01072641752882589 -0.011331916447685738 0 0.010931126491404842 -0.011085057041074859 0 0.010047328326717359 -0.010819285568254131 0 0.010725063933399637 -0.010682595201108867 0 0.010163221611355995 -0.010271720517401908 0 0.011265083598902732 -0.011678467138199209 0 0.011264112196052783 -0.0116910405085312 0 0.011275033732479317 -0.011687389972621341 0 0.011265524598220861 -0.011702267932272723 0 0.011264112196052783 -0.0116910405085312 0 0.011275033732479317 -0.011687389972621341 0 0.011265524598220861 -0.011702267932272723 0 0.011256880344811192 -0.01170121330250358 0 0.011264112196052783 -0.0116910405085312 0 0.010861482802470724 -0.010210835344575271 0 0.010931126491404842 -0.011085057041074859 0 0.010859138258233442 -0.010338087856784665 0 0.01050464190556389 -0.010031255997137504 0 0.010669692635985949 -0.009881352122523706 0 0.01050464190556389 -0.010031255997137504 0 0.010669692635985949 -0.009881352122523706 0 0.010490363722422834 -0.0097251986297925332 0 0.010931126491404842 -0.011085057041074859 0 0.010608767245048209 -0.010191478301827832 0 0.010249314646058889 -0.0089289991542976302 0 0.010477748889344399 -0.0093806084853307586 0 0.010669692635985949 -0.009881352122523706 0 0.010490363722422834 -0.0097251986297925332 0 0.010479086381340152 -0.0094180073465995901 0 0.01004385325665394 -0.0084617067387922733 0 0.010063215346512205 -0.0087126662755597373 0 0.010316565523029196 -0.0087820356968499012 0 0.010608767245048209 -0.010191478301827832 0 0.010477748889344399 -0.0093806084853307586 0 0.010063215346512205 -0.0087126662755597373 0 0.010316565523029196 -0.0087820356968499012 0 0.010099083414607166 -0.0089403375983039077 0 0.010725063933399637 -0.010682595201108867 0 0.010696381867645604 -0.0099256669650105121 0 0.010163221611355995 -0.010271720517401908 0 0.010696381867645604 -0.0099256669650105121 0 0.010163221611355995 -0.010271720517401908 0 0.010021632701679797 -0.0097125135790842466 0 0.010477748889344399 -0.0093806084853307586 0 0.010418140858138827 -0.0092831554332753544 0 0.010696381867645604 -0.0099256669650105121 0 0.010021632701679797 -0.0097125135790842466 0 0.010358086837081219 -0.009147213009617898 0 0.010449732236483286 -0.0093430305611145823 0 0.010358086837081219 -0.009147213009617898 0 0.010437577240335595 -0.0090869275739177673 0 0.010358086837081219 -0.009147213009617898 0 0.010437577240335595 -0.0090869275739177673 0 0.010340223181782272 -0.0090334571087810674 0 0.010021632701679797 -0.0097125135790842466 0 0.010358086837081219 -0.009147213009617898 0 0.010001560433025289 -0.0092023146941214527 0 0.010358086837081219 -0.009147213009617898 0 0.010001560433025289 -0.0092023146941214527 0 0.010340223181782272 -0.0090334571087810674 0 0.010477748889344399 -0.0093806084853307586 0 0.01041521287068857 -0.0089870389841838552 0 0.010316565523029196 -0.0087820356968499012 0 0.010099083414607166 -0.0089403375983039077 0 0.010437577240335595 -0.0090869275739177673 0 0.010099083414607166 -0.0089403375983039077 0 0.010437577240335595 -0.0090869275739177673 0 0.01014821473433546 -0.0092051699087246381 0 0.010502547735245515 -0.0090465744676211466 0 0.010621395106259044 -0.0084272895683235038 0 0.011516854854012049 -0.0080353450056163348 0 0.01014821473433546 -0.0092051699087246381 0 0.010502547735245515 -0.0090465744676211466 0 0.010149771477509595 -0.0095568844181102963 0 0.010612193372021387 -0.0089228987548060617 0 0.01068153537543008 -0.0091262247410111314 0 0.010437577240335595 -0.0090869275739177673 0 0.01014821473433546 -0.0092051699087246381 0 0.010502547735245515 -0.0090465744676211466 0 0.010437577240335595 -0.0090869275739177673 0 0.010340223181782272 -0.0090334571087810674 0 0.010502547735245515 -0.0090465744676211466 0 0.010340223181782272 -0.0090334571087810674 0 0.010502547735245515 -0.0090465744676211466 0 0.010331553739798363 -0.0087583441568374488 0 0.010001560433025289 -0.0092023146941214527 0 0.010340223181782272 -0.0090334571087810674 0 0.010073404959456033 -0.0088876104235209377 0 0.010340223181782272 -0.0090334571087810674 0 0.010073404959456033 -0.0088876104235209377 0 0.010331553739798363 -0.0087583441568374488 0 0.010073404959456033 -0.0088876104235209377 0 0.010229832958899164 -0.0084314677946712244 0 0.010331553739798363 -0.0087583441568374488 0 0.010073404959456033 -0.0088876104235209377 0 0.010229832958899164 -0.0084314677946712244 0 0.0096772203997681789 -0.0086637361881720908 0 0.010502547735245515 -0.0090465744676211466 0 0.010331553739798363 -0.0087583441568374488 0 0.010621395106259044 -0.0084272895683235038 0 0.010229832958899164 -0.0084314677946712244 0 0.010331553739798363 -0.0087583441568374488 0 0.010621395106259044 -0.0084272895683235038 0 0.010229832958899164 -0.0084314677946712244 0 0.010621395106259044 -0.0084272895683235038 0 0.010622264247824033 -0.0078461779672516409 0 0.010229832958899164 -0.0084314677946712244 0 0.010199580494346543 -0.0080473113067084552 0 0.010622264247824033 -0.0078461779672516409 0 0.010229832958899164 -0.0084314677946712244 0 0.010199580494346543 -0.0080473113067084552 0 0.0098053664918468144 -0.0081607141908868683 0 0.010199580494346543 -0.0080473113067084552 0 0.010157542485754758 -0.0077469194688353678 0 0.0098053664918468144 -0.0081607141908868683 0 0.010157542485754758 -0.0077469194688353678 0 0.010622264247824033 -0.0078461779672516409 0 0.01024590068972946 -0.0071871133779551006 0 0.010199580494346543 -0.0080473113067084552 0 0.010157542485754758 -0.0077469194688353678 0 0.010622264247824033 -0.0078461779672516409 0 0.010621395106259044 -0.0084272895683235038 0 0.010622264247824033 -0.0078461779672516409 0 0.011516854854012049 -0.0080353450056163348 0 0.009132532898993604 -0.0081598447117775148 0 0.008524547774097441 -0.0085786462345146756 0 0.0084502278382783819 -0.0074617738205531078 0 0.010233795906902838 -0.0086360497294516118 0 0.011351527794172263 -0.0062716607438253755 0 0.009132532898993604 -0.0081598447117775148 0 0.0084502278382783819 -0.0074617738205531078 0 0.0091129005254564962 -0.0074439914425622703 0 0.009132532898993604 -0.0081598447117775148 0 0.009387925416152158 -0.0077648841635014655 0 0.0091129005254564962 -0.0074439914425622703 0 0.009387925416152158 -0.0077648841635014655 0 0.0097233445369675885 -0.007588435035141089 0 0.0098053664918468144 -0.0081607141908868683 0 0.010157542485754758 -0.0077469194688353678 0 0.0097233445369675885 -0.007588435035141089 0 0.0098053664918468144 -0.0081607141908868683 0 0.010157542485754758 -0.0077469194688353678 0 0.0097233445369675885 -0.007588435035141089 0 0.0099999675938444374 -0.0074461176407621642 0 0.009132532898993604 -0.0081598447117775148 0 0.0098053664918468144 -0.0081607141908868683 0 0.0096772203997681789 -0.0086637361881720908 0 0.009132532898993604 -0.0081598447117775148 0 0.009387925416152158 -0.0077648841635014655 0 0.0098053664918468144 -0.0081607141908868683 0 0.009132532898993604 -0.0081598447117775148 0 0.0096772203997681789 -0.0086637361881720908 0 0.0091399396466702153 -0.0089892221649720879 0 0.010229832958899164 -0.0084314677946712244 0 0.0098053664918468144 -0.0081607141908868683 0 0.0096772203997681789 -0.0086637361881720908 0 0.010073404959456033 -0.0088876104235209377 0 0.0096772203997681789 -0.0086637361881720908 0 0.0096176091689419221 -0.0090564236906518318 0 0.010001560433025289 -0.0092023146941214527 0 0.010073404959456033 -0.0088876104235209377 0 0.0096176091689419221 -0.0090564236906518318 0 0.0096772203997681789 -0.0086637361881720908 0 0.0096176091689419221 -0.0090564236906518318 0 0.0091399396466702153 -0.0089892221649720879 0 0.009132532898993604 -0.0081598447117775148 0 0.0091399396466702153 -0.0089892221649720879 0 0.008524547774097441 -0.0085786462345146756 0 0.0091399396466702153 -0.0089892221649720879 0 0.008524547774097441 -0.0085786462345146756 0 0.0085967257083102069 -0.0096098755325204812 0 0.0091399396466702153 -0.0089892221649720879 0 0.0085967257083102069 -0.0096098755325204812 0 0.0095395526844603215 -0.0094676417005597376 0 0.0085967257083102069 -0.0096098755325204812 0 0.0095395526844603215 -0.0094676417005597376 0 0.0093296227761825549 -0.010212035618723251 0 0.010233795906902838 -0.0086360497294516118 0 0.010923119290909085 -0.010749572966012685 0 0.010001560433025289 -0.0092023146941214527 0 0.0096176091689419221 -0.0090564236906518318 0 0.0095395526844603215 -0.0094676417005597376 0 0.0096176091689419221 -0.0090564236906518318 0 0.0091399396466702153 -0.0089892221649720879 0 0.0095395526844603215 -0.0094676417005597376 0 0.010021632701679797 -0.0097125135790842466 0 0.010001560433025289 -0.0092023146941214527 0 0.0095395526844603215 -0.0094676417005597376 0 0.010047328326717359 -0.010819285568254131 0 0.010163221611355995 -0.010271720517401908 0 0.0093296227761825549 -0.010212035618723251 0 0.010163221611355995 -0.010271720517401908 0 0.010021632701679797 -0.0097125135790842466 0 0.0093296227761825549 -0.010212035618723251 0 0.010021632701679797 -0.0097125135790842466 0 0.0095395526844603215 -0.0094676417005597376 0 0.0093296227761825549 -0.010212035618723251 0 0.010923119290909085 -0.010749572966012685 0 0.010125241695442587 -0.010836245914292292 0 0.011328895688896027 -0.012070943228972741 0 0.010923119290909085 -0.010749572966012685 0 0.011236255607618793 -0.011676624734201845 0 0.011219843718385265 -0.011611751990522693 0 0.011255029798203453 -0.011653753627225221 0 0.011322004715719917 -0.012347602364213759 0 0.011524731768408073 -0.012025190623762085 0 0.011640400621639643 -0.012241158523170275 0 0.011357552639466841 -0.011916635292779719 0 0.011322004715719917 -0.012347602364213759 0 0.011524731768408073 -0.012025190623762085 0 0.011524731768408073 -0.012025190623762085 0 0.011640400621639643 -0.012241158523170275 0 0.01175278676480687 -0.012016808412223455 0 0.012550738893160459 -0.011092765053604087 0 0.012000051971815464 -0.012415096053188478 0 0.01271190845085781 -0.01190809960908013 0 0.0118861897203378 -0.012027315203057292 0 0.01175278676480687 -0.012016808412223455 0 0.012000051971815464 -0.012415096053188478 0 0.011640400621639643 -0.012241158523170275 0 0.01175278676480687 -0.012016808412223455 0 0.012000051971815464 -0.012415096053188478 0 0.01223113962912031 -0.011546821981342329 0 0.0119911604358476 -0.012380158434265286 0 0.011640400621639643 -0.012241158523170275 0 0.012000051971815464 -0.012415096053188478 0 0.011646318185255657 -0.012737811096024848 0 0.012000051971815464 -0.012415096053188478 0 0.012601645031706007 -0.012381646397892042 0 0.01271190845085781 -0.01190809960908013 0 0.012000051971815464 -0.012415096053188478 0 0.011646318185255657 -0.012737811096024848 0 0.012184828555842303 -0.01282018392896732 0 0.012000051971815464 -0.012415096053188478 0 0.012184828555842303 -0.01282018392896732 0 0.012601645031706007 -0.012381646397892042 0 0.012184828555842303 -0.01282018392896732 0 0.012601645031706007 -0.012381646397892042 0 0.01273210010789126 -0.012714312037779374 0 0.011322004715719917 -0.012347602364213759 0 0.011640400621639643 -0.012241158523170275 0 0.011646318185255657 -0.012737811096024848 0 0.010923119290909085 -0.010749572966012685 0 0.0117721398840801 -0.011330179860307028 0 0.012183177095943271 -0.0086491341067723333 0 0.012203726513265055 -0.010074630460780195 0 0.011325654878639461 -0.0092935897208687376 0 0.012183177095943271 -0.0086491341067723333 0 0.011325654878639461 -0.0092935897208687376 0 0.01129842442542593 -0.0078701189995739555 0 0.0117721398840801 -0.011330179860307028 0 0.011872426389553211 -0.0083478996903329876 0 0.011646318185255657 -0.012737811096024848 0 0.012184828555842303 -0.01282018392896732 0 0.0122972635742758 -0.01341962040222008 0 0.011325654878639461 -0.0092935897208687376 0 0.010449276316155762 -0.0085144231423728411 0 0.01129842442542593 -0.0078701189995739555 0 0.012184828555842303 -0.01282018392896732 0 0.0122972635742758 -0.01341962040222008 0 0.01273210010789126 -0.012714312037779374 0 0.012429044411911665 -0.0049899730402864695 0 0.012426310410283765 -0.0049846581898143937 0 0.012421811966018204 -0.0049818470814706941 0 0.011872426389553211 -0.0083478996903329876 0 0.011711911066213106 -0.0080003559253632884 0 0.01242643267669245 -0.0049888571745976846 0 0.012420891487098063 -0.0049529935564609573 0 0.01243614869673201 -0.0049581828340841379 0 0.011872426389553211 -0.0083478996903329876 0 0.012069435516694859 -0.0062759850597057616 0 0.012426310410283765 -0.0049846581898143937 0 0.012420891487098063 -0.0049529935564609573 0 0.012420073333526224 -0.0049660797994743903 0 0.01242643267669245 -0.0049888571745976846 0 0.012426310410283765 -0.0049846581898143937 0 0.012420891487098063 -0.0049529935564609573 0 0.012420891487098063 -0.0049529935564609573 0 0.01243614869673201 -0.0049581828340841379 0 0.012425545586678327 -0.0049095736019535777 0 0.012183177095943271 -0.0086491341067723333 0 0.01129842442542593 -0.0078701189995739555 0 0.01215404882825381 -0.0072206474844479143 0 0.012069435516694859 -0.0062759850597057616 0 0.011351527794172263 -0.0062716607438253755 0 0.012416540416265503 -0.0049726352396072485 0 0.012409679989972553 -0.0049397579783038385 0 0.012412268958330776 -0.0049481498699658327 0 0.012416540416265503 -0.0049726352396072485 0 0.012409679989972553 -0.0049397579783038385 0 0.012415111074428562 -0.0049691940677592866 0 0.012420891487098063 -0.0049529935564609573 0 0.012412268958330776 -0.0049481498699658327 0 0.012420073333526224 -0.0049660797994743903 0 0.012420891487098063 -0.0049529935564609573 0 0.012412268958330776 -0.0049481498699658327 0 0.012406721090775374 -0.0049088024818983644 0 0.012426310410283765 -0.0049846581898143937 0 0.012420073333526224 -0.0049660797994743903 0 0.012421811966018204 -0.0049818470814706941 0 0.012412268958330776 -0.0049481498699658327 0 0.012420073333526224 -0.0049660797994743903 0 0.012421811966018204 -0.0049818470814706941 0 0.012416540416265503 -0.0049726352396072485 0 0.012412268958330776 -0.0049481498699658327 0 0.012421811966018204 -0.0049818470814706941 0 0.0122972635742758 -0.01341962040222008 0 0.013501410494368312 -0.012644388802584169 0 0.01273210010789126 -0.012714312037779374 0 0.011872426389553211 -0.0083478996903329876 0 0.014298992538950102 -0.0093453506982606547 0 0.012429044411911665 -0.0049899730402864695 0 0.012421811966018204 -0.0049818470814706941 0 0.012426770176149869 -0.0050372560047875336 0 0.012416540416265503 -0.0049726352396072485 0 0.012421811966018204 -0.0049818470814706941 0 0.012426770176149869 -0.0050372560047875336 0 0.019364502140829899 -0.0077367747974047248 0 0.018433662214386637 -0.007541709882844189 0 0.018661032632324888 -0.0067760418459937889 0 0.012416540416265503 -0.0049726352396072485 0 0.012426770176149869 -0.0050372560047875336 0 0.012415111074428562 -0.0049691940677592866 0 0.014298992538950102 -0.0093453506982606547 0 0.015501656747494159 -0.0054976409531540052 0 0.019364502140829899 -0.0077367747974047248 0 0.018369059336281853 -0.0084904967462124323 0 0.018433662214386637 -0.007541709882844189 0 0.013674715675408997 -0.012791881255155126 0 0.013866753453491842 -0.0118469620501001 0 0.01507652838750175 -0.011767196307989251 0 0.014298992538950102 -0.0093453506982606547 0 0.017067571661512109 -0.010147241377719768 0 0.012601645031706007 -0.012381646397892042 0 0.01273210010789126 -0.012714312037779374 0 0.013143685279102148 -0.012186911854501915 0 0.014298992538950102 -0.0093453506982606547 0 0.014089342848460149 -0.012053137030633328 0 0.013501410494368312 -0.012644388802584169 0 0.01273210010789126 -0.012714312037779374 0 0.013143685279102148 -0.012186911854501915 0 0.013674715675408997 -0.012791881255155126 0 0.013143685279102148 -0.012186911854501915 0 0.013866753453491842 -0.0118469620501001 0 0.012601645031706007 -0.012381646397892042 0 0.013143685279102148 -0.012186911854501915 0 0.01271190845085781 -0.01190809960908013 0 0.013143685279102148 -0.012186911854501915 0 0.01271190845085781 -0.01190809960908013 0 0.013255879581729088 -0.011447953015382423 0 0.012550738893160459 -0.011092765053604087 0 0.01271190845085781 -0.01190809960908013 0 0.013255879581729088 -0.011447953015382423 0 0.013143685279102148 -0.012186911854501915 0 0.013255879581729088 -0.011447953015382423 0 0.013866753453491842 -0.0118469620501001 0 0.012550738893160459 -0.011092765053604087 0 0.013255879581729088 -0.011447953015382423 0 0.013403875875455737 -0.010704209951260103 0 0.013866753453491842 -0.0118469620501001 0 0.014214472194365488 -0.011098205354106924 0 0.01507652838750175 -0.011767196307989251 0 0.013255879581729088 -0.011447953015382423 0 0.013866753453491842 -0.0118469620501001 0 0.014214472194365488 -0.011098205354106924 0 0.013255879581729088 -0.011447953015382423 0 0.014214472194365488 -0.011098205354106924 0 0.013403875875455737 -0.010704209951260103 0 0.014214472194365488 -0.011098205354106924 0 0.014075007590155276 -0.010052587866663923 0 0.013403875875455737 -0.010704209951260103 0 0.014214472194365488 -0.011098205354106924 0 0.014075007590155276 -0.010052587866663923 0 0.01475727299255441 -0.010590772658949145 0 0.014075007590155276 -0.010052587866663923 0 0.014910770061140242 -0.0096276416133093661 0 0.01475727299255441 -0.010590772658949145 0 0.014075007590155276 -0.010052587866663923 0 0.014111211965342828 -0.0085125277404363882 0 0.014910770061140242 -0.0096276416133093661 0 0.014220589479363931 -0.0104016516424976 0 0.01541700255219906 -0.010095699560668548 0 0.014075007590155276 -0.010052587866663923 0 0.013073520677012365 -0.0097913667269251738 0 0.014111211965342828 -0.0085125277404363882 0 0.012835633380690952 -0.01119956234439695 0 0.012957202434539973 -0.011061305627391363 0 0.01287668011229642 -0.011103054773780797 0 0.012468014015958205 -0.011035692439594515 0 0.014220589479363931 -0.0104016516424976 0 0.011786423266800591 -0.011942917907225011 0 0.011797150953924494 -0.011969295727616337 0 0.011736903938949632 -0.011988652162974945 0 0.012468014015958205 -0.011035692439594515 0 0.012291637161925151 -0.011627210205129801 0 0.012550738893160459 -0.011092765053604087 0 0.013073520677012365 -0.0097913667269251738 0 0.013403875875455737 -0.010704209951260103 0 0.012468014015958205 -0.011035692439594515 0 0.011629610168805806 -0.012199048423036749 0 0.014075007590155276 -0.010052587866663923 0 0.013073520677012365 -0.0097913667269251738 0 0.013403875875455737 -0.010704209951260103 0 0.01223113962912031 -0.011546821981342329 0 0.012468014015958205 -0.011035692439594515 0 0.0118861897203378 -0.012027315203057292 0 0.011904153583488935 -0.011850010781089699 0 0.011837378519472237 -0.011960068574436896 0 0.011742146067070745 -0.012022563540244743 0 0.011635475528715536 -0.011843608186806945 0 0.0118861897203378 -0.012027315203057292 0 0.01175278676480687 -0.012016808412223455 0 0.011837378519472237 -0.011960068574436896 0 0.01175278676480687 -0.012016808412223455 0 0.011837378519472237 -0.011960068574436896 0 0.011820927182078337 -0.011947009072608764 0 0.01175278676480687 -0.012016808412223455 0 0.011839100784205987 -0.011943896383589548 0 0.011820927182078337 -0.011947009072608764 0 0.011786423266800591 -0.011942917907225011 0 0.011837378519472237 -0.011960068574436896 0 0.011820927182078337 -0.011947009072608764 0 0.011524731768408073 -0.012025190623762085 0 0.01175278676480687 -0.012016808412223455 0 0.011420175206385068 -0.011701824943930137 0 0.011357552639466841 -0.011916635292779719 0 0.011524731768408073 -0.012025190623762085 0 0.011420175206385068 -0.011701824943930137 0 0.011284311426571131 -0.011701933291684544 0 0.011357552639466841 -0.011916635292779719 0 0.011420175206385068 -0.011701824943930137 0 0.011839100784205987 -0.011943896383589548 0 0.011820927182078337 -0.011947009072608764 0 0.011797150953924494 -0.011969295727616337 0 0.011786423266800591 -0.011942917907225011 0 0.011820927182078337 -0.011947009072608764 0 0.011797150953924494 -0.011969295727616337 0 0.011839100784205987 -0.011943896383589548 0 0.011788691790540273 -0.012046650786409999 0 0.011898147598116958 -0.012095549223844329 0 0.011839100784205987 -0.011943896383589548 0 0.011797150953924494 -0.011969295727616337 0 0.011788691790540273 -0.012046650786409999 0 0.011284311426571131 -0.011701933291684544 0 0.011420175206385068 -0.011701824943930137 0 0.011227798187870473 -0.01170531377276267 0 0.011635475528715536 -0.011843608186806945 0 0.011564921858533875 -0.011904268623190075 0 0.011731100223964933 -0.012151253527728325 0 0.01182421977035842 -0.012165791465547115 0 0.011788691790540273 -0.012046650786409999 0 0.01182421977035842 -0.012165791465547115 0 0.011788691790540273 -0.012046650786409999 0 0.011898147598116958 -0.012095549223844329 0 0.011680716974664643 -0.012172270938769311 0 0.012605039516228322 -0.011672214812965612 0 0.011731100223964933 -0.012151253527728325 0 0.011788691790540273 -0.012046650786409999 0 0.011696831292208857 -0.01205864431731468 0 0.012887350636785979 -0.011908436172853783 0 0.012605039516228322 -0.011672214812965612 0 0.011638555593607963 -0.012223356648187073 0 0.011724108326433226 -0.012204466451759436 0 0.011678254298740157 -0.012120688790214993 0 0.014060840870460424 -0.011817065227910059 0 0.014182816209896114 -0.011465030918445543 0 0.013887570272369464 -0.011564713420914315 0 0.012605039516228322 -0.011672214812965612 0 0.014220589479363931 -0.0104016516424976 0 0.015906480480565099 -0.010686247570681769 0 0.015892375289093832 -0.010682667426834236 0 0.015910169940895339 -0.010725519361614292 0 0.014182816209896114 -0.011465030918445543 0 0.01407941917064218 -0.011309941744024875 0 0.013887570272369464 -0.011564713420914315 0 0.012915863932162805 -0.011007586801734134 0 0.012957202434539973 -0.011061305627391363 0 0.01287668011229642 -0.011103054773780797 0 0.014220589479363931 -0.0104016516424976 0 0.014856063475828152 -0.011198990681934345 0 0.011788691790540273 -0.012046650786409999 0 0.011696831292208857 -0.01205864431731468 0 0.011736903938949632 -0.011988652162974945 0 0.011797150953924494 -0.011969295727616337 0 0.011788691790540273 -0.012046650786409999 0 0.011736903938949632 -0.011988652162974945 0 0.012605039516228322 -0.011672214812965612 0 0.012291637161925151 -0.011627210205129801 0 0.015929586436044217 -0.010683155908957685 0 0.015841095486776882 -0.010786687104646447 0 0.015908847306014974 -0.010735215768008888 0 0.015929586436044217 -0.010683155908957685 0 0.015910215349063402 -0.010699719116440218 0 0.015908847306014974 -0.010735215768008888 0 0.015929586436044217 -0.010683155908957685 0 0.015841095486776882 -0.010786687104646447 0 0.015973141964379808 -0.010611554615284992 0 0.015929586436044217 -0.010683155908957685 0 0.015910215349063402 -0.010699719116440218 0 0.015906291396159972 -0.010663529440382217 0 0.015929586436044217 -0.010683155908957685 0 0.015973141964379808 -0.010611554615284992 0 0.015906291396159972 -0.010663529440382217 0 0.015892375289093832 -0.010682667426834236 0 0.015910215349063402 -0.010699719116440218 0 0.015906291396159972 -0.010663529440382217 0 0.015906480480565099 -0.010686247570681769 0 0.015892375289093832 -0.010682667426834236 0 0.015841523341389031 -0.010674607173659444 0 0.015892375289093832 -0.010682667426834236 0 0.015910215349063402 -0.010699719116440218 0 0.015910169940895339 -0.010725519361614292 0 0.015921011978451954 -0.010744371410311714 0 0.015910169940895339 -0.010725519361614292 0 0.015908847306014974 -0.010735215768008888 0 0.015910215349063402 -0.010699719116440218 0 0.015910169940895339 -0.010725519361614292 0 0.015908847306014974 -0.010735215768008888 0 0.01369543380402069 -0.011817781289043152 0 0.014060840870460424 -0.011817065227910059 0 0.013887570272369464 -0.011564713420914315 0 0.015778130983634394 -0.011523283355587732 0 0.014856063475828152 -0.011198990681934345 0 0.015778130983634394 -0.011523283355587732 0 0.01593368734100567 -0.010683091033874098 0 0.015921011978451954 -0.010744371410311714 0 0.015841095486776882 -0.010786687104646447 0 0.015908847306014974 -0.010735215768008888 0 0.016325637465051383 -0.01157775207945393 0 0.015841095486776882 -0.010786687104646447 0 0.015884140003907438 -0.011321578783826409 0 0.015841095486776882 -0.010786687104646447 0 0.015884140003907438 -0.011321578783826409 0 0.015405749952239926 -0.011058367578239199 0 0.015532068454394985 -0.011452388002720153 0 0.015884140003907438 -0.011321578783826409 0 0.015405749952239926 -0.011058367578239199 0 0.014885691029951485 -0.011680199597041519 0 0.015532068454394985 -0.011452388002720153 0 0.015405749952239926 -0.011058367578239199 0 0.016319748550141792 -0.011157143735419114 0 0.016213322005702697 -0.010738688711892012 0 0.016132799300327925 -0.010973255252806048 0 0.01557842879790235 -0.011444905429676824 0 0.01583537159436291 -0.010913420583009531 0 0.016319748550141792 -0.011157143735419114 0 0.016281751811247327 -0.010727529863713631 0 0.016213322005702697 -0.010738688711892012 0 0.016281751811247327 -0.010727529863713631 0 0.016213322005702697 -0.010738688711892012 0 0.01618236080219445 -0.010627883877778863 0 0.016213322005702697 -0.010738688711892012 0 0.016179125535629564 -0.01059409300061692 0 0.016133610909059445 -0.010638352490566549 0 0.016213322005702697 -0.010738688711892012 0 0.016179125535629564 -0.01059409300061692 0 0.01618236080219445 -0.010627883877778863 0 0.015956735983727013 -0.010658199955491676 0 0.01583537159436291 -0.010913420583009531 0 0.015973141964379808 -0.010611554615284992 0 0.016281751811247327 -0.010727529863713631 0 0.01618236080219445 -0.010627883877778863 0 0.015841095486776882 -0.010786687104646447 0 0.015973141964379808 -0.010611554615284992 0 0.015405749952239926 -0.011058367578239199 0 0.015973141964379808 -0.010611554615284992 0 0.01618236080219445 -0.010627883877778863 0 0.016079999163517138 -0.010665042121868187 0 0.016185098418368453 -0.010683896247158126 0 0.015930831400258593 -0.010738467062288173 0 0.015956312145524131 -0.010689179527208506 0 0.016079999163517138 -0.010665042121868187 0 0.016185098418368453 -0.010683896247158126 0 0.015956312145524131 -0.010689179527208506 0 0.01618236080219445 -0.010627883877778863 0 0.016079999163517138 -0.010665042121868187 0 0.016185098418368453 -0.010683896247158126 0 0.016613087374516448 -0.0098478769633681424 0 0.015865521916984475 -0.0098751643092499231 0 0.0161039306237011 -0.010468762950977787 0 0.016179125535629564 -0.01059409300061692 0 0.01618236080219445 -0.010627883877778863 0 0.016185098418368453 -0.010683896247158126 0 0.016179125535629564 -0.01059409300061692 0 0.016185098418368453 -0.010683896247158126 0 0.0161039306237011 -0.010468762950977787 0 0.01640076976308549 -0.010267731666842538 0 0.016097364530496937 -0.010475943596499416 0 0.016613087374516448 -0.0098478769633681424 0 0.016204963959932851 -0.009437700387469045 0 0.015865521916984475 -0.0098751643092499231 0 0.016613087374516448 -0.0098478769633681424 0 0.016204963959932851 -0.009437700387469045 0 0.016729934815604492 -0.0091288134805196652 0 0.016613087374516448 -0.0098478769633681424 0 0.017420787980143446 -0.0091834215104422221 0 0.016729934815604492 -0.0091288134805196652 0 0.01640076976308549 -0.010267731666842538 0 0.016665893341837566 -0.010065857316597815 0 0.016185098418368453 -0.010683896247158126 0 0.016059533079171517 -0.010887887231616813 0 0.015930831400258593 -0.010738467062288173 0 0.016059533079171517 -0.010887887231616813 0 0.01570559706027868 -0.010832210641462333 0 0.015179438532559509 -0.011156559123219733 0 0.016059533079171517 -0.010887887231616813 0 0.01570559706027868 -0.010832210641462333 0 0.015930831400258593 -0.010738467062288173 0 0.015930831400258593 -0.010738467062288173 0 0.015956312145524131 -0.010689179527208506 0 0.015841523341389031 -0.010674607173659444 0 0.015956312145524131 -0.010689179527208506 0 0.015906291396159972 -0.010663529440382217 0 0.015969542040953046 -0.010655502998114481 0 0.015973141964379808 -0.010611554615284992 0 0.015906291396159972 -0.010663529440382217 0 0.015969542040953046 -0.010655502998114481 0 0.016079999163517138 -0.010665042121868187 0 0.015956312145524131 -0.010689179527208506 0 0.015969542040953046 -0.010655502998114481 0 0.015973141964379808 -0.010611554615284992 0 0.016079999163517138 -0.010665042121868187 0 0.015969542040953046 -0.010655502998114481 0 0.015956312145524131 -0.010689179527208506 0 0.015906291396159972 -0.010663529440382217 0 0.015841523341389031 -0.010674607173659444 0 0.015892375289093832 -0.010682667426834236 0 0.015906291396159972 -0.010663529440382217 0 0.015841523341389031 -0.010674607173659444 0 0.01570559706027868 -0.010832210641462333 0 0.015930831400258593 -0.010738467062288173 0 0.015841523341389031 -0.010674607173659444 0 0.01570559706027868 -0.010832210641462333 0 0.014910770061140242 -0.0096276416133093661 0 0.01475727299255441 -0.010590772658949145 0 0.015702687175889508 -0.010794871749207369 0 0.01541700255219906 -0.010095699560668548 0 0.01570559706027868 -0.010832210641462333 0 0.01475727299255441 -0.010590772658949145 0 0.015179438532559509 -0.011156559123219733 0 0.014214472194365488 -0.011098205354106924 0 0.01475727299255441 -0.010590772658949145 0 0.015179438532559509 -0.011156559123219733 0 0.016059533079171517 -0.010887887231616813 0 0.015179438532559509 -0.011156559123219733 0 0.01507652838750175 -0.011767196307989251 0 0.014214472194365488 -0.011098205354106924 0 0.015179438532559509 -0.011156559123219733 0 0.01507652838750175 -0.011767196307989251 0 0.016665893341837566 -0.010065857316597815 0 0.017067571661512109 -0.010147241377719768 0 0.017420787980143446 -0.0091834215104422221 0 0.018369059336281853 -0.0084904967462124323 0 0.017631894956940817 -0.0084933981861591255 0 0.017420787980143446 -0.0091834215104422221 0 0.017631894956940817 -0.0084933981861591255 0 0.017178583171436605 -0.0087377232022691417 0 0.017631894956940817 -0.0084933981861591255 0 0.017279207382804872 -0.0081472377847143056 0 0.017178583171436605 -0.0087377232022691417 0 0.017631894956940817 -0.0084933981861591255 0 0.017279207382804872 -0.0081472377847143056 0 0.017893092099995914 -0.0078354684466940775 0 0.017279207382804872 -0.0081472377847143056 0 0.017893092099995914 -0.0078354684466940775 0 0.017318304775280409 -0.0074946858767381153 0 0.018369059336281853 -0.0084904967462124323 0 0.017893092099995914 -0.0078354684466940775 0 0.018433662214386637 -0.007541709882844189 0 0.018369059336281853 -0.0084904967462124323 0 0.017631894956940817 -0.0084933981861591255 0 0.017893092099995914 -0.0078354684466940775 0 0.018433662214386637 -0.007541709882844189 0 0.017850928849419277 -0.0068143364751827567 0 0.018661032632324888 -0.0067760418459937889 0 0.017893092099995914 -0.0078354684466940775 0 0.018433662214386637 -0.007541709882844189 0 0.017850928849419277 -0.0068143364751827567 0 0.017893092099995914 -0.0078354684466940775 0 0.017318304775280409 -0.0074946858767381153 0 0.017850928849419277 -0.0068143364751827567 0 0.017318304775280409 -0.0074946858767381153 0 0.01719572761650142 -0.0068714400172498608 0 0.017850928849419277 -0.0068143364751827567 0 0.017850928849419277 -0.0068143364751827567 0 0.017144913084052679 -0.0061156036766172525 0 0.017886509419647385 -0.0057115114967735518 0 0.01719572761650142 -0.0068714400172498608 0 0.017850928849419277 -0.0068143364751827567 0 0.017144913084052679 -0.0061156036766172525 0 0.017571515530240885 -0.0057508779241805712 0 0.015987990919124007 -0.0049740021756012028 0 0.015501656747494159 -0.0054976409531540052 0 0.015987990919124007 -0.0049740021756012028 0 0.012409679989972553 -0.0049397579783038385 0 0.012415111074428562 -0.0049691940677592866 0 0.012437055882816012 -0.0049419947466613472 0 0.017850928849419277 -0.0068143364751827567 0 0.018661032632324888 -0.0067760418459937889 0 0.017886509419647385 -0.0057115114967735518 0 0.01674369368268392 -0.0075692331417816644 0 0.016865339347666548 -0.0075523642373315821 0 0.01629657638081022 -0.0075327206140486051 0 0.016372117503064505 -0.0066980956063083146 0 0.01630857564770969 -0.0074077925914042613 0 0.01674369368268392 -0.0075692331417816644 0 0.016611615426528073 -0.0076418886720431723 0 0.016677239334582955 -0.0078661572630706108 0 0.016611615426528073 -0.0076418886720431723 0 0.016677239334582955 -0.0078661572630706108 0 0.016575809995697102 -0.0079560453815188809 0 0.016611615426528073 -0.0076418886720431723 0 0.01673537764638099 -0.0075013735571549372 0 0.016609329300958615 -0.0073839347039904345 0 0.01674369368268392 -0.0075692331417816644 0 0.016611615426528073 -0.0076418886720431723 0 0.01673537764638099 -0.0075013735571549372 0 0.01673537764638099 -0.0075013735571549372 0 0.016865339347666548 -0.0075523642373315821 0 0.016774665981590008 -0.0072910016709410129 0 0.01674369368268392 -0.0075692331417816644 0 0.01673537764638099 -0.0075013735571549372 0 0.016865339347666548 -0.0075523642373315821 0 0.015864211879171544 -0.0059536090923748338 0 0.016523172729446818 -0.0060121145200946026 0 0.016468710508427679 -0.0051184130013304874 0 0.015864211879171544 -0.0059536090923748338 0 0.016609073582142694 -0.0067931976174401814 0 0.01629657638081022 -0.0075327206140486051 0 0.017144913084052679 -0.0061156036766172525 0 0.016523172729446818 -0.0060121145200946026 0 0.016468710508427679 -0.0051184130013304874 0 0.017144913084052679 -0.0061156036766172525 0 0.016523172729446818 -0.0060121145200946026 0 0.016609073582142694 -0.0067931976174401814 0 0.01719572761650142 -0.0068714400172498608 0 0.017144913084052679 -0.0061156036766172525 0 0.016609073582142694 -0.0067931976174401814 0 0.015864211879171544 -0.0059536090923748338 0 0.016523172729446818 -0.0060121145200946026 0 0.016609073582142694 -0.0067931976174401814 0 0.016609073582142694 -0.0067931976174401814 0 0.016768620041031142 -0.0074280072268799856 0 0.01629657638081022 -0.0075327206140486051 0 0.01719572761650142 -0.0068714400172498608 0 0.016609073582142694 -0.0067931976174401814 0 0.016768620041031142 -0.0074280072268799856 0 0.017318304775280409 -0.0074946858767381153 0 0.01719572761650142 -0.0068714400172498608 0 0.016768620041031142 -0.0074280072268799856 0 0.017318304775280409 -0.0074946858767381153 0 0.016768620041031142 -0.0074280072268799856 0 0.016902268820416563 -0.0078791215125038373 0 0.016768620041031142 -0.0074280072268799856 0 0.01629657638081022 -0.0075327206140486051 0 0.016514370116806426 -0.0078669103914552584 0 0.01674369368268392 -0.0075692331417816644 0 0.016677239334582955 -0.0078661572630706108 0 0.016816973325523878 -0.0083502584154352862 0 0.01674369368268392 -0.0075692331417816644 0 0.01629657638081022 -0.0075327206140486051 0 0.016082709962539878 -0.0076551318393847101 0 0.016681523873761903 -0.0076393262035880823 0 0.016469040152891985 -0.0080421971635212461 0 0.01629657638081022 -0.0075327206140486051 0 0.016082709962539878 -0.0076551318393847101 0 0.016514370116806426 -0.0078669103914552584 0 0.016677239334582955 -0.0078661572630706108 0 0.016816973325523878 -0.0083502584154352862 0 0.016575809995697102 -0.0079560453815188809 0 0.016469040152891985 -0.0080421971635212461 0 0.016275040684956742 -0.0089447032120571791 0 0.016082709962539878 -0.0076551318393847101 0 0.016368333496800551 -0.008552877050819219 0 0.01586176890209462 -0.0088049775101521552 0 0.016082709962539878 -0.0076551318393847101 0 0.016514370116806426 -0.0078669103914552584 0 0.016368333496800551 -0.008552877050819219 0 0.017279207382804872 -0.0081472377847143056 0 0.017318304775280409 -0.0074946858767381153 0 0.016902268820416563 -0.0078791215125038373 0 0.016768620041031142 -0.0074280072268799856 0 0.016902268820416563 -0.0078791215125038373 0 0.016514370116806426 -0.0078669103914552584 0 0.016902268820416563 -0.0078791215125038373 0 0.016514370116806426 -0.0078669103914552584 0 0.016802225877114132 -0.008393731770946905 0 0.016514370116806426 -0.0078669103914552584 0 0.016802225877114132 -0.008393731770946905 0 0.016368333496800551 -0.008552877050819219 0 0.017279207382804872 -0.0081472377847143056 0 0.016902268820416563 -0.0078791215125038373 0 0.016802225877114132 -0.008393731770946905 0 0.016802225877114132 -0.008393731770946905 0 0.016729934815604492 -0.0091288134805196652 0 0.017178583171436605 -0.0087377232022691417 0 0.017420787980143446 -0.0091834215104422221 0 0.016729934815604492 -0.0091288134805196652 0 0.017178583171436605 -0.0087377232022691417 0 0.016802225877114132 -0.008393731770946905 0 0.016729934815604492 -0.0091288134805196652 0 0.016368333496800551 -0.008552877050819219 0 0.017279207382804872 -0.0081472377847143056 0 0.016802225877114132 -0.008393731770946905 0 0.017178583171436605 -0.0087377232022691417 0 0.016204963959932851 -0.009437700387469045 0 0.016368333496800551 -0.008552877050819219 0 0.01586176890209462 -0.0088049775101521552 0 0.016204963959932851 -0.009437700387469045 0 0.016729934815604492 -0.0091288134805196652 0 0.016368333496800551 -0.008552877050819219 0 0.015898117773968119 -0.0093016227378229979 0 0.016055003171729459 -0.0086351779928256316 0 0.015567791144433275 -0.0088261058659310256 0 0.016669422264264291 -0.0091133797362879139 0 0.015898117773968119 -0.0093016227378229979 0 0.016055003171729459 -0.0086351779928256316 0 0.016816973325523878 -0.0083502584154352862 0 0.016669422264264291 -0.0091133797362879139 0 0.016421104581646962 -0.0083389764287053938 0 0.016669422264264291 -0.0091133797362879139 0 0.016055003171729459 -0.0086351779928256316 0 0.016421104581646962 -0.0083389764287053938 0 0.016816973325523878 -0.0083502584154352862 0 0.016575809995697102 -0.0079560453815188809 0 0.016421104581646962 -0.0083389764287053938 0 0.016575809995697102 -0.0079560453815188809 0 0.016421104581646962 -0.0083389764287053938 0 0.016367959725396185 -0.0078458573639877092 0 0.016421104581646962 -0.0083389764287053938 0 0.016119753029927651 -0.0081075296361022477 0 0.016367959725396185 -0.0078458573639877092 0 0.016055003171729459 -0.0086351779928256316 0 0.016421104581646962 -0.0083389764287053938 0 0.016119753029927651 -0.0081075296361022477 0 0.016055003171729459 -0.0086351779928256316 0 0.016119753029927651 -0.0081075296361022477 0 0.015705696836359206 -0.0081322189756382959 0 0.016119753029927651 -0.0081075296361022477 0 0.016057488509953199 -0.0076183272268639367 0 0.015705696836359206 -0.0081322189756382959 0 0.016119753029927651 -0.0081075296361022477 0 0.016057488509953199 -0.0076183272268639367 0 0.016367959725396185 -0.0078458573639877092 0 0.016057488509953199 -0.0076183272268639367 0 0.01640415169830339 -0.0075402076763382668 0 0.016350321174184446 -0.0072416589768723666 0 0.016611615426528073 -0.0076418886720431723 0 0.01640415169830339 -0.0075402076763382668 0 0.016609329300958615 -0.0073839347039904345 0 0.016611615426528073 -0.0076418886720431723 0 0.016575809995697102 -0.0079560453815188809 0 0.016367959725396185 -0.0078458573639877092 0 0.016611615426528073 -0.0076418886720431723 0 0.01640415169830339 -0.0075402076763382668 0 0.016367959725396185 -0.0078458573639877092 0 0.016057488509953199 -0.0076183272268639367 0 0.01640415169830339 -0.0075402076763382668 0 0.016367959725396185 -0.0078458573639877092 0 0.015550025600523902 -0.0075132492062074683 0 0.014999942975434499 -0.0081178886136829172 0 0.014999952727478368 -0.0072406727252607396 0 0.016057488509953199 -0.0076183272268639367 0 0.015550025600523902 -0.0075132492062074683 0 0.015705696836359206 -0.0081322189756382959 0 0.015550025600523902 -0.0075132492062074683 0 0.015705696836359206 -0.0081322189756382959 0 0.014999942975434499 -0.0081178886136829172 0 0.015705696836359206 -0.0081322189756382959 0 0.014999942975434499 -0.0081178886136829172 0 0.015567791144433275 -0.0088261058659310256 0 0.014999942975434499 -0.0081178886136829172 0 0.015567791144433275 -0.0088261058659310256 0 0.014999914480619369 -0.0089951541715295475 0 0.016055003171729459 -0.0086351779928256316 0 0.015705696836359206 -0.0081322189756382959 0 0.015567791144433275 -0.0088261058659310256 0 0.015898117773968119 -0.0093016227378229979 0 0.015567791144433275 -0.0088261058659310256 0 0.015429094203476258 -0.0094298822564034164 0 0.015567791144433275 -0.0088261058659310256 0 0.014999914480619369 -0.0089951541715295475 0 0.015429094203476258 -0.0094298822564034164 0 0.014999914480619369 -0.0089951541715295475 0 0.014999915381766737 -0.0098724311778671543 0 0.015429094203476258 -0.0094298822564034164 0 0.014999915381766737 -0.0098724311778671543 0 0.015665864059185439 -0.010021913361145184 0 0.015429094203476258 -0.0094298822564034164 0 0.014999915381766737 -0.0098724311778671543 0 0.015665864059185439 -0.010021913361145184 0 0.015371147778573957 -0.010430791510635844 0 0.015665864059185439 -0.010021913361145184 0 0.015868198154632064 -0.010438731755384775 0 0.015661926899119622 -0.010525237277842282 0 0.015665864059185439 -0.010021913361145184 0 0.015371147778573957 -0.010430791510635844 0 0.015661926899119622 -0.010525237277842282 0 0.015898117773968119 -0.0093016227378229979 0 0.015665864059185439 -0.010021913361145184 0 0.015429094203476258 -0.0094298822564034164 0 0.015898117773968119 -0.0093016227378229979 0 0.015665864059185439 -0.010021913361145184 0 0.016087865713024615 -0.0097363088619268016 0 0.016669422264264291 -0.0091133797362879139 0 0.015898117773968119 -0.0093016227378229979 0 0.016087865713024615 -0.0097363088619268016 0 0.016669422264264291 -0.0091133797362879139 0 0.016087865713024615 -0.0097363088619268016 0 0.016469536887546873 -0.0098735220677453137 0 0.016275040684956742 -0.0089447032120571791 0 0.016167618113874956 -0.0098568402326837529 0 0.016204963959932851 -0.009437700387469045 0 0.01586176890209462 -0.0088049775101521552 0 0.015865521916984475 -0.0098751643092499231 0 0.016167618113874956 -0.0098568402326837529 0 0.01606803929447137 -0.010530102065829305 0 0.016469536887546873 -0.0098735220677453137 0 0.016026272989124169 -0.01016391881992321 0 0.016063334130042715 -0.010615242465904775 0 0.015865521916984475 -0.0098751643092499231 0 0.0161039306237011 -0.010468762950977787 0 0.016063334130042715 -0.010615242465904775 0 0.016087865713024615 -0.0097363088619268016 0 0.016469536887546873 -0.0098735220677453137 0 0.016026272989124169 -0.01016391881992321 0 0.015665864059185439 -0.010021913361145184 0 0.016087865713024615 -0.0097363088619268016 0 0.016026272989124169 -0.01016391881992321 0 0.015665864059185439 -0.010021913361145184 0 0.016026272989124169 -0.01016391881992321 0 0.015868198154632064 -0.010438731755384775 0 0.016026272989124169 -0.01016391881992321 0 0.015868198154632064 -0.010438731755384775 0 0.016063334130042715 -0.010615242465904775 0 0.016063334130042715 -0.010615242465904775 0 0.016070174866874447 -0.010775518821672785 0 0.015876132911826123 -0.010778231283265965 0 0.015868198154632064 -0.010438731755384775 0 0.016063334130042715 -0.010615242465904775 0 0.015876132911826123 -0.010778231283265965 0 0.015868198154632064 -0.010438731755384775 0 0.015876132911826123 -0.010778231283265965 0 0.015661926899119622 -0.010525237277842282 0 0.016179125535629564 -0.01059409300061692 0 0.0161039306237011 -0.010468762950977787 0 0.016133610909059445 -0.010638352490566549 0 0.0161039306237011 -0.010468762950977787 0 0.016063334130042715 -0.010615242465904775 0 0.016133610909059445 -0.010638352490566549 0 0.016063334130042715 -0.010615242465904775 0 0.016133610909059445 -0.010638352490566549 0 0.016070174866874447 -0.010775518821672785 0 0.016213322005702697 -0.010738688711892012 0 0.016133610909059445 -0.010638352490566549 0 0.016070174866874447 -0.010775518821672785 0 0.016213322005702697 -0.010738688711892012 0 0.016070174866874447 -0.010775518821672785 0 0.016132799300327925 -0.010973255252806048 0 0.016070174866874447 -0.010775518821672785 0 0.016132799300327925 -0.010973255252806048 0 0.015990853103670238 -0.010985738998652367 0 0.016038201170177423 -0.011261451101217099 0 0.016132799300327925 -0.010973255252806048 0 0.015990853103670238 -0.010985738998652367 0 0.015733284586580361 -0.011209637990260663 0 0.015876132911826123 -0.010778231283265965 0 0.015990853103670238 -0.010985738998652367 0 0.016070174866874447 -0.010775518821672785 0 0.015876132911826123 -0.010778231283265965 0 0.015990853103670238 -0.010985738998652367 0 0.015312451251285801 -0.011254827668653329 0 0.015733284586580361 -0.011209637990260663 0 0.01550690857676747 -0.010830673371825094 0 0.015733284586580361 -0.011209637990260663 0 0.015876132911826123 -0.010778231283265965 0 0.01550690857676747 -0.010830673371825094 0 0.015312451251285801 -0.011254827668653329 0 0.01550690857676747 -0.010830673371825094 0 0.014999905503760614 -0.010749680586813885 0 0.015312451251285801 -0.011254827668653329 0 0.015000016727797254 -0.011626552490662662 0 0.014999905503760614 -0.010749680586813885 0 0.014999915381766737 -0.0098724311778671543 0 0.014999905503760614 -0.010749680586813885 0 0.015371147778573957 -0.010430791510635844 0 0.01550690857676747 -0.010830673371825094 0 0.014999905503760614 -0.010749680586813885 0 0.015371147778573957 -0.010430791510635844 0 0.015876132911826123 -0.010778231283265965 0 0.01550690857676747 -0.010830673371825094 0 0.015661926899119622 -0.010525237277842282 0 0.01550690857676747 -0.010830673371825094 0 0.015371147778573957 -0.010430791510635844 0 0.015661926899119622 -0.010525237277842282 0 0.015380983289756121 -0.0041781203637847536 0 0.015679900225806908 -0.0043613823600745193 0 0.015384204953037018 -0.0048178301528658245 0 0.015380983289756121 -0.0041781203637847536 0 0.015641575254858583 -0.0039825239130386264 0 0.015679900225806908 -0.0043613823600745193 0 0.015380983289756121 -0.0041781203637847536 0 0.014999869384125446 -0.0046088785716705237 0 0.015384204953037018 -0.0048178301528658245 0 0.015380983289756121 -0.0041781203637847536 0 0.015454014783920436 -0.003668255304252457 0 0.014999881780547076 -0.0037315696650165936 0 0.015380983289756121 -0.0041781203637847536 0 0.014999869384125446 -0.0046088785716705237 0 0.014999881780547076 -0.0037315696650165936 0 0.015380983289756121 -0.0041781203637847536 0 0.015641575254858583 -0.0039825239130386264 0 0.015454014783920436 -0.003668255304252457 0 0.015777545867359525 -0.0036504584310047845 0 0.01601155114918041 -0.0038013558721500008 0 0.015897142323702894 -0.0040792871522824115 0 0.015777545867359525 -0.0036504584310047845 0 0.015641575254858583 -0.0039825239130386264 0 0.015897142323702894 -0.0040792871522824115 0 0.015777545867359525 -0.0036504584310047845 0 0.015641575254858583 -0.0039825239130386264 0 0.015454014783920436 -0.003668255304252457 0 0.01601155114918041 -0.0038013558721500008 0 0.016144797999687054 -0.0043426120997555068 0 0.016292133971586555 -0.0036666457522046962 0 0.01601155114918041 -0.0038013558721500008 0 0.016144797999687054 -0.0043426120997555068 0 0.015897142323702894 -0.0040792871522824115 0 0.016144797999687054 -0.0043426120997555068 0 0.015897142323702894 -0.0040792871522824115 0 0.015913936031158423 -0.0045543292177102918 0 0.016158389849624307 -0.0042516472478400661 0 0.01595706504603361 -0.0045005462877758364 0 0.015641575254858583 -0.0039825239130386264 0 0.015897142323702894 -0.0040792871522824115 0 0.015679900225806908 -0.0043613823600745193 0 0.015897142323702894 -0.0040792871522824115 0 0.015679900225806908 -0.0043613823600745193 0 0.015913936031158423 -0.0045543292177102918 0 0.015679900225806908 -0.0043613823600745193 0 0.015913936031158423 -0.0045543292177102918 0 0.015747192121409716 -0.0049328354434394024 0 0.015913936031158423 -0.0045543292177102918 0 0.016043637321765804 -0.0048983500501588537 0 0.016238505360484139 -0.0046853264938824931 0 0.015913936031158423 -0.0045543292177102918 0 0.016043637321765804 -0.0048983500501588537 0 0.015747192121409716 -0.0049328354434394024 0 0.016347954770750801 -0.0045224217122425067 0 0.016238505360484139 -0.0046853264938824931 0 0.016619535760166192 -0.0048280316192158739 0 0.016391712261433985 -0.0044477374578976115 0 0.015913936031158423 -0.0045543292177102918 0 0.016238505360484139 -0.0046853264938824931 0 0.016158389849624307 -0.0042516472478400661 0 0.016153123720061426 -0.0045324161065165829 0 0.016043637321765804 -0.0048983500501588537 0 0.016238505360484139 -0.0046853264938824931 0 0.016332660868265486 -0.0049908696760968983 0 0.016238505360484139 -0.0046853264938824931 0 0.016332660868265486 -0.0049908696760968983 0 0.016619535760166192 -0.0048280316192158739 0 0.016332660868265486 -0.0049908696760968983 0 0.016481861151531156 -0.0052574716000815397 0 0.015959576312453864 -0.0053745436546833239 0 0.016725573645173599 -0.0054093263649474393 0 0.015956215378626994 -0.0054742743234658794 0 0.016332660868265486 -0.0049908696760968983 0 0.016481861151531156 -0.0052574716000815397 0 0.016619535760166192 -0.0048280316192158739 0 0.016043637321765804 -0.0048983500501588537 0 0.015747192121409716 -0.0049328354434394024 0 0.015959576312453864 -0.0053745436546833239 0 0.016043637321765804 -0.0048983500501588537 0 0.016332660868265486 -0.0049908696760968983 0 0.015959576312453864 -0.0053745436546833239 0 0.015747192121409716 -0.0049328354434394024 0 0.015959576312453864 -0.0053745436546833239 0 0.015480022381292469 -0.0055608454359961723 0 0.015956215378626994 -0.0054742743234658794 0 0.015525012285079843 -0.0055482926907788133 0 0.015747192121409716 -0.0049328354434394024 0 0.015480022381292469 -0.0055608454359961723 0 0.015384204953037018 -0.0048178301528658245 0 0.015679900225806908 -0.0043613823600745193 0 0.015747192121409716 -0.0049328354434394024 0 0.015384204953037018 -0.0048178301528658245 0 0.014999869384125446 -0.0046088785716705237 0 0.015384204953037018 -0.0048178301528658245 0 0.014999900167820933 -0.0054861374268455948 0 0.015480022381292469 -0.0055608454359961723 0 0.015384204953037018 -0.0048178301528658245 0 0.014999900167820933 -0.0054861374268455948 0 0.015480022381292469 -0.0055608454359961723 0 0.014999900167820933 -0.0054861374268455948 0 0.015433241790226411 -0.0061062050197670274 0 0.014999900167820933 -0.0054861374268455948 0 0.015433241790226411 -0.0061062050197670274 0 0.014999948393049337 -0.0063634765586896317 0 0.01605838126719494 -0.0055647281497434725 0 0.015480022381292469 -0.0055608454359961723 0 0.015822716038686915 -0.0059618651846944197 0 0.015480022381292469 -0.0055608454359961723 0 0.015822716038686915 -0.0059618651846944197 0 0.015433241790226411 -0.0061062050197670274 0 0.015822716038686915 -0.0059618651846944197 0 0.015433241790226411 -0.0061062050197670274 0 0.015873712258522528 -0.0064612208934629115 0 0.015433241790226411 -0.0061062050197670274 0 0.015461772882151696 -0.0067953473128925064 0 0.015873712258522528 -0.0064612208934629115 0 0.015433241790226411 -0.0061062050197670274 0 0.014999948393049337 -0.0063634765586896317 0 0.015461772882151696 -0.0067953473128925064 0 0.014999948393049337 -0.0063634765586896317 0 0.015461772882151696 -0.0067953473128925064 0 0.014999952727478368 -0.0072406727252607396 0 0.015461772882151696 -0.0067953473128925064 0 0.015962287701953428 -0.0070869617611839042 0 0.015873712258522528 -0.0064612208934629115 0 0.015550025600523902 -0.0075132492062074683 0 0.015461772882151696 -0.0067953473128925064 0 0.015962287701953428 -0.0070869617611839042 0 0.015550025600523902 -0.0075132492062074683 0 0.015461772882151696 -0.0067953473128925064 0 0.014999952727478368 -0.0072406727252607396 0 0.016350321174184446 -0.0072416589768723666 0 0.016609329300958615 -0.0073839347039904345 0 0.016635947942805821 -0.0070307783563726117 0 0.01640415169830339 -0.0075402076763382668 0 0.016350321174184446 -0.0072416589768723666 0 0.016609329300958615 -0.0073839347039904345 0 0.016350321174184446 -0.0072416589768723666 0 0.015962287701953428 -0.0070869617611839042 0 0.016295688232599168 -0.00675177072067807 0 0.016057488509953199 -0.0076183272268639367 0 0.015550025600523902 -0.0075132492062074683 0 0.015962287701953428 -0.0070869617611839042 0 0.016057488509953199 -0.0076183272268639367 0 0.016350321174184446 -0.0072416589768723666 0 0.015962287701953428 -0.0070869617611839042 0 0.015962287701953428 -0.0070869617611839042 0 0.016295688232599168 -0.00675177072067807 0 0.015873712258522528 -0.0064612208934629115 0 0.016295688232599168 -0.00675177072067807 0 0.016703510017173913 -0.0065537142344301936 0 0.016635947942805821 -0.0070307783563726117 0 0.016350321174184446 -0.0072416589768723666 0 0.016295688232599168 -0.00675177072067807 0 0.016635947942805821 -0.0070307783563726117 0 0.016295688232599168 -0.00675177072067807 0 0.016304017887626393 -0.0061195837214630113 0 0.016703510017173913 -0.0065537142344301936 0 0.016304017887626393 -0.0061195837214630113 0 0.016774647023816657 -0.0060699631290364198 0 0.016703510017173913 -0.0065537142344301936 0 0.016295688232599168 -0.00675177072067807 0 0.016304017887626393 -0.0061195837214630113 0 0.015873712258522528 -0.0064612208934629115 0 0.015822716038686915 -0.0059618651846944197 0 0.016304017887626393 -0.0061195837214630113 0 0.015873712258522528 -0.0064612208934629115 0 0.01605838126719494 -0.0055647281497434725 0 0.015822716038686915 -0.0059618651846944197 0 0.016304017887626393 -0.0061195837214630113 0 0.016609151423330346 -0.0055090399109056715 0 0.01605838126719494 -0.0055647281497434725 0 0.016304017887626393 -0.0061195837214630113 0 0.016609151423330346 -0.0055090399109056715 0 0.016304017887626393 -0.0061195837214630113 0 0.016774647023816657 -0.0060699631290364198 0 0.016609151423330346 -0.0055090399109056715 0 0.016774647023816657 -0.0060699631290364198 0 0.017144776922150232 -0.0058711389417654509 0 0.016774647023816657 -0.0060699631290364198 0 0.017144776922150232 -0.0058711389417654509 0 0.017122725573249988 -0.006318393796761441 0 0.015122634959261708 -0.0035995721905144936 0 0.015151201499510545 -0.0032647315544552845 0 0.014556342858781152 -0.0035453546577110034 0 0.015122634959261708 -0.0035995721905144936 0 0.014556342858781152 -0.0035453546577110034 0 0.014819548542790106 -0.0037673816629972155 0 0.016138712825793589 -0.0047364804298313488 0 0.016306033308706645 -0.0048615277768026396 0 0.016306033308706645 -0.0048615277768026396 0 0.015196646343148049 -0.0037377189741643717 0 0.01637551161305913 -0.003883964533498326 0 0.016548218818013511 -0.0038944867513451527 0 0.016233060409413639 -0.0039898873449365317 0 0.016774647023816657 -0.0060699631290364198 0 0.017122725573249988 -0.006318393796761441 0 0.016703510017173913 -0.0065537142344301936 0 0.016306033308706645 -0.0048615277768026396 0 0.016727566276318821 -0.006461950165708755 0 0.017086454755880387 -0.0063384235211201368 0 0.016703510017173913 -0.0065537142344301936 0 0.017031655087616195 -0.0069494284666389503 0 0.016703510017173913 -0.0065537142344301936 0 0.017031655087616195 -0.0069494284666389503 0 0.016635947942805821 -0.0070307783563726117 0 0.016306033308706645 -0.0048615277768026396 0 0.01655106407447908 -0.0056897731260490813 0 0.01637551161305913 -0.003883964533498326 0 0.015996573510920657 -0.0042491270856409224 0 0.016548218818013511 -0.0038944867513451527 0 0.015996573510920657 -0.0042491270856409224 0 0.016548218818013511 -0.0038944867513451527 0 0.016468710508427679 -0.0051184130013304874 0 0.015864211879171544 -0.0059536090923748338 0 0.015996573510920657 -0.0042491270856409224 0 0.016468710508427679 -0.0051184130013304874 0 0.016372117503064505 -0.0066980956063083146 0 0.01655106407447908 -0.0056897731260490813 0 0.016865339347666548 -0.0075523642373315821 0 0.017031655087616195 -0.0069494284666389503 0 0.016774665981590008 -0.0072910016709410129 0 0.016609329300958615 -0.0073839347039904345 0 0.016774665981590008 -0.0072910016709410129 0 0.016635947942805821 -0.0070307783563726117 0 0.01673537764638099 -0.0075013735571549372 0 0.016609329300958615 -0.0073839347039904345 0 0.016774665981590008 -0.0072910016709410129 0 0.017031655087616195 -0.0069494284666389503 0 0.016774665981590008 -0.0072910016709410129 0 0.016635947942805821 -0.0070307783563726117 0 0.015929532867700262 -0.0029536528589658973 0 0.015613639967305696 -0.0035398585770039541 0 0.015093074408785833 -0.0033789315454098717 0 0.015987990919124007 -0.0049740021756012028 0 0.013412591683603084 -0.0040436555671064887 0 0.015929532867700262 -0.0029536528589658973 0 0.015989848066353708 -0.0036241689767825018 0 0.015613639967305696 -0.0035398585770039541 0 0.016548218818013511 -0.0038944867513451527 0 0.015929532867700262 -0.0029536528589658973 0 0.015989848066353708 -0.0036241689767825018 0 0.017144913084052679 -0.0061156036766172525 0 0.016468710508427679 -0.0051184130013304874 0 0.018124596944006564 -0.0053948104142825352 0 0.016828075556515217 -0.0037380308326975639 0 0.015987990919124007 -0.0049740021756012028 0 0.016548218818013511 -0.0038944867513451527 0 0.016468710508427679 -0.0051184130013304874 0 0.018124596944006564 -0.0053948104142825352 0 0.016548218818013511 -0.0038944867513451527 0 0.016145142828887085 -0.0038552619321331771 0 0.016233060409413639 -0.0039898873449365317 0 0.016548218818013511 -0.0038944867513451527 0 0.015989848066353708 -0.0036241689767825018 0 0.016145142828887085 -0.0038552619321331771 0 0.015989848066353708 -0.0036241689767825018 0 0.016145142828887085 -0.0038552619321331771 0 0.015816031118975921 -0.0038409761729239671 0 0.015989848066353708 -0.0036241689767825018 0 0.015613639967305696 -0.0035398585770039541 0 0.015816031118975921 -0.0038409761729239671 0 0.015613639967305696 -0.0035398585770039541 0 0.015422098330171106 -0.0039216056789250784 0 0.015093074408785833 -0.0033789315454098717 0 0.015613639967305696 -0.0035398585770039541 0 0.015422098330171106 -0.0039216056789250784 0 0.015816031118975921 -0.0038409761729239671 0 0.015422098330171106 -0.0039216056789250784 0 0.016006891817092247 -0.0043259391387097182 0 0.015384297711917225 -0.0042142521452049452 0 0.015422098330171106 -0.0039216056789250784 0 0.015816031118975921 -0.0038409761729239671 0 0.016006891817092247 -0.0043259391387097182 0 0.01637551161305913 -0.003883964533498326 0 0.016233060409413639 -0.0039898873449365317 0 0.016006891817092247 -0.0043259391387097182 0 0.015816031118975921 -0.0038409761729239671 0 0.016233060409413639 -0.0039898873449365317 0 0.016006891817092247 -0.0043259391387097182 0 0.016145142828887085 -0.0038552619321331771 0 0.015816031118975921 -0.0038409761729239671 0 0.016233060409413639 -0.0039898873449365317 0 0.014556342858781152 -0.0035453546577110034 0 0.01452994532737305 -0.0038184423432633076 0 0.014819548542790106 -0.0037673816629972155 0 0.015196646343148049 -0.0037377189741643717 0 0.014565600586008091 -0.0042333296114354484 0 0.016006891817092247 -0.0043259391387097182 0 0.015384297711917225 -0.0042142521452049452 0 0.015082043609989073 -0.0046101207286066807 0 0.014556342858781152 -0.0035453546577110034 0 0.01424028033078485 -0.0038259258679613668 0 0.014000936509634269 -0.003817284441834802 0 0.014556342858781152 -0.0035453546577110034 0 0.01424028033078485 -0.0038259258679613668 0 0.01452994532737305 -0.0038184423432633076 0 0.01424028033078485 -0.0038259258679613668 0 0.014297274719196819 -0.0039915027789961836 0 0.014244585662742199 -0.0043379535276383665 0 0.01424028033078485 -0.0038259258679613668 0 0.014297274719196819 -0.0039915027789961836 0 0.01452994532737305 -0.0038184423432633076 0 0.014234293086894776 -0.003776720383801203 0 0.01416583405178239 -0.0043785057505900627 0 0.014297274719196819 -0.0039915027789961836 0 0.014244585662742199 -0.0043379535276383665 0 0.014501269607661413 -0.0042384441033825604 0 0.01424028033078485 -0.0038259258679613668 0 0.014104295969459276 -0.0041189445110120489 0 0.01406528994450512 -0.0039616756666446002 0 0.014244585662742199 -0.0043379535276383665 0 0.014501269607661413 -0.0042384441033825604 0 0.014470286586402727 -0.0045070267849572649 0 0.014297274719196819 -0.0039915027789961836 0 0.014501269607661413 -0.0042384441033825604 0 0.014703141894918137 -0.0039409838939088934 0 0.014501269607661413 -0.0042384441033825604 0 0.014703141894918137 -0.0039409838939088934 0 0.014762607707217965 -0.0043993793355656214 0 0.014501269607661413 -0.0042384441033825604 0 0.014470286586402727 -0.0045070267849572649 0 0.014762607707217965 -0.0043993793355656214 0 0.014297274719196819 -0.0039915027789961836 0 0.014691264630946369 -0.0039731276737061238 0 0.01452994532737305 -0.0038184423432633076 0 0.014401516493382982 -0.003983731289763013 0 0.014520880497334819 -0.0039616541024517695 0 0.014691264630946369 -0.0039731276737061238 0 0.01452994532737305 -0.0038184423432633076 0 0.014819548542790106 -0.0037673816629972155 0 0.015122634959261708 -0.0035995721905144936 0 0.014819548542790106 -0.0037673816629972155 0 0.015100317246488072 -0.0039401819054571971 0 0.014691264630946369 -0.0039731276737061238 0 0.014819548542790106 -0.0037673816629972155 0 0.015100317246488072 -0.0039401819054571971 0 0.016138712825793589 -0.0047364804298313488 0 0.016100595294061139 -0.0046268183743203017 0 0.014703141894918137 -0.0039409838939088934 0 0.015098071333088598 -0.003898268718862897 0 0.015071231604857124 -0.0042583872938582847 0 0.014520880497334819 -0.0039616541024517695 0 0.016100595294061139 -0.0046268183743203017 0 0.016481861151531156 -0.0052574716000815397 0 0.016983559568294695 -0.0051791813799502975 0 0.016619535760166192 -0.0048280316192158739 0 0.016609151423330346 -0.0055090399109056715 0 0.017144776922150232 -0.0058711389417654509 0 0.017167487969227808 -0.0054372040062249886 0 0.016725573645173599 -0.0054093263649474393 0 0.016100595294061139 -0.0046268183743203017 0 0.016619535760166192 -0.0048280316192158739 0 0.017004721474087669 -0.0047556233489136016 0 0.017024438477407342 -0.0043364518254058659 0 0.016983559568294695 -0.0051791813799502975 0 0.016619535760166192 -0.0048280316192158739 0 0.017004721474087669 -0.0047556233489136016 0 0.014703141894918137 -0.0039409838939088934 0 0.015071231604857124 -0.0042583872938582847 0 0.014762607707217965 -0.0043993793355656214 0 0.016100595294061139 -0.0046268183743203017 0 0.016033658431906177 -0.0045575112573117563 0 0.016033658431906177 -0.0045575112573117563 0 0.015699265982835248 -0.0040629394132742792 0 0.015071231604857124 -0.0042583872938582847 0 0.015046073462073322 -0.0046133180489765788 0 0.014762607707217965 -0.0043993793355656214 0 0.015699265982835248 -0.0040629394132742792 0 0.014790163354296965 -0.0040631214139607028 0 0.016158389849624307 -0.0042516472478400661 0 0.016042466432394726 -0.0036514369191366714 0 0.015546130801661456 -0.0039237930444042043 0 0.015998474990749786 -0.0037911651572372206 0 0.015787884374878963 -0.0035279109315275291 0 0.016158389849624307 -0.0042516472478400661 0 0.015699265982835248 -0.0040629394132742792 0 0.016347954770750801 -0.0045224217122425067 0 0.016619535760166192 -0.0048280316192158739 0 0.017024438477407342 -0.0043364518254058659 0 0.014624204263954339 -0.0034897597065568033 0 0.014646372660134587 -0.0030471288383712497 0 0.015047318384671939 -0.0033658494878338629 0 0.015998474990749786 -0.0037911651572372206 0 0.015787884374878963 -0.0035279109315275291 0 0.016020479541351596 -0.0034578892747360161 0 0.015699265982835248 -0.0040629394132742792 0 0.015299971588321628 -0.0032075709643992175 0 0.014646372660134587 -0.0030471288383712497 0 0.015047318384671939 -0.0033658494878338629 0 0.015058468643116364 -0.0028921633601636742 0 0.014790163354296965 -0.0040631214139607028 0 0.014224865779070331 -0.0038663232078376408 0 0.015047318384671939 -0.0033658494878338629 0 0.015473431539776275 -0.003244809829710787 0 0.015058468643116364 -0.0028921633601636742 0 0.014244585662742199 -0.0043379535276383665 0 0.014224126413439094 -0.004828747347807482 0 0.014470286586402727 -0.0045070267849572649 0 0.01416583405178239 -0.0043785057505900627 0 0.014224865779070331 -0.0038663232078376408 0 0.014628042099709568 -0.004724246831984821 0 0.014224126413439094 -0.004828747347807482 0 0.014470286586402727 -0.0045070267849572649 0 0.014628042099709568 -0.004724246831984821 0 0.014470286586402727 -0.0045070267849572649 0 0.014762607707217965 -0.0043993793355656214 0 0.015046073462073322 -0.0046133180489765788 0 0.014628042099709568 -0.004724246831984821 0 0.014762607707217965 -0.0043993793355656214 0 0.013771489244458628 -0.0041573912647598901 0 0.013929746316048715 -0.0042185550987161027 0 0.013923465286018684 -0.0040543821750240235 0 0.013771489244458628 -0.0041573912647598901 0 0.013929746316048715 -0.0042185550987161027 0 0.013777295248007596 -0.004384851573249934 0 0.013771489244458628 -0.0041573912647598901 0 0.013777295248007596 -0.004384851573249934 0 0.013616447337690258 -0.0042407044942087821 0 0.014104295969459276 -0.0041189445110120489 0 0.014059808557654761 -0.0043420486506486004 0 0.013929746316048715 -0.0042185550987161027 0 0.014224865779070331 -0.0038663232078376408 0 0.013417930224108107 -0.0040171171273175868 0 0.014059808557654761 -0.0043420486506486004 0 0.013929746316048715 -0.0042185550987161027 0 0.013777295248007596 -0.004384851573249934 0 0.013777295248007596 -0.004384851573249934 0 0.013616447337690258 -0.0042407044942087821 0 0.013504611228680354 -0.0043540643211823103 0 0.013475458468378894 -0.0042936925116498223 0 0.013616447337690258 -0.0042407044942087821 0 0.013504611228680354 -0.0043540643211823103 0 0.013475458468378894 -0.0042936925116498223 0 0.013437460374115794 -0.0042746286667736232 0 0.013504611228680354 -0.0043540643211823103 0 0.013475458468378894 -0.0042936925116498223 0 0.013505545969643368 -0.0041752385277940762 0 0.013616447337690258 -0.0042407044942087821 0 0.013505545969643368 -0.0041752385277940762 0 0.013616447337690258 -0.0042407044942087821 0 0.01369497968417813 -0.0040130269964566917 0 0.013771489244458628 -0.0041573912647598901 0 0.013616447337690258 -0.0042407044942087821 0 0.01369497968417813 -0.0040130269964566917 0 0.013620976994027797 -0.0043985470045292416 0 0.014020892042852678 -0.0043312487005290621 0 0.013698583791509934 -0.0046269422614560471 0 0.013974761772422279 -0.0045242047072388252 0 0.013741262203161618 -0.0044887457996769251 0 0.013698583791509934 -0.0046269422614560471 0 0.014319883098681631 -0.0046757674306853987 0 0.013974761772422279 -0.0045242047072388252 0 0.013698583791509934 -0.0046269422614560471 0 0.013741262203161618 -0.0044887457996769251 0 0.013593920770531776 -0.004511599209463469 0 0.013436175633297449 -0.0044640872719376966 0 0.013438991150174613 -0.0043747698874698126 0 0.013445327305015124 -0.0044012654545840966 0 0.013974761772422279 -0.0045242047072388252 0 0.013741262203161618 -0.0044887457996769251 0 0.013891556674816412 -0.0043521729529960498 0 0.013891556674816412 -0.0043521729529960498 0 0.014254076457824737 -0.0044392275017659834 0 0.014403518497664738 -0.0041502269034198059 0 0.014319883098681631 -0.0046757674306853987 0 0.014254076457824737 -0.0044392275017659834 0 0.014579728003457103 -0.0044303190891514192 0 0.013974761772422279 -0.0045242047072388252 0 0.013891556674816412 -0.0043521729529960498 0 0.014254076457824737 -0.0044392275017659834 0 0.014319883098681631 -0.0046757674306853987 0 0.013974761772422279 -0.0045242047072388252 0 0.014254076457824737 -0.0044392275017659834 0 0.014319883098681631 -0.0046757674306853987 0 0.014579728003457103 -0.0044303190891514192 0 0.015082043609989073 -0.0046101207286066807 0 0.01369497968417813 -0.0040130269964566917 0 0.013923465286018684 -0.0040543821750240235 0 0.014000936509634269 -0.003817284441834802 0 0.014020892042852678 -0.0043312487005290621 0 0.014565600586008091 -0.0042333296114354484 0 0.013771489244458628 -0.0041573912647598901 0 0.01369497968417813 -0.0040130269964566917 0 0.013923465286018684 -0.0040543821750240235 0 0.014104295969459276 -0.0041189445110120489 0 0.013923465286018684 -0.0040543821750240235 0 0.01406528994450512 -0.0039616756666446002 0 0.014104295969459276 -0.0041189445110120489 0 0.013929746316048715 -0.0042185550987161027 0 0.013923465286018684 -0.0040543821750240235 0 0.013923465286018684 -0.0040543821750240235 0 0.01406528994450512 -0.0039616756666446002 0 0.014000936509634269 -0.003817284441834802 0 0.01424028033078485 -0.0038259258679613668 0 0.01406528994450512 -0.0039616756666446002 0 0.014000936509634269 -0.003817284441834802 0 0.014579728003457103 -0.0044303190891514192 0 0.015082043609989073 -0.0046101207286066807 0 0.014881691238977613 -0.0042636494304124431 0 0.015384297711917225 -0.0042142521452049452 0 0.015082043609989073 -0.0046101207286066807 0 0.014881691238977613 -0.0042636494304124431 0 0.014579728003457103 -0.0044303190891514192 0 0.014881691238977613 -0.0042636494304124431 0 0.014403518497664738 -0.0041502269034198059 0 0.014881691238977613 -0.0042636494304124431 0 0.014979352425278699 -0.0038558633319964362 0 0.014403518497664738 -0.0041502269034198059 0 0.014929512473521441 -0.0038599594340456549 0 0.014271381198575343 -0.0041952984171389623 0 0.014979352425278699 -0.0038558633319964362 0 0.014151553964612795 -0.0037033068500779334 0 0.014110399960935821 -0.0042651083031852678 0 0.015384297711917225 -0.0042142521452049452 0 0.014881691238977613 -0.0042636494304124431 0 0.014979352425278699 -0.0038558633319964362 0 0.015422098330171106 -0.0039216056789250784 0 0.015384297711917225 -0.0042142521452049452 0 0.014979352425278699 -0.0038558633319964362 0 0.015422098330171106 -0.0039216056789250784 0 0.014979352425278699 -0.0038558633319964362 0 0.015093074408785833 -0.0033789315454098717 0 0.013412591683603084 -0.0040436555671064887 0 0.013328742998503111 -0.0042617272786282792 0 0.012403526728079836 -0.0049079121979776139 0 0.012395930294563314 -0.0048781375290147914 0 0.012382779286873841 -0.004812379475973687 0 0.014979352425278699 -0.0038558633319964362 0 0.015093074408785833 -0.0033789315454098717 0 0.014151553964612795 -0.0037033068500779334 0 0.012409679989972553 -0.0049397579783038385 0 0.012412268958330776 -0.0049481498699658327 0 0.012402355975335509 -0.0049154934585616452 0 0.012403526728079836 -0.0049079121979776139 0 0.012395930294563314 -0.0048781375290147914 0 0.012402355975335509 -0.0049154934585616452 0 0.012395930294563314 -0.0048781375290147914 0 0.012402355975335509 -0.0049154934585616452 0 0.012406721090775374 -0.0049088024818983644 0 0.012412268958330776 -0.0049481498699658327 0 0.012402355975335509 -0.0049154934585616452 0 0.012406721090775374 -0.0049088024818983644 0 0.012409679989972553 -0.0049397579783038385 0 0.012437055882816012 -0.0049419947466613472 0 0.012403526728079836 -0.0049079121979776139 0 0.012409679989972553 -0.0049397579783038385 0 0.012403526728079836 -0.0049079121979776139 0 0.012402355975335509 -0.0049154934585616452 0 0.012471607383793864 -0.0049270159293487003 0 0.012425545586678327 -0.0049095736019535777 0 0.012457665551834949 -0.0048258864123814438 0 0.011351527794172263 -0.0062716607438253755 0 0.012437461708076195 -0.0043995986085463091 0 0.01243614869673201 -0.0049581828340841379 0 0.012471607383793864 -0.0049270159293487003 0 0.012425545586678327 -0.0049095736019535777 0 0.012420891487098063 -0.0049529935564609573 0 0.012425545586678327 -0.0049095736019535777 0 0.012406721090775374 -0.0049088024818983644 0 0.012395930294563314 -0.0048781375290147914 0 0.012406721090775374 -0.0049088024818983644 0 0.012398377826131089 -0.0048467845992551219 0 0.012425545586678327 -0.0049095736019535777 0 0.012406721090775374 -0.0049088024818983644 0 0.012398377826131089 -0.0048467845992551219 0 0.012398377826131089 -0.0048467845992551219 0 0.012381815310826274 -0.0047532732177438556 0 0.012382779286873841 -0.004812379475973687 0 0.012395930294563314 -0.0048781375290147914 0 0.012398377826131089 -0.0048467845992551219 0 0.012382779286873841 -0.004812379475973687 0 0.012398377826131089 -0.0048467845992551219 0 0.012457665551834949 -0.0048258864123814438 0 0.012381815310826274 -0.0047532732177438556 0 0.012425545586678327 -0.0049095736019535777 0 0.012398377826131089 -0.0048467845992551219 0 0.012457665551834949 -0.0048258864123814438 0 0.012457665551834949 -0.0048258864123814438 0 0.012381815310826274 -0.0047532732177438556 0 0.012362139412220721 -0.0046561474513463616 0 0.012437461708076195 -0.0043995986085463091 0 0.012360362429486554 -0.0047893715058975736 0 0.012381815310826274 -0.0047532732177438556 0 0.012362139412220721 -0.0046561474513463616 0 0.012357974600970002 -0.0046621818556045304 0 0.012381815310826274 -0.0047532732177438556 0 0.012382779286873841 -0.004812379475973687 0 0.012357974600970002 -0.0046621818556045304 0 0.013328742998503111 -0.0042617272786282792 0 0.012783756238322766 -0.0043518640206539729 0 0.014151553964612795 -0.0037033068500779334 0 0.013738366116764116 -0.0040971054212586245 0 0.013249644231940373 -0.0040310294443483942 0 0.014151553964612795 -0.0037033068500779334 0 0.014110399960935821 -0.0042651083031852678 0 0.013738366116764116 -0.0040971054212586245 0 0.013670984809713602 -0.0044088503189680019 0 0.014271381198575343 -0.0041952984171389623 0 0.014110399960935821 -0.0042651083031852678 0 0.013738366116764116 -0.0040971054212586245 0 0.013438991150174613 -0.0043747698874698126 0 0.014254076457824737 -0.0044392275017659834 0 0.014579728003457103 -0.0044303190891514192 0 0.014403518497664738 -0.0041502269034198059 0 0.013436175633297449 -0.0044640872719376966 0 0.014110399960935821 -0.0042651083031852678 0 0.013438991150174613 -0.0043747698874698126 0 0.013738366116764116 -0.0040971054212586245 0 0.013249644231940373 -0.0040310294443483942 0 0.013438991150174613 -0.0043747698874698126 0 0.013249644231940373 -0.0040310294443483942 0 0.013438991150174613 -0.0043747698874698126 0 0.012871573889562395 -0.0043495527381224039 0 0.012783756238322766 -0.0043518640206539729 0 0.012327522086977898 -0.0045009868815162344 0 0.012357974600970002 -0.0046621818556045304 0 0.012307231698350877 -0.0045899735452116577 0 0.012285533279386005 -0.0044998978465500949 0 0.013249644231940373 -0.0040310294443483942 0 0.012871573889562395 -0.0043495527381224039 0 0.012285533279386005 -0.0044998978465500949 0 0.013438991150174613 -0.0043747698874698126 0 0.012871573889562395 -0.0043495527381224039 0 0.01272336611756137 -0.0044671172889975772 0 0.012357974600970002 -0.0046621818556045304 0 0.012307231698350877 -0.0045899735452116577 0 0.012326239752019623 -0.0046258237169505044 0 0.012307231698350877 -0.0045899735452116577 0 0.012326239752019623 -0.0046258237169505044 0 0.012292670492815527 -0.0045972007489807802 0 0.012273456071737068 -0.0045764266873739327 0 0.01224466797967903 -0.0045350275084918108 0 0.012285533279386005 -0.0044998978465500949 0 0.012307231698350877 -0.0045899735452116577 0 0.012273456071737068 -0.0045764266873739327 0 0.012285533279386005 -0.0044998978465500949 0 0.012307231698350877 -0.0045899735452116577 0 0.012273456071737068 -0.0045764266873739327 0 0.012292670492815527 -0.0045972007489807802 0 0.012273456071737068 -0.0045764266873739327 0 0.012258260828929933 -0.0045896958132805874 0 0.012229509300872625 -0.0045992138985905436 0 0.012273456071737068 -0.0045764266873739327 0 0.012258260828929933 -0.0045896958132805874 0 0.012277638528223939 -0.0045944542616628663 0 0.012273456071737068 -0.0045764266873739327 0 0.012277638528223939 -0.0045944542616628663 0 0.012292670492815527 -0.0045972007489807802 0 0.012277638528223939 -0.0045944542616628663 0 0.012285351498635093 -0.0045906682177627731 0 0.012266918694684969 -0.0045881927751680596 0 0.012258260828929933 -0.0045896958132805874 0 0.012277638528223939 -0.0045944542616628663 0 0.012266918694684969 -0.0045881927751680596 0 0.012299401680460969 -0.0045826021420308487 0 0.012362139412220721 -0.0046561474513463616 0 0.012303010524929643 -0.0046086806451168302 0 0.012362139412220721 -0.0046561474513463616 0 0.012357974600970002 -0.0046621818556045304 0 0.012326239752019623 -0.0046258237169505044 0 0.012362139412220721 -0.0046561474513463616 0 0.012326239752019623 -0.0046258237169505044 0 0.012303010524929643 -0.0046086806451168302 0 0.012326239752019623 -0.0046258237169505044 0 0.012292670492815527 -0.0045972007489807802 0 0.012303010524929643 -0.0046086806451168302 0 0.012277638528223939 -0.0045944542616628663 0 0.012292670492815527 -0.0045972007489807802 0 0.012303010524929643 -0.0046086806451168302 0 0.012277638528223939 -0.0045944542616628663 0 0.012303010524929643 -0.0046086806451168302 0 0.012285351498635093 -0.0045906682177627731 0 0.012299401680460969 -0.0045826021420308487 0 0.012284930780497347 -0.0045880232108152863 0 0.012285351498635093 -0.0045906682177627731 0 0.012299401680460969 -0.0045826021420308487 0 0.012303010524929643 -0.0046086806451168302 0 0.012285351498635093 -0.0045906682177627731 0 0.012284930780497347 -0.0045880232108152863 0 0.012285351498635093 -0.0045906682177627731 0 0.012279688200645487 -0.0045871774754922944 0 0.012285351498635093 -0.0045906682177627731 0 0.012279688200645487 -0.0045871774754922944 0 0.012266918694684969 -0.0045881927751680596 0 0.012266918694684969 -0.0045881927751680596 0 0.012276633436499632 -0.0045845896493935997 0 0.012231854785241679 -0.0045857106041215017 0 0.010705762544603882 -0.0055958822381672072 0 0.011599691498570649 -0.0050429120550332706 0 0.0099488094898950562 -0.0063631163025882282 0 0.0094580614666366497 -0.0065870389975658554 0 0.010882219876601294 -0.0054945940952488203 0 0.012279688200645487 -0.0045871774754922944 0 0.012266918694684969 -0.0045881927751680596 0 0.012276633436499632 -0.0045845896493935997 0 0.0099488094898950562 -0.0063631163025882282 0 0.0094580614666366497 -0.0065870389975658554 0 0.0098157669718333587 -0.0068748178218260604 0 0.012284930780497347 -0.0045880232108152863 0 0.012279688200645487 -0.0045871774754922944 0 0.012276633436499632 -0.0045845896493935997 0 0.0094580614666366497 -0.0065870389975658554 0 0.0098157669718333587 -0.0068748178218260604 0 0.0095241916919614165 -0.0072270733563549565 0 0.0094580614666366497 -0.0065870389975658554 0 0.0095241916919614165 -0.0072270733563549565 0 0.0091129005254564962 -0.0074439914425622703 0 0.0098157669718333587 -0.0068748178218260604 0 0.0099028829305196527 -0.0071813559015458097 0 0.01024590068972946 -0.0071871133779551006 0 0.0099488094898950562 -0.0063631163025882282 0 0.0098157669718333587 -0.0068748178218260604 0 0.01024590068972946 -0.0071871133779551006 0 0.0098157669718333587 -0.0068748178218260604 0 0.0099028829305196527 -0.0071813559015458097 0 0.0095241916919614165 -0.0072270733563549565 0 0.0097233445369675885 -0.007588435035141089 0 0.0099028829305196527 -0.0071813559015458097 0 0.0095241916919614165 -0.0072270733563549565 0 0.0097233445369675885 -0.007588435035141089 0 0.0099028829305196527 -0.0071813559015458097 0 0.0099999675938444374 -0.0074461176407621642 0 0.009387925416152158 -0.0077648841635014655 0 0.0097233445369675885 -0.007588435035141089 0 0.0095241916919614165 -0.0072270733563549565 0 0.009387925416152158 -0.0077648841635014655 0 0.0095241916919614165 -0.0072270733563549565 0 0.0091129005254564962 -0.0074439914425622703 0 0.012277516148330052 -0.0046092157822606693 0 0.012299401680460969 -0.0045826021420308487 0 0.012284930780497347 -0.0045880232108152863 0 0.012277516148330052 -0.0046092157822606693 0 0.012284930780497347 -0.0045880232108152863 0 0.012276633436499632 -0.0045845896493935997 0 0.011351527794172263 -0.0062716607438253755 0 0.010705762544603882 -0.0055958822381672072 0 0.0084502278382783819 -0.0074617738205531078 0 0.0094580614666366497 -0.0065870389975658554 0 0.0091129005254564962 -0.0074439914425622703 0 0.010622264247824033 -0.0078461779672516409 0 0.011516854854012049 -0.0080353450056163348 0 0.011084170442068417 -0.0067942936245996644 0 0.010622264247824033 -0.0078461779672516409 0 0.011084170442068417 -0.0067942936245996644 0 0.01024590068972946 -0.0071871133779551006 0 0.0099488094898950562 -0.0063631163025882282 0 0.011084170442068417 -0.0067942936245996644 0 0.01024590068972946 -0.0071871133779551006 0 0.010157542485754758 -0.0077469194688353678 0 0.0099999675938444374 -0.0074461176407621642 0 0.01024590068972946 -0.0071871133779551006 0 0.0099028829305196527 -0.0071813559015458097 0 0.0099999675938444374 -0.0074461176407621642 0 0.01024590068972946 -0.0071871133779551006 0 0.0099488094898950562 -0.0063631163025882282 0 0.011477178123718134 -0.0065016519896583559 0 0.010882219876601294 -0.0054945940952488203 0 0.0098843730642941951 -0.0063332110239298434 0 0.011563565144719307 -0.0067304760767088988 0 0.011477178123718134 -0.0065016519896583559 0 0.010882219876601294 -0.0054945940952488203 0 0.012275531004130841 -0.0057609710997049658 0 0.010882219876601294 -0.0054945940952488203 0 0.012184158211688164 -0.0047356754746209467 0 0.012275531004130841 -0.0057609710997049658 0 0.012231854785241679 -0.0045857106041215017 0 0.012229509300872625 -0.0045992138985905436 0 0.012184158211688164 -0.0047356754746209467 0 0.011599691498570649 -0.0050429120550332706 0 0.01212230229148136 -0.0047444950025650147 0 0.012258260828929933 -0.0045896958132805874 0 0.012266918694684969 -0.0045881927751680596 0 0.012231854785241679 -0.0045857106041215017 0 0.012258260828929933 -0.0045896958132805874 0 0.012231854785241679 -0.0045857106041215017 0 0.012229509300872625 -0.0045992138985905436 0 0.012229509300872625 -0.0045992138985905436 0 0.012213736307582481 -0.004528661075571672 0 0.01224466797967903 -0.0045350275084918108 0 0.012273456071737068 -0.0045764266873739327 0 0.012229509300872625 -0.0045992138985905436 0 0.01224466797967903 -0.0045350275084918108 0 0.012229509300872625 -0.0045992138985905436 0 0.012184158211688164 -0.0047356754746209467 0 0.012213736307582481 -0.004528661075571672 0 0.012184158211688164 -0.0047356754746209467 0 0.012213736307582481 -0.004528661075571672 0 0.012324528576317374 -0.0044908934288701505 0 0.012213736307582481 -0.004528661075571672 0 0.012237683740569142 -0.0043694107794583275 0 0.012324528576317374 -0.0044908934288701505 0 0.012237683740569142 -0.0043694107794583275 0 0.012225197469004785 -0.0042807847225000226 0 0.012214873282357602 -0.0041356335288337534 0 0.012237683740569142 -0.0043694107794583275 0 0.012225197469004785 -0.0042807847225000226 0 0.012239079907895944 -0.004482918415034824 0 0.012213736307582481 -0.004528661075571672 0 0.012237683740569142 -0.0043694107794583275 0 0.012239079907895944 -0.004482918415034824 0 0.012213736307582481 -0.004528661075571672 0 0.012239079907895944 -0.004482918415034824 0 0.01224466797967903 -0.0045350275084918108 0 0.012239079907895944 -0.004482918415034824 0 0.012263441482746036 -0.0045408671477556268 0 0.012355936666755107 -0.0046865930638199313 0 0.012263441482746036 -0.0045408671477556268 0 0.01224466797967903 -0.0045350275084918108 0 0.012285533279386005 -0.0044998978465500949 0 0.012239079907895944 -0.004482918415034824 0 0.012263441482746036 -0.0045408671477556268 0 0.01224466797967903 -0.0045350275084918108 0 0.012263441482746036 -0.0045408671477556268 0 0.012285533279386005 -0.0044998978465500949 0 0.012355936666755107 -0.0046865930638199313 0 0.012871573889562395 -0.0043495527381224039 0 0.012285533279386005 -0.0044998978465500949 0 0.01272336611756137 -0.0044671172889975772 0 0.013438991150174613 -0.0043747698874698126 0 0.01272336611756137 -0.0044671172889975772 0 0.012355936666755107 -0.0046865930638199313 0 0.013741262203161618 -0.0044887457996769251 0 0.013891556674816412 -0.0043521729529960498 0 0.013459939303121315 -0.0044153233802747419 0 0.013415958615059962 -0.0043664389107684765 0 0.012920355396203856 -0.0045128341921774609 0 0.013670984809713602 -0.0044088503189680019 0 0.013466698005015106 -0.004434525237550409 0 0.013436175633297449 -0.0044640872719376966 0 0.013445327305015124 -0.0044012654545840966 0 0.013459939303121315 -0.0044153233802747419 0 0.012285533279386005 -0.0044998978465500949 0 0.01272336611756137 -0.0044671172889975772 0 0.012355936666755107 -0.0046865930638199313 0 0.013698583791509934 -0.0046269422614560471 0 0.013593920770531776 -0.004511599209463469 0 0.01346837511133156 -0.0044842269162914863 0 0.013741262203161618 -0.0044887457996769251 0 0.013459939303121315 -0.0044153233802747419 0 0.013593920770531776 -0.004511599209463469 0 0.013459939303121315 -0.0044153233802747419 0 0.013593920770531776 -0.004511599209463469 0 0.01346837511133156 -0.0044842269162914863 0 0.013445327305015124 -0.0044012654545840966 0 0.013459939303121315 -0.0044153233802747419 0 0.01335105449609302 -0.0043943764665836729 0 0.012225197469004785 -0.0042807847225000226 0 0.012239079907895944 -0.004482918415034824 0 0.012355936666755107 -0.0046865930638199313 0 0.012659044134323907 -0.0042957969429243724 0 0.012920355396203856 -0.0045128341921774609 0 0.013113773814722594 -0.0042492552212697468 0 0.013445327305015124 -0.0044012654545840966 0 0.01335105449609302 -0.0043943764665836729 0 0.013459939303121315 -0.0044153233802747419 0 0.01335105449609302 -0.0043943764665836729 0 0.01346837511133156 -0.0044842269162914863 0 0.01335105449609302 -0.0043943764665836729 0 0.013252877066927933 -0.0044121627227845491 0 0.013357125346524595 -0.0044467616852229023 0 0.013113773814722594 -0.0042492552212697468 0 0.01335105449609302 -0.0043943764665836729 0 0.013252877066927933 -0.0044121627227845491 0 0.01335105449609302 -0.0043943764665836729 0 0.013357125346524595 -0.0044467616852229023 0 0.01346837511133156 -0.0044842269162914863 0 0.013357125346524595 -0.0044467616852229023 0 0.013346264769446455 -0.0044808482050659511 0 0.01346837511133156 -0.0044842269162914863 0 0.013252877066927933 -0.0044121627227845491 0 0.013357125346524595 -0.0044467616852229023 0 0.013346264769446455 -0.0044808482050659511 0 0.013698583791509934 -0.0046269422614560471 0 0.013346264769446455 -0.0044808482050659511 0 0.01346837511133156 -0.0044842269162914863 0 0.013505545969643368 -0.0041752385277940762 0 0.013415308237994384 -0.0044285756813624705 0 0.013346264769446455 -0.0044808482050659511 0 0.013620976994027797 -0.0043985470045292416 0 0.013377402088948281 -0.0044703210773700455 0 0.013475458468378894 -0.0042936925116498223 0 0.013505545969643368 -0.0041752385277940762 0 0.013415308237994384 -0.0044285756813624705 0 0.013475458468378894 -0.0042936925116498223 0 0.013415308237994384 -0.0044285756813624705 0 0.013437460374115794 -0.0042746286667736232 0 0.013355374860259752 -0.0044484913047642734 0 0.013605978467535597 -0.0045432322029449034 0 0.013415308237994384 -0.0044285756813624705 0 0.013346264769446455 -0.0044808482050659511 0 0.013006905597248085 -0.0048526300930129542 0 0.013415308237994384 -0.0044285756813624705 0 0.013873565746682271 -0.0041866554235374474 0 0.013572490159926445 -0.0041820943208705852 0 0.013415308237994384 -0.0044285756813624705 0 0.013437460374115794 -0.0042746286667736232 0 0.013572490159926445 -0.0041820943208705852 0 0.013006905597248085 -0.0048526300930129542 0 0.012663918993876195 -0.0046589120788688388 0 0.013020052908485716 -0.0045089322988998634 0 0.013346264769446455 -0.0044808482050659511 0 0.013006905597248085 -0.0048526300930129542 0 0.013020052908485716 -0.0045089322988998634 0 0.012663918993876195 -0.0046589120788688388 0 0.013020052908485716 -0.0045089322988998634 0 0.012288970478849052 -0.0043967711490989327 0 0.012663918993876195 -0.0046589120788688388 0 0.012305000705232235 -0.0046046361336427857 0 0.01231109367931418 -0.0052862799110672586 0 0.012663918993876195 -0.0046589120788688388 0 0.012305000705232235 -0.0046046361336427857 0 0.012288970478849052 -0.0043967711490989327 0 0.012659044134323907 -0.0042957969429243724 0 0.012293439208405784 -0.0044057383177704005 0 0.012225197469004785 -0.0042807847225000226 0 0.012214873282357602 -0.0041356335288337534 0 0.012288970478849052 -0.0043967711490989327 0 0.013113773814722594 -0.0042492552212697468 0 0.013020052908485716 -0.0045089322988998634 0 0.012288970478849052 -0.0043967711490989327 0 0.013252877066927933 -0.0044121627227845491 0 0.013346264769446455 -0.0044808482050659511 0 0.013020052908485716 -0.0045089322988998634 0 0.013113773814722594 -0.0042492552212697468 0 0.013252877066927933 -0.0044121627227845491 0 0.013020052908485716 -0.0045089322988998634 0 0.013825296615386588 -0.0037290672718900352 0 0.014053816881066073 -0.0036875844580681401 0 0.013903444062301609 -0.0033794975595836194 0 0.014053816881066073 -0.0036875844580681401 0 0.014265809752109023 -0.0038512544398200416 0 0.014238205857829565 -0.0035716816961659501 0 0.014053816881066073 -0.0036875844580681401 0 0.01409852480919397 -0.0034815922356506586 0 0.014238205857829565 -0.0035716816961659501 0 0.013006905597248085 -0.0048526300930129542 0 0.012663918993876195 -0.0046589120788688388 0 0.01231109367931418 -0.0052862799110672586 0 0.013873565746682271 -0.0041866554235374474 0 0.014053816881066073 -0.0036875844580681401 0 0.014265809752109023 -0.0038512544398200416 0 0.013605978467535597 -0.0045432322029449034 0 0.012350806490221794 -0.0041365723853385361 0 0.013873565746682271 -0.0041866554235374474 0 0.013825296615386588 -0.0037290672718900352 0 0.013572490159926445 -0.0041820943208705852 0 0.013873565746682271 -0.0041866554235374474 0 0.013825296615386588 -0.0037290672718900352 0 0.014053816881066073 -0.0036875844580681401 0 0.013825296615386588 -0.0037290672718900352 0 0.013572490159926445 -0.0041820943208705852 0 0.013442258102116711 -0.0041075163013643756 0 0.013437460374115794 -0.0042746286667736232 0 0.013442258102116711 -0.0041075163013643756 0 0.013504611228680354 -0.0043540643211823103 0 0.013437460374115794 -0.0042746286667736232 0 0.013572490159926445 -0.0041820943208705852 0 0.013442258102116711 -0.0041075163013643756 0 0.013644050171894875 -0.003598909186059744 0 0.013663530073455088 -0.0033973841827222239 0 0.013542508180843359 -0.0033049943436683151 0 0.013825296615386588 -0.0037290672718900352 0 0.013644050171894875 -0.003598909186059744 0 0.013663530073455088 -0.0033973841827222239 0 0.013831772246169691 -0.0037339473827788482 0 0.013564202258137922 -0.0038512485801503378 0 0.013525759010186577 -0.0032136869932173663 0 0.013661336359607545 -0.0030637785592453016 0 0.013512724323393422 -0.003006934281339847 0 0.013585125390780099 -0.0031605301540906143 0 0.013542508180843359 -0.0033049943436683151 0 0.013525759010186577 -0.0032136869932173663 0 0.013539086873415094 -0.0032848286384943399 0 0.013512724323393422 -0.003006934281339847 0 0.013585125390780099 -0.0031605301540906143 0 0.013451492449469008 -0.0030879941019936988 0 0.013585125390780099 -0.0031605301540906143 0 0.013451492449469008 -0.0030879941019936988 0 0.013668707094718855 -0.0031934841081147389 0 0.013512724323393422 -0.003006934281339847 0 0.013451492449469008 -0.0030879941019936988 0 0.013083237648993606 -0.0028371773118723922 0 0.013083237648993606 -0.0028371773118723922 0 0.01267301174702563 -0.0030710833240303621 0 0.013101196703831674 -0.0031704908407452887 0 0.013451492449469008 -0.0030879941019936988 0 0.013083237648993606 -0.0028371773118723922 0 0.013101196703831674 -0.0031704908407452887 0 0.013825296615386588 -0.0037290672718900352 0 0.013663530073455088 -0.0033973841827222239 0 0.013903444062301609 -0.0033794975595836194 0 0.014053816881066073 -0.0036875844580681401 0 0.013903444062301609 -0.0033794975595836194 0 0.01409852480919397 -0.0034815922356506586 0 0.013903444062301609 -0.0033794975595836194 0 0.01409852480919397 -0.0034815922356506586 0 0.014222590298021118 -0.0033351229807400073 0 0.013083237648993606 -0.0028371773118723922 0 0.01267301174702563 -0.0030710833240303621 0 0.012461743942676125 -0.002855694739694476 0 0.013661336359607545 -0.0030637785592453016 0 0.012541312125813589 -0.0035110129992255391 0 0.01267301174702563 -0.0030710833240303621 0 0.012682273499418027 -0.0033423402464176554 0 0.012396715535812161 -0.0032485976770277045 0 0.012682273499418027 -0.0033423402464176554 0 0.013101196703831674 -0.0031704908407452887 0 0.012988436978614655 -0.0033946709461072045 0 0.01267301174702563 -0.0030710833240303621 0 0.012682273499418027 -0.0033423402464176554 0 0.013101196703831674 -0.0031704908407452887 0 0.012682273499418027 -0.0033423402464176554 0 0.012988436978614655 -0.0033946709461072045 0 0.01263393353726169 -0.0035685801889685973 0 0.012682273499418027 -0.0033423402464176554 0 0.01263393353726169 -0.0035685801889685973 0 0.012412746471782634 -0.0034526546033968888 0 0.013101196703831674 -0.0031704908407452887 0 0.012988436978614655 -0.0033946709461072045 0 0.013668707094718855 -0.0031934841081147389 0 0.012988436978614655 -0.0033946709461072045 0 0.01304259248527764 -0.0036499425536269522 0 0.013668707094718855 -0.0031934841081147389 0 0.01304259248527764 -0.0036499425536269522 0 0.01263393353726169 -0.0035685801889685973 0 0.012472781259123536 -0.0039499173952987294 0 0.012988436978614655 -0.0033946709461072045 0 0.01304259248527764 -0.0036499425536269522 0 0.01263393353726169 -0.0035685801889685973 0 0.01304259248527764 -0.0036499425536269522 0 0.01300941153311551 -0.0040086943565176957 0 0.012659391525506975 -0.0038706911468580794 0 0.013011389659783334 -0.0036487295657361674 0 0.012596461466219159 -0.003967054608704044 0 0.01304259248527764 -0.0036499425536269522 0 0.01300941153311551 -0.0040086943565176957 0 0.01339304386085398 -0.0038623523891193287 0 0.01300941153311551 -0.0040086943565176957 0 0.012867389141100962 -0.0043349099731457234 0 0.013161643846948434 -0.0043171575218022467 0 0.01300941153311551 -0.0040086943565176957 0 0.01339304386085398 -0.0038623523891193287 0 0.013161643846948434 -0.0043171575218022467 0 0.01300941153311551 -0.0040086943565176957 0 0.012674448862976627 -0.0041309225891245265 0 0.012867389141100962 -0.0043349099731457234 0 0.01300941153311551 -0.0040086943565176957 0 0.012674448862976627 -0.0041309225891245265 0 0.012659391525506975 -0.0038706911468580794 0 0.01386357465728431 -0.0025612995149532254 0 0.013859389719413296 -0.0024464124341075592 0 0.013797901420456038 -0.0025346268228375779 0 0.013714080642712971 -0.0034164602356173451 0 0.013153083972361002 -0.00273853378889506 0 0.01386357465728431 -0.0025612995149532254 0 0.013797901420456038 -0.0025346268228375779 0 0.013993727435833771 -0.0024669977943131203 0 0.01386357465728431 -0.0025612995149532254 0 0.01396709416355753 -0.0027137928595533647 0 0.013993727435833771 -0.0024669977943131203 0 0.01386357465728431 -0.0025612995149532254 0 0.01396709416355753 -0.0027137928595533647 0 0.01372037039651881 -0.0028212482269962713 0 0.01386357465728431 -0.0025612995149532254 0 0.013859389719413296 -0.0024464124341075592 0 0.01372037039651881 -0.0028212482269962713 0 0.01396709416355753 -0.0027137928595533647 0 0.01372037039651881 -0.0028212482269962713 0 0.013668707094718855 -0.0031934841081147389 0 0.01372037039651881 -0.0028212482269962713 0 0.013668707094718855 -0.0031934841081147389 0 0.013525437419569918 -0.0031123490071655042 0 0.013714080642712971 -0.0034164602356173451 0 0.013673697963199652 -0.0031435325849465691 0 0.01304259248527764 -0.0036499425536269522 0 0.01339304386085398 -0.0038623523891193287 0 0.013668707094718855 -0.0031934841081147389 0 0.013451492449469008 -0.0030879941019936988 0 0.013101196703831674 -0.0031704908407452887 0 0.013668707094718855 -0.0031934841081147389 0 0.013585125390780099 -0.0031605301540906143 0 0.013668707094718855 -0.0031934841081147389 0 0.013525437419569918 -0.0031123490071655042 0 0.013525437419569918 -0.0031123490071655042 0 0.013352655237989853 -0.0030020017148547152 0 0.013367272396357408 -0.0031807701088971373 0 0.013525437419569918 -0.0031123490071655042 0 0.013352655237989853 -0.0030020017148547152 0 0.013480762750490238 -0.002790757640003411 0 0.014170966999428146 -0.0023122231413778261 0 0.013980861492796683 -0.0023367259865333225 0 0.01372037039651881 -0.0028212482269962713 0 0.013525437419569918 -0.0031123490071655042 0 0.013480762750490238 -0.002790757640003411 0 0.013859389719413296 -0.0024464124341075592 0 0.01372037039651881 -0.0028212482269962713 0 0.013480762750490238 -0.002790757640003411 0 0.013865020246765444 -0.0024352732307307548 0 0.013980861492796683 -0.0023367259865333225 0 0.014991090395948741 -0.0016251744857752985 0 0.014475035873163147 -0.0018414308318216461 0 0.014931902155964719 -0.0019644623522091001 0 0.014475035873163147 -0.0018414308318216461 0 0.014931902155964719 -0.0019644623522091001 0 0.01431921200990165 -0.0025879610101924881 0 0.01423189213524065 -0.00192605035518303 0 0.014922517999871435 -0.0018278534356188049 0 0.014931902155964719 -0.0019644623522091001 0 0.01431921200990165 -0.0025879610101924881 0 0.015081807426597255 -0.0022443441013565669 0 0.01423189213524065 -0.00192605035518303 0 0.01371028028289817 -0.0018139014949562445 0 0.013859389719413296 -0.0024464124341075592 0 0.014475035873163147 -0.0018414308318216461 0 0.01431921200990165 -0.0025879610101924881 0 0.013859389719413296 -0.0024464124341075592 0 0.01431921200990165 -0.0025879610101924881 0 0.013797901420456038 -0.0025346268228375779 0 0.015284746543549985 -0.0017864624444329281 0 0.014922517999871435 -0.0018278534356188049 0 0.015354942175364735 -0.0017804771917704499 0 0.015081807426597255 -0.0022443441013565669 0 0.015251052729907068 -0.0018628503947674087 0 0.014931902155964719 -0.0019644623522091001 0 0.015081807426597255 -0.0022443441013565669 0 0.015251052729907068 -0.0018628503947674087 0 0.014991090395948741 -0.0016251744857752985 0 0.014931902155964719 -0.0019644623522091001 0 0.015251052729907068 -0.0018628503947674087 0 0.015354942175364735 -0.0017804771917704499 0 0.015251052729907068 -0.0018628503947674087 0 0.015430108551632557 -0.0018174292759626034 0 0.015251052729907068 -0.0018628503947674087 0 0.015430108551632557 -0.0018174292759626034 0 0.015283649695264797 -0.0017113948057065323 0 0.015430108551632557 -0.0018174292759626034 0 0.015283649695264797 -0.0017113948057065323 0 0.015484533743600658 -0.0017386204588688229 0 0.014991090395948741 -0.0016251744857752985 0 0.015251052729907068 -0.0018628503947674087 0 0.015283649695264797 -0.0017113948057065323 0 0.014170966999428146 -0.0023122231413778261 0 0.01419302207199004 -0.0023927824748183136 0 0.014991090395948741 -0.0016251744857752985 0 0.015283649695264797 -0.0017113948057065323 0 0.015266059677133027 -0.0016070591738740101 0 0.013352655237989853 -0.0030020017148547152 0 0.013272140297595211 -0.0031298122895459888 0 0.013367272396357408 -0.0031807701088971373 0 0.015283649695264797 -0.0017113948057065323 0 0.015266059677133027 -0.0016070591738740101 0 0.015366472625104585 -0.0016862822555898155 0 0.015283649695264797 -0.0017113948057065323 0 0.015366472625104585 -0.0016862822555898155 0 0.015484533743600658 -0.0017386204588688229 0 0.015366472625104585 -0.0016862822555898155 0 0.015432927983997107 -0.0016827745184793406 0 0.015484533743600658 -0.0017386204588688229 0 0.015266059677133027 -0.0016070591738740101 0 0.015366472625104585 -0.0016862822555898155 0 0.015432927983997107 -0.0016827745184793406 0 0.015266059677133027 -0.0016070591738740101 0 0.015432927983997107 -0.0016827745184793406 0 0.015433907418093293 -0.0014847091819985029 0 0.013272140297595211 -0.0031298122895459888 0 0.013178165919486031 -0.0032435538494807845 0 0.01327670745325712 -0.0032400709599219491 0 0.01419302207199004 -0.0023927824748183136 0 0.014778295942704916 -0.0023779872914841743 0 0.015492233813274379 -0.0014468294631888687 0 0.014778295942704916 -0.0023779872914841743 0 0.013178165919486031 -0.0032435538494807845 0 0.013241772606638414 -0.0032847975393756773 0 0.013231586992779596 -0.0033500623987853823 0 0.013178165919486031 -0.0032435538494807845 0 0.013231586992779596 -0.0033500623987853823 0 0.013171943358682537 -0.0034452865547224556 0 0.013241772606638414 -0.0032847975393756773 0 0.013231586992779596 -0.0033500623987853823 0 0.013330250776932296 -0.003316754648236444 0 0.013178165919486031 -0.0032435538494807845 0 0.013241772606638414 -0.0032847975393756773 0 0.01327670745325712 -0.0032400709599219491 0 0.013241772606638414 -0.0032847975393756773 0 0.013330250776932296 -0.003316754648236444 0 0.01327670745325712 -0.0032400709599219491 0 0.013330250776932296 -0.003316754648236444 0 0.01327670745325712 -0.0032400709599219491 0 0.013367272396357408 -0.0031807701088971373 0 0.013272140297595211 -0.0031298122895459888 0 0.01327670745325712 -0.0032400709599219491 0 0.013367272396357408 -0.0031807701088971373 0 0.013525437419569918 -0.0031123490071655042 0 0.013367272396357408 -0.0031807701088971373 0 0.013459439143187715 -0.0032500083264958707 0 0.013330250776932296 -0.003316754648236444 0 0.013367272396357408 -0.0031807701088971373 0 0.013459439143187715 -0.0032500083264958707 0 0.013585125390780099 -0.0031605301540906143 0 0.013525437419569918 -0.0031123490071655042 0 0.013459439143187715 -0.0032500083264958707 0 0.013585125390780099 -0.0031605301540906143 0 0.013542508180843359 -0.0033049943436683151 0 0.013459439143187715 -0.0032500083264958707 0 0.013542508180843359 -0.0033049943436683151 0 0.013459439143187715 -0.0032500083264958707 0 0.01343977159137083 -0.0034267848762851842 0 0.013330250776932296 -0.003316754648236444 0 0.013459439143187715 -0.0032500083264958707 0 0.01343977159137083 -0.0034267848762851842 0 0.01343977159137083 -0.0034267848762851842 0 0.013479660759745649 -0.003569982642186231 0 0.013327949909289295 -0.0034498587184649465 0 0.013330250776932296 -0.003316754648236444 0 0.01343977159137083 -0.0034267848762851842 0 0.013327949909289295 -0.0034498587184649465 0 0.013644050171894875 -0.003598909186059744 0 0.01343977159137083 -0.0034267848762851842 0 0.013479660759745649 -0.003569982642186231 0 0.013644050171894875 -0.003598909186059744 0 0.013542508180843359 -0.0033049943436683151 0 0.01343977159137083 -0.0034267848762851842 0 0.013564202258137922 -0.0038512485801503378 0 0.013531967397929896 -0.0039467402834388113 0 0.013417930224108107 -0.0040171171273175868 0 0.013531967397929896 -0.0039467402834388113 0 0.013322346972834527 -0.00359069663842566 0 0.013479660759745649 -0.003569982642186231 0 0.013327949909289295 -0.0034498587184649465 0 0.013322346972834527 -0.00359069663842566 0 0.013327949909289295 -0.0034498587184649465 0 0.013171943358682537 -0.0034452865547224556 0 0.013172263634222782 -0.0036308432716825631 0 0.013322346972834527 -0.00359069663842566 0 0.013171943358682537 -0.0034452865547224556 0 0.013231586992779596 -0.0033500623987853823 0 0.013327949909289295 -0.0034498587184649465 0 0.013171943358682537 -0.0034452865547224556 0 0.013231586992779596 -0.0033500623987853823 0 0.013330250776932296 -0.003316754648236444 0 0.013327949909289295 -0.0034498587184649465 0 0.015043619290993066 -0.0024926363035636299 0 0.01467246221646926 -0.0025978428424862556 0 0.014955499441292049 -0.0021536027305406975 0 0.015043619290993066 -0.0024926363035636299 0 0.015058468643116364 -0.0028921633601636742 0 0.01467246221646926 -0.0025978428424862556 0 0.015043619290993066 -0.0024926363035636299 0 0.015513203588693823 -0.002595617439403306 0 0.015250757175604099 -0.0022111061099154292 0 0.015043619290993066 -0.0024926363035636299 0 0.015513203588693823 -0.002595617439403306 0 0.015058468643116364 -0.0028921633601636742 0 0.015473431539776275 -0.003244809829710787 0 0.015513203588693823 -0.002595617439403306 0 0.015058468643116364 -0.0028921633601636742 0 0.014224865779070331 -0.0038663232078376408 0 0.014298395440101931 -0.0029759175537019148 0 0.014646372660134587 -0.0030471288383712497 0 0.015058468643116364 -0.0028921633601636742 0 0.01467246221646926 -0.0025978428424862556 0 0.015299971588321628 -0.0032075709643992175 0 0.015779590764639698 -0.0027135880734499591 0 0.016042466432394726 -0.0036514369191366714 0 0.015779590764639698 -0.0027135880734499591 0 0.015787884374878963 -0.0035279109315275291 0 0.016020479541351596 -0.0034578892747360161 0 0.016037148592904397 -0.0031144283179968392 0 0.016292133971586555 -0.0036666457522046962 0 0.016162574177829417 -0.0031941627244165714 0 0.015939499378045709 -0.003269867068289497 0 0.016292133971586555 -0.0036666457522046962 0 0.016162574177829417 -0.0031941627244165714 0 0.016406284592892003 -0.0030363399751095741 0 0.016162574177829417 -0.0031941627244165714 0 0.01602236106638311 -0.0028006182119120183 0 0.015939499378045709 -0.003269867068289497 0 0.016162574177829417 -0.0031941627244165714 0 0.01602236106638311 -0.0028006182119120183 0 0.016406284592892003 -0.0030363399751095741 0 0.015779590764639698 -0.0027135880734499591 0 0.015361780511319737 -0.0019958244870519021 0 0.01602236106638311 -0.0028006182119120183 0 0.016406284592892003 -0.0030363399751095741 0 0.016268586832787556 -0.0025880086476334887 0 0.015779590764639698 -0.0027135880734499591 0 0.016079364709372948 -0.0022321997557565752 0 0.015914157358594583 -0.0019452808490037865 0 0.015920924865885918 -0.0020918830513439036 0 0.015834011380578591 -0.0019501287284292587 0 0.015920204954278316 -0.0018537445113484506 0 0.015914157358594583 -0.0019452808490037865 0 0.015834011380578591 -0.0019501287284292587 0 0.016268586832787556 -0.0025880086476334887 0 0.015968897247636154 -0.0023688597877085612 0 0.015920924865885918 -0.0020918830513439036 0 0.016079364709372948 -0.0022321997557565752 0 0.015975734314042523 -0.0021618725532424701 0 0.01602236106638311 -0.0028006182119120183 0 0.015968897247636154 -0.0023688597877085612 0 0.015812526815230613 -0.0024122362448652309 0 0.01602236106638311 -0.0028006182119120183 0 0.016268586832787556 -0.0025880086476334887 0 0.015968897247636154 -0.0023688597877085612 0 0.015812526815230613 -0.0024122362448652309 0 0.015829791070765889 -0.0021577215483546317 0 0.015632423697591692 -0.002080439638268507 0 0.015968897247636154 -0.0023688597877085612 0 0.015812526815230613 -0.0024122362448652309 0 0.015829791070765889 -0.0021577215483546317 0 0.015968897247636154 -0.0023688597877085612 0 0.015829791070765889 -0.0021577215483546317 0 0.015920924865885918 -0.0020918830513439036 0 0.015829791070765889 -0.0021577215483546317 0 0.015920924865885918 -0.0020918830513439036 0 0.015787486305951035 -0.001988639342337692 0 0.015361780511319737 -0.0019958244870519021 0 0.015477720632349052 -0.0018798520328048754 0 0.014955499441292049 -0.0021536027305406975 0 0.015224627097842027 -0.0020266445501678078 0 0.015276437877612563 -0.0017622501025853655 0 0.015920924865885918 -0.0020918830513439036 0 0.015834011380578591 -0.0019501287284292587 0 0.015712398265427977 -0.0019533155685993093 0 0.015920924865885918 -0.0020918830513439036 0 0.015712398265427977 -0.0019533155685993093 0 0.015787486305951035 -0.001988639342337692 0 0.014955499441292049 -0.0021536027305406975 0 0.015250757175604099 -0.0022111061099154292 0 0.015224627097842027 -0.0020266445501678078 0 0.015043619290993066 -0.0024926363035636299 0 0.014955499441292049 -0.0021536027305406975 0 0.015250757175604099 -0.0022111061099154292 0 0.015524578048708531 -0.0019457533356611789 0 0.015513203588693823 -0.002595617439403306 0 0.015465270474750915 -0.002011348297368314 0 0.015513203588693823 -0.002595617439403306 0 0.015250757175604099 -0.0022111061099154292 0 0.015465270474750915 -0.002011348297368314 0 0.014778295942704916 -0.0023779872914841743 0 0.014298395440101931 -0.0029759175537019148 0 0.015250757175604099 -0.0022111061099154292 0 0.015224627097842027 -0.0020266445501678078 0 0.015339398651291965 -0.0019950920196138136 0 0.015250757175604099 -0.0022111061099154292 0 0.015339398651291965 -0.0019950920196138136 0 0.015465270474750915 -0.002011348297368314 0 0.014778295942704916 -0.0023779872914841743 0 0.015040820427892437 -0.0021533356854917724 0 0.015432927983997107 -0.0016827745184793406 0 0.015496008206368534 -0.0019470129311599592 0 0.01537574508606147 -0.0018736517849262866 0 0.015432927983997107 -0.0016827745184793406 0 0.01537574508606147 -0.0018736517849262866 0 0.015276437877612563 -0.0017622501025853655 0 0.015496008206368534 -0.0019470129311599592 0 0.015465270474750915 -0.002011348297368314 0 0.01537574508606147 -0.0018736517849262866 0 0.015339398651291965 -0.0019950920196138136 0 0.015465270474750915 -0.002011348297368314 0 0.01537574508606147 -0.0018736517849262866 0 0.015224627097842027 -0.0020266445501678078 0 0.015339398651291965 -0.0019950920196138136 0 0.01537574508606147 -0.0018736517849262866 0 0.015224627097842027 -0.0020266445501678078 0 0.01537574508606147 -0.0018736517849262866 0 0.015276437877612563 -0.0017622501025853655 0 0.015712398265427977 -0.0019533155685993093 0 0.015484533743600658 -0.0017386204588688229 0 0.015669562693841371 -0.001881919735506021 0 0.015477720632349052 -0.0018798520328048754 0 0.015481612699649712 -0.0017733970827112193 0 0.015432927983997107 -0.0016827745184793406 0 0.015276437877612563 -0.0017622501025853655 0 0.015484533743600658 -0.0017386204588688229 0 0.015712398265427977 -0.0019533155685993093 0 0.015669562693841371 -0.001881919735506021 0 0.015787486305951035 -0.001988639342337692 0 0.015669562693841371 -0.001881919735506021 0 0.01564999790405994 -0.0018468356172545899 0 0.015787486305951035 -0.001988639342337692 0 0.015567471302009684 -0.0018245530497149004 0 0.015511834112191697 -0.0017995310027118701 0 0.01564999790405994 -0.0018468356172545899 0 0.015669562693841371 -0.001881919735506021 0 0.015567471302009684 -0.0018245530497149004 0 0.01564999790405994 -0.0018468356172545899 0 0.015484533743600658 -0.0017386204588688229 0 0.015669562693841371 -0.001881919735506021 0 0.015567471302009684 -0.0018245530497149004 0 0.015430108551632557 -0.0018174292759626034 0 0.015484533743600658 -0.0017386204588688229 0 0.015567471302009684 -0.0018245530497149004 0 0.015354942175364735 -0.0017804771917704499 0 0.015430108551632557 -0.0018174292759626034 0 0.015511834112191697 -0.0017995310027118701 0 0.015430108551632557 -0.0018174292759626034 0 0.015567471302009684 -0.0018245530497149004 0 0.015511834112191697 -0.0017995310027118701 0 0.015511834112191697 -0.0017995310027118701 0 0.015510097733191125 -0.001724032788309718 0 0.01564999790405994 -0.0018468356172545899 0 0.015354942175364735 -0.0017804771917704499 0 0.015511834112191697 -0.0017995310027118701 0 0.015510097733191125 -0.001724032788309718 0 0.015567119578324204 -0.0017426760016696584 0 0.015454947579627305 -0.0016437832475475252 0 0.015502420322536377 -0.0015848350745698604 0 0.015510097733191125 -0.001724032788309718 0 0.015567119578324204 -0.0017426760016696584 0 0.015502420322536377 -0.0015848350745698604 0 0.015510097733191125 -0.001724032788309718 0 0.015567119578324204 -0.0017426760016696584 0 0.01564999790405994 -0.0018468356172545899 0 0.015567119578324204 -0.0017426760016696584 0 0.015647858555212411 -0.001876119030189841 0 0.01564999790405994 -0.0018468356172545899 0 0.015567119578324204 -0.0017426760016696584 0 0.015647858555212411 -0.001876119030189841 0 0.015548772698380406 -0.0018116201605989284 0 0.015647858555212411 -0.001876119030189841 0 0.015741716968198281 -0.0020045670859044564 0 0.015632423697591692 -0.002080439638268507 0 0.015647858555212411 -0.001876119030189841 0 0.01564999790405994 -0.0018468356172545899 0 0.015741716968198281 -0.0020045670859044564 0 0.01564999790405994 -0.0018468356172545899 0 0.015787486305951035 -0.001988639342337692 0 0.015741716968198281 -0.0020045670859044564 0 0.015829791070765889 -0.0021577215483546317 0 0.015787486305951035 -0.001988639342337692 0 0.015741716968198281 -0.0020045670859044564 0 0.015829791070765889 -0.0021577215483546317 0 0.015741716968198281 -0.0020045670859044564 0 0.015632423697591692 -0.002080439638268507 0 0.015632423697591692 -0.002080439638268507 0 0.015354334402098458 -0.002049138226123807 0 0.015419883734847085 -0.002350190270350994 0 0.015632423697591692 -0.002080439638268507 0 0.015471049255329307 -0.0019170110431624612 0 0.015354334402098458 -0.002049138226123807 0 0.015471049255329307 -0.0019170110431624612 0 0.015348446335709103 -0.0017550364503701561 0 0.015354334402098458 -0.002049138226123807 0 0.015632423697591692 -0.002080439638268507 0 0.015471049255329307 -0.0019170110431624612 0 0.015548772698380406 -0.0018116201605989284 0 0.015647858555212411 -0.001876119030189841 0 0.015632423697591692 -0.002080439638268507 0 0.015548772698380406 -0.0018116201605989284 0 0.015471049255329307 -0.0019170110431624612 0 0.015548772698380406 -0.0018116201605989284 0 0.015348446335709103 -0.0017550364503701561 0 0.015548772698380406 -0.0018116201605989284 0 0.015348446335709103 -0.0017550364503701561 0 0.015454947579627305 -0.0016437832475475252 0 0.015653378640718064 -0.00016259701371846086 0 0.015780187434503146 -0.00058367255559339673 0 0.016236947580194377 -8.748254218333302e-05 0 0.015595595695007302 -0.0011741330914848292 0 0.015614518903437855 -0.00091208042257185718 0 0.015547886844648445 -0.00035155587717105322 0 0.015614518903437855 -0.00091208042257185718 0 0.015567119578324204 -0.0017426760016696584 0 0.015548772698380406 -0.0018116201605989284 0 0.015454947579627305 -0.0016437832475475252 0 0.014999636107498033 -0.00020247292075672299 0 0.015311659729706661 -0.0006203722334854713 0 0.015000614090822626 5.3207036821003881e-05 0 0.015374323584036568 -0.00047092488280077319 0 0.015000010325791948 -0.00020374212626178084 0 0.015653378640718064 -0.00016259701371846086 0 0.015000111999403072 -0.00020375295058197885 0 0.015547886844648445 -0.00035155587717105322 0 0.015374323584036568 -0.00047092488280077319 0 0.015000010325791948 -0.00020374212626178084 0 0.015210145907563154 -0.00067359281583093415 0 0.015374323584036568 -0.00047092488280077319 0 0.015653378640718064 -0.00016259701371846086 0 0.015780187434503146 -0.00058367255559339673 0 0.015374323584036568 -0.00047092488280077319 0 0.015780187434503146 -0.00058367255559339673 0 0.015319044496481346 -0.00091724688954987921 0 0.015780187434503146 -0.00058367255559339673 0 0.015319044496481346 -0.00091724688954987921 0 0.015283291288814225 -0.0011511635475348551 0 0.015595595695007302 -0.0011741330914848292 0 0.015202334943848419 -0.0014357340546122077 0 0.015000010325791948 -0.00020374212626178084 0 0.015210145907563154 -0.00067359281583093415 0 0.014999980704821133 -0.00084169240302422327 0 0.015374323584036568 -0.00047092488280077319 0 0.015319044496481346 -0.00091724688954987921 0 0.015210145907563154 -0.00067359281583093415 0 0.015319044496481346 -0.00091724688954987921 0 0.015210145907563154 -0.00067359281583093415 0 0.014999980704821133 -0.00084169240302422327 0 0.015319044496481346 -0.00091724688954987921 0 0.014999980704821133 -0.00084169240302422327 0 0.015281910133422862 -0.0011699495094545881 0 0.014999980704821133 -0.00084169240302422327 0 0.015281910133422862 -0.0011699495094545881 0 0.015000002293144254 -0.0014797982548988751 0 0.015290836292702555 -0.0010040712513014376 0 0.015202334943848419 -0.0014357340546122077 0 0.015202334943848419 -0.0014357340546122077 0 0.015000218073136293 -0.0014796046395823183 0 0.015348446335709103 -0.0017550364503701561 0 0.01511711019749484 -0.0019493851611335862 0 0.015354334402098458 -0.002049138226123807 0 0.015354334402098458 -0.002049138226123807 0 0.015031818180079013 -0.0023466081241836239 0 0.015419883734847085 -0.002350190270350994 0 0.015287103692086924 -0.0011772129074366614 0 0.014999996226277438 -0.0014798088426567157 0 0.015144512584895041 -0.0020145610152129726 0 0.01511711019749484 -0.0019493851611335862 0 0.015354334402098458 -0.002049138226123807 0 0.015031818180079013 -0.0023466081241836239 0 0.015202334943848419 -0.0014357340546122077 0 0.015089001814893007 -0.0022084688005314691 0 0.014999996226277438 -0.0014798088426567157 0 0.014999999757192245 -0.0021671593227630031 0 0.015144512584895041 -0.0020145610152129726 0 0.015031818180079013 -0.0023466081241836239 0 0.015381105181875642 -0.0027408809166846971 0 0.014999707799910989 -0.0028548207968690058 0 0.015089001814893007 -0.0022084688005314691 0 0.015000017343027182 -0.0028543506816000597 0 0.014999999757192245 -0.0021671593227630031 0 0.015144512584895041 -0.0020145610152129726 0 0.014999999212784316 -0.0028545313599719303 0 0.015031818180079013 -0.0023466081241836239 0 0.015381105181875642 -0.0027408809166846971 0 0.015419883734847085 -0.002350190270350994 0 0.015632423697591692 -0.002080439638268507 0 0.015628815486528121 -0.0024710011168029358 0 0.015419883734847085 -0.002350190270350994 0 0.015812526815230613 -0.0024122362448652309 0 0.015632423697591692 -0.002080439638268507 0 0.015628815486528121 -0.0024710011168029358 0 0.01602236106638311 -0.0028006182119120183 0 0.015812526815230613 -0.0024122362448652309 0 0.015681476181102327 -0.0028276534464141355 0 0.015812526815230613 -0.0024122362448652309 0 0.015628815486528121 -0.0024710011168029358 0 0.015681476181102327 -0.0028276534464141355 0 0.015381105181875642 -0.0027408809166846971 0 0.015628815486528121 -0.0024710011168029358 0 0.015419883734847085 -0.002350190270350994 0 0.015381105181875642 -0.0027408809166846971 0 0.015628815486528121 -0.0024710011168029358 0 0.015681476181102327 -0.0028276534464141355 0 0.015681476181102327 -0.0028276534464141355 0 0.015939499378045709 -0.003269867068289497 0 0.015608831121240454 -0.0032253497606047699 0 0.015381105181875642 -0.0027408809166846971 0 0.015681476181102327 -0.0028276534464141355 0 0.015608831121240454 -0.0032253497606047699 0 0.01602236106638311 -0.0028006182119120183 0 0.015681476181102327 -0.0028276534464141355 0 0.015939499378045709 -0.003269867068289497 0 0.015777545867359525 -0.0036504584310047845 0 0.01601155114918041 -0.0038013558721500008 0 0.015939499378045709 -0.003269867068289497 0 0.01601155114918041 -0.0038013558721500008 0 0.016292133971586555 -0.0036666457522046962 0 0.015939499378045709 -0.003269867068289497 0 0.015777545867359525 -0.0036504584310047845 0 0.015608831121240454 -0.0032253497606047699 0 0.015454014783920436 -0.003668255304252457 0 0.015777545867359525 -0.0036504584310047845 0 0.015939499378045709 -0.003269867068289497 0 0.015608831121240454 -0.0032253497606047699 0 0.015608831121240454 -0.0032253497606047699 0 0.015454014783920436 -0.003668255304252457 0 0.015309500196167135 -0.0032341009019448402 0 0.015454014783920436 -0.003668255304252457 0 0.014999881780547076 -0.0037315696650165936 0 0.015309500196167135 -0.0032341009019448402 0 0.014999881780547076 -0.0037315696650165936 0 0.014999707799910989 -0.0028548207968690058 0 0.015309500196167135 -0.0032341009019448402 0 0.015381105181875642 -0.0027408809166846971 0 0.014999707799910989 -0.0028548207968690058 0 0.015309500196167135 -0.0032341009019448402 0 0.015381105181875642 -0.0027408809166846971 0 0.015608831121240454 -0.0032253497606047699 0 0.015309500196167135 -0.0032341009019448402 0 0.008513913028512711 -0.0023399558798405575 0 0.0094823251747670617 -0.003731789020004097 0 0.0075833798423735038 -0.0046592028755604994 0 0.0078484984119561018 -0.0036975198522149564 0 0.0088319884619516668 -0.003894560123824688 0 0.01034075772351587 -0.0029329661650735104 0 0.0100633195514122 -0.0031182182114768389 0 0.010166538383050655 -0.0027889361221894488 0 0.0084703811374659543 -0.00088300050571236239 0 0.0074634670311651812 -5.8180204046053459e-05 0 0.0075737896024396737 -0.00081251776318755212 0 0.008513913028512711 -0.0023399558798405575 0 0.0069140456958652037 -0.0019897987702542932 0 0.0075833798423735038 -0.0046592028755604994 0 0.007341086320064469 -0.0040764964451474603 0 0.0066304419526154786 -0.0040892256010059743 0 0.0075833798423735038 -0.0046592028755604994 0 0.007341086320064469 -0.0040764964451474603 0 0.0078484984119561018 -0.0036975198522149564 0 0.007341086320064469 -0.0040764964451474603 0 0.0074019751892852488 -0.0034778018390547497 0 0.0078484984119561018 -0.0036975198522149564 0 0.007341086320064469 -0.0040764964451474603 0 0.0066304419526154786 -0.0040892256010059743 0 0.0068333426287048712 -0.0036011630369671976 0 0.007341086320064469 -0.0040764964451474603 0 0.0074019751892852488 -0.0034778018390547497 0 0.0068333426287048712 -0.0036011630369671976 0 0.0074019751892852488 -0.0034778018390547497 0 0.0068333426287048712 -0.0036011630369671976 0 0.0072853106186027191 -0.0030042947771695655 0 0.0074019751892852488 -0.0034778018390547497 0 0.0076995648675913918 -0.0031770354287561906 0 0.0078484984119561018 -0.0036975198522149564 0 0.0074019751892852488 -0.0034778018390547497 0 0.0076995648675913918 -0.0031770354287561906 0 0.0072853106186027191 -0.0030042947771695655 0 0.0076995648675913918 -0.0031770354287561906 0 0.0078484984119561018 -0.0036975198522149564 0 0.0081984667090986979 -0.0031698969558622363 0 0.0078484984119561018 -0.0036975198522149564 0 0.0088319884619516668 -0.003894560123824688 0 0.0081984667090986979 -0.0031698969558622363 0 0.0088319884619516668 -0.003894560123824688 0 0.0081984667090986979 -0.0031698969558622363 0 0.0087690747863431191 -0.0027751534809419532 0 0.0098921331113239041 -0.0031237503530387877 0 0.0100633195514122 -0.0031182182114768389 0 0.0098266445852154445 -0.0032395685239490798 0 0.0088319884619516668 -0.003894560123824688 0 0.0096631691910998123 -0.0030265230233913268 0 0.0098266445852154445 -0.0032395685239490798 0 0.0094823251747670617 -0.003731789020004097 0 0.0098110929923743758 -0.0031875194217032771 0 0.0098921331113239041 -0.0031237503530387877 0 0.0099676646331861643 -0.0029910604560315001 0 0.0100633195514122 -0.0031182182114768389 0 0.0098921331113239041 -0.0031237503530387877 0 0.0098724916798138291 -0.0030364018383955554 0 0.0098565336015287164 -0.0031225607329629333 0 0.0098921331113239041 -0.0031237503530387877 0 0.0099676646331861643 -0.0029910604560315001 0 0.0098724916798138291 -0.0030364018383955554 0 0.0099676646331861643 -0.0029910604560315001 0 0.0100633195514122 -0.0031182182114768389 0 0.010166538383050655 -0.0027889361221894488 0 0.0099676646331861643 -0.0029910604560315001 0 0.0098877215055521734 -0.0028322814614613503 0 0.010166538383050655 -0.0027889361221894488 0 0.0098877215055521734 -0.0028322814614613503 0 0.0098592732640323966 -0.0025179460121892562 0 0.010166538383050655 -0.0027889361221894488 0 0.0098724916798138291 -0.0030364018383955554 0 0.0098877215055521734 -0.0028322814614613503 0 0.0098510139138759337 -0.0029498869853325149 0 0.0099676646331861643 -0.0029910604560315001 0 0.0098724916798138291 -0.0030364018383955554 0 0.0098877215055521734 -0.0028322814614613503 0 0.0098877215055521734 -0.0028322814614613503 0 0.0098510139138759337 -0.0029498869853325149 0 0.009825047531227744 -0.0027113797016904868 0 0.01012953107210011 -0.0024795315166806424 0 0.0098582111612102469 -0.0027144742311103506 0 0.0098877215055521734 -0.0028322814614613503 0 0.0098592732640323966 -0.0025179460121892562 0 0.009825047531227744 -0.0027113797016904868 0 0.0098592732640323966 -0.0025179460121892562 0 0.009825047531227744 -0.0027113797016904868 0 0.009858017101278543 -0.0026937786482276642 0 0.0098090571226776575 -0.0024533082204521617 0 0.0097488622845594806 -0.0022554767844368672 0 0.0098592732640323966 -0.0025179460121892562 0 0.00915943375058801 -0.0016902806952989631 0 0.0094183012553409259 -0.0026608232623553238 0 0.0098592732640323966 -0.0025179460121892562 0 0.0094183012553409259 -0.0026608232623553238 0 0.009858017101278543 -0.0026937786482276642 0 0.008792378407383691 -0.0024743077601787514 0 0.00915943375058801 -0.0016902806952989631 0 0.0081609633706160572 -0.0020128460153770859 0 0.008792378407383691 -0.0024743077601787514 0 0.00915943375058801 -0.0016902806952989631 0 0.0094183012553409259 -0.0026608232623553238 0 0.0083219012553984433 -0.0009829804121689698 0 0.00915943375058801 -0.0016902806952989631 0 0.0081609633706160572 -0.0020128460153770859 0 0.008513913028512711 -0.0023399558798405575 0 0.0097488622845594806 -0.0022554767844368672 0 0.0084703811374659543 -0.00088300050571236239 0 0.0073478992008843957 -0.0014461916893306812 0 0.0075737896024396737 -0.00081251776318755212 0 0.008513913028512711 -0.0023399558798405575 0 0.0075578240675024024 -0.0011757761040730929 0 0.0083219012553984433 -0.0009829804121689698 0 0.0081609633706160572 -0.0020128460153770859 0 0.0073478992008843957 -0.0014461916893306812 0 0.0081609633706160572 -0.0020128460153770859 0 0.0072794794694297149 -0.0024309449632627959 0 0.008085882652621508 -0.0028491077408297977 0 0.008792378407383691 -0.0024743077601787514 0 0.0081609633706160572 -0.0020128460153770859 0 0.008085882652621508 -0.0028491077408297977 0 0.0081609633706160572 -0.0020128460153770859 0 0.0072794794694297149 -0.0024309449632627959 0 0.0073478992008843957 -0.0014461916893306812 0 0.0072794794694297149 -0.0024309449632627959 0 0.0068229247948061768 -0.0018197806362013566 0 0.0073478992008843957 -0.0014461916893306812 0 0.0061815675702431294 -0.001650065396944437 0 0.0054113815450903702 -0.0025039614922290326 0 0.0063077954733088857 -0.0026028569131010372 0 0.0068229247948061768 -0.0018197806362013566 0 0.0061815675702431294 -0.001650065396944437 0 0.0063077954733088857 -0.0026028569131010372 0 0.0072794794694297149 -0.0024309449632627959 0 0.0068229247948061768 -0.0018197806362013566 0 0.0063077954733088857 -0.0026028569131010372 0 0.0068229247948061768 -0.0018197806362013566 0 0.0061815675702431294 -0.001650065396944437 0 0.0068349933470357553 -0.00081941808606602359 0 0.0058945592780287664 -0.0020034831939114103 0 0.0067789198159323326 -0.00090456862513064312 0 0.0056901597548747428 -0.0023298028936473833 0 0.0068349933470357553 -0.00081941808606602359 0 0.0060134091253754227 -0.00052044542099861045 0 0.0056901597548747428 -0.0023298028936473833 0 0.0049400360481039619 -0.0006641221942524639 0 0.0060134091253754227 -0.00052044542099861045 0 0.0068229247948061768 -0.0018197806362013566 0 0.0073478992008843957 -0.0014461916893306812 0 0.0068349933470357553 -0.00081941808606602359 0 0.0073478992008843957 -0.0014461916893306812 0 0.0075737896024396737 -0.00081251776318755212 0 0.0068349933470357553 -0.00081941808606602359 0 0.0020541236308058725 -0.0052898915264368192 0 0.0015807836756787086 -0.0061523333498068305 0 0.002934922726064197 -0.0058529825323971546 0 -0.00025181222196751714 -0.0044958376706626512 0 0.0034629822801801931 -0.0045273350677504281 0 0.0019856777742253934 -0.0047957922475461616 0 0.0034656907436484397 -0.002701407551525948 0 0.004467775737663382 -0.0038505311283546307 0 0.0056901597548747428 -0.0023298028936473833 0 0.0034656907436484397 -0.002701407551525948 0 0.004467775737663382 -0.0038505311283546307 0 0.0058945592780287664 -0.0020034831939114103 0 0.0052838679884882672 -0.0031258582635732383 0 0.0034629822801801931 -0.0045273350677504281 0 0.0044758383526088425 -0.0023722825935134592 0 0.0056901597548747428 -0.0023298028936473833 0 0.0034656907436484397 -0.002701407551525948 0 0.0049400360481039619 -0.0006641221942524639 0 0.002934922726064197 -0.0058529825323971546 0 0.0028422556012244068 -0.005001269985607671 0 0.0040507660840510074 -0.0043614770097824334 0 0.0020541236308058725 -0.0052898915264368192 0 0.0017964477027112168 -0.0045301179450713902 0 0.0028422556012244068 -0.005001269985607671 0 0.0020541236308058725 -0.0052898915264368192 0 0.002934922726064197 -0.0058529825323971546 0 0.0028422556012244068 -0.005001269985607671 0 0.001813259873380249 -0.0038511887305277084 0 0.0028298245679393179 -0.0049288538857974505 0 0.0021802502970814132 -0.0039080189262974963 0 0.0028422556012244068 -0.005001269985607671 0 0.0027821249194819844 -0.0042970363303871488 0 0.0017964477027112168 -0.0045301179450713902 0 0.0019616463647579938 -0.0037068604610722019 0 0.0028422556012244068 -0.005001269985607671 0 0.0027821249194819844 -0.0042970363303871488 0 0.0031556748469312888 -0.0037355894654052513 0 0.0040507660840510074 -0.0043614770097824334 0 0.0028422556012244068 -0.005001269985607671 0 0.0027821249194819844 -0.0042970363303871488 0 0.0040507660840510074 -0.0043614770097824334 0 0.0021802502970814132 -0.0039080189262974963 0 0.0026651305603397077 -0.0039248351423723906 0 0.0026915940769774724 -0.0036498878077534372 0 0.0021802502970814132 -0.0039080189262974963 0 0.0026651305603397077 -0.0039248351423723906 0 0.0027821249194819844 -0.0042970363303871488 0 0.0026651305603397077 -0.0039248351423723906 0 0.0031556748469312888 -0.0037355894654052513 0 0.0026915940769774724 -0.0036498878077534372 0 0.0026651305603397077 -0.0039248351423723906 0 0.0027821249194819844 -0.0042970363303871488 0 0.0031556748469312888 -0.0037355894654052513 0 0.0031556748469312888 -0.0037355894654052513 0 0.0040507660840510074 -0.0043614770097824334 0 0.0037527420341738004 -0.0034944376960179308 0 0.0040507660840510074 -0.0043614770097824334 0 0.0043222125446097633 -0.0034457315160573566 0 0.0037527420341738004 -0.0034944376960179308 0 0.0043222125446097633 -0.0034457315160573566 0 0.0040357909628736671 -0.0030295906772946145 0 0.0037527420341738004 -0.0034944376960179308 0 0.0043222125446097633 -0.0034457315160573566 0 0.0043838399262360076 -0.0030377797345861315 0 0.0047349751308980214 -0.0029641351555374017 0 0.0043222125446097633 -0.0034457315160573566 0 0.0043838399262360076 -0.0030377797345861315 0 0.0040357909628736671 -0.0030295906772946145 0 0.0044443526031596667 -0.0027019403570770306 0 0.0040357909628736671 -0.0030295906772946145 0 0.0040494336249322161 -0.0023853622755626975 0 0.0043838399262360076 -0.0030377797345861315 0 0.0044443526031596667 -0.0027019403570770306 0 0.0040357909628736671 -0.0030295906772946145 0 0.0040357909628736671 -0.0030295906772946145 0 0.0035633920248015053 -0.0027093196243426132 0 0.0033493091575314458 -0.0031562679898499116 0 0.0040357909628736671 -0.0030295906772946145 0 0.0035633920248015053 -0.0027093196243426132 0 0.0040494336249322161 -0.0023853622755626975 0 0.0031556748469312888 -0.0037355894654052513 0 0.0037527420341738004 -0.0034944376960179308 0 0.0033493091575314458 -0.0031562679898499116 0 0.0040357909628736671 -0.0030295906772946145 0 0.0037527420341738004 -0.0034944376960179308 0 0.0033493091575314458 -0.0031562679898499116 0 0.0031556748469312888 -0.0037355894654052513 0 0.0027607807107486132 -0.0032027794953150973 0 0.0026915940769774724 -0.0036498878077534372 0 0.0031556748469312888 -0.0037355894654052513 0 0.0033493091575314458 -0.0031562679898499116 0 0.0027607807107486132 -0.0032027794953150973 0 0.0035633920248015053 -0.0027093196243426132 0 0.0033493091575314458 -0.0031562679898499116 0 0.0029082911519341934 -0.0027389176295892527 0 0.0033493091575314458 -0.0031562679898499116 0 0.0029082911519341934 -0.0027389176295892527 0 0.0027607807107486132 -0.0032027794953150973 0 0.0022739474143854102 -0.0033094895197180803 0 0.0023287994194529276 -0.0025653172908444576 0 0.0027607807107486132 -0.0032027794953150973 0 0.0023287994194529276 -0.0025653172908444576 0 0.0029082911519341934 -0.0027389176295892527 0 0.0027607807107486132 -0.0032027794953150973 0 0.0021802502970814132 -0.0039080189262974963 0 0.0022739474143854102 -0.0033094895197180803 0 0.0026915940769774724 -0.0036498878077534372 0 0.0022739474143854102 -0.0033094895197180803 0 0.0027607807107486132 -0.0032027794953150973 0 0.0026915940769774724 -0.0036498878077534372 0 0.0070961927376934891 -0.00038939518763410168 0 0.0074634670311651812 -5.8180204046053459e-05 0 0.0065730053763715596 7.7783773593509926e-05 0 0.0070961927376934891 -0.00038939518763410168 0 0.0068349933470357553 -0.00081941808606602359 0 0.0065730053763715596 7.7783773593509926e-05 0 0.0070961927376934891 -0.00038939518763410168 0 0.0074634670311651812 -5.8180204046053459e-05 0 0.0075737896024396737 -0.00081251776318755212 0 0.0070961927376934891 -0.00038939518763410168 0 0.0075737896024396737 -0.00081251776318755212 0 0.0068349933470357553 -0.00081941808606602359 0 0.0044758383526088425 -0.0023722825935134592 0 0.0058285648635498745 -0.0017154587099278118 0 0.0049400360481039619 -0.0006641221942524639 0 0.0060134091253754227 -0.00052044542099861045 0 0.0061861513785909797 0.00097505685634027871 0 0.0068349933470357553 -0.00081941808606602359 0 0.0060134091253754227 -0.00052044542099861045 0 0.0065730053763715596 7.7783773593509926e-05 0 0.0060134091253754227 -0.00052044542099861045 0 0.0065730053763715596 7.7783773593509926e-05 0 0.0061861513785909797 0.00097505685634027871 0 0.0040507660840510074 -0.0043614770097824334 0 0.0043222125446097633 -0.0034457315160573566 0 0.0051435794520963184 -0.0030658535811354777 0 0.0043222125446097633 -0.0034457315160573566 0 0.0047349751308980214 -0.0029641351555374017 0 0.005246808771003403 -0.0029512225500568194 0 0.0043222125446097633 -0.0034457315160573566 0 0.0051435794520963184 -0.0030658535811354777 0 0.005246808771003403 -0.0029512225500568194 0 0.0047349751308980214 -0.0029641351555374017 0 0.0050366238628151913 -0.0027977144109129748 0 0.005246808771003403 -0.0029512225500568194 0 0.0047349751308980214 -0.0029641351555374017 0 0.0050366238628151913 -0.0027977144109129748 0 0.0048950788696637167 -0.002625191311954358 0 0.0044443526031596667 -0.0027019403570770306 0 0.0047349751308980214 -0.0029641351555374017 0 0.0048950788696637167 -0.002625191311954358 0 0.0043838399262360076 -0.0030377797345861315 0 0.0044443526031596667 -0.0027019403570770306 0 0.0047349751308980214 -0.0029641351555374017 0 0.0054400547338104843 -0.003093226988783877 0 0.0051485250394808666 -0.0031499089584516421 0 0.0057526202379156958 -0.003284177225843554 0 0.0054400547338104843 -0.003093226988783877 0 0.0055667800653070899 -0.0029521716511382795 0 0.0057526202379156958 -0.003284177225843554 0 0.0058285648635498745 -0.0017154587099278118 0 0.0056939416179079879 -0.0019337718846498685 0 0.0054400547338104843 -0.003093226988783877 0 0.0051485250394808666 -0.0031499089584516421 0 0.005246808771003403 -0.0029512225500568194 0 0.0050366238628151913 -0.0027977144109129748 0 0.005246808771003403 -0.0029512225500568194 0 0.0052795167408002741 -0.0026408867710592189 0 0.005246808771003403 -0.0029512225500568194 0 0.0055667800653070899 -0.0029521716511382795 0 0.0052795167408002741 -0.0026408867710592189 0 0.0055667800653070899 -0.0029521716511382795 0 0.0057895967846999328 -0.0026748983115359838 0 0.0052795167408002741 -0.0026408867710592189 0 0.0054400547338104843 -0.003093226988783877 0 0.005246808771003403 -0.0029512225500568194 0 0.0055667800653070899 -0.0029521716511382795 0 0.0066304419526154786 -0.0040892256010059743 0 0.0051485250394808666 -0.0031499089584516421 0 0.0057526202379156958 -0.003284177225843554 0 0.0055667800653070899 -0.0029521716511382795 0 0.0059037879698328787 -0.0030114790275729739 0 0.0057895967846999328 -0.0026748983115359838 0 0.0059037879698328787 -0.0030114790275729739 0 0.0062555970879364939 -0.0028743475044145945 0 0.0057895967846999328 -0.0026748983115359838 0 0.0074634670311651812 -5.8180204046053459e-05 0 0.0065730053763715596 7.7783773593509926e-05 0 0.0061861513785909797 0.00097505685634027871 0 0.0069140456958652037 -0.0019897987702542932 0 0.0058285648635498745 -0.0017154587099278118 0 0.0059037879698328787 -0.0030114790275729739 0 0.0062555970879364939 -0.0028743475044145945 0 0.0061254935578377275 -0.0032405386910652131 0 0.0062555970879364939 -0.0028743475044145945 0 0.0061254935578377275 -0.0032405386910652131 0 0.0063930495663437285 -0.0033065269644419778 0 0.0061254935578377275 -0.0032405386910652131 0 0.0057526202379156958 -0.003284177225843554 0 0.0063581063730312202 -0.0035073339646208546 0 0.0061254935578377275 -0.0032405386910652131 0 0.0063581063730312202 -0.0035073339646208546 0 0.0063930495663437285 -0.0033065269644419778 0 0.0059037879698328787 -0.0030114790275729739 0 0.0061254935578377275 -0.0032405386910652131 0 0.0057526202379156958 -0.003284177225843554 0 0.0055667800653070899 -0.0029521716511382795 0 0.0059037879698328787 -0.0030114790275729739 0 0.0057526202379156958 -0.003284177225843554 0 0.0066304419526154786 -0.0040892256010059743 0 0.0057526202379156958 -0.003284177225843554 0 0.0063581063730312202 -0.0035073339646208546 0 0.0066304419526154786 -0.0040892256010059743 0 0.0063581063730312202 -0.0035073339646208546 0 0.0068333426287048712 -0.0036011630369671976 0 0.0063581063730312202 -0.0035073339646208546 0 0.0068333426287048712 -0.0036011630369671976 0 0.0063930495663437285 -0.0033065269644419778 0 0.0062555970879364939 -0.0028743475044145945 0 0.0068333426287048712 -0.0036011630369671976 0 0.0063930495663437285 -0.0033065269644419778 0 0.0068333426287048712 -0.0036011630369671976 0 0.0067694233832756379 -0.0023921819709054352 0 0.0072853106186027191 -0.0030042947771695655 0 0.0062555970879364939 -0.0028743475044145945 0 0.0068333426287048712 -0.0036011630369671976 0 0.0065379360721626598 -0.0014439917255358601 0 0.0062555970879364939 -0.0028743475044145945 0 0.0060432668392023207 -0.0023441436876517345 0 0.0065379360721626598 -0.0014439917255358601 0 0.0066994644275065766 -0.0030985600677263989 0 0.0070945770265707668 -0.0029059270917462746 0 0.0060432668392023207 -0.0023441436876517345 0 0.0055707787326027937 -0.0020933541728769128 0 0.0065379360721626598 -0.0014439917255358601 0 0.0060432668392023207 -0.0023441436876517345 0 0.0057895967846999328 -0.0026748983115359838 0 0.0055707787326027937 -0.0020933541728769128 0 0.0062555970879364939 -0.0028743475044145945 0 0.0060432668392023207 -0.0023441436876517345 0 0.0057895967846999328 -0.0026748983115359838 0 0.0057895967846999328 -0.0026748983115359838 0 0.0052795167408002741 -0.0026408867710592189 0 0.0055707787326027937 -0.0020933541728769128 0 0.0052795167408002741 -0.0026408867710592189 0 0.0048956203080763152 -0.0021783038156919276 0 0.0055707787326027937 -0.0020933541728769128 0 0.0055707787326027937 -0.0020933541728769128 0 0.0049166245524591961 -0.001289805485172845 0 0.0065379360721626598 -0.0014439917255358601 0 0.0050366238628151913 -0.0027977144109129748 0 0.0052795167408002741 -0.0026408867710592189 0 0.0048950788696637167 -0.002625191311954358 0 0.0044443526031596667 -0.0027019403570770306 0 0.0048950788696637167 -0.002625191311954358 0 0.0048956203080763152 -0.0021783038156919276 0 0.0052795167408002741 -0.0026408867710592189 0 0.0048950788696637167 -0.002625191311954358 0 0.0048956203080763152 -0.0021783038156919276 0 0.0048956203080763152 -0.0021783038156919276 0 0.0049166245524591961 -0.001289805485172845 0 0.0040489003215746742 -0.001849002105051912 0 0.0048956203080763152 -0.0021783038156919276 0 0.0055707787326027937 -0.0020933541728769128 0 0.0049166245524591961 -0.001289805485172845 0 0.0055295733655309183 -0.0045504615607869399 0 0.0066701911418118615 -0.0042041364886876067 0 0.0056081645045722595 -0.0033809766956026687 0 0.0055295733655309183 -0.0045504615607869399 0 0.0066701911418118615 -0.0042041364886876067 0 0.006726316669440591 -0.004700357301800415 0 0.005126310543739322 -0.0029258266116884714 0 0.0070945770265707668 -0.0029059270917462746 0 0.0089047858774814817 -0.0030842698167929733 0 0.0089509461677704429 -0.0031228145935296775 0 0.0089671022601379505 -0.0029957775773469491 0 0.0088755046278211781 -0.0030671257707100027 0 0.0088924454133771664 -0.0031816872163751117 0 0.0089509461677704429 -0.0031228145935296775 0 0.0081854156456516794 -0.0035428910621646526 0 0.0070945770265707668 -0.0029059270917462746 0 0.0081854156456516794 -0.0035428910621646526 0 0.008558171811461724 -0.0034845731132090931 0 0.0026357404791841031 -0.0020623128950444979 0 0.0034486630262735595 -0.0011629616354488104 0 0.0023586357168473987 -0.0015787010768849692 0 0.0021205685676011768 -0.0021227855421813886 0 0.0026357404791841031 -0.0020623128950444979 0 0.0023586357168473987 -0.0015787010768849692 0 0.0023287994194529276 -0.0025653172908444576 0 0.0029082911519341934 -0.0027389176295892527 0 0.0026357404791841031 -0.0020623128950444979 0 0.0023287994194529276 -0.0025653172908444576 0 0.0021205685676011768 -0.0021227855421813886 0 0.0026357404791841031 -0.0020623128950444979 0 0.0035633920248015053 -0.0027093196243426132 0 0.0029082911519341934 -0.0027389176295892527 0 0.0034373906186242415 -0.0021488752321577407 0 0.0029082911519341934 -0.0027389176295892527 0 0.0026357404791841031 -0.0020623128950444979 0 0.0034373906186242415 -0.0021488752321577407 0 0.0026357404791841031 -0.0020623128950444979 0 0.0034373906186242415 -0.0021488752321577407 0 0.0034486630262735595 -0.0011629616354488104 0 0.0034373906186242415 -0.0021488752321577407 0 0.0040489003215746742 -0.001849002105051912 0 0.0034486630262735595 -0.0011629616354488104 0 0.0035633920248015053 -0.0027093196243426132 0 0.0034373906186242415 -0.0021488752321577407 0 0.0040494336249322161 -0.0023853622755626975 0 0.0034373906186242415 -0.0021488752321577407 0 0.0040494336249322161 -0.0023853622755626975 0 0.0040489003215746742 -0.001849002105051912 0 0.0048956203080763152 -0.0021783038156919276 0 0.0040494336249322161 -0.0023853622755626975 0 0.0040489003215746742 -0.001849002105051912 0 0.0044443526031596667 -0.0027019403570770306 0 0.0048956203080763152 -0.0021783038156919276 0 0.0040494336249322161 -0.0023853622755626975 0 0.0049166245524591961 -0.001289805485172845 0 0.0040489003215746742 -0.001849002105051912 0 0.0034486630262735595 -0.0011629616354488104 0 0.005126310543739322 -0.0029258266116884714 0 0.0040050381181629558 -0.0026981510892474785 0 0.0055295733655309183 -0.0045504615607869399 0 0.0043251708426328087 -0.0044007233279638389 0 0.0047221208948282391 -0.0035870796183837209 0 0.0020583580245183302 -0.0010120169646718423 0 0.0034486630262735595 -0.0011629616354488104 0 0.0023586357168473987 -0.0015787010768849692 0 0.0031082334304917201 -0.0042438118806817412 0 0.0043251708426328087 -0.0044007233279638389 0 0.0038296073000435851 -0.0033934788897991095 0 0.0019204945387174483 -0.0042475355205909438 0 0.0040050381181629558 -0.0026981510892474785 0 0.0013310176301152353 -0.005625624845282973 0 0.0014122356902023302 -0.0062421779235998249 0 0.0019725464720326538 -0.0060117110292802088 0 0.0013310176301152353 -0.005625624845282973 0 0.0019725464720326538 -0.0060117110292802088 0 0.0019894899501566015 -0.0053907124254400467 0 0.0013019439491817981 -0.0068018582090730402 0 0.0014122356902023302 -0.0062421779235998249 0 0.0019725464720326538 -0.0060117110292802088 0 0.0019204945387174483 -0.0042475355205909438 0 0.0026811865604847267 -0.0049459846522865612 0 0.0026811865604847267 -0.0049459846522865612 0 0.0054291099037896921 -0.0040641096014741099 0 0.0054291099037896921 -0.0040641096014741099 0 0.0068629221830179615 -0.0033645300908899663 0 0.0043251708426328087 -0.0044007233279638389 0 0.0038296073000435851 -0.0033934788897991095 0 0.0047221208948282391 -0.0035870796183837209 0 0.0038296073000435851 -0.0033934788897991095 0 0.0047221208948282391 -0.0035870796183837209 0 0.0045460653818617308 -0.0025536969927778897 0 0.0047221208948282391 -0.0035870796183837209 0 0.0045460653818617308 -0.0025536969927778897 0 0.0056081645045722595 -0.0033809766956026687 0 0.008104223020139259 -0.0027756950226002896 0 0.0077229181372358742 -0.0031998774555907746 0 0.0081196818648884526 -0.0031591494830665655 0 0.0054071194235059431 -0.0044377439998355131 0 0.0064744653203508444 -0.0040339293462165193 0 0.0063269398225172307 -0.0051514484793320171 0 -3.0305944060646439e-05 -0.0071824329387092543 0 0.0013764222938639789 -0.0062706683336308279 0 0.0013310176301152353 -0.005625624845282973 0 0.0020046918409345892 -0.0047139431865581855 0 0.0019894899501566015 -0.0053907124254400467 0 0.0019725464720326538 -0.0060117110292802088 0 0.0026522727751521519 -0.005211081612010655 0 0.0019894899501566015 -0.0053907124254400467 0 0.0013764222938639789 -0.0062706683336308279 0 0.0054291099037896921 -0.0040641096014741099 0 0.0020046918409345892 -0.0047139431865581855 0 0.0026522727751521519 -0.005211081612010655 0 0.0019894899501566015 -0.0053907124254400467 0 0.0081854156456516794 -0.0035428910621646526 0 0.0087240921314882258 -0.0029789974211920519 0 0.0081854156456516794 -0.0035428910621646526 0 0.0068629221830179615 -0.0033645300908899663 0 0.0089047858774814817 -0.0030842698167929733 0 0.0088149975627767295 -0.0028305776827392878 0 0.0089671022601379505 -0.0029957775773469491 0 0.0085567292623071455 -0.0038358283036565867 0 0.0081553303621890675 -0.0035199747165546606 0 0.0085006856397615745 -0.003184305300204417 0 0.0055295733655309183 -0.0045504615607869399 0 0.0047221208948282391 -0.0035870796183837209 0 0.0056081645045722595 -0.0033809766956026687 0 0.0077229181372358742 -0.0031998774555907746 0 0.0081553303621890675 -0.0035199747165546606 0 0.0081196818648884526 -0.0031591494830665655 0 0.0081553303621890675 -0.0035199747165546606 0 0.0081196818648884526 -0.0031591494830665655 0 0.0085006856397615745 -0.003184305300204417 0 0.008104223020139259 -0.0027756950226002896 0 0.0081196818648884526 -0.0031591494830665655 0 0.0085006856397615745 -0.003184305300204417 0 0.0087730221351794875 -0.0026404804350985815 0 0.0088149975627767295 -0.0028305776827392878 0 0.008960046884586341 -0.0027593040629361526 0 0.0088149975627767295 -0.0028305776827392878 0 0.008960046884586341 -0.0027593040629361526 0 0.0090489037479031652 -0.0029042215341583536 0 0.008960046884586341 -0.0027593040629361526 0 0.0091613552955968642 -0.0027752625771458074 0 0.0090489037479031652 -0.0029042215341583536 0 0.0093233310733270083 -0.0026396795886757807 0 0.0091613552955968642 -0.0027752625771458074 0 0.0093522531207228411 -0.0028120170372286876 0 0.0091613552955968642 -0.0027752625771458074 0 0.0092067429657232431 -0.0029050722107572405 0 0.0090489037479031652 -0.0029042215341583536 0 0.0091613552955968642 -0.0027752625771458074 0 0.0092067429657232431 -0.0029050722107572405 0 0.0093522531207228411 -0.0028120170372286876 0 0.0092067429657232431 -0.0029050722107572405 0 0.0093552069872606357 -0.0029920840715549793 0 0.0093522531207228411 -0.0028120170372286876 0 0.0092067429657232431 -0.0029050722107572405 0 0.0091129855647928571 -0.0030399263973081305 0 0.0093552069872606357 -0.0029920840715549793 0 0.0088149975627767295 -0.0028305776827392878 0 0.0090489037479031652 -0.0029042215341583536 0 0.0089671022601379505 -0.0029957775773469491 0 0.0092067429657232431 -0.0029050722107572405 0 0.0090489037479031652 -0.0029042215341583536 0 0.0091129855647928571 -0.0030399263973081305 0 0.0090489037479031652 -0.0029042215341583536 0 0.0089671022601379505 -0.0029957775773469491 0 0.0091129855647928571 -0.0030399263973081305 0 0.0089509461677704429 -0.0031228145935296775 0 0.0089671022601379505 -0.0029957775773469491 0 0.0091129855647928571 -0.0030399263973081305 0 0.0089509461677704429 -0.0031228145935296775 0 0.0091129855647928571 -0.0030399263973081305 0 0.0091621138350767 -0.0031931045184617145 0 0.0088924454133771664 -0.0031816872163751117 0 0.0089509461677704429 -0.0031228145935296775 0 0.0091621138350767 -0.0031931045184617145 0 0.0093552069872606357 -0.0029920840715549793 0 0.0091621138350767 -0.0031931045184617145 0 0.0094446689820476774 -0.0031561892595526071 0 0.0091129855647928571 -0.0030399263973081305 0 0.0093552069872606357 -0.0029920840715549793 0 0.0091621138350767 -0.0031931045184617145 0 0.0085998427047087149 -0.0028727994547420193 0 0.0090691822750264897 -0.0029572008470928083 0 0.0077654297404437765 -0.0025353887650797205 0 0.0081984667090986979 -0.0031698969558622363 0 0.0087690747863431191 -0.0027751534809419532 0 0.0076995648675913918 -0.0031770354287561906 0 0.0077654297404437765 -0.0025353887650797205 0 0.0081984667090986979 -0.0031698969558622363 0 0.0070945770265707668 -0.0029059270917462746 0 0.0085998427047087149 -0.0028727994547420193 0 0.0076995648675913918 -0.0031770354287561906 0 0.0077654297404437765 -0.0025353887650797205 0 0.0072853106186027191 -0.0030042947771695655 0 0.0067694233832756379 -0.0023921819709054352 0 0.0077654297404437765 -0.0025353887650797205 0 0.0072853106186027191 -0.0030042947771695655 0 0.0096631691910998123 -0.0030265230233913268 0 0.0094446689820476774 -0.0031561892595526071 0 0.0096089225870828257 -0.0029895198481269757 0 0.0096107400207034264 -0.0030237180359088773 0 0.0090691822750264897 -0.0029572008470928083 0 0.0088319884619516668 -0.003894560123824688 0 0.0096631691910998123 -0.0030265230233913268 0 0.0087690747863431191 -0.0027751534809419532 0 0.0093552069872606357 -0.0029920840715549793 0 0.0094446689820476774 -0.0031561892595526071 0 0.0096089225870828257 -0.0029895198481269757 0 0.0096631691910998123 -0.0030265230233913268 0 0.0096089225870828257 -0.0029895198481269757 0 0.0097303203936590244 -0.0029995639167855795 0 0.0096089225870828257 -0.0029895198481269757 0 0.0097303203936590244 -0.0029995639167855795 0 0.0097338373207832805 -0.0029469465702653161 0 0.0096089225870828257 -0.0029895198481269757 0 0.0097094882076256619 -0.0028485504695691479 0 0.0095344003282107504 -0.0028500163030363975 0 0.0096089225870828257 -0.0029895198481269757 0 0.0097094882076256619 -0.0028485504695691479 0 0.0097338373207832805 -0.0029469465702653161 0 0.0093552069872606357 -0.0029920840715549793 0 0.0095344003282107504 -0.0028500163030363975 0 0.0093522531207228411 -0.0028120170372286876 0 0.0093552069872606357 -0.0029920840715549793 0 0.0096089225870828257 -0.0029895198481269757 0 0.0095344003282107504 -0.0028500163030363975 0 0.0095344003282107504 -0.0028500163030363975 0 0.0094594601732390978 -0.0027119974475029521 0 0.0096259552879722227 -0.0026956168724256656 0 0.0093233310733270083 -0.0026396795886757807 0 0.0093522531207228411 -0.0028120170372286876 0 0.0094594601732390978 -0.0027119974475029521 0 0.0095344003282107504 -0.0028500163030363975 0 0.0093522531207228411 -0.0028120170372286876 0 0.0094594601732390978 -0.0027119974475029521 0 0.0097094882076256619 -0.0028485504695691479 0 0.0095344003282107504 -0.0028500163030363975 0 0.0096259552879722227 -0.0026956168724256656 0 0.0097094882076256619 -0.0028485504695691479 0 0.0096259552879722227 -0.0026956168724256656 0 0.0098437571631263317 -0.002710667481763305 0 0.0097094882076256619 -0.0028485504695691479 0 0.0098437571631263317 -0.002710667481763305 0 0.0099239582854188466 -0.0028852922741709995 0 0.0097094882076256619 -0.0028485504695691479 0 0.0099239582854188466 -0.0028852922741709995 0 0.0097338373207832805 -0.0029469465702653161 0 0.0098437571631263317 -0.002710667481763305 0 0.0099239582854188466 -0.0028852922741709995 0 0.010088810498283906 -0.0027665641386851263 0 0.010239598380696484 -0.0026863910483516541 0 0.010088810498283906 -0.0027665641386851263 0 0.010282484752331031 -0.0028421248605474602 0 0.010088810498283906 -0.0027665641386851263 0 0.010282484752331031 -0.0028421248605474602 0 0.010164197302933747 -0.0029002866684061848 0 0.010282484752331031 -0.0028421248605474602 0 0.010265552549216584 -0.0029481567389546145 0 0.010347038436216332 -0.0029282461301899107 0 0.010282484752331031 -0.0028421248605474602 0 0.010164197302933747 -0.0029002866684061848 0 0.010265552549216584 -0.0029481567389546145 0 0.0099239582854188466 -0.0028852922741709995 0 0.010088810498283906 -0.0027665641386851263 0 0.010164197302933747 -0.0029002866684061848 0 0.0099239582854188466 -0.0028852922741709995 0 0.010164197302933747 -0.0029002866684061848 0 0.010063603823144987 -0.0029659157838265349 0 0.010164197302933747 -0.0029002866684061848 0 0.010063603823144987 -0.0029659157838265349 0 0.010198653822551739 -0.0029877991110138979 0 0.010063603823144987 -0.0029659157838265349 0 0.010198653822551739 -0.0029877991110138979 0 0.010107176401531909 -0.0030406452239214355 0 0.010198653822551739 -0.0029877991110138979 0 0.010265552549216584 -0.0029481567389546145 0 0.010317726811195693 -0.0030090274389324677 0 0.010198653822551739 -0.0029877991110138979 0 0.010317726811195693 -0.0030090274389324677 0 0.010269865499566469 -0.0030625287046114253 0 0.010265552549216584 -0.0029481567389546145 0 0.010317726811195693 -0.0030090274389324677 0 0.010347038436216332 -0.0029282461301899107 0 0.010164197302933747 -0.0029002866684061848 0 0.010198653822551739 -0.0029877991110138979 0 0.010265552549216584 -0.0029481567389546145 0 0.010269865499566469 -0.0030625287046114253 0 0.010383802889484244 -0.003065379084875195 0 0.010340204184541318 -0.0031498141532733631 0 0.010317726811195693 -0.0030090274389324677 0 0.010269865499566469 -0.0030625287046114253 0 0.010383802889484244 -0.003065379084875195 0 0.010269865499566469 -0.0030625287046114253 0 0.010212644268208521 -0.0031098026060595364 0 0.010340204184541318 -0.0031498141532733631 0 0.010269865499566469 -0.0030625287046114253 0 0.010107176401531909 -0.0030406452239214355 0 0.010212644268208521 -0.0031098026060595364 0 0.010198653822551739 -0.0029877991110138979 0 0.010269865499566469 -0.0030625287046114253 0 0.010107176401531909 -0.0030406452239214355 0 0.010107176401531909 -0.0030406452239214355 0 0.010212644268208521 -0.0031098026060595364 0 0.010086737482795795 -0.0031022153465518651 0 0.010086737482795795 -0.0031022153465518651 0 0.0099830389653675251 -0.0030863683643118454 0 0.010003118043468753 -0.0031370793127281403 0 0.010107176401531909 -0.0030406452239214355 0 0.010086737482795795 -0.0031022153465518651 0 0.0099830389653675251 -0.0030863683643118454 0 0.010107176401531909 -0.0030406452239214355 0 0.0099830389653675251 -0.0030863683643118454 0 0.0099673853070225762 -0.0030093158721496318 0 0.0099830389653675251 -0.0030863683643118454 0 0.0098496740098892189 -0.0030705370464766618 0 0.0099673853070225762 -0.0030093158721496318 0 0.0099830389653675251 -0.0030863683643118454 0 0.009901376056128619 -0.0031541604177516462 0 0.010003118043468753 -0.0031370793127281403 0 0.0099830389653675251 -0.0030863683643118454 0 0.0098496740098892189 -0.0030705370464766618 0 0.009901376056128619 -0.0031541604177516462 0 0.0098496740098892189 -0.0030705370464766618 0 0.0098266445852154445 -0.0032395685239490798 0 0.009901376056128619 -0.0031541604177516462 0 0.0096631691910998123 -0.0030265230233913268 0 0.0098496740098892189 -0.0030705370464766618 0 0.0098266445852154445 -0.0032395685239490798 0 0.0096631691910998123 -0.0030265230233913268 0 0.0098496740098892189 -0.0030705370464766618 0 0.0097303203936590244 -0.0029995639167855795 0 0.0098496740098892189 -0.0030705370464766618 0 0.0098427712288467403 -0.0029854434750218066 0 0.0099673853070225762 -0.0030093158721496318 0 0.0099239582854188466 -0.0028852922741709995 0 0.0098427712288467403 -0.0029854434750218066 0 0.0097338373207832805 -0.0029469465702653161 0 0.0098496740098892189 -0.0030705370464766618 0 0.0098427712288467403 -0.0029854434750218066 0 0.0097303203936590244 -0.0029995639167855795 0 0.0098427712288467403 -0.0029854434750218066 0 0.0097303203936590244 -0.0029995639167855795 0 0.0097338373207832805 -0.0029469465702653161 0 0.0099239582854188466 -0.0028852922741709995 0 0.0098427712288467403 -0.0029854434750218066 0 0.0099673853070225762 -0.0030093158721496318 0 0.0099239582854188466 -0.0028852922741709995 0 0.010063603823144987 -0.0029659157838265349 0 0.0099673853070225762 -0.0030093158721496318 0 0.010063603823144987 -0.0029659157838265349 0 0.010107176401531909 -0.0030406452239214355 0 0.0099673853070225762 -0.0030093158721496318 0 0.011477178123718134 -0.0065016519896583559 0 0.012275531004130841 -0.0057609710997049658 0 0.012639155024461833 -0.0066433089700855428 0 0.012275531004130841 -0.0057609710997049658 0 0.012639155024461833 -0.0066433089700855428 0 0.013132066869439503 -0.0059655627962718052 0 0.011563565144719307 -0.0067304760767088988 0 0.011080479858897419 -0.0064252942833937683 0 0.011516854854012049 -0.0080353450056163348 0 0.011084170442068417 -0.0067942936245996644 0 0.012323533861875782 -0.007123892785907672 0 0.011080479858897419 -0.0064252942833937683 0 0.009631792588037166 -0.0062426612571906889 0 0.010636808843976707 -0.0028741145775347389 0 0.010557638475934106 -0.0029306629791808077 0 0.010490944517905334 -0.0028782433862689816 0 0.010636808843976707 -0.0028741145775347389 0 0.010490944517905334 -0.0028782433862689816 0 0.010449466177220002 -0.0027851236456008588 0 0.011080479858897419 -0.0064252942833937683 0 0.012042762955478297 -0.0042337799255823608 0 0.012275531004130841 -0.0057609710997049658 0 0.013132066869439503 -0.0059655627962718052 0 0.012823091562717917 -0.0052701398190016019 0 0.010557638475934106 -0.0029306629791808077 0 0.010433530944020769 -0.0029412549764877604 0 0.010477641454318034 -0.0030093031629571682 0 0.010557638475934106 -0.0029306629791808077 0 0.010433530944020769 -0.0029412549764877604 0 0.010490944517905334 -0.0028782433862689816 0 0.012042762955478297 -0.0042337799255823608 0 0.01135505451949312 -0.003747235890807262 0 0.010460320277942262 -0.002772127807450953 0 0.01135505451949312 -0.003747235890807262 0 0.010433530944020769 -0.0029412549764877604 0 0.010490944517905334 -0.0028782433862689816 0 0.010401058986400447 -0.0028756574861530625 0 0.010490944517905334 -0.0028782433862689816 0 0.010449466177220002 -0.0027851236456008588 0 0.010401058986400447 -0.0028756574861530625 0 0.010282484752331031 -0.0028421248605474602 0 0.010449466177220002 -0.0027851236456008588 0 0.010401058986400447 -0.0028756574861530625 0 0.010239598380696484 -0.0026863910483516541 0 0.010282484752331031 -0.0028421248605474602 0 0.010449466177220002 -0.0027851236456008588 0 0.010282484752331031 -0.0028421248605474602 0 0.010401058986400447 -0.0028756574861530625 0 0.010347038436216332 -0.0029282461301899107 0 0.010433530944020769 -0.0029412549764877604 0 0.010347038436216332 -0.0029282461301899107 0 0.010387116310065366 -0.0029945512911355105 0 0.010433530944020769 -0.0029412549764877604 0 0.010401058986400447 -0.0028756574861530625 0 0.010347038436216332 -0.0029282461301899107 0 0.010387116310065366 -0.0029945512911355105 0 0.010383802889484244 -0.003065379084875195 0 0.010463023886919727 -0.0029863439153528962 0 0.010317726811195693 -0.0030090274389324677 0 0.010347038436216332 -0.0029282461301899107 0 0.010387116310065366 -0.0029945512911355105 0 0.010317726811195693 -0.0030090274389324677 0 0.010387116310065366 -0.0029945512911355105 0 0.010383802889484244 -0.003065379084875195 0 0.010716047648940847 -0.0029063087502202321 0 0.010569971637378104 -0.0031752428285938819 0 0.011268128432100713 -0.0029204120807965724 0 0.011474949911312751 -0.0030023395284050724 0 0.011276433672384336 -0.0031597452214298643 0 0.011050534055163952 -0.0029380884270983282 0 0.011268128432100713 -0.0029204120807965724 0 0.011276433672384336 -0.0031597452214298643 0 0.011268128432100713 -0.0029204120807965724 0 0.011270170109429833 -0.0027132872508787136 0 0.011474949911312751 -0.0030023395284050724 0 0.01135505451949312 -0.003747235890807262 0 0.012371196272591898 -0.0039428092050078599 0 0.010716047648940847 -0.0029063087502202321 0 0.01135505451949312 -0.003747235890807262 0 0.011050534055163952 -0.0029380884270983282 0 0.011268128432100713 -0.0029204120807965724 0 0.011270170109429833 -0.0027132872508787136 0 0.010433530944020769 -0.0029412549764877604 0 0.010387116310065366 -0.0029945512911355105 0 0.010463023886919727 -0.0029863439153528962 0 0.013132066869439503 -0.0059655627962718052 0 0.013559636755392622 -0.0053641556063897663 0 0.012823091562717917 -0.0052701398190016019 0 0.013559636755392622 -0.0053641556063897663 0 0.012823091562717917 -0.0052701398190016019 0 0.012948514372478055 -0.0046356622541891372 0 0.012184158211688164 -0.0047356754746209467 0 0.012823091562717917 -0.0052701398190016019 0 0.012948514372478055 -0.0046356622541891372 0 0.012184158211688164 -0.0047356754746209467 0 0.012948514372478055 -0.0046356622541891372 0 0.012324528576317374 -0.0044908934288701505 0 0.012184158211688164 -0.0047356754746209467 0 0.012275531004130841 -0.0057609710997049658 0 0.012823091562717917 -0.0052701398190016019 0 0.012225808890398775 -0.0041176678782330152 0 0.012086093801990414 -0.0037997308628828813 0 0.012214873282357602 -0.0041356335288337534 0 0.012021660592885088 -0.0039339016170545698 0 0.011711069416773917 -0.0033001544008986051 0 0.012237683740569142 -0.0043694107794583275 0 0.012214873282357602 -0.0041356335288337534 0 0.012487368843424881 -0.004311115073498217 0 0.012021660592885088 -0.0039339016170545698 0 0.011745913782034422 -0.0037782399576882734 0 0.011711069416773917 -0.0033001544008986051 0 0.012021660592885088 -0.0039339016170545698 0 0.011745913782034422 -0.0037782399576882734 0 0.011798644809576948 -0.0038897020571429081 0 0.011745913782034422 -0.0037782399576882734 0 0.011592889939917287 -0.0036243986299953181 0 0.01159442616183168 -0.0037812866663102366 0 0.011745913782034422 -0.0037782399576882734 0 0.011711069416773917 -0.0033001544008986051 0 0.011592889939917287 -0.0036243986299953181 0 0.012237683740569142 -0.0043694107794583275 0 0.012324528576317374 -0.0044908934288701505 0 0.012487368843424881 -0.004311115073498217 0 0.012948514372478055 -0.0046356622541891372 0 0.012324528576317374 -0.0044908934288701505 0 0.012487368843424881 -0.004311115073498217 0 0.011474949911312751 -0.0030023395284050724 0 0.011457599793373748 -0.0033506939407739367 0 0.011276433672384336 -0.0031597452214298643 0 0.012371196272591898 -0.0039428092050078599 0 0.012086093801990414 -0.0037997308628828813 0 0.011474949911312751 -0.0030023395284050724 0 0.011711069416773917 -0.0033001544008986051 0 0.011457599793373748 -0.0033506939407739367 0 0.011457599793373748 -0.0033506939407739367 0 0.011592889939917287 -0.0036243986299953181 0 0.011441728684773063 -0.0036657844781096392 0 0.011457599793373748 -0.0033506939407739367 0 0.011441728684773063 -0.0036657844781096392 0 0.011309108800973593 -0.0034527530442376169 0 0.011711069416773917 -0.0033001544008986051 0 0.011457599793373748 -0.0033506939407739367 0 0.011592889939917287 -0.0036243986299953181 0 0.011592889939917287 -0.0036243986299953181 0 0.011441728684773063 -0.0036657844781096392 0 0.01159442616183168 -0.0037812866663102366 0 0.011309108800973593 -0.0034527530442376169 0 0.011074511128636803 -0.0032849472424082908 0 0.011131463124393557 -0.0034946851433308931 0 0.011441728684773063 -0.0036657844781096392 0 0.011309108800973593 -0.0034527530442376169 0 0.011253537628366264 -0.0036184274539618291 0 0.011309108800973593 -0.0034527530442376169 0 0.011131463124393557 -0.0034946851433308931 0 0.011253537628366264 -0.0036184274539618291 0 0.011131463124393557 -0.0034946851433308931 0 0.01109391602827514 -0.0036152943109243356 0 0.011253537628366264 -0.0036184274539618291 0 0.011309108800973593 -0.0034527530442376169 0 0.011276433672384336 -0.0031597452214298643 0 0.011074511128636803 -0.0032849472424082908 0 0.011050534055163952 -0.0029380884270983282 0 0.011276433672384336 -0.0031597452214298643 0 0.011074511128636803 -0.0032849472424082908 0 0.011457599793373748 -0.0033506939407739367 0 0.011309108800973593 -0.0034527530442376169 0 0.011276433672384336 -0.0031597452214298643 0 0.011050534055163952 -0.0029380884270983282 0 0.011074511128636803 -0.0032849472424082908 0 0.010828407643348381 -0.0031395836579550369 0 0.011074511128636803 -0.0032849472424082908 0 0.010901034151576904 -0.0033021408627881767 0 0.010828407643348381 -0.0031395836579550369 0 0.011074511128636803 -0.0032849472424082908 0 0.010901034151576904 -0.0033021408627881767 0 0.010952334464323978 -0.0034711530983679846 0 0.011074511128636803 -0.0032849472424082908 0 0.011131463124393557 -0.0034946851433308931 0 0.010952334464323978 -0.0034711530983679846 0 0.011131463124393557 -0.0034946851433308931 0 0.010952334464323978 -0.0034711530983679846 0 0.01109391602827514 -0.0036152943109243356 0 0.010952334464323978 -0.0034711530983679846 0 0.010963059908914472 -0.003630003479901828 0 0.01109391602827514 -0.0036152943109243356 0 0.010963059908914472 -0.003630003479901828 0 0.01109391602827514 -0.0036152943109243356 0 0.011089330214502771 -0.0037262643657908559 0 0.01109391602827514 -0.0036152943109243356 0 0.011089330214502771 -0.0037262643657908559 0 0.011206500406120671 -0.0037161970980812632 0 0.010963059908914472 -0.003630003479901828 0 0.011089330214502771 -0.0037262643657908559 0 0.010925601058670334 -0.0037410565483796221 0 0.011138581169438522 -0.0038360689730255518 0 0.010925601058670334 -0.0037410565483796221 0 0.01106357981965147 -0.0038912001553353471 0 0.011089330214502771 -0.0037262643657908559 0 0.011138581169438522 -0.0038360689730255518 0 0.010925601058670334 -0.0037410565483796221 0 0.011089330214502771 -0.0037262643657908559 0 0.011138581169438522 -0.0038360689730255518 0 0.011230706563243332 -0.0037999567521995281 0 0.011138581169438522 -0.0038360689730255518 0 0.011230706563243332 -0.0037999567521995281 0 0.011280623513752057 -0.0038646093938813327 0 0.011138581169438522 -0.0038360689730255518 0 0.011280623513752057 -0.0038646093938813327 0 0.011222781315351701 -0.0038990994584002575 0 0.011280623513752057 -0.0038646093938813327 0 0.011351940216435812 -0.0038357246205164381 0 0.01139110751634015 -0.0038782838133314848 0 0.011280623513752057 -0.0038646093938813327 0 0.01139110751634015 -0.0038782838133314848 0 0.011332718878265617 -0.0039032989543001909 0 0.011230706563243332 -0.0037999567521995281 0 0.011280623513752057 -0.0038646093938813327 0 0.011351940216435812 -0.0038357246205164381 0 0.011230706563243332 -0.0037999567521995281 0 0.011351940216435812 -0.0038357246205164381 0 0.011290209657927888 -0.0037738519164664274 0 0.011290209657927888 -0.0037738519164664274 0 0.011206500406120671 -0.0037161970980812632 0 0.011351173162106609 -0.003738347920895595 0 0.011351940216435812 -0.0038357246205164381 0 0.011290209657927888 -0.0037738519164664274 0 0.011410081975615624 -0.0038097986786788029 0 0.011290209657927888 -0.0037738519164664274 0 0.011351173162106609 -0.003738347920895595 0 0.011410081975615624 -0.0038097986786788029 0 0.011089330214502771 -0.0037262643657908559 0 0.011230706563243332 -0.0037999567521995281 0 0.011206500406120671 -0.0037161970980812632 0 0.011230706563243332 -0.0037999567521995281 0 0.011290209657927888 -0.0037738519164664274 0 0.011206500406120671 -0.0037161970980812632 0 0.01109391602827514 -0.0036152943109243356 0 0.011206500406120671 -0.0037161970980812632 0 0.011253537628366264 -0.0036184274539618291 0 0.011206500406120671 -0.0037161970980812632 0 0.011253537628366264 -0.0036184274539618291 0 0.011351173162106609 -0.003738347920895595 0 0.011441728684773063 -0.0036657844781096392 0 0.011253537628366264 -0.0036184274539618291 0 0.011351173162106609 -0.003738347920895595 0 0.011441728684773063 -0.0036657844781096392 0 0.011351173162106609 -0.003738347920895595 0 0.011487622377034819 -0.0038027186015224647 0 0.01159442616183168 -0.0037812866663102366 0 0.011487622377034819 -0.0038027186015224647 0 0.011590859210506774 -0.0038584258195854034 0 0.011441728684773063 -0.0036657844781096392 0 0.01159442616183168 -0.0037812866663102366 0 0.011487622377034819 -0.0038027186015224647 0 0.011487622377034819 -0.0038027186015224647 0 0.011590859210506774 -0.0038584258195854034 0 0.01148008076728476 -0.0038593888920256821 0 0.011590859210506774 -0.0038584258195854034 0 0.01148008076728476 -0.0038593888920256821 0 0.011582482200698064 -0.0038873944615427725 0 0.011487622377034819 -0.0038027186015224647 0 0.011410081975615624 -0.0038097986786788029 0 0.01148008076728476 -0.0038593888920256821 0 0.011351173162106609 -0.003738347920895595 0 0.011487622377034819 -0.0038027186015224647 0 0.011410081975615624 -0.0038097986786788029 0 0.011351940216435812 -0.0038357246205164381 0 0.011410081975615624 -0.0038097986786788029 0 0.01148008076728476 -0.0038593888920256821 0 0.011351940216435812 -0.0038357246205164381 0 0.01139110751634015 -0.0038782838133314848 0 0.01148008076728476 -0.0038593888920256821 0 0.01139110751634015 -0.0038782838133314848 0 0.011421120010693083 -0.0039013837995356079 0 0.011332718878265617 -0.0039032989543001909 0 0.01139110751634015 -0.0038782838133314848 0 0.011479387247833638 -0.0038897544453737583 0 0.011421120010693083 -0.0039013837995356079 0 0.011479387247833638 -0.0038897544453737583 0 0.011489069470572348 -0.0039054039588494707 0 0.011421120010693083 -0.0039013837995356079 0 0.01139110751634015 -0.0038782838133314848 0 0.011479387247833638 -0.0038897544453737583 0 0.01148008076728476 -0.0038593888920256821 0 0.011479387247833638 -0.0038897544453737583 0 0.01148008076728476 -0.0038593888920256821 0 0.011582482200698064 -0.0038873944615427725 0 0.011582482200698064 -0.0038873944615427725 0 0.011538578460489019 -0.0038924538822172716 0 0.011684917329819192 -0.0038981761161550987 0 0.011479387247833638 -0.0038897544453737583 0 0.011582482200698064 -0.0038873944615427725 0 0.011538578460489019 -0.0038924538822172716 0 0.011538578460489019 -0.0038924538822172716 0 0.011560318015033528 -0.0038889283498421603 0 0.011489069470572348 -0.0039054039588494707 0 0.011479387247833638 -0.0038897544453737583 0 0.011538578460489019 -0.0038924538822172716 0 0.011489069470572348 -0.0039054039588494707 0 0.011538578460489019 -0.0038924538822172716 0 0.011560318015033528 -0.0038889283498421603 0 0.011684917329819192 -0.0038981761161550987 0 0.01201092436372473 -0.003863876970455626 0 0.011896079757361558 -0.0043305086444326785 0 0.012021660592885088 -0.0039339016170545698 0 0.011560318015033528 -0.0038889283498421603 0 0.011684917329819192 -0.0038981761161550987 0 0.012214873282357602 -0.0041356335288337534 0 0.012021660592885088 -0.0039339016170545698 0 0.012288970478849052 -0.0043967711490989327 0 0.012021660592885088 -0.0039339016170545698 0 0.012305000705232235 -0.0046046361336427857 0 0.012288970478849052 -0.0043967711490989327 0 0.011684917329819192 -0.0038981761161550987 0 0.011670779788460773 -0.0038843281818115591 0 0.011798644809576948 -0.0038897020571429081 0 0.011582482200698064 -0.0038873944615427725 0 0.011684917329819192 -0.0038981761161550987 0 0.011670779788460773 -0.0038843281818115591 0 0.011590859210506774 -0.0038584258195854034 0 0.011582482200698064 -0.0038873944615427725 0 0.011670779788460773 -0.0038843281818115591 0 0.011590859210506774 -0.0038584258195854034 0 0.011670779788460773 -0.0038843281818115591 0 0.011706297896207108 -0.0038619809143532347 0 0.011745913782034422 -0.0037782399576882734 0 0.01159442616183168 -0.0037812866663102366 0 0.011706297896207108 -0.0038619809143532347 0 0.01159442616183168 -0.0037812866663102366 0 0.011590859210506774 -0.0038584258195854034 0 0.011706297896207108 -0.0038619809143532347 0 0.011745913782034422 -0.0037782399576882734 0 0.011706297896207108 -0.0038619809143532347 0 0.011798644809576948 -0.0038897020571429081 0 0.011670779788460773 -0.0038843281818115591 0 0.011706297896207108 -0.0038619809143532347 0 0.011798644809576948 -0.0038897020571429081 0 0.012021660592885088 -0.0039339016170545698 0 0.011684917329819192 -0.0038981761161550987 0 0.011798644809576948 -0.0038897020571429081 0 0.010234031034239217 -0.0033595969743760866 0 0.010294477126618932 -0.0030272816496900263 0 0.010032918445048139 -0.0031798497394479857 0 0.010329165178651099 -0.0032710596751711935 0 0.0097929155189032391 -0.0031039461657196075 0 0.0099364335006539781 -0.0031541635652059361 0 0.009890367772505489 -0.0031375911041931323 0 0.0099133186939376373 -0.0031484095399432039 0 0.0099364335006539781 -0.0031541635652059361 0 0.0099133186939376373 -0.0031484095399432039 0 0.0099592920532534743 -0.0031603217203938511 0 0.009890367772505489 -0.0031375911041931323 0 0.0099133186939376373 -0.0031484095399432039 0 0.0098784865817205161 -0.0031374612362546858 0 0.0099133186939376373 -0.0031484095399432039 0 0.0098784865817205161 -0.0031374612362546858 0 0.0099241668085859654 -0.0031552883134887662 0 0.0099133186939376373 -0.0031484095399432039 0 0.0099592920532534743 -0.0031603217203938511 0 0.0099241668085859654 -0.0031552883134887662 0 0.0099592920532534743 -0.0031603217203938511 0 0.010017898252557292 -0.0031721188606608467 0 0.0099857627985351239 -0.0031603172957171198 0 0.0099592920532534743 -0.0031603217203938511 0 0.010017898252557292 -0.0031721188606608467 0 0.0099929826289488783 -0.0031689652611443758 0 0.010057523458745464 -0.0031860036696204921 0 0.010075865383589079 -0.0031709923163333489 0 0.010138644916132649 -0.0032068695448785934 0 0.010017898252557292 -0.0031721188606608467 0 0.010057523458745464 -0.0031860036696204921 0 0.010075865383589079 -0.0031709923163333489 0 0.010017898252557292 -0.0031721188606608467 0 0.010057523458745464 -0.0031860036696204921 0 0.0099929826289488783 -0.0031689652611443758 0 0.010057523458745464 -0.0031860036696204921 0 0.0099929826289488783 -0.0031689652611443758 0 0.010032918445048139 -0.0031798497394479857 0 0.010057523458745464 -0.0031860036696204921 0 0.010032918445048139 -0.0031798497394479857 0 0.010138644916132649 -0.0032068695448785934 0 0.0099364335006539781 -0.0031541635652059361 0 0.0099592920532534743 -0.0031603217203938511 0 0.0099929826289488783 -0.0031689652611443758 0 0.0099929826289488783 -0.0031689652611443758 0 0.0099546086488074264 -0.0031579992727523219 0 0.010032918445048139 -0.0031798497394479857 0 0.0099364335006539781 -0.0031541635652059361 0 0.0099929826289488783 -0.0031689652611443758 0 0.0099546086488074264 -0.0031579992727523219 0 0.010389412686080429 -0.0034383205310903279 0 0.010343646031233401 -0.0035770012917920226 0 0.01039371385943425 -0.0035167388765322597 0 0.0099546086488074264 -0.0031579992727523219 0 0.010032918445048139 -0.0031798497394479857 0 0.0099074811569908796 -0.0031407045759408066 0 0.010032918445048139 -0.0031798497394479857 0 0.0099074811569908796 -0.0031407045759408066 0 0.0097929155189032391 -0.0031039461657196075 0 0.0099074811569908796 -0.0031407045759408066 0 0.0098558996329311723 -0.0031225398805983461 0 0.0098231977009279377 -0.0031126895831289584 0 0.0099074811569908796 -0.0031407045759408066 0 0.0098558996329311723 -0.0031225398805983461 0 0.0098720521869900407 -0.0031277719175795624 0 0.0098720521869900407 -0.0031277719175795624 0 0.0099072235302489816 -0.0031427766485901628 0 0.0098640352317994583 -0.0031216147531533569 0 0.0098558996329311723 -0.0031225398805983461 0 0.0098720521869900407 -0.0031277719175795624 0 0.0098438979687120627 -0.0031101656773585788 0 0.0099074811569908796 -0.0031407045759408066 0 0.0098720521869900407 -0.0031277719175795624 0 0.0099072235302489816 -0.0031427766485901628 0 0.0099364335006539781 -0.0031541635652059361 0 0.009890367772505489 -0.0031375911041931323 0 0.0099072235302489816 -0.0031427766485901628 0 0.0099546086488074264 -0.0031579992727523219 0 0.0099074811569908796 -0.0031407045759408066 0 0.0099072235302489816 -0.0031427766485901628 0 0.0099364335006539781 -0.0031541635652059361 0 0.0099546086488074264 -0.0031579992727523219 0 0.0099072235302489816 -0.0031427766485901628 0 0.009890367772505489 -0.0031375911041931323 0 0.0098640352317994583 -0.0031216147531533569 0 0.0098574968915075417 -0.0031115142848837192 0 0.009890367772505489 -0.0031375911041931323 0 0.0099072235302489816 -0.0031427766485901628 0 0.0098640352317994583 -0.0031216147531533569 0 0.0098640352317994583 -0.0031216147531533569 0 0.0098438979687120627 -0.0031101656773585788 0 0.009839560081926246 -0.0030904198216891131 0 0.0098720521869900407 -0.0031277719175795624 0 0.0098640352317994583 -0.0031216147531533569 0 0.0098438979687120627 -0.0031101656773585788 0 0.0098558996329311723 -0.0031225398805983461 0 0.0098438979687120627 -0.0031101656773585788 0 0.0098299325636254428 -0.0031063734660046662 0 0.0098574968915075417 -0.0031115142848837192 0 0.0098467287153619788 -0.0030620969867631159 0 0.0098565336015287164 -0.0031225607329629333 0 0.009839560081926246 -0.0030904198216891131 0 0.0098574968915075417 -0.0031115142848837192 0 0.0098467287153619788 -0.0030620969867631159 0 0.0098640352317994583 -0.0031216147531533569 0 0.009839560081926246 -0.0030904198216891131 0 0.0098574968915075417 -0.0031115142848837192 0 0.0098724916798138291 -0.0030364018383955554 0 0.0098467287153619788 -0.0030620969867631159 0 0.0098510139138759337 -0.0029498869853325149 0 0.0098724916798138291 -0.0030364018383955554 0 0.0098467287153619788 -0.0030620969867631159 0 0.0098565336015287164 -0.0031225607329629333 0 0.0098565336015287164 -0.0031225607329629333 0 0.0098784865817205161 -0.0031374612362546858 0 0.0098822695404687851 -0.0031597227134422391 0 0.009890367772505489 -0.0031375911041931323 0 0.0098574968915075417 -0.0031115142848837192 0 0.0098784865817205161 -0.0031374612362546858 0 0.0098574968915075417 -0.0031115142848837192 0 0.0098565336015287164 -0.0031225607329629333 0 0.0098784865817205161 -0.0031374612362546858 0 0.0098784865817205161 -0.0031374612362546858 0 0.0098822695404687851 -0.0031597227134422391 0 0.0099241668085859654 -0.0031552883134887662 0 0.0098921331113239041 -0.0031237503530387877 0 0.0098565336015287164 -0.0031225607329629333 0 0.0098508299627859761 -0.0031746122400045686 0 0.0098565336015287164 -0.0031225607329629333 0 0.0098822695404687851 -0.0031597227134422391 0 0.0098508299627859761 -0.0031746122400045686 0 0.0098921331113239041 -0.0031237503530387877 0 0.0098508299627859761 -0.0031746122400045686 0 0.0098266445852154445 -0.0032395685239490798 0 0.0098508299627859761 -0.0031746122400045686 0 0.0098266445852154445 -0.0032395685239490798 0 0.009901376056128619 -0.0031541604177516462 0 0.0098822695404687851 -0.0031597227134422391 0 0.0098508299627859761 -0.0031746122400045686 0 0.009901376056128619 -0.0031541604177516462 0 0.0098822695404687851 -0.0031597227134422391 0 0.009901376056128619 -0.0031541604177516462 0 0.0099355289057191983 -0.0031536410006231647 0 0.009901376056128619 -0.0031541604177516462 0 0.0099355289057191983 -0.0031536410006231647 0 0.010003118043468753 -0.0031370793127281403 0 0.0099355289057191983 -0.0031536410006231647 0 0.0099857627985351239 -0.0031603172957171198 0 0.010003118043468753 -0.0031370793127281403 0 0.0098822695404687851 -0.0031597227134422391 0 0.0099355289057191983 -0.0031536410006231647 0 0.0099241668085859654 -0.0031552883134887662 0 0.0099592920532534743 -0.0031603217203938511 0 0.0099241668085859654 -0.0031552883134887662 0 0.0099857627985351239 -0.0031603172957171198 0 0.0099355289057191983 -0.0031536410006231647 0 0.0099241668085859654 -0.0031552883134887662 0 0.0099857627985351239 -0.0031603172957171198 0 0.010075865383589079 -0.0031709923163333489 0 0.0099857627985351239 -0.0031603172957171198 0 0.010003118043468753 -0.0031370793127281403 0 0.010017898252557292 -0.0031721188606608467 0 0.010075865383589079 -0.0031709923163333489 0 0.0099857627985351239 -0.0031603172957171198 0 0.010075865383589079 -0.0031709923163333489 0 0.010003118043468753 -0.0031370793127281403 0 0.01013053411669569 -0.0031453253387568282 0 0.010086737482795795 -0.0031022153465518651 0 0.010003118043468753 -0.0031370793127281403 0 0.01013053411669569 -0.0031453253387568282 0 0.010212644268208521 -0.0031098026060595364 0 0.010086737482795795 -0.0031022153465518651 0 0.01013053411669569 -0.0031453253387568282 0 0.010249658395538843 -0.0031662003478202497 0 0.010329165178651099 -0.0032710596751711935 0 0.010340204184541318 -0.0031498141532733631 0 0.010212644268208521 -0.0031098026060595364 0 0.01013053411669569 -0.0031453253387568282 0 0.010249658395538843 -0.0031662003478202497 0 0.010249658395538843 -0.0031662003478202497 0 0.010329165178651099 -0.0032710596751711935 0 0.010180625358478104 -0.0031882298361128143 0 0.010329165178651099 -0.0032710596751711935 0 0.010180625358478104 -0.0031882298361128143 0 0.010138644916132649 -0.0032068695448785934 0 0.010075865383589079 -0.0031709923163333489 0 0.010180625358478104 -0.0031882298361128143 0 0.010138644916132649 -0.0032068695448785934 0 0.010075865383589079 -0.0031709923163333489 0 0.01013053411669569 -0.0031453253387568282 0 0.010180625358478104 -0.0031882298361128143 0 0.01013053411669569 -0.0031453253387568282 0 0.010249658395538843 -0.0031662003478202497 0 0.010180625358478104 -0.0031882298361128143 0 0.010329165178651099 -0.0032710596751711935 0 0.010340204184541318 -0.0031498141532733631 0 0.010447782025529418 -0.0033505918819619423 0 0.010569971637378104 -0.0031752428285938819 0 0.010441573702585758 -0.0033420194044478167 0 0.010901034151576904 -0.0033021408627881767 0 0.010828407643348381 -0.0031395836579550369 0 0.010754731418298514 -0.0033859142933430038 0 0.010212644268208521 -0.0031098026060595364 0 0.010249658395538843 -0.0031662003478202497 0 0.010340204184541318 -0.0031498141532733631 0 0.010828407643348381 -0.0031395836579550369 0 0.010754731418298514 -0.0033859142933430038 0 0.010447782025529418 -0.0033505918819619423 0 0.010901034151576904 -0.0033021408627881767 0 0.010952334464323978 -0.0034711530983679846 0 0.010754731418298514 -0.0033859142933430038 0 0.010754731418298514 -0.0033859142933430038 0 0.010619779572351789 -0.0034588306542081499 0 0.010447782025529418 -0.0033505918819619423 0 0.010754731418298514 -0.0033859142933430038 0 0.010619779572351789 -0.0034588306542081499 0 0.010738268637816482 -0.003564242680745617 0 0.010619779572351789 -0.0034588306542081499 0 0.010544343842144548 -0.0035056295978467761 0 0.010738268637816482 -0.003564242680745617 0 0.010952334464323978 -0.0034711530983679846 0 0.010754731418298514 -0.0033859142933430038 0 0.010738268637816482 -0.003564242680745617 0 0.010329165178651099 -0.0032710596751711935 0 0.010389412686080429 -0.0034383205310903279 0 0.010343646031233401 -0.0035770012917920226 0 0.010032918445048139 -0.0031798497394479857 0 0.010329165178651099 -0.0032710596751711935 0 0.010138644916132649 -0.0032068695448785934 0 0.010329165178651099 -0.0032710596751711935 0 0.010447782025529418 -0.0033505918819619423 0 0.010389412686080429 -0.0034383205310903279 0 0.010619779572351789 -0.0034588306542081499 0 0.010447782025529418 -0.0033505918819619423 0 0.010544343842144548 -0.0035056295978467761 0 0.010447782025529418 -0.0033505918819619423 0 0.010443989891963001 -0.0034210966209929972 0 0.010389412686080429 -0.0034383205310903279 0 0.010447782025529418 -0.0033505918819619423 0 0.010544343842144548 -0.0035056295978467761 0 0.010443989891963001 -0.0034210966209929972 0 0.010544343842144548 -0.0035056295978467761 0 0.010443989891963001 -0.0034210966209929972 0 0.010416979846424467 -0.0034909976792197039 0 0.010443989891963001 -0.0034210966209929972 0 0.010389412686080429 -0.0034383205310903279 0 0.010416979846424467 -0.0034909976792197039 0 0.010389412686080429 -0.0034383205310903279 0 0.010416979846424467 -0.0034909976792197039 0 0.01039371385943425 -0.0035167388765322597 0 0.01061861615912774 -0.0036332682040287694 0 0.010478549464303703 -0.0036217938089220364 0 0.010650161266755897 -0.0038464906389596497 0 0.010416979846424467 -0.0034909976792197039 0 0.01061861615912774 -0.0036332682040287694 0 0.010478549464303703 -0.0036217938089220364 0 0.010416979846424467 -0.0034909976792197039 0 0.010478549464303703 -0.0036217938089220364 0 0.01039371385943425 -0.0035167388765322597 0 0.010544343842144548 -0.0035056295978467761 0 0.010416979846424467 -0.0034909976792197039 0 0.01061861615912774 -0.0036332682040287694 0 0.010544343842144548 -0.0035056295978467761 0 0.01061861615912774 -0.0036332682040287694 0 0.010738268637816482 -0.003564242680745617 0 0.01061861615912774 -0.0036332682040287694 0 0.010738268637816482 -0.003564242680745617 0 0.010925601058670334 -0.0037410565483796221 0 0.010952334464323978 -0.0034711530983679846 0 0.010963059908914472 -0.003630003479901828 0 0.010738268637816482 -0.003564242680745617 0 0.010963059908914472 -0.003630003479901828 0 0.010738268637816482 -0.003564242680745617 0 0.010925601058670334 -0.0037410565483796221 0 0.010925601058670334 -0.0037410565483796221 0 0.010650161266755897 -0.0038464906389596497 0 0.01106357981965147 -0.0038912001553353471 0 0.01061861615912774 -0.0036332682040287694 0 0.010925601058670334 -0.0037410565483796221 0 0.010650161266755897 -0.0038464906389596497 0 0.011031480758782347 -0.0025853678792572602 0 0.010669717700368902 -0.0024701553070411776 0 0.010738934766248197 -0.002754751433978994 0 0.010869956357600621 -0.0031699370064596538 0 0.010294477126618932 -0.0030272816496900263 0 0.011031480758782347 -0.0025853678792572602 0 0.010669717700368902 -0.0024701553070411776 0 0.010718526636459141 -0.0020484550641843781 0 0.010478549464303703 -0.0036217938089220364 0 0.010650161266755897 -0.0038464906389596497 0 0.010343646031233401 -0.0035770012917920226 0 0.0097929155189032391 -0.0031039461657196075 0 0.0098194996660247828 -0.0030840482433749481 0 0.0098274890092875967 -0.0030197229524600226 0 0.0097929155189032391 -0.0031039461657196075 0 0.0098194996660247828 -0.0030840482433749481 0 0.0098299325636254428 -0.0031063734660046662 0 0.0098438979687120627 -0.0031101656773585788 0 0.0098194996660247828 -0.0030840482433749481 0 0.0098299325636254428 -0.0031063734660046662 0 0.0098438979687120627 -0.0031101656773585788 0 0.009839560081926246 -0.0030904198216891131 0 0.0098194996660247828 -0.0030840482433749481 0 0.0099074811569908796 -0.0031407045759408066 0 0.0097929155189032391 -0.0031039461657196075 0 0.0098231977009279377 -0.0031126895831289584 0 0.0097929155189032391 -0.0031039461657196075 0 0.0098299325636254428 -0.0031063734660046662 0 0.0098231977009279377 -0.0031126895831289584 0 0.0098558996329311723 -0.0031225398805983461 0 0.0098299325636254428 -0.0031063734660046662 0 0.0098231977009279377 -0.0031126895831289584 0 0.010478549464303703 -0.0036217938089220364 0 0.010343646031233401 -0.0035770012917920226 0 0.01039371385943425 -0.0035167388765322597 0 0.0097929155189032391 -0.0031039461657196075 0 0.0098274890092875967 -0.0030197229524600226 0 0.009825047531227744 -0.0027113797016904868 0 0.0098510139138759337 -0.0029498869853325149 0 0.0098274890092875967 -0.0030197229524600226 0 0.009825047531227744 -0.0027113797016904868 0 0.010294477126618932 -0.0030272816496900263 0 0.01012953107210011 -0.0024795315166806424 0 0.0098467287153619788 -0.0030620969867631159 0 0.0098510139138759337 -0.0029498869853325149 0 0.0098274890092875967 -0.0030197229524600226 0 0.009839560081926246 -0.0030904198216891131 0 0.0098467287153619788 -0.0030620969867631159 0 0.0098274890092875967 -0.0030197229524600226 0 0.009839560081926246 -0.0030904198216891131 0 0.0098194996660247828 -0.0030840482433749481 0 0.0098274890092875967 -0.0030197229524600226 0 0.010669717700368902 -0.0024701553070411776 0 0.010361938027932794 -0.0023685910237304171 0 0.010408145431577923 -0.0027357396903270482 0 0.010669717700368902 -0.0024701553070411776 0 0.010718526636459141 -0.0020484550641843781 0 0.010361938027932794 -0.0023685910237304171 0 0.010609009829268301 -0.0030969565480088645 0 0.010738934766248197 -0.002754751433978994 0 0.01130288768504706 -0.0031397431713398125 0 0.010609009829268301 -0.0030969565480088645 0 0.01130288768504706 -0.0031397431713398125 0 0.010839672730782924 -0.0034130130966367831 0 0.010408145431577923 -0.0027357396903270482 0 0.010609009829268301 -0.0030969565480088645 0 0.010738934766248197 -0.002754751433978994 0 0.010669717700368902 -0.0024701553070411776 0 0.010408145431577923 -0.0027357396903270482 0 0.010738934766248197 -0.002754751433978994 0 0.010408145431577923 -0.0027357396903270482 0 0.010609009829268301 -0.0030969565480088645 0 0.010052589802293005 -0.0031150873031322549 0 0.010869956357600621 -0.0031699370064596538 0 0.01117232618343127 -0.0035347643739415519 0 0.011031480758782347 -0.0025853678792572602 0 0.010738934766248197 -0.002754751433978994 0 0.01130288768504706 -0.0031397431713398125 0 0.01106357981965147 -0.0038912001553353471 0 0.011080300883344758 -0.00396367743850797 0 0.011200364407633102 -0.0039137446767727206 0 0.010650161266755897 -0.0038464906389596497 0 0.01106357981965147 -0.0038912001553353471 0 0.011080300883344758 -0.00396367743850797 0 0.011203966688442688 -0.0034410842686895455 0 0.011062916295917258 -0.0035316414158228283 0 0.010839672730782924 -0.0034130130966367831 0 0.01130288768504706 -0.0031397431713398125 0 0.011203966688442688 -0.0034410842686895455 0 0.010839672730782924 -0.0034130130966367831 0 0.011203966688442688 -0.0034410842686895455 0 0.011281564794270638 -0.0035517053957022189 0 0.011062916295917258 -0.0035316414158228283 0 0.01117232618343127 -0.0035347643739415519 0 0.011320097656519165 -0.0036126726940773814 0 0.01130288768504706 -0.0031397431713398125 0 0.011203966688442688 -0.0034410842686895455 0 0.011347837825844321 -0.0036360328357301869 0 0.011203966688442688 -0.0034410842686895455 0 0.011281564794270638 -0.0035517053957022189 0 0.011347837825844321 -0.0036360328357301869 0 0.011281564794270638 -0.0035517053957022189 0 0.011347837825844321 -0.0036360328357301869 0 0.011364295829525984 -0.003518549885477595 0 0.011281564794270638 -0.0035517053957022189 0 0.011292900813288421 -0.00358904342436358 0 0.011364295829525984 -0.003518549885477595 0 0.011292900813288421 -0.00358904342436358 0 0.011364295829525984 -0.003518549885477595 0 0.011377456866676662 -0.0035782528531143067 0 0.011281564794270638 -0.0035517053957022189 0 0.011062916295917258 -0.0035316414158228283 0 0.011158926747059504 -0.0036071586442863101 0 0.011281564794270638 -0.0035517053957022189 0 0.011292900813288421 -0.00358904342436358 0 0.011158926747059504 -0.0036071586442863101 0 0.011062916295917258 -0.0035316414158228283 0 0.011158926747059504 -0.0036071586442863101 0 0.010987802152249015 -0.0036529195786599747 0 0.010987802152249015 -0.0036529195786599747 0 0.010889206802955017 -0.0035702233892279294 0 0.010640320142745976 -0.0036759438064419953 0 0.010640320142745976 -0.0036759438064419953 0 0.010839672730782924 -0.0034130130966367831 0 0.010137743131325557 -0.0036318053117966906 0 0.010987802152249015 -0.0036529195786599747 0 0.010640320142745976 -0.0036759438064419953 0 0.010842168862145505 -0.0037395570743454279 0 0.010609009829268301 -0.0030969565480088645 0 0.010839672730782924 -0.0034130130966367831 0 0.010137743131325557 -0.0036318053117966906 0 0.010889206802955017 -0.0035702233892279294 0 0.010640320142745976 -0.0036759438064419953 0 0.010839672730782924 -0.0034130130966367831 0 0.011062916295917258 -0.0035316414158228283 0 0.010987802152249015 -0.0036529195786599747 0 0.010889206802955017 -0.0035702233892279294 0 0.011062916295917258 -0.0035316414158228283 0 0.010889206802955017 -0.0035702233892279294 0 0.010839672730782924 -0.0034130130966367831 0 0.012350806490221794 -0.0041365723853385361 0 0.012686340165513956 -0.0036621971851439304 0 0.011143895242737616 -0.0038577427065933979 0 0.01116136223725326 -0.0038440406871562468 0 0.011134813447411162 -0.003824291180466303 0 0.012350806490221794 -0.0041365723853385361 0 0.011128021393496954 -0.0039438362470754027 0 0.011488227992777765 -0.0039436907174012562 0 0.011398112733005466 -0.0039237683952517309 0 0.011350564798302099 -0.0039520171435097114 0 0.011488227992777765 -0.0039436907174012562 0 0.011489069470572348 -0.0039054039588494707 0 0.011398112733005466 -0.0039237683952517309 0 0.011896079757361558 -0.0043305086444326785 0 0.012350806490221794 -0.0041365723853385361 0 0.011560318015033528 -0.0038889283498421603 0 0.011488227992777765 -0.0039436907174012562 0 0.011489069470572348 -0.0039054039588494707 0 0.011489069470572348 -0.0039054039588494707 0 0.011398112733005466 -0.0039237683952517309 0 0.011421120010693083 -0.0039013837995356079 0 0.011398112733005466 -0.0039237683952517309 0 0.011421120010693083 -0.0039013837995356079 0 0.011332718878265617 -0.0039032989543001909 0 0.011398112733005466 -0.0039237683952517309 0 0.011332718878265617 -0.0039032989543001909 0 0.011279505794483455 -0.0039215858863495198 0 0.011398112733005466 -0.0039237683952517309 0 0.011350564798302099 -0.0039520171435097114 0 0.011279505794483455 -0.0039215858863495198 0 0.011350564798302099 -0.0039520171435097114 0 0.011279505794483455 -0.0039215858863495198 0 0.01121278399539165 -0.0038466797690991897 0 0.011128021393496954 -0.0039438362470754027 0 0.01127949909326322 -0.0038284455712638459 0 0.011200364407633102 -0.0039137446767727206 0 0.011229744310187388 -0.0038344931922120714 0 0.01121278399539165 -0.0038466797690991897 0 0.011279505794483455 -0.0039215858863495198 0 0.011200364407633102 -0.0039137446767727206 0 0.01121278399539165 -0.0038466797690991897 0 0.011279505794483455 -0.0039215858863495198 0 0.011222781315351701 -0.0038990994584002575 0 0.011200364407633102 -0.0039137446767727206 0 0.011332718878265617 -0.0039032989543001909 0 0.011279505794483455 -0.0039215858863495198 0 0.011222781315351701 -0.0038990994584002575 0 0.011280623513752057 -0.0038646093938813327 0 0.011332718878265617 -0.0039032989543001909 0 0.011222781315351701 -0.0038990994584002575 0 0.01106357981965147 -0.0038912001553353471 0 0.011222781315351701 -0.0038990994584002575 0 0.011200364407633102 -0.0039137446767727206 0 0.011138581169438522 -0.0038360689730255518 0 0.01106357981965147 -0.0038912001553353471 0 0.011222781315351701 -0.0038990994584002575 0 0.011080300883344758 -0.00396367743850797 0 0.011200364407633102 -0.0039137446767727206 0 0.011229744310187388 -0.0038344931922120714 0 0.011080300883344758 -0.00396367743850797 0 0.011229744310187388 -0.0038344931922120714 0 0.011347837825844321 -0.0036360328357301869 0 0.011229744310187388 -0.0038344931922120714 0 0.011253513527649806 -0.0037224050068264277 0 0.011347837825844321 -0.0036360328357301869 0 0.011467827782553038 -0.003502699147942186 0 0.01131887863129704 -0.0034036968376660853 0 0.011253513527649806 -0.0037224050068264277 0 0.011347837825844321 -0.0036360328357301869 0 0.011364295829525984 -0.003518549885477595 0 0.011253513527649806 -0.0037224050068264277 0 0.011364295829525984 -0.003518549885477595 0 0.011174505488084147 -0.0037303045364826251 0 0.011778105348159928 -0.0031103941950288579 0 0.011892147896489458 -0.0033283022137475761 0 0.011599282995664779 -0.0034157255801671622 0 0.011364295829525984 -0.003518549885477595 0 0.011778105348159928 -0.0031103941950288579 0 0.011599282995664779 -0.0034157255801671622 0 0.011229744310187388 -0.0038344931922120714 0 0.011253513527649806 -0.0037224050068264277 0 0.01121278399539165 -0.0038466797690991897 0 0.011253513527649806 -0.0037224050068264277 0 0.011174505488084147 -0.0037303045364826251 0 0.01121278399539165 -0.0038466797690991897 0 0.01116136223725326 -0.0038440406871562468 0 0.01121278399539165 -0.0038466797690991897 0 0.011154243477443763 -0.0037979379000898611 0 0.011174505488084147 -0.0037303045364826251 0 0.01121278399539165 -0.0038466797690991897 0 0.011154243477443763 -0.0037979379000898611 0 0.01116136223725326 -0.0038440406871562468 0 0.011154243477443763 -0.0037979379000898611 0 0.011140975457618345 -0.0038065874218292006 0 0.011778105348159928 -0.0031103941950288579 0 0.0121130423154802 -0.0031127917504257508 0 0.012448238754101167 -0.0028560604542035681 0 0.011174505488084147 -0.0037303045364826251 0 0.011154243477443763 -0.0037979379000898611 0 0.011130292208661068 -0.0037891488537401033 0 0.01131887863129704 -0.0034036968376660853 0 0.012541312125813589 -0.0035110129992255391 0 0.011778105348159928 -0.0031103941950288579 0 0.0121130423154802 -0.0031127917504257508 0 0.011892147896489458 -0.0033283022137475761 0 0.0121130423154802 -0.0031127917504257508 0 0.012162578518446671 -0.0032374044325680965 0 0.011892147896489458 -0.0033283022137475761 0 0.0121130423154802 -0.0031127917504257508 0 0.012304171549400285 -0.0030807760930514397 0 0.012448238754101167 -0.0028560604542035681 0 0.012304171549400285 -0.0030807760930514397 0 0.012396715535812161 -0.0032485976770277045 0 0.012162578518446671 -0.0032374044325680965 0 0.0121130423154802 -0.0031127917504257508 0 0.012304171549400285 -0.0030807760930514397 0 0.012162578518446671 -0.0032374044325680965 0 0.01267301174702563 -0.0030710833240303621 0 0.012469645167995591 -0.0030809086599999057 0 0.01245647729769569 -0.0029189078059244345 0 0.01267301174702563 -0.0030710833240303621 0 0.012469645167995591 -0.0030809086599999057 0 0.012396715535812161 -0.0032485976770277045 0 0.012304171549400285 -0.0030807760930514397 0 0.012469645167995591 -0.0030809086599999057 0 0.012396715535812161 -0.0032485976770277045 0 0.012304171549400285 -0.0030807760930514397 0 0.012469645167995591 -0.0030809086599999057 0 0.01242071112402301 -0.0029851746516208924 0 0.01267301174702563 -0.0030710833240303621 0 0.01245647729769569 -0.0029189078059244345 0 0.012461743942676125 -0.002855694739694476 0 0.01245647729769569 -0.0029189078059244345 0 0.01242071112402301 -0.0029851746516208924 0 0.012448238754101167 -0.0028560604542035681 0 0.012469645167995591 -0.0030809086599999057 0 0.01245647729769569 -0.0029189078059244345 0 0.01242071112402301 -0.0029851746516208924 0 0.012304171549400285 -0.0030807760930514397 0 0.01242071112402301 -0.0029851746516208924 0 0.012448238754101167 -0.0028560604542035681 0 0.012536689148257493 -0.0033828636923678114 0 0.012541312125813589 -0.0035110129992255391 0 0.011130292208661068 -0.0037891488537401033 0 0.011140975457618345 -0.0038065874218292006 0 0.011134813447411162 -0.003824291180466303 0 0.01409852480919397 -0.0034815922356506586 0 0.014222590298021118 -0.0033351229807400073 0 0.014238205857829565 -0.0035716816961659501 0 0.01116136223725326 -0.0038440406871562468 0 0.011140975457618345 -0.0038065874218292006 0 0.011134813447411162 -0.003824291180466303 0 0.012541312125813589 -0.0035110129992255391 0 0.012686340165513956 -0.0036621971851439304 0 0.011154243477443763 -0.0037979379000898611 0 0.011130292208661068 -0.0037891488537401033 0 0.011140975457618345 -0.0038065874218292006 0 0.01263393353726169 -0.0035685801889685973 0 0.012229212890326949 -0.0036198109137166464 0 0.012412746471782634 -0.0034526546033968888 0 0.01263393353726169 -0.0035685801889685973 0 0.012229212890326949 -0.0036198109137166464 0 0.012472781259123536 -0.0039499173952987294 0 0.012229212890326949 -0.0036198109137166464 0 0.012412746471782634 -0.0034526546033968888 0 0.012126272809007643 -0.0034098230648707361 0 0.012682273499418027 -0.0033423402464176554 0 0.012412746471782634 -0.0034526546033968888 0 0.012396715535812161 -0.0032485976770277045 0 0.012396715535812161 -0.0032485976770277045 0 0.012162578518446671 -0.0032374044325680965 0 0.012126272809007643 -0.0034098230648707361 0 0.012412746471782634 -0.0034526546033968888 0 0.012396715535812161 -0.0032485976770277045 0 0.012126272809007643 -0.0034098230648707361 0 0.012126272809007643 -0.0034098230648707361 0 0.011892147896489458 -0.0033283022137475761 0 0.011825410824261645 -0.003584537186280086 0 0.012162578518446671 -0.0032374044325680965 0 0.012126272809007643 -0.0034098230648707361 0 0.011892147896489458 -0.0033283022137475761 0 0.012229212890326949 -0.0036198109137166464 0 0.012126272809007643 -0.0034098230648707361 0 0.011825410824261645 -0.003584537186280086 0 0.012229212890326949 -0.0036198109137166464 0 0.011825410824261645 -0.003584537186280086 0 0.011980478486332487 -0.0037890977161237609 0 0.011825410824261645 -0.003584537186280086 0 0.011604632930420069 -0.0036270711150733028 0 0.011530893604940471 -0.0036994640184523859 0 0.011604632930420069 -0.0036270711150733028 0 0.011537091720525984 -0.003655844256174275 0 0.011530893604940471 -0.0036994640184523859 0 0.011604632930420069 -0.0036270711150733028 0 0.011613994819457114 -0.0035330163914570637 0 0.011537091720525984 -0.003655844256174275 0 0.011825410824261645 -0.003584537186280086 0 0.011604632930420069 -0.0036270711150733028 0 0.011613994819457114 -0.0035330163914570637 0 0.011892147896489458 -0.0033283022137475761 0 0.011825410824261645 -0.003584537186280086 0 0.011613994819457114 -0.0035330163914570637 0 0.011892147896489458 -0.0033283022137475761 0 0.011599282995664779 -0.0034157255801671622 0 0.011613994819457114 -0.0035330163914570637 0 0.011364295829525984 -0.003518549885477595 0 0.011599282995664779 -0.0034157255801671622 0 0.011475661835801875 -0.0035634880186232233 0 0.011364295829525984 -0.003518549885477595 0 0.011475661835801875 -0.0035634880186232233 0 0.011377456866676662 -0.0035782528531143067 0 0.011599282995664779 -0.0034157255801671622 0 0.011613994819457114 -0.0035330163914570637 0 0.011475661835801875 -0.0035634880186232233 0 0.011475661835801875 -0.0035634880186232233 0 0.011537091720525984 -0.003655844256174275 0 0.011479268220391735 -0.0036403455683654139 0 0.011613994819457114 -0.0035330163914570637 0 0.011475661835801875 -0.0035634880186232233 0 0.011537091720525984 -0.003655844256174275 0 0.011537091720525984 -0.003655844256174275 0 0.011479268220391735 -0.0036403455683654139 0 0.011550075986868972 -0.0036615128914541323 0 0.011537091720525984 -0.003655844256174275 0 0.011617413577135458 -0.0035490472338458464 0 0.011530893604940471 -0.0036994640184523859 0 0.011537091720525984 -0.003655844256174275 0 0.011617413577135458 -0.0035490472338458464 0 0.011550075986868972 -0.0036615128914541323 0 0.011617413577135458 -0.0035490472338458464 0 0.011745303260991663 -0.0032082852325830478 0 0.011658778180987909 -0.0029328968448411228 0 0.011617413577135458 -0.0035490472338458464 0 0.011530893604940471 -0.0036994640184523859 0 0.011658778180987909 -0.0029328968448411228 0 0.011530893604940471 -0.0036994640184523859 0 0.011057432708244849 -0.0032971818919354831 0 0.011658778180987909 -0.0029328968448411228 0 0.011856209689576413 -0.0036062852311522994 0 0.011578845112897316 -0.0027639965612783297 0 0.011439449843650737 -0.0037050711254284796 0 0.011856209689576413 -0.0036062852311522994 0 0.011530893604940471 -0.0036994640184523859 0 0.011980478486332487 -0.0037890977161237609 0 0.011937890063626515 -0.0041804641191308693 0 0.011825410824261645 -0.003584537186280086 0 0.011530893604940471 -0.0036994640184523859 0 0.011980478486332487 -0.0037890977161237609 0 0.011930437880845276 -0.0025690334634130489 0 0.011972215868603005 -0.0026713145788032013 0 0.011658778180987909 -0.0029328968448411228 0 0.011856209689576413 -0.0036062852311522994 0 0.012435304223442726 -0.0030381650733657711 0 0.012260950978587055 -0.0040883214832531743 0 0.012674448862976627 -0.0041309225891245265 0 0.012659391525506975 -0.0038706911468580794 0 0.012260950978587055 -0.0040883214832531743 0 0.012674448862976627 -0.0041309225891245265 0 0.012574780147457063 -0.0043523421971535308 0 0.011856209689576413 -0.0036062852311522994 0 0.012596461466219159 -0.003967054608704044 0 0.011980478486332487 -0.0037890977161237609 0 0.011937890063626515 -0.0041804641191308693 0 0.012472781259123536 -0.0039499173952987294 0 0.012229212890326949 -0.0036198109137166464 0 0.011980478486332487 -0.0037890977161237609 0 0.012472781259123536 -0.0039499173952987294 0 0.010481100560078378 -0.0032310291889359149 0 0.010889432050629574 -0.0034236573011907964 0 0.010455724360956332 -0.003779923828393109 0 0.010870219629327901 -0.0038572540646956148 0 0.011091621409670821 -0.0038183623577348531 0 0.010902469644055347 -0.0038265748034037226 0 0.010604029372150277 -0.0035615319718411225 0 0.010991775640817205 -0.0036165507508249561 0 0.011091621409670821 -0.0038183623577348531 0 0.010902469644055347 -0.0038265748034037226 0 0.011109251572468119 -0.0037497090324162883 0 0.010481100560078378 -0.0032310291889359149 0 0.010455724360956332 -0.003779923828393109 0 0.009903904459922749 -0.0037763431491703186 0 0.010604029372150277 -0.0035615319718411225 0 0.0089682779757829512 -0.0037378672173259192 0 0.0098593462602415138 -0.0033253469583552583 0 0.0091812381919805751 -0.0039698918227148326 0 0.0091517656126116637 -0.003473072249038259 0 0.010765086813807001 -0.0039657417231098238 0 0.01063144973070749 -0.0038060047850869798 0 0.01033319657856431 -0.0038647245785270699 0 0.010604029372150277 -0.0035615319718411225 0 0.0089946021084948511 -0.0034053612796385211 0 0.0098593462602415138 -0.0033253469583552583 0 0.0091517656126116637 -0.003473072249038259 0 0.0091215117231395505 -0.0029771896430268257 0 0.010640320142745976 -0.0036759438064419953 0 0.01063144973070749 -0.0038060047850869798 0 0.01033319657856431 -0.0038647245785270699 0 0.010640320142745976 -0.0036759438064419953 0 0.01063144973070749 -0.0038060047850869798 0 0.010842168862145505 -0.0037395570743454279 0 0.01063144973070749 -0.0038060047850869798 0 0.010842168862145505 -0.0037395570743454279 0 0.010902469644055347 -0.0038265748034037226 0 0.010765086813807001 -0.0039657417231098238 0 0.01063144973070749 -0.0038060047850869798 0 0.010902469644055347 -0.0038265748034037226 0 0.010604029372150277 -0.0035615319718411225 0 0.010702742494840439 -0.0036766771720793652 0 0.010902469644055347 -0.0038265748034037226 0 0.011023895991208909 -0.003732981716857956 0 0.011109251572468119 -0.0037497090324162883 0 0.010842168862145505 -0.0037395570743454279 0 0.010902469644055347 -0.0038265748034037226 0 0.011023895991208909 -0.003732981716857956 0 0.010987802152249015 -0.0036529195786599747 0 0.010842168862145505 -0.0037395570743454279 0 0.011023895991208909 -0.003732981716857956 0 0.011158926747059504 -0.0036071586442863101 0 0.010987802152249015 -0.0036529195786599747 0 0.011174198627142019 -0.0036739673483674332 0 0.010987802152249015 -0.0036529195786599747 0 0.011023895991208909 -0.003732981716857956 0 0.011174198627142019 -0.0036739673483674332 0 0.011292900813288421 -0.00358904342436358 0 0.011158926747059504 -0.0036071586442863101 0 0.011174198627142019 -0.0036739673483674332 0 0.011292900813288421 -0.00358904342436358 0 0.011174198627142019 -0.0036739673483674332 0 0.011290201345638786 -0.0036462271764023941 0 0.011174198627142019 -0.0036739673483674332 0 0.011290201345638786 -0.0036462271764023941 0 0.011273333398177031 -0.0036925186198763847 0 0.011174198627142019 -0.0036739673483674332 0 0.011109251572468119 -0.0037497090324162883 0 0.011273333398177031 -0.0036925186198763847 0 0.011023895991208909 -0.003732981716857956 0 0.011174198627142019 -0.0036739673483674332 0 0.011109251572468119 -0.0037497090324162883 0 0.011292900813288421 -0.00358904342436358 0 0.011377456866676662 -0.0035782528531143067 0 0.011290201345638786 -0.0036462271764023941 0 0.011290201345638786 -0.0036462271764023941 0 0.011395569658540361 -0.0036280440334608187 0 0.011273333398177031 -0.0036925186198763847 0 0.011377456866676662 -0.0035782528531143067 0 0.011290201345638786 -0.0036462271764023941 0 0.011395569658540361 -0.0036280440334608187 0 0.011475661835801875 -0.0035634880186232233 0 0.011377456866676662 -0.0035782528531143067 0 0.011395569658540361 -0.0036280440334608187 0 0.011475661835801875 -0.0035634880186232233 0 0.011395569658540361 -0.0036280440334608187 0 0.011479268220391735 -0.0036403455683654139 0 0.011395569658540361 -0.0036280440334608187 0 0.011479268220391735 -0.0036403455683654139 0 0.011444649345064443 -0.0036567462827196574 0 0.011395569658540361 -0.0036280440334608187 0 0.011444649345064443 -0.0036567462827196574 0 0.011273333398177031 -0.0036925186198763847 0 0.011444649345064443 -0.0036567462827196574 0 0.011273333398177031 -0.0036925186198763847 0 0.011329314706758541 -0.0036657409766626368 0 0.011444649345064443 -0.0036567462827196574 0 0.011329314706758541 -0.0036657409766626368 0 0.011596896168144308 -0.0036898630285547838 0 0.011444649345064443 -0.0036567462827196574 0 0.011550075986868972 -0.0036615128914541323 0 0.011596896168144308 -0.0036898630285547838 0 0.011479268220391735 -0.0036403455683654139 0 0.011444649345064443 -0.0036567462827196574 0 0.011550075986868972 -0.0036615128914541323 0 0.010889432050629574 -0.0034236573011907964 0 0.011329314706758541 -0.0036657409766626368 0 0.010863921343940885 -0.0038685135727689044 0 0.011091621409670821 -0.0038183623577348531 0 0.011109251572468119 -0.0037497090324162883 0 0.011273333398177031 -0.0036925186198763847 0 0.011091621409670821 -0.0038183623577348531 0 0.011273333398177031 -0.0036925186198763847 0 0.011329314706758541 -0.0036657409766626368 0 0.010991775640817205 -0.0036165507508249561 0 0.011248710801186236 -0.0036710659303686296 0 0.011602460428401433 -0.0036849162038842349 0 0.011526708878594555 -0.0037470736487868312 0 0.011329314706758541 -0.0036657409766626368 0 0.011086816172529296 -0.004220108898556044 0 0.010863921343940885 -0.0038685135727689044 0 0.011329314706758541 -0.0036657409766626368 0 0.011596896168144308 -0.0036898630285547838 0 0.011086816172529296 -0.004220108898556044 0 0.011617413577135458 -0.0035490472338458464 0 0.011596896168144308 -0.0036898630285547838 0 0.011745303260991663 -0.0032082852325830478 0 0.011617413577135458 -0.0035490472338458464 0 0.011550075986868972 -0.0036615128914541323 0 0.011596896168144308 -0.0036898630285547838 0 0.011745303260991663 -0.0032082852325830478 0 0.012001451833259506 -0.0032658238159901532 0 0.01189033095658972 -0.0030522309098376301 0 0.011596896168144308 -0.0036898630285547838 0 0.011745303260991663 -0.0032082852325830478 0 0.012001451833259506 -0.0032658238159901532 0 0.011086816172529296 -0.004220108898556044 0 0.010863921343940885 -0.0038685135727689044 0 0.010453260131621038 -0.0042204397400466406 0 0.011086816172529296 -0.004220108898556044 0 0.010453260131621038 -0.0042204397400466406 0 0.010613897662311566 -0.0046926826244169618 0 0.011526708878594555 -0.0037470736487868312 0 0.011446006001698233 -0.0038562184792044099 0 0.010889432050629574 -0.0034236573011907964 0 0.010863921343940885 -0.0038685135727689044 0 0.010455724360956332 -0.003779923828393109 0 0.010863921343940885 -0.0038685135727689044 0 0.010455724360956332 -0.003779923828393109 0 0.010453260131621038 -0.0042204397400466406 0 0.010165273211835375 -0.0040264677819974093 0 0.010455724360956332 -0.003779923828393109 0 0.010453260131621038 -0.0042204397400466406 0 0.010165273211835375 -0.0040264677819974093 0 0.010455724360956332 -0.003779923828393109 0 0.009903904459922749 -0.0037763431491703186 0 0.010165273211835375 -0.0040264677819974093 0 0.010453260131621038 -0.0042204397400466406 0 0.0099258135598577959 -0.0043071016983972574 0 0.010453260131621038 -0.0042204397400466406 0 0.0099258135598577959 -0.0043071016983972574 0 0.010191846795806831 -0.0046128388448229245 0 0.0097781408884067972 -0.0041732641610739037 0 0.0093694294081363965 -0.0038925925953170234 0 0.0097236525307275549 -0.0035488124707522199 0 0.0098939707311287237 -0.0042484704989212288 0 0.0089682779757829512 -0.0037378672173259192 0 0.0097781408884067972 -0.0041732641610739037 0 0.0093264609184800472 -0.0042596101498862142 0 0.0093694294081363965 -0.0038925925953170234 0 0.0097781408884067972 -0.0041732641610739037 0 0.0093264609184800472 -0.0042596101498862142 0 0.009522729374754086 -0.0045080563713284548 0 0.0093264609184800472 -0.0042596101498862142 0 0.0089980782705043286 -0.0042461901221083394 0 0.0093694294081363965 -0.0038925925953170234 0 0.0093264609184800472 -0.0042596101498862142 0 0.0089980782705043286 -0.0042461901221083394 0 0.0091544272135734902 -0.0043918135635725468 0 0.0056504609873590499 -0.0035349346699861985 0 0.0056477429904277345 -0.003976382122041656 0 0.005616208712400564 -0.0041649139862189504 0 0.0056073635567363686 -0.0038736426307260478 0 0.0054366089455170352 -0.0043289210126225977 0 0.0056504609873590499 -0.0035349346699861985 0 0.0020795090265650082 -0.0034159422433927295 0 0.0056326280869646557 -0.0041810641047172218 0 0.0056073635567363686 -0.0038736426307260478 0 0.006047238327297073 -0.0037984213260989497 0 0.0056504609873590499 -0.0035349346699861985 0 0.0077243625915115232 -0.0038019437225225196 0 0.0056073635567363686 -0.0038736426307260478 0 0.006047238327297073 -0.0037984213260989497 0 0.0057756469876739961 -0.0035578950409944532 0 0.0057756469876739961 -0.0035578950409944532 0 0.0052862028484794267 -0.0034648208327417028 0 0.0058339251482796214 -0.0031675984343702071 0 0.006047238327297073 -0.0037984213260989497 0 0.0057756469876739961 -0.0035578950409944532 0 0.0061074349002794848 -0.0033995745050575815 0 0.0056073635567363686 -0.0038736426307260478 0 0.0057756469876739961 -0.0035578950409944532 0 0.0052862028484794267 -0.0034648208327417028 0 0.0057756469876739961 -0.0035578950409944532 0 0.0061074349002794848 -0.0033995745050575815 0 0.0058339251482796214 -0.0031675984343702071 0 0.010165273211835375 -0.0040264677819974093 0 0.0099258135598577959 -0.0043071016983972574 0 0.009903904459922749 -0.0037763431491703186 0 0.0061074349002794848 -0.0033995745050575815 0 0.0064515720197134852 -0.0034235639577516888 0 0.0064197616152527606 -0.0029129379256272931 0 0.0077243625915115232 -0.0038019437225225196 0 0.0089682779757829512 -0.0037378672173259192 0 0.006047238327297073 -0.0037984213260989497 0 0.0061074349002794848 -0.0033995745050575815 0 0.0064515720197134852 -0.0034235639577516888 0 -0.0022188514482225884 -0.0031088665718306844 0 -0.0025896963643260501 -0.0032496823596051558 0 -0.001988251587110506 -0.0033464782061207524 0 -0.0022188514482225884 -0.0031088665718306844 0 -0.0024688220760100596 -0.0028239255501035778 0 -0.0025896963643260501 -0.0032496823596051558 0 0.0016326277677051455 -0.003281055982180244 0 0.0020795090265650082 -0.0034159422433927295 0 -0.0022188514482225884 -0.0031088665718306844 0 -0.0020815141842624118 -0.0028197892498845567 0 -0.0019554917803672207 -0.0033151296755551196 0 0.0056073635567363686 -0.0038736426307260478 0 0.0052862028484794267 -0.0034648208327417028 0 0.0054366089455170352 -0.0043289210126225977 0 -0.0022188514482225884 -0.0031088665718306844 0 -0.001988251587110506 -0.0033464782061207524 0 -0.0019554917803672207 -0.0033151296755551196 0 -0.0022188514482225884 -0.0031088665718306844 0 -0.0020815141842624118 -0.0028197892498845567 0 -0.0024688220760100596 -0.0028239255501035778 0 -0.0024688220760100596 -0.0028239255501035778 0 -0.0021717071166853139 -0.0023794993486640405 0 -0.0026309012860146058 -0.0025419670246227518 0 0.0052862028484794267 -0.0034648208327417028 0 0.0055261936511797763 -0.0029612131313819885 0 0.0051263317829836237 -0.002599956902952527 0 0.0055261936511797763 -0.0029612131313819885 0 0.0051263317829836237 -0.002599956902952527 0 0.0059200298352402383 -0.0026867214511019054 0 0.0016326277677051455 -0.003281055982180244 0 0.00099444921256718142 -0.0022558546148644743 0 -0.0020815141842624118 -0.0028197892498845567 0 -0.0024688220760100596 -0.0028239255501035778 0 -0.0021717071166853139 -0.0023794993486640405 0 -0.0021717071166853139 -0.0023794993486640405 0 -0.0024728324047670557 -0.002210240560794211 0 -0.0026309012860146058 -0.0025419670246227518 0 0.0061074349002794848 -0.0033995745050575815 0 0.0064197616152527606 -0.0029129379256272931 0 0.0058339251482796214 -0.0031675984343702071 0 0.0089682779757829512 -0.0037378672173259192 0 0.0078751357937806282 -0.0030547952750063379 0 0.0052862028484794267 -0.0034648208327417028 0 0.0055261936511797763 -0.0029612131313819885 0 0.0058339251482796214 -0.0031675984343702071 0 0.0064197616152527606 -0.0029129379256272931 0 0.0058339251482796214 -0.0031675984343702071 0 0.0059200298352402383 -0.0026867214511019054 0 0.0055261936511797763 -0.0029612131313819885 0 0.0058339251482796214 -0.0031675984343702071 0 0.0059200298352402383 -0.0026867214511019054 0 0.0089946021084948511 -0.0034053612796385211 0 0.0076901119201379792 -0.0032990523674977035 0 0.0059200298352402383 -0.0026867214511019054 0 0.0063968041430240673 -0.0024056129341778103 0 0.0056772035399275146 -0.0020720416013992084 0 0.0051263317829836237 -0.002599956902952527 0 0.0059200298352402383 -0.0026867214511019054 0 0.0056772035399275146 -0.0020720416013992084 0 0.0064197616152527606 -0.0029129379256272931 0 0.0059200298352402383 -0.0026867214511019054 0 0.0063968041430240673 -0.0024056129341778103 0 0.0078751357937806282 -0.0030547952750063379 0 0.0089946021084948511 -0.0034053612796385211 0 0.0089946021084948511 -0.0034053612796385211 0 0.010462840876331363 -0.0040405116772602775 0 0.010188565692045765 -0.0047164448750774742 0 0.010137743131325557 -0.0036318053117966906 0 0.0093416631854805962 -0.0043356694912465438 0 0.010640320142745976 -0.0036759438064419953 0 0.01033319657856431 -0.0038647245785270699 0 0.010137743131325557 -0.0036318053117966906 0 0.010137743131325557 -0.0036318053117966906 0 0.009229667824704359 -0.0037276590757793493 0 0.0093068120262901066 -0.0031597379534975818 0 0.010137743131325557 -0.0036318053117966906 0 0.009229667824704359 -0.0037276590757793493 0 0.0093416631854805962 -0.0043356694912465438 0 0.009229667824704359 -0.0037276590757793493 0 0.0093416631854805962 -0.0043356694912465438 0 0.0086021465922471226 -0.0040204033859343414 0 0.0051263317829836237 -0.002599956902952527 0 0.0056772035399275146 -0.0020720416013992084 0 0.0049663252714942895 -0.0017458192503828406 0 0.0076901119201379792 -0.0032990523674977035 0 0.0052090244427121929 -0.0025299104662617994 0 0.00099444921256718142 -0.0022558546148644743 0 0.0052090244427121929 -0.0025299104662617994 0 -0.0021717071166853139 -0.0023794993486640405 0 -0.002192736645595164 -0.0020130321604908985 0 -0.0024728324047670557 -0.002210240560794211 0 0.0024706021922892107 -0.0029299321351582684 0 -0.0028467629801331522 -0.0021935282079789133 0 -0.002192736645595164 -0.0020130321604908985 0 -0.002349766412435051 -0.0019414712430667717 0 -0.0024728324047670557 -0.002210240560794211 0 0.0081745460733495864 -0.0033160773159631161 0 0.0082523845658082629 -0.0032569850919491792 0 0.0083217957543245142 -0.0032208218829478347 0 0.0076319539906643807 -0.0047597112352543679 0 0.0078257403879686063 -0.0038703140601822378 0 0.0073941080773513215 -0.0042262116318918727 0 0.0052090244427121929 -0.0025299104662617994 0 0.0091726896299256649 -0.0038136453138972325 0 0.0081745460733495864 -0.0033160773159631161 0 0.0081700739929530686 -0.0032968769979071586 0 0.0082523845658082629 -0.0032569850919491792 0 0.0024706021922892107 -0.0029299321351582684 0 0.008086380844858047 -0.0036197695445533266 0 0.0086021465922471226 -0.0040204033859343414 0 0.0088308602454397148 -0.0035265468009735828 0 0.0083217957543245142 -0.0032208218829478347 0 0.0052090244427121929 -0.0025299104662617994 0 0.0024706021922892107 -0.0029299321351582684 0 0.009229667824704359 -0.0037276590757793493 0 0.0088308602454397148 -0.0035265468009735828 0 0.0093068120262901066 -0.0031597379534975818 0 0.009229667824704359 -0.0037276590757793493 0 0.0086021465922471226 -0.0040204033859343414 0 0.0088308602454397148 -0.0035265468009735828 0 0.0088308602454397148 -0.0035265468009735828 0 0.0088145397409610856 -0.0032134766133677202 0 0.0093068120262901066 -0.0031597379534975818 0 0.0088308602454397148 -0.0035265468009735828 0 0.0088145397409610856 -0.0032134766133677202 0 0.0083217957543245142 -0.0032208218829478347 0 0.0088145397409610856 -0.0032134766133677202 0 0.0083217957543245142 -0.0032208218829478347 0 0.0087979479007892283 -0.0029535628010255882 0 0.0088145397409610856 -0.0032134766133677202 0 0.0087979479007892283 -0.0029535628010255882 0 0.0093068120262901066 -0.0031597379534975818 0 0.008086380844858047 -0.0036197695445533266 0 0.0080921929350288094 -0.0028733833130088122 0 0.0082523845658082629 -0.0032569850919491792 0 0.0083217957543245142 -0.0032208218829478347 0 0.008085882652621508 -0.0028491077408297977 0 0.0078257403879686063 -0.0038703140601822378 0 0.008085882652621508 -0.0028491077408297977 0 0.0075276057403735799 -0.0033163852082531147 0 0.0083217957543245142 -0.0032208218829478347 0 0.008085882652621508 -0.0028491077408297977 0 0.0087979479007892283 -0.0029535628010255882 0 0.0087979479007892283 -0.0029535628010255882 0 0.0094183012553409259 -0.0026608232623553238 0 0.0093068120262901066 -0.0031597379534975818 0 0.008792378407383691 -0.0024743077601787514 0 0.008085882652621508 -0.0028491077408297977 0 0.0087979479007892283 -0.0029535628010255882 0 0.008792378407383691 -0.0024743077601787514 0 0.0087979479007892283 -0.0029535628010255882 0 0.0094183012553409259 -0.0026608232623553238 0 0.0094183012553409259 -0.0026608232623553238 0 0.009858017101278543 -0.0026937786482276642 0 0.0093068120262901066 -0.0031597379534975818 0 0.0098582111612102469 -0.0027144742311103506 0 0.0093652761140863763 -0.0031246970007711831 0 0.010361938027932794 -0.0023685910237304171 0 0.010408145431577923 -0.0027357396903270482 0 0.0099329691661494898 -0.002672176109822393 0 0.010408145431577923 -0.0027357396903270482 0 0.0099329691661494898 -0.002672176109822393 0 0.010052589802293005 -0.0031150873031322549 0 0.010609009829268301 -0.0030969565480088645 0 0.010137743131325557 -0.0036318053117966906 0 0.010052589802293005 -0.0031150873031322549 0 0.010137743131325557 -0.0036318053117966906 0 0.010052589802293005 -0.0031150873031322549 0 0.0093068120262901066 -0.0031597379534975818 0 0.0099329691661494898 -0.002672176109822393 0 0.010052589802293005 -0.0031150873031322549 0 0.0093068120262901066 -0.0031597379534975818 0 0.0013172537735768885 -0.0029504342234768846 0 0.00021523111350401017 -0.003119864991945628 0 -0.0031331403327007467 -0.002045465762098408 0 -0.0033490105760966287 -0.0020115490013246596 0 -0.0033253173453346436 -0.0021989702773243334 0 0.0056774184884037524 -0.0038858727597426636 0 0.0046238964995770331 -0.003410264237499609 0 0.0053733993204929872 -0.0032292734791085141 0 0.0056774184884037524 -0.0038858727597426636 0 0.0053733993204929872 -0.0032292734791085141 0 0.0061844219562458384 -0.0033754967425878211 0 -0.0035024689247185391 -0.002225209189035435 0 -0.0033490105760966287 -0.0020115490013246596 0 -0.0033253173453346436 -0.0021989702773243334 0 -0.00376985855403115 -0.0026217255075751465 0 0.00021523111350401017 -0.003119864991945628 0 0.0052838679884882672 -0.0031258582635732383 0 0.00021523111350401017 -0.003119864991945628 0 0.0019856777742253934 -0.0047957922475461616 0 0.004467775737663382 -0.0038505311283546307 0 0.0032160334568269349 -0.0053764480080481306 0 -0.00025181222196751714 -0.0044958376706626512 0 0.00021523111350401017 -0.003119864991945628 0 0.0054113815450903702 -0.0025039614922290326 0 0.0053733993204929872 -0.0032292734791085141 0 0.0063077954733088857 -0.0026028569131010372 0 0.0054113815450903702 -0.0025039614922290326 0 0.0046238964995770331 -0.003410264237499609 0 0.0053733993204929872 -0.0032292734791085141 0 0.0053733993204929872 -0.0032292734791085141 0 0.0063077954733088857 -0.0026028569131010372 0 0.0061844219562458384 -0.0033754967425878211 0 0.0063077954733088857 -0.0026028569131010372 0 0.0061844219562458384 -0.0033754967425878211 0 0.0068880577842487176 -0.0032972474812407795 0 0.0072794794694297149 -0.0024309449632627959 0 0.0063077954733088857 -0.0026028569131010372 0 0.0068880577842487176 -0.0032972474812407795 0 0.0072794794694297149 -0.0024309449632627959 0 0.0068880577842487176 -0.0032972474812407795 0 0.0075276057403735799 -0.0033163852082531147 0 0.0072794794694297149 -0.0024309449632627959 0 0.008085882652621508 -0.0028491077408297977 0 0.0075276057403735799 -0.0033163852082531147 0 0.0068880577842487176 -0.0032972474812407795 0 0.0072826750432810746 -0.0038278661125628836 0 0.0066904417127103769 -0.0043345482118338063 0 0.0078257403879686063 -0.0038703140601822378 0 0.0075276057403735799 -0.0033163852082531147 0 0.0072826750432810746 -0.0038278661125628836 0 0.0068880577842487176 -0.0032972474812407795 0 0.0075276057403735799 -0.0033163852082531147 0 0.0072826750432810746 -0.0038278661125628836 0 0.0072826750432810746 -0.0038278661125628836 0 0.0066904417127103769 -0.0043345482118338063 0 0.0073941080773513215 -0.0042262116318918727 0 0.0078257403879686063 -0.0038703140601822378 0 0.0072826750432810746 -0.0038278661125628836 0 0.0073941080773513215 -0.0042262116318918727 0 0.0056774184884037524 -0.0038858727597426636 0 0.0061844219562458384 -0.0033754967425878211 0 0.0066904417127103769 -0.0043345482118338063 0 0.0061844219562458384 -0.0033754967425878211 0 0.0068880577842487176 -0.0032972474812407795 0 0.0066904417127103769 -0.0043345482118338063 0 0.0013172537735768885 -0.0029504342234768846 0 0.0019299938061633113 -0.0032549295293153014 0 -0.0030961769222902814 -0.0021867488547582773 0 -0.0028792186138656734 -0.0020835315598244928 0 -0.0028258373210758008 -0.0022037168361822884 0 -0.0031331403327007467 -0.002045465762098408 0 -0.0030961769222902814 -0.0021867488547582773 0 -0.0028792186138656734 -0.0020835315598244928 0 -0.0026418916695997411 -0.0021616381231616181 0 -0.0028792186138656734 -0.0020835315598244928 0 -0.0028258373210758008 -0.0022037168361822884 0 0.0024706021922892107 -0.0029299321351582684 0 0.0019299938061633113 -0.0032549295293153014 0 0.0076319539906643807 -0.0047597112352543679 0 0.0066904417127103769 -0.0043345482118338063 0 0.0073941080773513215 -0.0042262116318918727 0 -0.0026418916695997411 -0.0021616381231616181 0 -0.0028258373210758008 -0.0022037168361822884 0 -0.0026882382315127364 -0.002338643979668252 0 -0.0028258373210758008 -0.0022037168361822884 0 -0.0029782969925170209 -0.0022951475564385996 0 -0.0026882382315127364 -0.002338643979668252 0 -0.0030961769222902814 -0.0021867488547582773 0 -0.0028258373210758008 -0.0022037168361822884 0 -0.0029782969925170209 -0.0022951475564385996 0 -0.0030961769222902814 -0.0021867488547582773 0 -0.0033253173453346436 -0.0021989702773243334 0 -0.0033184097497362718 -0.0023344330839027527 0 -0.0030961769222902814 -0.0021867488547582773 0 -0.0029782969925170209 -0.0022951475564385996 0 -0.0033184097497362718 -0.0023344330839027527 0 -0.0031331403327007467 -0.002045465762098408 0 -0.0030961769222902814 -0.0021867488547582773 0 -0.0033253173453346436 -0.0021989702773243334 0 -0.0035024689247185391 -0.002225209189035435 0 -0.0035108346433404959 -0.0022935079561361591 0 -0.0033253173453346436 -0.0021989702773243334 0 -0.0035108346433404959 -0.0022935079561361591 0 -0.0035968161624632396 -0.0023596180668776791 0 -0.0033184097497362718 -0.0023344330839027527 0 -0.0035108346433404959 -0.0022935079561361591 0 -0.0033253173453346436 -0.0021989702773243334 0 -0.0033184097497362718 -0.0023344330839027527 0 -0.0033184097497362718 -0.0023344330839027527 0 -0.002960870586218045 -0.0024641921543263048 0 -0.0032846905850157614 -0.0026258393242420725 0 -0.0036759736366213827 -0.0024173789642640648 0 -0.0033184097497362718 -0.0023344330839027527 0 -0.0032846905850157614 -0.0026258393242420725 0 -0.0035968161624632396 -0.0023596180668776791 0 -0.0036759736366213827 -0.0024173789642640648 0 -0.0033184097497362718 -0.0023344330839027527 0 -0.0026882382315127364 -0.002338643979668252 0 -0.002960870586218045 -0.0024641921543263048 0 -0.0026309012860146058 -0.0025419670246227518 0 -0.0028467629801331522 -0.0021935282079789133 0 -0.0025973034550754621 -0.0025598239507627061 0 -0.0029782969925170209 -0.0022951475564385996 0 -0.0026882382315127364 -0.002338643979668252 0 -0.002960870586218045 -0.0024641921543263048 0 -0.0029782969925170209 -0.0022951475564385996 0 -0.0033184097497362718 -0.0023344330839027527 0 -0.002960870586218045 -0.0024641921543263048 0 -0.002960870586218045 -0.0024641921543263048 0 -0.0028415732168005831 -0.0028163972026153576 0 -0.0032846905850157614 -0.0026258393242420725 0 -0.002960870586218045 -0.0024641921543263048 0 -0.0026309012860146058 -0.0025419670246227518 0 -0.0028415732168005831 -0.0028163972026153576 0 -0.0024688220760100596 -0.0028239255501035778 0 -0.0026309012860146058 -0.0025419670246227518 0 -0.0028415732168005831 -0.0028163972026153576 0 -0.0028415732168005831 -0.0028163972026153576 0 -0.0031368830002404271 -0.0031038292986820602 0 -0.0032846905850157614 -0.0026258393242420725 0 -0.0031202026725198383 -0.0029824351331587751 0 -0.0032657996512625524 -0.0029821792839655813 0 -0.0024688220760100596 -0.0028239255501035778 0 -0.0028415732168005831 -0.0028163972026153576 0 -0.0025896963643260501 -0.0032496823596051558 0 -0.0028415732168005831 -0.0028163972026153576 0 -0.0031368830002404271 -0.0031038292986820602 0 -0.0025896963643260501 -0.0032496823596051558 0 -0.0036759736366213827 -0.0024173789642640648 0 -0.0032846905850157614 -0.0026258393242420725 0 -0.0037025860135497545 -0.0028834762385463644 0 -0.0031202026725198383 -0.0029824351331587751 0 -0.003728874512941645 -0.0028869496345943304 0 -0.0031368830002404271 -0.0031038292986820602 0 -0.0032846905850157614 -0.0026258393242420725 0 -0.0037025860135497545 -0.0028834762385463644 0 -0.0033726764862644894 -0.0028386010395246544 0 -0.0037025860135497545 -0.0028834762385463644 0 -0.003718595583970169 -0.0030823977239374566 0 -0.0033726764862644894 -0.0028386010395246544 0 -0.003718595583970169 -0.0030823977239374566 0 -0.0034395009585512057 -0.0031198347361619332 0 -0.0035901208489066655 -0.0032870724129975392 0 -0.0034395009585512057 -0.0031198347361619332 0 -0.0033087066590206634 -0.0033209218951314179 0 -0.003718595583970169 -0.0030823977239374566 0 -0.0035901208489066655 -0.0032870724129975392 0 -0.0034395009585512057 -0.0031198347361619332 0 -0.003718595583970169 -0.0030823977239374566 0 -0.0035901208489066655 -0.0032870724129975392 0 -0.0040028221812675978 -0.0032661924863571687 0 -0.0028867846691387092 -0.0028207929069533552 0 -0.0031776625917246826 -0.0030804461820108531 0 -0.0029720114307602448 -0.0031902116425592281 0 -0.0033726764862644894 -0.0028386010395246544 0 -0.0028867846691387092 -0.0028207929069533552 0 -0.0031776625917246826 -0.0030804461820108531 0 -0.0033726764862644894 -0.0028386010395246544 0 -0.0034395009585512057 -0.0031198347361619332 0 -0.0031776625917246826 -0.0030804461820108531 0 -0.0034395009585512057 -0.0031198347361619332 0 -0.0031776625917246826 -0.0030804461820108531 0 -0.0033087066590206634 -0.0033209218951314179 0 -0.0033087066590206634 -0.0033209218951314179 0 -0.0031277680425897433 -0.0032455016105187402 0 -0.0030459595867323368 -0.0033861618897158005 0 -0.0031776625917246826 -0.0030804461820108531 0 -0.0033087066590206634 -0.0033209218951314179 0 -0.0031277680425897433 -0.0032455016105187402 0 -0.0029720114307602448 -0.0031902116425592281 0 -0.0029989757205657729 -0.0034326980339971624 0 -0.0030459595867323368 -0.0033861618897158005 0 -0.0029720114307602448 -0.0031902116425592281 0 -0.0029989757205657729 -0.0034326980339971624 0 -0.0026597841718538004 -0.0031804544575967241 0 -0.0031776625917246826 -0.0030804461820108531 0 -0.0031277680425897433 -0.0032455016105187402 0 -0.0029720114307602448 -0.0031902116425592281 0 -0.0031277680425897433 -0.0032455016105187402 0 -0.0029720114307602448 -0.0031902116425592281 0 -0.0030459595867323368 -0.0033861618897158005 0 -0.0030080812467687288 -0.0034225783333083847 0 -0.0030459595867323368 -0.0033861618897158005 0 -0.0033393088036587719 -0.0036882957846265498 0 -0.0028703623602237497 -0.0028829561390945435 0 -0.0028412636178809345 -0.0030006227776817503 0 -0.0033087066590206634 -0.0033209218951314179 0 -0.0030459595867323368 -0.0033861618897158005 0 -0.0033393088036587719 -0.0036882957846265498 0 -0.0028703623602237497 -0.0028829561390945435 0 -0.003901701595732865 -0.0029098614538686585 0 -0.0043666360317667404 -0.0020812194239193025 0 -0.0043889667454594583 -0.0018602174722143869 0 -0.0045095151597534253 -0.0019178126538934546 0 -0.0043666360317667404 -0.0020812194239193025 0 -0.0042283140860428026 -0.001937336715314462 0 -0.0043889667454594583 -0.0018602174722143869 0 -0.0035901208489066655 -0.0032870724129975392 0 -0.0037772832966925223 -0.0035136754264573646 0 -0.0035263604090146426 -0.0034990977337603073 0 -0.0035901208489066655 -0.0032870724129975392 0 -0.0037772832966925223 -0.0035136754264573646 0 -0.0040028221812675978 -0.0032661924863571687 0 -0.0035901208489066655 -0.0032870724129975392 0 -0.0033087066590206634 -0.0033209218951314179 0 -0.0035263604090146426 -0.0034990977337603073 0 -0.0033087066590206634 -0.0033209218951314179 0 -0.0033393088036587719 -0.0036882957846265498 0 -0.0035263604090146426 -0.0034990977337603073 0 -0.0033393088036587719 -0.0036882957846265498 0 -0.0035263604090146426 -0.0034990977337603073 0 -0.0036235973517061092 -0.0036887915749078044 0 -0.0037772832966925223 -0.0035136754264573646 0 -0.0035263604090146426 -0.0034990977337603073 0 -0.0036235973517061092 -0.0036887915749078044 0 -0.0037772832966925223 -0.0035136754264573646 0 -0.0036235973517061092 -0.0036887915749078044 0 -0.0038331601302202603 -0.0037563015133502435 0 -0.0041101299362365186 -0.0023285250494440323 0 -0.0041083653034490238 -0.0029930346489507641 0 -0.0038331601302202603 -0.0037563015133502435 0 -0.003657882035195863 -0.0039713632606266976 0 -0.00404387921940741 -0.0038943439348534956 0 -0.0043653325892416021 -0.0018280290344818656 0 -0.0043430611798763322 -0.0018089093709164222 0 -0.0042510080610111073 -0.0019508383800875362 0 -0.0036235973517061092 -0.0036887915749078044 0 -0.0038331601302202603 -0.0037563015133502435 0 -0.003657882035195863 -0.0039713632606266976 0 -0.0041101299362365186 -0.0023285250494440323 0 -0.0041169882960262688 -0.0021240741610638741 0 -0.0043545319028415299 -0.0018038203272513827 0 -0.0043430611798763322 -0.0018089093709164222 0 -0.0043672995716337133 -0.00175862472766104 0 -0.0043430611798763322 -0.0018089093709164222 0 -0.0043407231553269053 -0.0017532290959016048 0 -0.0043672995716337133 -0.00175862472766104 0 -0.0043430611798763322 -0.0018089093709164222 0 -0.0043407231553269053 -0.0017532290959016048 0 -0.0042892162639100347 -0.0017952718814949621 0 -0.0043407231553269053 -0.0017532290959016048 0 -0.0043324427316991437 -0.0016760855050909605 0 -0.0042892162639100347 -0.0017952718814949621 0 -0.0041101299362365186 -0.0023285250494440323 0 -0.0043815137232439761 -0.0016757968719883366 0 -0.004389833220870042 -0.0017059457869541385 0 -0.0043672995716337133 -0.00175862472766104 0 -0.0044409097412048994 -0.0017199142858740609 0 -0.0043545319028415299 -0.0018038203272513827 0 -0.0043672995716337133 -0.00175862472766104 0 -0.0044409097412048994 -0.0017199142858740609 0 -0.0043407231553269053 -0.0017532290959016048 0 -0.004389833220870042 -0.0017059457869541385 0 -0.0043672995716337133 -0.00175862472766104 0 -0.003901701595732865 -0.0029098614538686585 0 -0.0041101299362365186 -0.0023285250494440323 0 -0.0042283140860428026 -0.001937336715314462 0 -0.004072795123262936 -0.0017884907322183563 0 -0.0042521825263436537 -0.0017432278303903133 0 -0.0033393088036587719 -0.0036882957846265498 0 -0.0036235973517061092 -0.0036887915749078044 0 -0.003657882035195863 -0.0039713632606266976 0 -0.0042283140860428026 -0.001937336715314462 0 -0.0043889667454594583 -0.0018602174722143869 0 -0.0042521825263436537 -0.0017432278303903133 0 -0.0043889667454594583 -0.0018602174722143869 0 -0.0044671026583777687 -0.0017000568765386363 0 -0.0042521825263436537 -0.0017432278303903133 0 -0.0044425571657494035 -0.0017160346981848098 0 -0.0043815137232439761 -0.0016757968719883366 0 -0.0044671026583777687 -0.0017000568765386363 0 -0.0044409097412048994 -0.0017199142858740609 0 -0.0044464856396824355 -0.0016700128508007441 0 -0.004389833220870042 -0.0017059457869541385 0 -0.0044409097412048994 -0.0017199142858740609 0 -0.0044464856396824355 -0.0016700128508007441 0 -0.0044464856396824355 -0.0016700128508007441 0 -0.0044405455691950216 -0.0015970824793404038 0 -0.0044747157469084428 -0.0016430238919325545 0 -0.0044405455691950216 -0.0015970824793404038 0 -0.0044747157469084428 -0.0016430238919325545 0 -0.0044778131786550601 -0.0015879318760031217 0 -0.0044464856396824355 -0.0016700128508007441 0 -0.0044405455691950216 -0.0015970824793404038 0 -0.0043938102764357534 -0.0016225231063568863 0 -0.0044671026583777687 -0.0017000568765386363 0 -0.0044464856396824355 -0.0016700128508007441 0 -0.0044747157469084428 -0.0016430238919325545 0 -0.0044940732949548846 -0.0016520503972502999 0 -0.0044747157469084428 -0.0016430238919325545 0 -0.0044994278151184383 -0.0016114114123498477 0 -0.0044671026583777687 -0.0017000568765386363 0 -0.0044940732949548846 -0.0016520503972502999 0 -0.0044747157469084428 -0.0016430238919325545 0 -0.0044778131786550601 -0.0015879318760031217 0 -0.0044994278151184383 -0.0016114114123498477 0 -0.0045247503390259212 -0.0015835030041572125 0 -0.0044747157469084428 -0.0016430238919325545 0 -0.0044778131786550601 -0.0015879318760031217 0 -0.0044994278151184383 -0.0016114114123498477 0 -0.0044940732949548846 -0.0016520503972502999 0 -0.0044994278151184383 -0.0016114114123498477 0 -0.0045247503390259212 -0.0015835030041572125 0 -0.0045247503390259212 -0.0015835030041572125 0 -0.0044577857589809698 -0.0015145055867343551 0 -0.0044648602188152847 -0.0013559443556040616 0 -0.0039180881712763396 -0.0018029451776753217 0 -0.0045978268717722631 -0.0013351758726366111 0 -0.0045159776618561506 -0.0013436672354732193 0 -0.0044648602188152847 -0.0013559443556040616 0 -0.0045281903415366241 -0.0012620279091744813 0 -0.0044778131786550601 -0.0015879318760031217 0 -0.0045247503390259212 -0.0015835030041572125 0 -0.0044577857589809698 -0.0015145055867343551 0 -0.0044405455691950216 -0.0015970824793404038 0 -0.0044577857589809698 -0.0015145055867343551 0 -0.0043954621233350871 -0.0014892679252380169 0 -0.0044405455691950216 -0.0015970824793404038 0 -0.0044778131786550601 -0.0015879318760031217 0 -0.0044577857589809698 -0.0015145055867343551 0 -0.0044577857589809698 -0.0015145055867343551 0 -0.0043954621233350871 -0.0014892679252380169 0 -0.0044648602188152847 -0.0013559443556040616 0 -0.0043954621233350871 -0.0014892679252380169 0 -0.0043488162164959003 -0.0015686017220074818 0 -0.004319245756736827 -0.0014464758020668767 0 -0.0043954621233350871 -0.0014892679252380169 0 -0.0043488162164959003 -0.0015686017220074818 0 -0.0043938102764357534 -0.0016225231063568863 0 -0.0042875916378724149 -0.0015803278612523623 0 -0.004319245756736827 -0.0014464758020668767 0 -0.0042378331605515476 -0.0014461666252935214 0 -0.0042875916378724149 -0.0015803278612523623 0 -0.0043488162164959003 -0.0015686017220074818 0 -0.004319245756736827 -0.0014464758020668767 0 -0.0042875916378724149 -0.0015803278612523623 0 -0.0043488162164959003 -0.0015686017220074818 0 -0.0043324427316991437 -0.0016760855050909605 0 -0.0042875916378724149 -0.0015803278612523623 0 -0.0043324427316991437 -0.0016760855050909605 0 -0.0042577560551405507 -0.0017089706308212544 0 -0.0043407231553269053 -0.0017532290959016048 0 -0.004389833220870042 -0.0017059457869541385 0 -0.0043324427316991437 -0.0016760855050909605 0 -0.004389833220870042 -0.0017059457869541385 0 -0.0043324427316991437 -0.0016760855050909605 0 -0.0043938102764357534 -0.0016225231063568863 0 -0.0043488162164959003 -0.0015686017220074818 0 -0.0043324427316991437 -0.0016760855050909605 0 -0.0043938102764357534 -0.0016225231063568863 0 -0.004389833220870042 -0.0017059457869541385 0 -0.0044464856396824355 -0.0016700128508007441 0 -0.0043938102764357534 -0.0016225231063568863 0 -0.0044405455691950216 -0.0015970824793404038 0 -0.0043954621233350871 -0.0014892679252380169 0 -0.0043938102764357534 -0.0016225231063568863 0 0.0060224565773559788 -0.0013218203575441061 0 0.0060630157932061177 -0.0019616526713007068 0 0.005907615281253136 -0.001798689153518672 0 0.0028397590337907648 -0.0017138650701272024 0 0.0038099480984626582 -0.0017396618625609875 0 -0.00043165782935135994 -0.0018075906825882708 0 -0.001138323536399322 -0.0012268631929622778 0 -0.00052936450933746592 -0.00055274186241475705 0 -0.00043165782935135994 -0.0018075906825882708 0 -0.0017687515777921883 -0.0026006843828334397 0 -0.001138323536399322 -0.0012268631929622778 0 0.013592864590078095 -0.0015893946874230738 0 0.013625307222409667 -0.00091355127603976231 0 0.013735217741940371 -0.0017488318317858199 0 0.0097903374285106606 -0.0010790690059001736 0 0.0098125882708133671 -0.0020556353391117713 0 0.0060224565773559788 -0.0013218203575441061 0 0.0057962612627888259 -0.0011855978335464136 0 0.005907615281253136 -0.001798689153518672 0 0.013592864590078095 -0.0015893946874230738 0 0.01335914106654232 -0.0013714958904702385 0 0.013625307222409667 -0.00091355127603976231 0 0.01335914106654232 -0.0013714958904702385 0 0.013166448782116145 -0.0016629867638034874 0 0.013088917309720758 -0.0012627326311204217 0 0.01335914106654232 -0.0013714958904702385 0 0.013393705251404875 -0.0016113539216527732 0 0.013166448782116145 -0.0016629867638034874 0 0.013592864590078095 -0.0015893946874230738 0 0.01335914106654232 -0.0013714958904702385 0 0.013393705251404875 -0.0016113539216527732 0 0.01335914106654232 -0.0013714958904702385 0 0.013272219100591467 -0.0010278008025332171 0 0.013088917309720758 -0.0012627326311204217 0 0.01335914106654232 -0.0013714958904702385 0 0.013272219100591467 -0.0010278008025332171 0 0.013625307222409667 -0.00091355127603976231 0 0.0097903374285106606 -0.0010790690059001736 0 0.0083476266918872111 -5.1016694561178429e-05 0 0.0057962612627888259 -0.0011855978335464136 0 0.0059704814965199186 -0.00068334300995704961 0 0.0056823110192186273 -0.00057609932466848529 0 0.013625307222409667 -0.00091355127603976231 0 0.01324023840802669 -0.00063631224261636937 0 0.013460079833427199 -8.5790263129102224e-05 0 0.013272219100591467 -0.0010278008025332171 0 0.013625307222409667 -0.00091355127603976231 0 0.01324023840802669 -0.00063631224261636937 0 0.0060224565773559788 -0.0013218203575441061 0 0.0057962612627888259 -0.0011855978335464136 0 0.0059704814965199186 -0.00068334300995704961 0 0.0028397590337907648 -0.0017138650701272024 0 0.0012491136249357022 -0.00065249970546587838 0 -0.0038769732702922206 -0.0019984621230364169 0 0.0012491136249357022 -0.00065249970546587838 0 -0.00043165782935135994 -0.0018075906825882708 0 -0.0017687515777921883 -0.0026006843828334397 0 -0.00033062366647730709 -0.0030670792205094895 0 -0.0045159776618561506 -0.0013436672354732193 0 -0.0046004137869590034 -0.0012844690853107473 0 -0.0045281903415366241 -0.0012620279091744813 0 -0.0039180881712763396 -0.0018029451776753217 0 -0.0038769732702922206 -0.0019984621230364169 0 -0.0039180881712763396 -0.0018029451776753217 0 -0.003525369230295334 -0.001321913337667995 0 -0.0032127582651416118 -0.0021163197721639363 0 -0.0017687515777921883 -0.0026006843828334397 0 -0.0020634914642650871 -0.0011341641027756979 0 -0.0044671026583777687 -0.0017000568765386363 0 -0.0044940732949548846 -0.0016520503972502999 0 -0.0045293307004251925 -0.0016814366784698906 0 -0.0044940732949548846 -0.0016520503972502999 0 -0.0045247503390259212 -0.0015835030041572125 0 -0.0045293307004251925 -0.0016814366784698906 0 -0.0017687515777921883 -0.0026006843828334397 0 -0.0020634914642650871 -0.0011341641027756979 0 -0.001138323536399322 -0.0012268631929622778 0 -0.0020634914642650871 -0.0011341641027756979 0 -0.001138323536399322 -0.0012268631929622778 0 -0.00092141004391172745 -0.00017535872886824652 0 -0.003525369230295334 -0.001321913337667995 0 -0.00098813538540332754 -0.002140692191112621 0 -0.0045293307004251925 -0.0016814366784698906 0 -0.0045055671268573044 -0.001781317110967465 0 -0.0045942206815774858 -0.0017790262094397687 0 -0.0044671026583777687 -0.0017000568765386363 0 -0.0045293307004251925 -0.0016814366784698906 0 -0.0045055671268573044 -0.001781317110967465 0 -0.0043889667454594583 -0.0018602174722143869 0 -0.0045055671268573044 -0.001781317110967465 0 -0.0045095151597534253 -0.0019178126538934546 0 -0.0043889667454594583 -0.0018602174722143869 0 -0.0044671026583777687 -0.0017000568765386363 0 -0.0045055671268573044 -0.001781317110967465 0 0.00065009528974124581 -0.0035905246678090102 0 0.00069443582312609395 -0.0038148104535682815 0 0.00013173766020427289 -0.0033386854265410482 0 -0.00098813538540332754 -0.002140692191112621 0 -0.0022650382568813656 -0.0026492798292569752 0 -0.0045055671268573044 -0.001781317110967465 0 -0.0045942206815774858 -0.0017790262094397687 0 -0.0045095151597534253 -0.0019178126538934546 0 0.0066677720552946749 -0.002342667275229349 0 0.0063486668166698682 -0.0025703781205395171 0 0.0067955793347865548 -0.0039730217681139286 0 0.0063486668166698682 -0.0025703781205395171 0 0.0067955793347865548 -0.0039730217681139286 0 0.0066592155355798231 -0.0041349224085645564 0 0.0099826411804270921 -0.0041704163945199112 0 0.010233674322719077 -0.0036696278358600968 0 0.0098829357672059002 -0.0036858063822115083 0 0.0056579262726279538 -0.0030788340600681743 0 0.0044018992118593694 -0.0039185584238301263 0 0.0095644855296577562 -0.002529829683612175 0 0.0068654260753225381 -0.0038419832624032968 0 0.00081624975733575651 -0.003716726439853814 0 0.00086085675150756192 -0.003790249442331548 0 0.00083661006267806164 -0.0034060098544687572 0 0.00065009528974124581 -0.0035905246678090102 0 0.00081624975733575651 -0.003716726439853814 0 0.00083661006267806164 -0.0034060098544687572 0 0.0015393791570960261 -0.0044772384131539621 0 0.0044018992118593694 -0.0039185584238301263 0 0.0056579262726279538 -0.0030788340600681743 0 0.0095644855296577562 -0.002529829683612175 0 0.00065009528974124581 -0.0035905246678090102 0 0.00081624975733575651 -0.003716726439853814 0 0.00069443582312609395 -0.0038148104535682815 0 -0.00041773046292462761 -0.0024996291944161734 0 -0.00098813538540332754 -0.002140692191112621 0 0.00081624975733575651 -0.003716726439853814 0 0.00072702957141889562 -0.0037933575020666441 0 0.00088533512259875798 -0.003934884463977612 0 -0.001138323536399322 -0.0012268631929622778 0 -0.00092141004391172745 -0.00017535872886824652 0 -0.00052936450933746592 -0.00055274186241475705 0 -0.00098813538540332754 -0.002140692191112621 0 0.0038099480984626582 -0.0017396618625609875 0 0.0095644855296577562 -0.002529829683612175 0 0.0098125882708133671 -0.0020556353391117713 0 0.0081552672929056068 -0.0027051345412006343 0 0.0083242491294552006 -0.0021197425334380663 0 0.0079773139356195972 -0.0017694167863769701 0 0.0056579262726279538 -0.0030788340600681743 0 0.0038099480984626582 -0.0017396618625609875 0 0.0083571465410921825 -0.0025604041248828003 0 0.0081552672929056068 -0.0027051345412006343 0 0.0083242491294552006 -0.0021197425334380663 0 0.00081624975733575651 -0.003716726439853814 0 0.00086085675150756192 -0.003790249442331548 0 0.00088533512259875798 -0.003934884463977612 0 0.0038099480984626582 -0.0017396618625609875 0 0.0098125882708133671 -0.0020556353391117713 0 0.013802165470874986 -0.002292733505449051 0 0.013448061094151311 -0.0018787267555354444 0 0.013113325177186937 -0.0021335470710387243 0 0.013448061094151311 -0.0018787267555354444 0 0.013393705251404875 -0.0016113539216527732 0 0.013166448782116145 -0.0016629867638034874 0 0.013448061094151311 -0.0018787267555354444 0 0.013166448782116145 -0.0016629867638034874 0 0.013113325177186937 -0.0021335470710387243 0 0.013592864590078095 -0.0015893946874230738 0 0.013448061094151311 -0.0018787267555354444 0 0.013723633593363914 -0.0017436565131197233 0 0.013592864590078095 -0.0015893946874230738 0 0.013448061094151311 -0.0018787267555354444 0 0.013393705251404875 -0.0016113539216527732 0 0.011574857459204875 -0.0026773239114535313 0 0.0098125882708133671 -0.0020556353391117713 0 0.013802165470874986 -0.002292733505449051 0 0.013448061094151311 -0.0018787267555354444 0 0.013723633593363914 -0.0017436565131197233 0 0.0095644855296577562 -0.002529829683612175 0 0.012237793690923239 -0.0033372318095621365 0 0.013802165470874986 -0.002292733505449051 0 0.01291524067829156 -0.002913959952870083 0 0.013113325177186937 -0.0021335470710387243 0 0.0099826411804270921 -0.0041704163945199112 0 0.010233674322719077 -0.0036696278358600968 0 0.010752850158578261 -0.0036222712827346875 0 0.010233674322719077 -0.0036696278358600968 0 0.0098829357672059002 -0.0036858063822115083 0 0.01031637179599185 -0.0031974233598151217 0 0.010233674322719077 -0.0036696278358600968 0 0.01031637179599185 -0.0031974233598151217 0 0.010752850158578261 -0.0036222712827346875 0 0.0068654260753225381 -0.0038419832624032968 0 0.010088790867134448 -0.0041418412302102695 0 0.005015853959105903 -0.003605399905442873 0 0.0049538096029697557 -0.0036795886139528982 0 0.0050697660235087911 -0.0042452579094907012 0 0.0092318072824246929 -0.005410563064585901 0 0.0092117676277278706 -0.0052627602442453028 0 0.0094371329262224 -0.0052238161285014222 0 0.0044018992118593694 -0.0039185584238301263 0 0.0068654260753225381 -0.0038419832624032968 0 0.00065009528974124581 -0.0035905246678090102 0 0.00079858269036668845 -0.00342051523007469 0 0.00051754601780503264 -0.0032836405331114907 0 0.00079858269036668845 -0.00342051523007469 0 0.00076625938884841835 -0.0030879094719866887 0 0.00051754601780503264 -0.0032836405331114907 0 0.0044018992118593694 -0.0039185584238301263 0 0.0049164098005504498 -0.0041271608120244064 0 0.0068654260753225381 -0.0038419832624032968 0 0.0049164098005504498 -0.0041271608120244064 0 0.0049164098005504498 -0.0041271608120244064 0 0.0070420028803895064 -0.0046197778184035925 0 0.0049164098005504498 -0.0041271608120244064 0 0.0024047782455879061 -0.0029922581712217402 0 0.0092117676277278706 -0.0052627602442453028 0 0.0093734832906996416 -0.0050813085937806641 0 0.0091756246117204992 -0.0050141140169572933 0 0.0045963455961937584 -0.0041326970473913715 0 0.0045090712555797908 -0.0038923947583902651 0 0.0045409400047716261 -0.0038962846430362066 0 0.010088790867134448 -0.0041418412302102695 0 0.010636787373804095 -0.0039630686484147344 0 0.0092117676277278706 -0.0052627602442453028 0 0.0093734832906996416 -0.0050813085937806641 0 0.0094371329262224 -0.0052238161285014222 0 0.0093734832906996416 -0.0050813085937806641 0 0.0094371329262224 -0.0052238161285014222 0 0.0096309058858208667 -0.0050185692679185247 0 -0.0028703623602237497 -0.0028829561390945435 0 -0.0022650382568813656 -0.0026492798292569752 0 0.00013173766020427289 -0.0033386854265410482 0 0.00051754601780503264 -0.0032836405331114907 0 0.00030649670646286907 -0.002895456614345559 0 0.00065009528974124581 -0.0035905246678090102 0 0.00013173766020427289 -0.0033386854265410482 0 0.00051754601780503264 -0.0032836405331114907 0 0.00076625938884841835 -0.0030879094719866887 0 0.00051754601780503264 -0.0032836405331114907 0 0.00030649670646286907 -0.002895456614345559 0 0.00076625938884841835 -0.0030879094719866887 0 0.00030649670646286907 -0.002895456614345559 0 0.00064351562101265286 -0.0025605003424504932 0 -0.00041550526880162287 -0.0028412528568544791 0 0.00030649670646286907 -0.002895456614345559 0 4.4760372971178605e-05 -0.0024303692387444629 0 -0.00041550526880162287 -0.0028412528568544791 0 0.00013173766020427289 -0.0033386854265410482 0 0.00030649670646286907 -0.002895456614345559 0 -0.0028703623602237497 -0.0028829561390945435 0 -0.0012614864726128838 -0.0027069151157827214 0 0.00030649670646286907 -0.002895456614345559 0 4.4760372971178605e-05 -0.0024303692387444629 0 0.00064351562101265286 -0.0025605003424504932 0 4.4760372971178605e-05 -0.0024303692387444629 0 0.00048486150567491227 -0.0020405953740252054 0 0.00064351562101265286 -0.0025605003424504932 0 -0.0012614864726128838 -0.0027069151157827214 0 0.000176688384678722 -0.0033181482385134221 0 0.00053122008638308688 -0.0020465488351359847 0 0.00048486150567491227 -0.0020405953740252054 0 0.00064351562101265286 -0.0025605003424504932 0 0.0021094934313071424 -0.0033255714796435296 0 0.0020795090265650082 -0.0034159422433927295 0 0.0021094934313071424 -0.0033255714796435296 0 0.000176688384678722 -0.0033181482385134221 0 0.000176688384678722 -0.0033181482385134221 0 0.0020795090265650082 -0.0034159422433927295 0 0.001269365142546864 -0.0022807285635212571 0 0.0029358252713938874 -0.0024742093457969529 0 0.001571551345194665 -0.0037950959365324528 0 -0.0032657996512625524 -0.0029821792839655813 0 0.000176688384678722 -0.0033181482385134221 0 -0.0028867846691387092 -0.0028207929069533552 0 -0.0026597841718538004 -0.0031804544575967241 0 -0.0022896791146229467 -0.0028641252147911557 0 -0.0028867846691387092 -0.0028207929069533552 0 -0.0029720114307602448 -0.0031902116425592281 0 -0.0026597841718538004 -0.0031804544575967241 0 0.0093734832906996416 -0.0050813085937806641 0 0.0093836139428685756 -0.0048913605562082088 0 0.0096309058858208667 -0.0050185692679185247 0 0.0093836139428685756 -0.0048913605562082088 0 0.0098694054022148339 -0.004832783985993668 0 0.010129487544235689 -0.0052501711850502768 0 0.0092512417502802497 -0.0050862921165860516 0 0.010636787373804095 -0.0039630686484147344 0 0.0045090712555797908 -0.0038923947583902651 0 0.0045409400047716261 -0.0038962846430362066 0 0.0045033522122812164 -0.0036741248741909592 0 0.0093734832906996416 -0.0050813085937806641 0 0.0093836139428685756 -0.0048913605562082088 0 0.0091756246117204992 -0.0050141140169572933 0 0.0093836139428685756 -0.0048913605562082088 0 0.0091756246117204992 -0.0050141140169572933 0 0.0092414140800398548 -0.0046611280873855021 0 0.0044411201748392115 -0.0036668850181555165 0 0.0045090712555797908 -0.0038923947583902651 0 0.0045033522122812164 -0.0036741248741909592 0 0.0021094934313071424 -0.0033255714796435296 0 0.0024047782455879061 -0.0029922581712217402 0 0.0093836139428685756 -0.0048913605562082088 0 0.0092414140800398548 -0.0046611280873855021 0 0.009522729374754086 -0.0045080563713284548 0 0.0070420028803895064 -0.0046197778184035925 0 0.0061201993510233248 -0.0039070620661695163 0 0.0091756246117204992 -0.0050141140169572933 0 0.0092414140800398548 -0.0046611280873855021 0 0.0090430050800978344 -0.0045005203407894471 0 0.0092414140800398548 -0.0046611280873855021 0 0.0090430050800978344 -0.0045005203407894471 0 0.0091075142973770888 -0.0045007415256366487 0 0.0061201993510233248 -0.0039070620661695163 0 0.0067158687625311761 -0.0039898105834713033 0 0.0089980782705043286 -0.0042461901221083394 0 0.0090204215824220783 -0.0044877641077746538 0 0.0091544272135734902 -0.0043918135635725468 0 0.0090204215824220783 -0.0044877641077746538 0 0.0091075142973770888 -0.0045007415256366487 0 0.0091544272135734902 -0.0043918135635725468 0 0.0021094934313071424 -0.0033255714796435296 0 0.0061201993510233248 -0.0039070620661695163 0 0.0046380937855593435 -0.0033075549968455673 0 0.0046420426842155808 -0.0033272842683201081 0 0.0045832764358660558 -0.0033011900799442828 0 0.0045909548876601853 -0.0033835660360281559 0 0.0046420426842155808 -0.0033272842683201081 0 0.0045832764358660558 -0.0033011900799442828 0 0.0056504609873590499 -0.0035349346699861985 0 0.0061201993510233248 -0.0039070620661695163 0 0.0093264609184800472 -0.0042596101498862142 0 0.0093058909715968332 -0.0044647955843544664 0 0.009522729374754086 -0.0045080563713284548 0 0.0092414140800398548 -0.0046611280873855021 0 0.0093058909715968332 -0.0044647955843544664 0 0.009522729374754086 -0.0045080563713284548 0 0.0092414140800398548 -0.0046611280873855021 0 0.0091075142973770888 -0.0045007415256366487 0 0.0093058909715968332 -0.0044647955843544664 0 0.0093264609184800472 -0.0042596101498862142 0 0.0091544272135734902 -0.0043918135635725468 0 0.0093058909715968332 -0.0044647955843544664 0 0.0091075142973770888 -0.0045007415256366487 0 0.0091544272135734902 -0.0043918135635725468 0 0.0093058909715968332 -0.0044647955843544664 0 0.0097781408884067972 -0.0041732641610739037 0 0.009522729374754086 -0.0045080563713284548 0 0.0098694054022148339 -0.004832783985993668 0 0.0098939707311287237 -0.0042484704989212288 0 0.0098675136691488436 -0.0047917506748911976 0 0.0093836139428685756 -0.0048913605562082088 0 0.009522729374754086 -0.0045080563713284548 0 0.0098694054022148339 -0.004832783985993668 0 0.010453260131621038 -0.0042204397400466406 0 0.010191846795806831 -0.0046128388448229245 0 0.010613897662311566 -0.0046926826244169618 0 0.010191846795806831 -0.0046128388448229245 0 0.010129487544235689 -0.0052501711850502768 0 0.010613897662311566 -0.0046926826244169618 0 0.0099258135598577959 -0.0043071016983972574 0 0.0098694054022148339 -0.004832783985993668 0 0.010191846795806831 -0.0046128388448229245 0 0.010636787373804095 -0.0039630686484147344 0 0.011446006001698233 -0.0038562184792044099 0 0.0098694054022148339 -0.004832783985993668 0 0.010191846795806831 -0.0046128388448229245 0 0.010129487544235689 -0.0052501711850502768 0 0.012228223797443413 -0.0028773666572952058 0 0.012101813087189143 -0.0028994631152231909 0 0.01212103894839588 -0.0030365660581913984 0 0.012228223797443413 -0.0028773666572952058 0 0.012101813087189143 -0.0028994631152231909 0 0.012039435912843592 -0.00276647233024363 0 0.012101813087189143 -0.0028994631152231909 0 0.011998121136345538 -0.0029389659555764456 0 0.012039435912843592 -0.00276647233024363 0 0.012101813087189143 -0.0028994631152231909 0 0.01212103894839588 -0.0030365660581913984 0 0.011998121136345538 -0.0029389659555764456 0 0.012001451833259506 -0.0032658238159901532 0 0.01212103894839588 -0.0030365660581913984 0 0.01189033095658972 -0.0030522309098376301 0 0.01212103894839588 -0.0030365660581913984 0 0.01189033095658972 -0.0030522309098376301 0 0.011998121136345538 -0.0029389659555764456 0 0.011745303260991663 -0.0032082852325830478 0 0.01189033095658972 -0.0030522309098376301 0 0.011766191100513058 -0.0028737147128807569 0 0.011855253146687169 -0.0028704224951778276 0 0.011801601851612914 -0.0028264868572206417 0 0.011766191100513058 -0.0028737147128807569 0 0.01189033095658972 -0.0030522309098376301 0 0.011855253146687169 -0.0028704224951778276 0 0.011766191100513058 -0.0028737147128807569 0 0.011855253146687169 -0.0028704224951778276 0 0.011998121136345538 -0.0029389659555764456 0 0.012039435912843592 -0.00276647233024363 0 0.01189033095658972 -0.0030522309098376301 0 0.011855253146687169 -0.0028704224951778276 0 0.011998121136345538 -0.0029389659555764456 0 0.011855253146687169 -0.0028704224951778276 0 0.011835618050192205 -0.0028104477895354893 0 0.011886828208157675 -0.002832566820790655 0 0.011864636796212314 -0.0029376494935075318 0 0.011910486796272046 -0.0029482566036819614 0 0.011893217135108262 -0.0028232371133732211 0 0.011910486796272046 -0.0029482566036819614 0 0.011801601851612914 -0.0028264868572206417 0 0.011835618050192205 -0.0028104477895354893 0 0.011764962805569306 -0.0028297803204106022 0 0.011855253146687169 -0.0028704224951778276 0 0.011801601851612914 -0.0028264868572206417 0 0.011835618050192205 -0.0028104477895354893 0 0.011864636796212314 -0.0029376494935075318 0 0.011766080523466869 -0.0028477518264228728 0 0.011804706160626498 -0.0030189856641032477 0 0.011764962805569306 -0.0028297803204106022 0 0.011761374260158015 -0.0027786382909029562 0 0.011804706160626498 -0.0030189856641032477 0 0.011886018556014386 -0.0027824664083185794 0 0.011761374260158015 -0.0027786382909029562 0 0.011764962805569306 -0.0028297803204106022 0 0.011772582965140615 -0.0028353147876306207 0 0.011761374260158015 -0.0027786382909029562 0 0.011804706160626498 -0.0030189856641032477 0 0.012145342250405181 -0.0029181919509775169 0 0.012173482194032682 -0.003319342409470787 0 0.011804706160626498 -0.0030189856641032477 0 0.011886018556014386 -0.0027824664083185794 0 0.012145342250405181 -0.0029181919509775169 0 0.011886018556014386 -0.0027824664083185794 0 0.012145342250405181 -0.0029181919509775169 0 0.012246693792483833 -0.0025786607961306432 0 0.012145342250405181 -0.0029181919509775169 0 0.01291524067829156 -0.002913959952870083 0 0.012246693792483833 -0.0025786607961306432 0 0.012237793690923239 -0.0033372318095621365 0 0.011910486796272046 -0.0029482566036819614 0 0.012145342250405181 -0.0029181919509775169 0 0.01291524067829156 -0.002913959952870083 0 0.012173482194032682 -0.003319342409470787 0 0.01031637179599185 -0.0031974233598151217 0 0.010752850158578261 -0.0036222712827346875 0 0.010832981222411423 -0.0031462142760450658 0 0.010746032752947554 -0.0027038907421219976 0 0.010832981222411423 -0.0031462142760450658 0 0.01151575044057317 -0.003061322736684924 0 0.01031637179599185 -0.0031974233598151217 0 0.010746032752947554 -0.0027038907421219976 0 0.010832981222411423 -0.0031462142760450658 0 0.010752850158578261 -0.0036222712827346875 0 0.010832981222411423 -0.0031462142760450658 0 0.01151575044057317 -0.003061322736684924 0 0.010636787373804095 -0.0039630686484147344 0 0.011910486796272046 -0.0029482566036819614 0 0.012219410420835916 -0.0026130630952363211 0 0.012089608365719885 -0.0026760946333501913 0 0.012143562758603916 -0.0026045935467929465 0 0.012219410420835916 -0.0026130630952363211 0 0.012143562758603916 -0.0026045935467929465 0 0.012324253420028811 -0.0025347474497418991 0 0.012089608365719885 -0.0026760946333501913 0 0.012143562758603916 -0.0026045935467929465 0 0.01200689025813338 -0.0026903620502726406 0 0.012143562758603916 -0.0026045935467929465 0 0.012134341525880528 -0.0025445373320238372 0 0.012280617698725975 -0.0025274453776560563 0 0.012435304223442726 -0.0030381650733657711 0 0.011935823957667348 -0.0027228837501067911 0 0.012143562758603916 -0.0026045935467929465 0 0.012134341525880528 -0.0025445373320238372 0 0.011972215868603005 -0.0026713145788032013 0 0.012143562758603916 -0.0026045935467929465 0 0.011972215868603005 -0.0026713145788032013 0 0.01200689025813338 -0.0026903620502726406 0 0.011930437880845276 -0.0025690334634130489 0 0.012071609016519597 -0.0026671191239341211 0 0.011972215868603005 -0.0026713145788032013 0 0.011972215868603005 -0.0026713145788032013 0 0.011874039480642485 -0.0027613877509442444 0 0.01200689025813338 -0.0026903620502726406 0 0.011874039480642485 -0.0027613877509442444 0 0.01200689025813338 -0.0026903620502726406 0 0.01194656091347753 -0.0027368539671660998 0 0.012089608365719885 -0.0026760946333501913 0 0.01200689025813338 -0.0026903620502726406 0 0.01194656091347753 -0.0027368539671660998 0 0.01194656091347753 -0.0027368539671660998 0 0.011812072885305376 -0.0027947579904752263 0 0.011903635071440591 -0.0027786755707471036 0 0.011874039480642485 -0.0027613877509442444 0 0.01194656091347753 -0.0027368539671660998 0 0.011812072885305376 -0.0027947579904752263 0 0.011972215868603005 -0.0026713145788032013 0 0.011874039480642485 -0.0027613877509442444 0 0.011658778180987909 -0.0029328968448411228 0 0.011874039480642485 -0.0027613877509442444 0 0.011812072885305376 -0.0027947579904752263 0 0.011658778180987909 -0.0029328968448411228 0 0.011812072885305376 -0.0027947579904752263 0 0.011658778180987909 -0.0029328968448411228 0 0.011766191100513058 -0.0028737147128807569 0 0.011745303260991663 -0.0032082852325830478 0 0.011658778180987909 -0.0029328968448411228 0 0.011766191100513058 -0.0028737147128807569 0 0.011812072885305376 -0.0027947579904752263 0 0.011766191100513058 -0.0028737147128807569 0 0.011807137894296077 -0.0028047085095204822 0 0.011801601851612914 -0.0028264868572206417 0 0.011766191100513058 -0.0028737147128807569 0 0.011807137894296077 -0.0028047085095204822 0 0.011801601851612914 -0.0028264868572206417 0 0.011807137894296077 -0.0028047085095204822 0 0.011764962805569306 -0.0028297803204106022 0 0.011807137894296077 -0.0028047085095204822 0 0.011764962805569306 -0.0028297803204106022 0 0.011816670214164524 -0.0028379380966602826 0 0.011764962805569306 -0.0028297803204106022 0 0.011816670214164524 -0.0028379380966602826 0 0.011772582965140615 -0.0028353147876306207 0 0.011807137894296077 -0.0028047085095204822 0 0.011816670214164524 -0.0028379380966602826 0 0.011871782668874327 -0.0028155901485556922 0 0.011871782668874327 -0.0028155901485556922 0 0.012013142981628267 -0.0028190431948915129 0 0.011906144163625638 -0.0028738861029406798 0 0.011816670214164524 -0.0028379380966602826 0 0.011871782668874327 -0.0028155901485556922 0 0.011906144163625638 -0.0028738861029406798 0 0.011812072885305376 -0.0027947579904752263 0 0.011807137894296077 -0.0028047085095204822 0 0.011903635071440591 -0.0027786755707471036 0 0.011807137894296077 -0.0028047085095204822 0 0.011871782668874327 -0.0028155901485556922 0 0.011903635071440591 -0.0027786755707471036 0 0.01194656091347753 -0.0027368539671660998 0 0.011903635071440591 -0.0027786755707471036 0 0.012038765443835271 -0.0027417284584648999 0 0.012089608365719885 -0.0026760946333501913 0 0.01194656091347753 -0.0027368539671660998 0 0.012038765443835271 -0.0027417284584648999 0 0.011903635071440591 -0.0027786755707471036 0 0.012038765443835271 -0.0027417284584648999 0 0.012013142981628267 -0.0028190431948915129 0 0.011871782668874327 -0.0028155901485556922 0 0.011903635071440591 -0.0027786755707471036 0 0.012013142981628267 -0.0028190431948915129 0 0.012013142981628267 -0.0028190431948915129 0 0.012028590955004885 -0.0029243123245697379 0 0.011906144163625638 -0.0028738861029406798 0 0.012013142981628267 -0.0028190431948915129 0 0.012161394268652219 -0.002837025891315589 0 0.0121184990131271 -0.0029019105553464227 0 0.012013142981628267 -0.0028190431948915129 0 0.0121184990131271 -0.0029019105553464227 0 0.012028590955004885 -0.0029243123245697379 0 0.012038765443835271 -0.0027417284584648999 0 0.012013142981628267 -0.0028190431948915129 0 0.012150733720516751 -0.0027515927813233864 0 0.012013142981628267 -0.0028190431948915129 0 0.012150733720516751 -0.0027515927813233864 0 0.012161394268652219 -0.002837025891315589 0 0.012161394268652219 -0.002837025891315589 0 0.012241364424176889 -0.0029158204506084476 0 0.012311496532661345 -0.0028108460839351536 0 0.012150733720516751 -0.0027515927813233864 0 0.012161394268652219 -0.002837025891315589 0 0.012311496532661345 -0.0028108460839351536 0 0.012150733720516751 -0.0027515927813233864 0 0.012312629668955018 -0.0026963440395133143 0 0.012311496532661345 -0.0028108460839351536 0 0.012150733720516751 -0.0027515927813233864 0 0.012186930809553815 -0.0026775305362655793 0 0.012312629668955018 -0.0026963440395133143 0 0.012038765443835271 -0.0027417284584648999 0 0.012150733720516751 -0.0027515927813233864 0 0.012186930809553815 -0.0026775305362655793 0 0.012089608365719885 -0.0026760946333501913 0 0.012038765443835271 -0.0027417284584648999 0 0.012186930809553815 -0.0026775305362655793 0 0.012219410420835916 -0.0026130630952363211 0 0.012089608365719885 -0.0026760946333501913 0 0.012186930809553815 -0.0026775305362655793 0 0.012219410420835916 -0.0026130630952363211 0 0.012186930809553815 -0.0026775305362655793 0 0.012339518140144464 -0.0025901996432420716 0 0.012326672456989868 -0.0031527101187924442 0 0.012196138981518232 -0.0031691313316370268 0 0.012294419674703362 -0.0032481910481358144 0 0.012209031934345393 -0.0030816152146098444 0 0.012171429597932416 -0.0029861905060340932 0 0.012062937300156526 -0.0030669798789479544 0 0.012196138981518232 -0.0031691313316370268 0 0.012209031934345393 -0.0030816152146098444 0 0.012062937300156526 -0.0030669798789479544 0 0.012326672456989868 -0.0031527101187924442 0 0.012196138981518232 -0.0031691313316370268 0 0.012209031934345393 -0.0030816152146098444 0 0.012326672456989868 -0.0031527101187924442 0 0.012209031934345393 -0.0030816152146098444 0 0.012308666268175124 -0.0030222757114498171 0 0.012209031934345393 -0.0030816152146098444 0 0.012308666268175124 -0.0030222757114498171 0 0.012171429597932416 -0.0029861905060340932 0 0.012308666268175124 -0.0030222757114498171 0 0.012241364424176889 -0.0029158204506084476 0 0.012171429597932416 -0.0029861905060340932 0 0.012308666268175124 -0.0030222757114498171 0 0.012241364424176889 -0.0029158204506084476 0 0.012405637039831829 -0.0029343345080316535 0 0.012161394268652219 -0.002837025891315589 0 0.012241364424176889 -0.0029158204506084476 0 0.0121184990131271 -0.0029019105553464227 0 0.012241364424176889 -0.0029158204506084476 0 0.0121184990131271 -0.0029019105553464227 0 0.012171429597932416 -0.0029861905060340932 0 0.012171429597932416 -0.0029861905060340932 0 0.012028590955004885 -0.0029243123245697379 0 0.012062937300156526 -0.0030669798789479544 0 0.0121184990131271 -0.0029019105553464227 0 0.012171429597932416 -0.0029861905060340932 0 0.012028590955004885 -0.0029243123245697379 0 0.012028590955004885 -0.0029243123245697379 0 0.011936084869339701 -0.0029584199640541524 0 0.011906144163625638 -0.0028738861029406798 0 0.012028590955004885 -0.0029243123245697379 0 0.012062937300156526 -0.0030669798789479544 0 0.011936084869339701 -0.0029584199640541524 0 0.012062937300156526 -0.0030669798789479544 0 0.011853051037148841 -0.0030674906767332597 0 0.012094041722535471 -0.0032571555935731814 0 0.011526900428990135 -0.0028045743242557457 0 0.011922985471753755 -0.0030797392331946205 0 0.012196138981518232 -0.0031691313316370268 0 0.012062937300156526 -0.0030669798789479544 0 0.012094041722535471 -0.0032571555935731814 0 0.012062937300156526 -0.0030669798789479544 0 0.011853051037148841 -0.0030674906767332597 0 0.011936084869339701 -0.0029584199640541524 0 0.011853051037148841 -0.0030674906767332597 0 0.011936084869339701 -0.0029584199640541524 0 0.011827582473912928 -0.002902108453892843 0 0.011936084869339701 -0.0029584199640541524 0 0.011906144163625638 -0.0028738861029406798 0 0.011827582473912928 -0.002902108453892843 0 0.011816670214164524 -0.0028379380966602826 0 0.011906144163625638 -0.0028738861029406798 0 0.011827582473912928 -0.002902108453892843 0 0.011827582473912928 -0.002902108453892843 0 0.011772582965140615 -0.0028353147876306207 0 0.011739795416939555 -0.0028483696327289837 0 0.011816670214164524 -0.0028379380966602826 0 0.011827582473912928 -0.002902108453892843 0 0.011772582965140615 -0.0028353147876306207 0 0.011192736818419011 -0.0025448628276457993 0 0.011073397185666443 -0.0024594226480641711 0 0.011144518377039253 -0.0023772038820838066 0 0.011526900428990135 -0.0028045743242557457 0 0.011471733721131973 -0.0026135548808075117 0 0.011853051037148841 -0.0030674906767332597 0 0.011827582473912928 -0.002902108453892843 0 0.011739795416939555 -0.0028483696327289837 0 0.010482619365740069 -0.0016879752406148052 0 0.010304100806657857 -0.0011482130366478663 0 0.0095671836654415074 -0.0012205398821336752 0 0.010482619365740069 -0.0016879752406148052 0 0.010304100806657857 -0.0011482130366478663 0 0.010731155541708941 -0.0012307048893850777 0 0.010304100806657857 -0.0011482130366478663 0 0.010731155541708941 -0.0012307048893850777 0 0.010611210465813438 -0.00077519164981655619 0 0.010611210465813438 -0.00077519164981655619 0 0.011076076460980744 -0.00029065175775877473 0 0.01033737566307635 -6.3828552815906292e-05 0 0.010611210465813438 -0.00077519164981655619 0 0.010092365357658936 -0.00072245919712524587 0 0.01033737566307635 -6.3828552815906292e-05 0 0.010304100806657857 -0.0011482130366478663 0 0.010611210465813438 -0.00077519164981655619 0 0.010092365357658936 -0.00072245919712524587 0 0.0096124842427006349 -0.00033750486454838809 0 0.0095671836654415074 -0.0012205398821336752 0 0.0089950281382664508 -0.00030772013332121663 0 0.010092365357658936 -0.00072245919712524587 0 0.0096124842427006349 -0.00033750486454838809 0 0.01033737566307635 -6.3828552815906292e-05 0 0.010092365357658936 -0.00072245919712524587 0 0.0096124842427006349 -0.00033750486454838809 0 0.0095671836654415074 -0.0012205398821336752 0 0.010304100806657857 -0.0011482130366478663 0 0.010092365357658936 -0.00072245919712524587 0 0.0095671836654415074 -0.0012205398821336752 0 0.011192736818419011 -0.0025448628276457993 0 0.011073397185666443 -0.0024594226480641711 0 0.011304628844275232 -0.0029222491377986202 0 0.011192736818419011 -0.0025448628276457993 0 0.011304628844275232 -0.0029222491377986202 0 0.01174905218183888 -0.0028976203527962367 0 0.010815579882582462 -0.002085212968343375 0 0.010491643049505764 -0.0020802949714954213 0 0.011304628844275232 -0.0029222491377986202 0 0.01174905218183888 -0.0028976203527962367 0 0.011897949025906358 -0.0034212285006525174 0 0.010491643049505764 -0.0020802949714954213 0 0.010073152542183163 -0.0021304636105165115 0 0.0095671836654415074 -0.0012205398821336752 0 0.0089950281382664508 -0.00030772013332121663 0 0.0086407338950875278 -0.00076655946829521488 0 0.0086407338950875278 -0.00076655946829521488 0 0.0084619271240858034 -4.7826494137474759e-05 0 0.0077143326014465071 -0.00032959725923949331 0 0.010073152542183163 -0.0021304636105165115 0 0.011413077576063177 -0.0010923693041756913 0 0.011897949025906358 -0.0034212285006525174 0 0.01247008858463005 -0.0037463869426042811 0 0.012394584934210104 -0.0033673994653986598 0 0.0089950281382664508 -0.00030772013332121663 0 0.0086407338950875278 -0.00076655946829521488 0 0.0084619271240858034 -4.7826494137474759e-05 0 0.012094041722535471 -0.0032571555935731814 0 0.012294419674703362 -0.0032481910481358144 0 0.012394584934210104 -0.0033673994653986598 0 0.01174905218183888 -0.0028976203527962367 0 0.011897949025906358 -0.0034212285006525174 0 0.012394584934210104 -0.0033673994653986598 0 0.011922985471753755 -0.0030797392331946205 0 0.012354532687724021 -0.0033273489149031887 0 0.012196138981518232 -0.0031691313316370268 0 0.012094041722535471 -0.0032571555935731814 0 0.012294419674703362 -0.0032481910481358144 0 0.012577089597677527 -0.0021911074945874568 0 0.012142528242850422 -0.0022520260477439189 0 0.012240484553242413 -0.0018412942256826508 0 0.012240484553242413 -0.0018412942256826508 0 0.012577447417176837 -0.001748156193338364 0 0.012492087705174841 -0.0013856732894570584 0 0.012577089597677527 -0.0021911074945874568 0 0.012240484553242413 -0.0018412942256826508 0 0.012577447417176837 -0.001748156193338364 0 0.012577089597677527 -0.0021911074945874568 0 0.012577447417176837 -0.001748156193338364 0 0.012846985727950009 -0.0018385118611061481 0 0.012577447417176837 -0.001748156193338364 0 0.012846985727950009 -0.0018385118611061481 0 0.012814759280573688 -0.0014792614401960083 0 0.012577089597677527 -0.0021911074945874568 0 0.012846985727950009 -0.0018385118611061481 0 0.013113325177186937 -0.0021335470710387243 0 0.012846985727950009 -0.0018385118611061481 0 0.013166448782116145 -0.0016629867638034874 0 0.012814759280573688 -0.0014792614401960083 0 0.012846985727950009 -0.0018385118611061481 0 0.013166448782116145 -0.0016629867638034874 0 0.013113325177186937 -0.0021335470710387243 0 0.01291524067829156 -0.002913959952870083 0 0.012577089597677527 -0.0021911074945874568 0 0.013113325177186937 -0.0021335470710387243 0 0.01291524067829156 -0.002913959952870083 0 0.012577089597677527 -0.0021911074945874568 0 0.012246693792483833 -0.0025786607961306432 0 0.012577089597677527 -0.0021911074945874568 0 0.012142528242850422 -0.0022520260477439189 0 0.012246693792483833 -0.0025786607961306432 0 0.011886018556014386 -0.0027824664083185794 0 0.012246693792483833 -0.0025786607961306432 0 0.011848890952647569 -0.0025397060651707742 0 0.011886018556014386 -0.0027824664083185794 0 0.011848890952647569 -0.0025397060651707742 0 0.011761374260158015 -0.0027786382909029562 0 0.012142528242850422 -0.0022520260477439189 0 0.012246693792483833 -0.0025786607961306432 0 0.011848890952647569 -0.0025397060651707742 0 0.011818899509302941 -0.0025767227047117525 0 0.011471733721131973 -0.0026135548808075117 0 0.011848890952647569 -0.0025397060651707742 0 0.011761374260158015 -0.0027786382909029562 0 0.011739795416939555 -0.0028483696327289837 0 0.011772582965140615 -0.0028353147876306207 0 0.011761374260158015 -0.0027786382909029562 0 0.011739795416939555 -0.0028483696327289837 0 0.011073397185666443 -0.0024594226480641711 0 0.011144518377039253 -0.0023772038820838066 0 0.011483218954970915 -0.0022092651111352739 0 0.011848890952647569 -0.0025397060651707742 0 0.011144518377039253 -0.0023772038820838066 0 0.011483218954970915 -0.0022092651111352739 0 0.010482619365740069 -0.0016879752406148052 0 0.011483218954970915 -0.0022092651111352739 0 0.011162593718264651 -0.0015330806349415835 0 0.010815579882582462 -0.002085212968343375 0 0.011443883708701986 -0.0022321931652196907 0 0.011483218954970915 -0.0022092651111352739 0 0.011586588623891147 -0.0016984371751006784 0 0.011162593718264651 -0.0015330806349415835 0 0.012142528242850422 -0.0022520260477439189 0 0.012240484553242413 -0.0018412942256826508 0 0.011871485381655824 -0.0019964816279722151 0 0.012142528242850422 -0.0022520260477439189 0 0.011848890952647569 -0.0025397060651707742 0 0.011871485381655824 -0.0019964816279722151 0 0.011848890952647569 -0.0025397060651707742 0 0.011483218954970915 -0.0022092651111352739 0 0.011871485381655824 -0.0019964816279722151 0 0.011483218954970915 -0.0022092651111352739 0 0.011586588623891147 -0.0016984371751006784 0 0.011871485381655824 -0.0019964816279722151 0 0.011586588623891147 -0.0016984371751006784 0 0.011871485381655824 -0.0019964816279722151 0 0.011867166867565131 -0.0015165689324679889 0 0.012240484553242413 -0.0018412942256826508 0 0.011871485381655824 -0.0019964816279722151 0 0.011867166867565131 -0.0015165689324679889 0 0.012240484553242413 -0.0018412942256826508 0 0.011867166867565131 -0.0015165689324679889 0 0.012150827847390326 -0.0012010375586647291 0 0.011586588623891147 -0.0016984371751006784 0 0.011867166867565131 -0.0015165689324679889 0 0.011502474462187797 -0.0012464678444203021 0 0.011867166867565131 -0.0015165689324679889 0 0.011502474462187797 -0.0012464678444203021 0 0.011831551470740389 -0.00094718782894067429 0 0.011502474462187797 -0.0012464678444203021 0 0.011831551470740389 -0.00094718782894067429 0 0.011470818513676538 -0.00073412704578143192 0 0.011867166867565131 -0.0015165689324679889 0 0.011831551470740389 -0.00094718782894067429 0 0.012150827847390326 -0.0012010375586647291 0 0.010482619365740069 -0.0016879752406148052 0 0.010731155541708941 -0.0012307048893850777 0 0.011162593718264651 -0.0015330806349415835 0 0.011586588623891147 -0.0016984371751006784 0 0.011502474462187797 -0.0012464678444203021 0 0.011162593718264651 -0.0015330806349415835 0 0.011502474462187797 -0.0012464678444203021 0 0.011099486137958163 -0.0010194429059303895 0 0.011470818513676538 -0.00073412704578143192 0 0.011502474462187797 -0.0012464678444203021 0 0.011162593718264651 -0.0015330806349415835 0 0.011099486137958163 -0.0010194429059303895 0 0.010731155541708941 -0.0012307048893850777 0 0.011162593718264651 -0.0015330806349415835 0 0.011099486137958163 -0.0010194429059303895 0 0.010731155541708941 -0.0012307048893850777 0 0.010611210465813438 -0.00077519164981655619 0 0.011099486137958163 -0.0010194429059303895 0 0.011099486137958163 -0.0010194429059303895 0 0.011076076460980744 -0.00029065175775877473 0 0.011470818513676538 -0.00073412704578143192 0 0.010611210465813438 -0.00077519164981655619 0 0.011099486137958163 -0.0010194429059303895 0 0.011076076460980744 -0.00029065175775877473 0 0.011076076460980744 -0.00029065175775877473 0 0.011470818513676538 -0.00073412704578143192 0 0.011762856390422271 -0.00022763154653406641 0 0.011831551470740389 -0.00094718782894067429 0 0.011470818513676538 -0.00073412704578143192 0 0.011762856390422271 -0.00022763154653406641 0 0.011831551470740389 -0.00094718782894067429 0 0.012173249096833805 -0.00074935395186320178 0 0.011762856390422271 -0.00022763154653406641 0 0.011831551470740389 -0.00094718782894067429 0 0.012173249096833805 -0.00074935395186320178 0 0.012150827847390326 -0.0012010375586647291 0 0.012166351326005541 -0.00036207606043517571 0 0.012173249096833805 -0.00074935395186320178 0 0.011762856390422271 -0.00022763154653406641 0 0.012166351326005541 -0.00036207606043517571 0 0.012455013545317313 -0.00048119245533283477 0 0.012173249096833805 -0.00074935395186320178 0 0.012455013545317313 -0.00048119245533283477 0 0.012836498024147484 -0.00064953080920262488 0 0.012665642872879451 -0.00013839447365481442 0 0.012455013545317313 -0.00048119245533283477 0 0.012487590957060628 -0.00092721642198941229 0 0.012836498024147484 -0.00064953080920262488 0 0.012455013545317313 -0.00048119245533283477 0 0.012487590957060628 -0.00092721642198941229 0 0.012173249096833805 -0.00074935395186320178 0 0.012487590957060628 -0.00092721642198941229 0 0.012173249096833805 -0.00074935395186320178 0 0.012150827847390326 -0.0012010375586647291 0 0.012487590957060628 -0.00092721642198941229 0 0.012492087705174841 -0.0013856732894570584 0 0.012796014613477994 -0.0011023446537040966 0 0.012487590957060628 -0.00092721642198941229 0 0.012150827847390326 -0.0012010375586647291 0 0.012492087705174841 -0.0013856732894570584 0 0.012577447417176837 -0.001748156193338364 0 0.012492087705174841 -0.0013856732894570584 0 0.012814759280573688 -0.0014792614401960083 0 0.012240484553242413 -0.0018412942256826508 0 0.012150827847390326 -0.0012010375586647291 0 0.012492087705174841 -0.0013856732894570584 0 0.013166448782116145 -0.0016629867638034874 0 0.012814759280573688 -0.0014792614401960083 0 0.013088917309720758 -0.0012627326311204217 0 0.012492087705174841 -0.0013856732894570584 0 0.012814759280573688 -0.0014792614401960083 0 0.012796014613477994 -0.0011023446537040966 0 0.012814759280573688 -0.0014792614401960083 0 0.012796014613477994 -0.0011023446537040966 0 0.013088917309720758 -0.0012627326311204217 0 0.012796014613477994 -0.0011023446537040966 0 0.013088917309720758 -0.0012627326311204217 0 0.013051541416372945 -0.00095141226235097905 0 0.013272219100591467 -0.0010278008025332171 0 0.013088917309720758 -0.0012627326311204217 0 0.013051541416372945 -0.00095141226235097905 0 0.01324023840802669 -0.00063631224261636937 0 0.013051541416372945 -0.00095141226235097905 0 0.012836498024147484 -0.00064953080920262488 0 0.013272219100591467 -0.0010278008025332171 0 0.01324023840802669 -0.00063631224261636937 0 0.013051541416372945 -0.00095141226235097905 0 0.012796014613477994 -0.0011023446537040966 0 0.013051541416372945 -0.00095141226235097905 0 0.012836498024147484 -0.00064953080920262488 0 0.012487590957060628 -0.00092721642198941229 0 0.012796014613477994 -0.0011023446537040966 0 0.012836498024147484 -0.00064953080920262488 0 0.012836498024147484 -0.00064953080920262488 0 0.013017844893381508 -0.0002748081205947566 0 0.012665642872879451 -0.00013839447365481442 0 0.01324023840802669 -0.00063631224261636937 0 0.012836498024147484 -0.00064953080920262488 0 0.013017844893381508 -0.0002748081205947566 0 0.013017844893381508 -0.0002748081205947566 0 0.012896234310317471 0.00012264884236166639 0 0.013460079833427199 -8.5790263129102224e-05 0 0.013017844893381508 -0.0002748081205947566 0 0.012665642872879451 -0.00013839447365481442 0 0.012896234310317471 0.00012264884236166639 0 0.010099735026268783 0.00066425439993089469 0 0.0083476266918872111 -5.1016694561178429e-05 0 0.0070817695509632289 0.0013010044349631373 0 0.0068839223247094154 0.0020453762307002334 0 0.0075796383725963848 0.0022848272686251427 0 0.0070817695509632289 0.0013010044349631373 0 0.0068839223247094154 0.0020453762307002334 0 0.0063280484009284894 0.0015730312878278647 0 0.011494870444399983 0.0012840898853146638 0 0.011228272730813589 0.0016542405102449307 0 0.011551313686734897 0.0017598658261662604 0 0.010778136630614372 0.0012251283909308179 0 0.0088827257237002882 0.0021907819646468539 0 0.0068839223247094154 0.0020453762307002334 0 0.0063280484009284894 0.0015730312878278647 0 0.0064060276021101724 0.0025817348163482347 0 0.012426199382446948 0.00050538892059223217 0 0.012346111751707434 -4.376659417451911e-05 0 0.011885280204602855 0.00027737692587617545 0 0.010778136630614372 0.0012251283909308179 0 0.011843343025154596 1.1040066665330729e-05 0 0.012665642872879451 -0.00013839447365481442 0 0.012367226655606153 0.00032625140363877231 0 0.012346111751707434 -4.376659417451911e-05 0 0.010099735026268783 0.00066425439993089469 0 0.010778136630614372 0.0012251283909308179 0 0.012665642872879451 -0.00013839447365481442 0 0.012896234310317471 0.00012264884236166639 0 0.012367226655606153 0.00032625140363877231 0 0.012455013545317313 -0.00048119245533283477 0 0.012665642872879451 -0.00013839447365481442 0 0.012346111751707434 -4.376659417451911e-05 0 0.012166351326005541 -0.00036207606043517571 0 0.012455013545317313 -0.00048119245533283477 0 0.012346111751707434 -4.376659417451911e-05 0 0.012166351326005541 -0.00036207606043517571 0 0.012346111751707434 -4.376659417451911e-05 0 0.011762856390422271 -0.00022763154653406641 0 0.012346111751707434 -4.376659417451911e-05 0 0.011762856390422271 -0.00022763154653406641 0 0.011885280204602855 0.00027737692587617545 0 0.011762856390422271 -0.00022763154653406641 0 0.011885280204602855 0.00027737692587617545 0 0.011399960756585927 0.00022267149081465947 0 0.011076076460980744 -0.00029065175775877473 0 0.011399960756585927 0.00022267149081465947 0 0.010812067003047179 0.0004928941566427152 0 0.011076076460980744 -0.00029065175775877473 0 0.011762856390422271 -0.00022763154653406641 0 0.011399960756585927 0.00022267149081465947 0 0.011476376673662409 0.0011217517441308748 0 0.010399999388330987 0.0015104595068302397 0 0.010812067003047179 0.0004928941566427152 0 0.011492465195447398 0.00094418324639913571 0 0.010471608481356167 0.0014934781996492961 0 0.011399960756585927 0.00022267149081465947 0 0.010812067003047179 0.0004928941566427152 0 0.011492465195447398 0.00094418324639913571 0 0.011494870444399983 0.0012840898853146638 0 0.010989155327358455 0.001450403004133948 0 0.011228272730813589 0.0016542405102449307 0 0.010778136630614372 0.0012251283909308179 0 0.011476376673662409 0.0011217517441308748 0 0.012426199382446948 0.00050538892059223217 0 0.011885280204602855 0.00027737692587617545 0 0.011492465195447398 0.00094418324639913571 0 0.011885280204602855 0.00027737692587617545 0 0.011399960756585927 0.00022267149081465947 0 0.011492465195447398 0.00094418324639913571 0 0.010989155327358455 0.001450403004133948 0 0.011228272730813589 0.0016542405102449307 0 0.010878407643068093 0.0017816078211180999 0 0.011228272730813589 0.0016542405102449307 0 0.010878407643068093 0.0017816078211180999 0 0.011237431014031983 0.0020081471321794623 0 0.010878407643068093 0.0017816078211180999 0 0.010471608481356167 0.0014934781996492961 0 0.010498279402424777 0.002126771103106388 0 0.010989155327358455 0.001450403004133948 0 0.010878407643068093 0.0017816078211180999 0 0.010471608481356167 0.0014934781996492961 0 0.010878407643068093 0.0017816078211180999 0 0.010902370336355865 0.0021997584487489586 0 0.010498279402424777 0.002126771103106388 0 0.010902370336355865 0.0021997584487489586 0 0.010498279402424777 0.002126771103106388 0 0.010635995829336234 0.0024295071684201884 0 0.010902370336355865 0.0021997584487489586 0 0.011237431014031983 0.0020081471321794623 0 0.011230783556456651 0.0025219433806051533 0 0.010878407643068093 0.0017816078211180999 0 0.010902370336355865 0.0021997584487489586 0 0.011237431014031983 0.0020081471321794623 0 0.011237431014031983 0.0020081471321794623 0 0.011597902316599839 0.002274748728216161 0 0.011551313686734897 0.0017598658261662604 0 0.0090850704147099511 0.0028767199452744687 0 0.0088827257237002882 0.0021907819646468539 0 0.011237431014031983 0.0020081471321794623 0 0.011597902316599839 0.002274748728216161 0 0.011230783556456651 0.0025219433806051533 0 0.0064904062066866441 0.003558692947455447 0 0.0072463942736282587 0.00351226451400592 0 0.0067580086067146388 0.0040654981110876892 0 0.0064904062066866441 0.003558692947455447 0 0.0072463942736282587 0.00351226451400592 0 0.0069565961872260192 0.00281182999108214 0 0.0065555551502548106 0.0033368214731407343 0 0.0065450206054028298 0.0025433146536403841 0 0.0072463942736282587 0.00351226451400592 0 0.0069565961872260192 0.00281182999108214 0 0.0075796383725963848 0.0022848272686251427 0 0.0068839223247094154 0.0020453762307002334 0 0.0069565961872260192 0.00281182999108214 0 0.0075796383725963848 0.0022848272686251427 0 0.0068839223247094154 0.0020453762307002334 0 0.0069565961872260192 0.00281182999108214 0 0.0064060276021101724 0.0025817348163482347 0 0.0064904062066866441 0.003558692947455447 0 0.0069565961872260192 0.00281182999108214 0 0.0064060276021101724 0.0025817348163482347 0 0.011228272730813589 0.0016542405102449307 0 0.011237431014031983 0.0020081471321794623 0 0.011551313686734897 0.0017598658261662604 0 0.010282421744253489 0.0024690113874996241 0 0.0090202444271570946 0.0014958761573688848 0 0.0081472671462409357 0.0010049353430865455 0 0.0086356083891470838 0.00065320396832694151 0 0.0079263975447135988 0.00033130829950363228 0 0.0081472671462409357 0.0010049353430865455 0 0.0086356083891470838 0.00065320396832694151 0 0.0090123475309995989 0.001483432562068772 0 0.010282421744253489 0.0024690113874996241 0 0.010047651611613551 0.00074997420314821357 0 0.0084619271240858034 -4.7826494137474759e-05 0 0.0077143326014465071 -0.00032959725923949331 0 0.0079263975447135988 0.00033130829950363228 0 0.0086356083891470838 0.00065320396832694151 0 0.0084619271240858034 -4.7826494137474759e-05 0 0.0079263975447135988 0.00033130829950363228 0 0.0086356083891470838 0.00065320396832694151 0 0.0084619271240858034 -4.7826494137474759e-05 0 0.009026330797106066 0.00029756552639652518 0 0.0089950281382664508 -0.00030772013332121663 0 0.0084619271240858034 -4.7826494137474759e-05 0 0.009026330797106066 0.00029756552639652518 0 0.0096124842427006349 -0.00033750486454838809 0 0.0089950281382664508 -0.00030772013332121663 0 0.009026330797106066 0.00029756552639652518 0 0.009026330797106066 0.00029756552639652518 0 0.0093121160664757802 0.00083157778777024087 0 0.0096563404636823211 0.00030245643661849694 0 0.0093121160664757802 0.00083157778777024087 0 0.009785821709664768 0.0013130640162596493 0 0.0090123475309995989 0.001483432562068772 0 0.0086356083891470838 0.00065320396832694151 0 0.0093121160664757802 0.00083157778777024087 0 0.0090123475309995989 0.001483432562068772 0 0.0086356083891470838 0.00065320396832694151 0 0.009026330797106066 0.00029756552639652518 0 0.0093121160664757802 0.00083157778777024087 0 0.0093121160664757802 0.00083157778777024087 0 0.01005720914902616 0.00073938767846379739 0 0.009785821709664768 0.0013130640162596493 0 0.0093121160664757802 0.00083157778777024087 0 0.01005720914902616 0.00073938767846379739 0 0.0096563404636823211 0.00030245643661849694 0 0.01005720914902616 0.00073938767846379739 0 0.0096563404636823211 0.00030245643661849694 0 0.01033737566307635 -6.3828552815906292e-05 0 0.0096124842427006349 -0.00033750486454838809 0 0.0096563404636823211 0.00030245643661849694 0 0.01033737566307635 -6.3828552815906292e-05 0 0.0096124842427006349 -0.00033750486454838809 0 0.009026330797106066 0.00029756552639652518 0 0.0096563404636823211 0.00030245643661849694 0 0.011076076460980744 -0.00029065175775877473 0 0.010812067003047179 0.0004928941566427152 0 0.01033737566307635 -6.3828552815906292e-05 0 0.010812067003047179 0.0004928941566427152 0 0.01005720914902616 0.00073938767846379739 0 0.01033737566307635 -6.3828552815906292e-05 0 0.010812067003047179 0.0004928941566427152 0 0.01005720914902616 0.00073938767846379739 0 0.010471608481356167 0.0014934781996492961 0 0.01005720914902616 0.00073938767846379739 0 0.009785821709664768 0.0013130640162596493 0 0.010471608481356167 0.0014934781996492961 0 0.010471608481356167 0.0014934781996492961 0 0.010498279402424777 0.002126771103106388 0 0.010012364263121841 0.001986780053103356 0 0.010498279402424777 0.002126771103106388 0 0.010145693758190712 0.0023152078852326252 0 0.010012364263121841 0.001986780053103356 0 0.010498279402424777 0.002126771103106388 0 0.010347571324580779 0.0025213384856144386 0 0.010635995829336234 0.0024295071684201884 0 0.010498279402424777 0.002126771103106388 0 0.010145693758190712 0.0023152078852326252 0 0.010347571324580779 0.0025213384856144386 0 0.010145693758190712 0.0023152078852326252 0 0.0098045629292772916 0.0021637151161761166 0 0.0099927879269520806 0.0025636160855535685 0 0.010145693758190712 0.0023152078852326252 0 0.010012364263121841 0.001986780053103356 0 0.0098045629292772916 0.0021637151161761166 0 0.010145693758190712 0.0023152078852326252 0 0.0099927879269520806 0.0025636160855535685 0 0.010347571324580779 0.0025213384856144386 0 0.010096116264047434 0.0020425120833735895 0 0.0090202444271570946 0.0014958761573688848 0 0.010012364263121841 0.001986780053103356 0 0.0096823083941098825 0.001898032743756915 0 0.0098045629292772916 0.0021637151161761166 0 0.009785821709664768 0.0013130640162596493 0 0.010012364263121841 0.001986780053103356 0 0.0090123475309995989 0.001483432562068772 0 0.009785821709664768 0.0013130640162596493 0 0.010471608481356167 0.0014934781996492961 0 0.010012364263121841 0.001986780053103356 0 0.0096823083941098825 0.001898032743756915 0 0.0098045629292772916 0.0021637151161761166 0 0.0094788108944423403 0.0022466293613673839 0 0.0098045629292772916 0.0021637151161761166 0 0.0094788108944423403 0.0022466293613673839 0 0.0099927879269520806 0.0025636160855535685 0 0.010354506942355193 0.0046360108657280859 0 0.010620296007802406 0.0033976993228793198 0 0.011127738053727434 0.0042309494685536936 0 0.010354506942355193 0.0046360108657280859 0 0.011414229589756185 0.004986318827232228 0 0.011127738053727434 0.0042309494685536936 0 0.0093205558766085612 0.0017240528416450488 0 0.0096823083941098825 0.001898032743756915 0 0.0094788108944423403 0.0022466293613673839 0 0.010879781705051406 0.0059959866195846657 0 0.010354506942355193 0.0046360108657280859 0 0.011414229589756185 0.004986318827232228 0 0.010282421744253489 0.0024690113874996241 0 0.0099452384334908824 0.0037466985126444418 0 0.010513339587191922 0.0027827171287837693 0 0.010620296007802406 0.0033976993228793198 0 0.010100598508853207 0.0028501618897115088 0 0.010513339587191922 0.0027827171287837693 0 0.010620296007802406 0.0033976993228793198 0 0.01104807916664413 0.0028944171005868061 0 0.010513339587191922 0.0027827171287837693 0 0.01104807916664413 0.0028944171005868061 0 0.011032853270257277 0.0022343093244937585 0 0.010354506942355193 0.0046360108657280859 0 0.010620296007802406 0.0033976993228793198 0 0.0098970615941046634 0.003027963192249726 0 0.0094788108944423403 0.0022466293613673839 0 0.0098970615941046634 0.003027963192249726 0 0.0099927879269520806 0.0025636160855535685 0 0.0099452384334908824 0.0037466985126444418 0 0.0098609650348582146 0.0029199870428429811 0 0.0098970615941046634 0.003027963192249726 0 0.0099646547300551169 0.0028922552883742653 0 0.010044495154099477 0.0029122678497275401 0 0.0098970615941046634 0.003027963192249726 0 0.010100598508853207 0.0028501618897115088 0 0.0099646547300551169 0.0028922552883742653 0 0.010620296007802406 0.0033976993228793198 0 0.0098970615941046634 0.003027963192249726 0 0.010100598508853207 0.0028501618897115088 0 0.010513339587191922 0.0027827171287837693 0 0.010100598508853207 0.0028501618897115088 0 0.0099191733339185403 0.0027569846646185426 0 0.0099646547300551169 0.0028922552883742653 0 0.010044495154099477 0.0029122678497275401 0 0.0099191733339185403 0.0027569846646185426 0 0.010100598508853207 0.0028501618897115088 0 0.0099646547300551169 0.0028922552883742653 0 0.0099191733339185403 0.0027569846646185426 0 0.010200379430735812 0.0041091424364227492 0 0.0108917341822483 0.0037760192365514748 0 0.010044495154099477 0.0029122678497275401 0 0.010269664512420453 0.0030474454348976446 0 0.0099191733339185403 0.0027569846646185426 0 0.010044495154099477 0.0029122678497275401 0 0.010222353380068565 0.0027721369329855162 0 0.010269664512420453 0.0030474454348976446 0 0.010044495154099477 0.0029122678497275401 0 0.0099927879269520806 0.0025636160855535685 0 0.010222353380068565 0.0027721369329855162 0 0.0099927879269520806 0.0025636160855535685 0 0.010222353380068565 0.0027721369329855162 0 0.010347571324580779 0.0025213384856144386 0 0.0098970615941046634 0.003027963192249726 0 0.010044495154099477 0.0029122678497275401 0 0.0099927879269520806 0.0025636160855535685 0 0.010347571324580779 0.0025213384856144386 0 0.010635995829336234 0.0024295071684201884 0 0.010548799011602305 0.0027147364414758196 0 0.010222353380068565 0.0027721369329855162 0 0.010347571324580779 0.0025213384856144386 0 0.010548799011602305 0.0027147364414758196 0 0.010222353380068565 0.0027721369329855162 0 0.010269664512420453 0.0030474454348976446 0 0.010548799011602305 0.0027147364414758196 0 0.010125817375150895 0.0051941042561923162 0 0.0098073034435765972 0.0041501966174570786 0 0.0087151731061009437 0.0046921183765276826 0 0.010125817375150895 0.0051941042561923162 0 0.0098073034435765972 0.0041501966174570786 0 0.010759312124729836 0.0045353310223597816 0 0.012257239555720631 0.0046627469946040412 0 0.012241901548513371 0.0046970102287673477 0 0.012268647793306095 0.0046880050952824159 0 0.012241901548513371 0.0046970102287673477 0 0.012268647793306095 0.0046880050952824159 0 0.0122944107543585 0.0047173779978011568 0 0.012257239555720631 0.0046627469946040412 0 0.012241901548513371 0.0046970102287673477 0 0.012200060746499415 0.0046678674179624832 0 0.013000594329926115 0.0049546145571691281 0 0.01318977166718259 0.0050472499098816528 0 0.013222888974616145 0.0049255324903049388 0 0.012694256526313435 0.0048739175539999312 0 0.012285403448401693 0.0046647923108455646 0 0.013000594329926115 0.0049546145571691281 0 0.013222888974616145 0.0049255324903049388 0 0.013093636559725019 0.0048397343940752551 0 0.0098073034435765972 0.0041501966174570786 0 0.010759312124729836 0.0045353310223597816 0 0.01166173309508229 0.0041705127160581567 0 0.010125817375150895 0.0051941042561923162 0 0.01113574047701257 0.0047111640316123381 0 0.011988405714370173 0.0049661897361912757 0 0.010968618052727119 0.0043462121182113664 0 0.012285403448401693 0.0046647923108455646 0 0.010759312124729836 0.0045353310223597816 0 0.01113574047701257 0.0047111640316123381 0 0.01166173309508229 0.0041705127160581567 0 0.010125817375150895 0.0051941042561923162 0 0.010759312124729836 0.0045353310223597816 0 0.01113574047701257 0.0047111640316123381 0 0.01113574047701257 0.0047111640316123381 0 0.011988405714370173 0.0049661897361912757 0 0.01166173309508229 0.0041705127160581567 0 0.012172880045426548 0.0047387574161921577 0 0.011846063028349892 0.0044736008594584821 0 0.012624961739037802 0.0046950808406569112 0 0.011988405714370173 0.0049661897361912757 0 0.012172880045426548 0.0047387574161921577 0 0.012624961739037802 0.0046950808406569112 0 0.012007267176349524 0.0045434675640135926 0 0.012285403448401693 0.0046647923108455646 0 0.011988405714370173 0.0049661897361912757 0 0.012172880045426548 0.0047387574161921577 0 0.01166173309508229 0.0041705127160581567 0 0.01318977166718259 0.0050472499098816528 0 0.013336176281797311 0.0049522173134436114 0 0.013494749455585769 0.0049875373568059669 0 0.012285403448401693 0.0046647923108455646 0 0.013235219725374956 0.004802083502286612 0 0.01318977166718259 0.0050472499098816528 0 0.013222888974616145 0.0049255324903049388 0 0.013336176281797311 0.0049522173134436114 0 0.013222888974616145 0.0049255324903049388 0 0.013336176281797311 0.0049522173134436114 0 0.013363916882455052 0.0048613552696072215 0 0.013336176281797311 0.0049522173134436114 0 0.01343836452175123 0.0049078492433750655 0 0.013494749455585769 0.0049875373568059669 0 0.013336176281797311 0.0049522173134436114 0 0.013363916882455052 0.0048613552696072215 0 0.01343836452175123 0.0049078492433750655 0 0.013363916882455052 0.0048613552696072215 0 0.01343836452175123 0.0049078492433750655 0 0.013469980919508382 0.0048231905113772389 0 0.01343836452175123 0.0049078492433750655 0 0.013527147908524528 0.0048668385612770614 0 0.013494749455585769 0.0049875373568059669 0 0.01343836452175123 0.0049078492433750655 0 0.013527147908524528 0.0048668385612770614 0 0.013469980919508382 0.0048231905113772389 0 0.011846063028349892 0.0044736008594584821 0 0.012892446784677566 0.0045724520902511922 0 0.012624961739037802 0.0046950808406569112 0 0.012884416246130549 0.0046767190070983967 0 0.012581333634819248 0.0042270406442660655 0 0.010513339587191922 0.0027827171287837693 0 0.0099191733339185403 0.0027569846646185426 0 0.011032853270257277 0.0022343093244937585 0 0.011988405714370173 0.0049661897361912757 0 0.012624961739037802 0.0046950808406569112 0 0.013075968081244721 0.004859373030274442 0 0.0108917341822483 0.0037760192365514748 0 0.012581333634819248 0.0042270406442660655 0 0.012892446784677566 0.0045724520902511922 0 0.012624961739037802 0.0046950808406569112 0 0.013074057420652841 0.0049521274335554552 0 0.0083528083478710251 0.0038185687002832845 0 0.0064990322570010368 0.004781161127836225 0 0.0083528083478710251 0.0038185687002832845 0 0.0097798282344091526 0.0041953013708714839 0 0.0066297545615652369 0.0055815977838452862 0 0.0072855266399190002 0.0051942386749589961 0 0.0082420476041240847 0.0053831555176608297 0 0.0066297545615652369 0.0055815977838452862 0 0.0068059628713255322 0.00490777045793221 0 0.0066184868214438728 0.004336931938835227 0 0.0068932600856320605 0.0051474035912038585 0 0.0066297545615652369 0.0055815977838452862 0 0.0072855266399190002 0.0051942386749589961 0 0.0068932600856320605 0.0051474035912038585 0 0.0066297545615652369 0.0055815977838452862 0 0.0068059628713255322 0.00490777045793221 0 0.0068932600856320605 0.0051474035912038585 0 0.0072855266399190002 0.0051942386749589961 0 0.0070231269429012737 0.0049312847717354067 0 0.0072855266399190002 0.0051942386749589961 0 0.0070231269429012737 0.0049312847717354067 0 0.0072797835533407757 0.0049672337943493638 0 0.0072855266399190002 0.0051942386749589961 0 0.0072797835533407757 0.0049672337943493638 0 0.0074662554818488722 0.0050564910410556552 0 0.0072797835533407757 0.0049672337943493638 0 0.0074662554818488722 0.0050564910410556552 0 0.0074886203292887955 0.0048843284153766492 0 0.0072797835533407757 0.0049672337943493638 0 0.0073114703592557723 0.0047973145968081606 0 0.0074886203292887955 0.0048843284153766492 0 0.0072797835533407757 0.0049672337943493638 0 0.0073114703592557723 0.0047973145968081606 0 0.0071457253028270867 0.0047462311387171099 0 0.0073114703592557723 0.0047973145968081606 0 0.0071457253028270867 0.0047462311387171099 0 0.0073200302200847733 0.0046363878380402124 0 0.0070231269429012737 0.0049312847717354067 0 0.0072797835533407757 0.0049672337943493638 0 0.0071457253028270867 0.0047462311387171099 0 0.0070231269429012737 0.0049312847717354067 0 0.0071457253028270867 0.0047462311387171099 0 0.0069227645079803857 0.0046299759649479685 0 0.0070231269429012737 0.0049312847717354067 0 0.0068059628713255322 0.00490777045793221 0 0.0069227645079803857 0.0046299759649479685 0 0.0068932600856320605 0.0051474035912038585 0 0.0070231269429012737 0.0049312847717354067 0 0.0068059628713255322 0.00490777045793221 0 0.0066673042291434505 0.0043732061731968658 0 0.0067745205267151897 0.0044503672556739753 0 0.0066184868214438728 0.004336931938835227 0 0.0059820663530129803 0.0040523030257508825 0 0.0061390689313695771 0.004109193013316987 0 0.0060969628346407775 0.004022993509583123 0 0.0059820663530129803 0.0040523030257508825 0 0.0060969628346407775 0.004022993509583123 0 0.0060537345794669769 0.0037647317198468513 0 0.0066673042291434505 0.0043732061731968658 0 0.0067745205267151897 0.0044503672556739753 0 0.006683062780924176 0.0043511030788983612 0 0.005807324808141787 0.0033284775472219108 0 0.0059820663530129803 0.0040523030257508825 0 0.0060537345794669769 0.0037647317198468513 0 0.0065834146327093763 0.004372230373473748 0 0.006683062780924176 0.0043511030788983612 0 0.0067580086067146388 0.0040654981110876892 0 0.0065555551502548106 0.0033368214731407343 0 0.0063946625589588104 0.0042012986722269269 0 0.0067745205267151897 0.0044503672556739753 0 0.006683062780924176 0.0043511030788983612 0 0.0067580086067146388 0.0040654981110876892 0 0.0072463942736282587 0.00351226451400592 0 0.0067745205267151897 0.0044503672556739753 0 0.0067580086067146388 0.0040654981110876892 0 0.0090850704147099511 0.0028767199452744687 0 0.0083528083478710251 0.0038185687002832845 0 0.011597902316599839 0.002274748728216161 0 0.011630294733387316 0.0027889385539277547 0 0.011230783556456651 0.0025219433806051533 0 0.0064904062066866441 0.003558692947455447 0 0.0065834146327093763 0.004372230373473748 0 0.0067580086067146388 0.0040654981110876892 0 0.0083528083478710251 0.0038185687002832845 0 0.0079797624048441353 0.0039112472810522913 0 0.011630294733387316 0.0027889385539277547 0 0.011230783556456651 0.0025219433806051533 0 0.010972465395223244 0.0029414555535937658 0 0.011230783556456651 0.0025219433806051533 0 0.01088681868651634 0.0025717880477154121 0 0.010972465395223244 0.0029414555535937658 0 0.010902370336355865 0.0021997584487489586 0 0.011230783556456651 0.0025219433806051533 0 0.01088681868651634 0.0025717880477154121 0 0.01088681868651634 0.0025717880477154121 0 0.010548799011602305 0.0027147364414758196 0 0.010972465395223244 0.0029414555535937658 0 0.010635995829336234 0.0024295071684201884 0 0.01088681868651634 0.0025717880477154121 0 0.010548799011602305 0.0027147364414758196 0 0.010902370336355865 0.0021997584487489586 0 0.010635995829336234 0.0024295071684201884 0 0.01088681868651634 0.0025717880477154121 0 0.010269664512420453 0.0030474454348976446 0 0.010548799011602305 0.0027147364414758196 0 0.010972465395223244 0.0029414555535937658 0 0.010125817375150895 0.0051941042561923162 0 0.0082420476041240847 0.0053831555176608297 0 0.0087151731061009437 0.0046921183765276826 0 0.010200379430735812 0.0041091424364227492 0 0.0097798282344091526 0.0041953013708714839 0 0.0082420476041240847 0.0053831555176608297 0 0.0082847760068724182 0.0048378146408344196 0 0.0087151731061009437 0.0046921183765276826 0 0.0072855266399190002 0.0051942386749589961 0 0.0082420476041240847 0.0053831555176608297 0 0.0078162004427655852 0.0051837065735874238 0 0.0082420476041240847 0.0053831555176608297 0 0.0082847760068724182 0.0048378146408344196 0 0.0078162004427655852 0.0051837065735874238 0 0.0082847760068724182 0.0048378146408344196 0 0.0078162004427655852 0.0051837065735874238 0 0.0076905859166459725 0.0047410222721995911 0 0.0078162004427655852 0.0051837065735874238 0 0.0074886203292887955 0.0048843284153766492 0 0.0076905859166459725 0.0047410222721995911 0 0.0072855266399190002 0.0051942386749589961 0 0.0078162004427655852 0.0051837065735874238 0 0.0074662554818488722 0.0050564910410556552 0 0.0078162004427655852 0.0051837065735874238 0 0.0074662554818488722 0.0050564910410556552 0 0.0074886203292887955 0.0048843284153766492 0 0.0074886203292887955 0.0048843284153766492 0 0.0074740460485953376 0.0046954144417162211 0 0.0076905859166459725 0.0047410222721995911 0 0.0073114703592557723 0.0047973145968081606 0 0.0074886203292887955 0.0048843284153766492 0 0.0074740460485953376 0.0046954144417162211 0 0.0074740460485953376 0.0046954144417162211 0 0.007514114547750206 0.0045394752303418986 0 0.0076905859166459725 0.0047410222721995911 0 0.0074740460485953376 0.0046954144417162211 0 0.007514114547750206 0.0045394752303418986 0 0.0073200302200847733 0.0046363878380402124 0 0.007514114547750206 0.0045394752303418986 0 0.0074472475780062407 0.0043440449024118276 0 0.0072800557341178339 0.0044474656434307517 0 0.007514114547750206 0.0045394752303418986 0 0.0074472475780062407 0.0043440449024118276 0 0.0076058229983120276 0.0043759428403132624 0 0.007787438790214654 0.0044021595065862791 0 0.0079071052022983736 0.0042380917873779452 0 0.0077182681580037858 0.0042666725922948694 0 0.007787438790214654 0.0044021595065862791 0 0.0076058229983120276 0.0043759428403132624 0 0.0077182681580037858 0.0042666725922948694 0 0.007514114547750206 0.0045394752303418986 0 0.0076058229983120276 0.0043759428403132624 0 0.0077190133592238835 0.004528204710629897 0 0.007787438790214654 0.0044021595065862791 0 0.0076058229983120276 0.0043759428403132624 0 0.0077190133592238835 0.004528204710629897 0 0.007787438790214654 0.0044021595065862791 0 0.0077190133592238835 0.004528204710629897 0 0.0078819969848608843 0.0045726095728823727 0 0.0077190133592238835 0.004528204710629897 0 0.0076905859166459725 0.0047410222721995911 0 0.0078819969848608843 0.0045726095728823727 0 0.007514114547750206 0.0045394752303418986 0 0.0077190133592238835 0.004528204710629897 0 0.0076905859166459725 0.0047410222721995911 0 0.0082847760068724182 0.0048378146408344196 0 0.0076905859166459725 0.0047410222721995911 0 0.0078819969848608843 0.0045726095728823727 0 0.0082847760068724182 0.0048378146408344196 0 0.0079071052022983736 0.0042380917873779452 0 0.0087151731061009437 0.0046921183765276826 0 0.0082847760068724182 0.0048378146408344196 0 0.0078819969848608843 0.0045726095728823727 0 0.0079071052022983736 0.0042380917873779452 0 0.007787438790214654 0.0044021595065862791 0 0.0078819969848608843 0.0045726095728823727 0 0.0079071052022983736 0.0042380917873779452 0 0.007784933432712941 0.0042560904539681362 0 0.0074383883175780713 0.0040615246909778994 0 0.0073021128237162041 0.0037866741802335666 0 0.0074383883175780713 0.0040615246909778994 0 0.0075321949524747448 0.0041933055119639179 0 0.0072821813280656419 0.0042015834696503907 0 0.0074472475780062407 0.0043440449024118276 0 0.0076058229983120276 0.0043759428403132624 0 0.0075321949524747448 0.0041933055119639179 0 0.0074472475780062407 0.0043440449024118276 0 0.0075321949524747448 0.0041933055119639179 0 0.0072821813280656419 0.0042015834696503907 0 0.007784933432712941 0.0042560904539681362 0 0.0075321949524747448 0.0041933055119639179 0 0.0077182681580037858 0.0042666725922948694 0 0.007784933432712941 0.0042560904539681362 0 0.0074383883175780713 0.0040615246909778994 0 0.0075321949524747448 0.0041933055119639179 0 0.0076058229983120276 0.0043759428403132624 0 0.0075321949524747448 0.0041933055119639179 0 0.0077182681580037858 0.0042666725922948694 0 0.010016082490309407 0.0047527559654574267 0 0.0097172234478968833 0.0047595998211139691 0 0.0098073034435765972 0.0041501966174570786 0 0.0079071052022983736 0.0042380917873779452 0 0.0087151731061009437 0.0046921183765276826 0 0.012257239555720631 0.0046627469946040412 0 0.012299524785259761 0.0046627040679392212 0 0.01228885950234725 0.0046881116724695002 0 0.010968618052727119 0.0043462121182113664 0 0.010016082490309407 0.0047527559654574267 0 0.012268647793306095 0.0046880050952824159 0 0.01228885950234725 0.0046881116724695002 0 0.0122944107543585 0.0047173779978011568 0 0.012257239555720631 0.0046627469946040412 0 0.012268647793306095 0.0046880050952824159 0 0.01228885950234725 0.0046881116724695002 0 0.012299524785259761 0.0046627040679392212 0 0.012323527389044011 0.0047216791159113043 0 0.012315865289461289 0.00470702725157444 0 0.012299524785259761 0.0046627040679392212 0 0.01228885950234725 0.0046881116724695002 0 0.012315865289461289 0.00470702725157444 0 0.010016082490309407 0.0047527559654574267 0 0.0097424887091756337 0.0040019935110979258 0 0.007784933432712941 0.0042560904539681362 0 0.0073021128237162041 0.0037866741802335666 0 0.0071869550857069286 0.0032586492032486885 0 0.0067759631261788402 0.0036475837391430296 0 0.0073021128237162041 0.0037866741802335666 0 0.0071869550857069286 0.0032586492032486885 0 0.0067759631261788402 0.0036475837391430296 0 0.0069648491364946328 0.0039421244198669068 0 0.0066712555296938748 0.0039308353980431554 0 0.0069648491364946328 0.0039421244198669068 0 0.0073021128237162041 0.0037866741802335666 0 0.0072049588834082285 0.0040211810175902864 0 0.0067759631261788402 0.0036475837391430296 0 0.0069648491364946328 0.0039421244198669068 0 0.0073021128237162041 0.0037866741802335666 0 0.0074383883175780713 0.0040615246909778994 0 0.0073021128237162041 0.0037866741802335666 0 0.0072049588834082285 0.0040211810175902864 0 0.0072049588834082285 0.0040211810175902864 0 0.0072821813280656419 0.0042015834696503907 0 0.0070563927115920933 0.0041312738323858091 0 0.0074383883175780713 0.0040615246909778994 0 0.0072049588834082285 0.0040211810175902864 0 0.0072821813280656419 0.0042015834696503907 0 0.0072821813280656419 0.0042015834696503907 0 0.0070608453859321851 0.0043123232873053191 0 0.0072800557341178339 0.0044474656434307517 0 0.0072821813280656419 0.0042015834696503907 0 0.0070608453859321851 0.0043123232873053191 0 0.0070563927115920933 0.0041312738323858091 0 0.0069648491364946328 0.0039421244198669068 0 0.0072049588834082285 0.0040211810175902864 0 0.0070563927115920933 0.0041312738323858091 0 0.0069648491364946328 0.0039421244198669068 0 0.0070563927115920933 0.0041312738323858091 0 0.006802964625638527 0.0041820209208676589 0 0.0069648491364946328 0.0039421244198669068 0 0.0066712555296938748 0.0039308353980431554 0 0.006802964625638527 0.0041820209208676589 0 0.006802964625638527 0.0041820209208676589 0 0.0066184868214438728 0.004336931938835227 0 0.0064781298475853101 0.0041501696793348579 0 0.0066712555296938748 0.0039308353980431554 0 0.006802964625638527 0.0041820209208676589 0 0.0064781298475853101 0.0041501696793348579 0 0.0070608453859321851 0.0043123232873053191 0 0.006802964625638527 0.0041820209208676589 0 0.0068946813844148018 0.0043853746214208306 0 0.0070608453859321851 0.0043123232873053191 0 0.0070563927115920933 0.0041312738323858091 0 0.006802964625638527 0.0041820209208676589 0 0.0068059628713255322 0.00490777045793221 0 0.0069227645079803857 0.0046299759649479685 0 0.0066184868214438728 0.004336931938835227 0 0.006802964625638527 0.0041820209208676589 0 0.0068946813844148018 0.0043853746214208306 0 0.0066184868214438728 0.004336931938835227 0 0.0068946813844148018 0.0043853746214208306 0 0.0069227645079803857 0.0046299759649479685 0 0.0071033437453957068 0.0045231343679326772 0 0.0068946813844148018 0.0043853746214208306 0 0.0069227645079803857 0.0046299759649479685 0 0.0066184868214438728 0.004336931938835227 0 0.0071457253028270867 0.0047462311387171099 0 0.0071033437453957068 0.0045231343679326772 0 0.0073200302200847733 0.0046363878380402124 0 0.0071457253028270867 0.0047462311387171099 0 0.0069227645079803857 0.0046299759649479685 0 0.0071033437453957068 0.0045231343679326772 0 0.007514114547750206 0.0045394752303418986 0 0.0073200302200847733 0.0046363878380402124 0 0.0072800557341178339 0.0044474656434307517 0 0.0071033437453957068 0.0045231343679326772 0 0.0073200302200847733 0.0046363878380402124 0 0.0072800557341178339 0.0044474656434307517 0 0.0073114703592557723 0.0047973145968081606 0 0.0074740460485953376 0.0046954144417162211 0 0.0073200302200847733 0.0046363878380402124 0 0.0074472475780062407 0.0043440449024118276 0 0.0072821813280656419 0.0042015834696503907 0 0.0072800557341178339 0.0044474656434307517 0 0.0070608453859321851 0.0043123232873053191 0 0.0068946813844148018 0.0043853746214208306 0 0.0071033437453957068 0.0045231343679326772 0 0.0070608453859321851 0.0043123232873053191 0 0.0071033437453957068 0.0045231343679326772 0 0.0072800557341178339 0.0044474656434307517 0 0.0059820663530129803 0.0040523030257508825 0 0.0064781298475853101 0.0041501696793348579 0 0.0061390689313695771 0.004109193013316987 0 0.0067745205267151897 0.0044503672556739753 0 0.0066184868214438728 0.004336931938835227 0 0.0064781298475853101 0.0041501696793348579 0 0.0063946625589588104 0.0042012986722269269 0 0.0064684446665768721 0.0041162387082632115 0 0.0064781298475853101 0.0041501696793348579 0 0.0062095374575110137 0.0040173506981428051 0 0.0061390689313695771 0.004109193013316987 0 0.0062095374575110137 0.0040173506981428051 0 0.0062495702863587764 0.0037717723591283048 0 0.0064575321812944814 0.003827284898433684 0 0.0064781298475853101 0.0041501696793348579 0 0.0062095374575110137 0.0040173506981428051 0 0.0064575321812944814 0.003827284898433684 0 0.0067759631261788402 0.0036475837391430296 0 0.0066712555296938748 0.0039308353980431554 0 0.0064575321812944814 0.003827284898433684 0 0.0066712555296938748 0.0039308353980431554 0 0.0064781298475853101 0.0041501696793348579 0 0.0064575321812944814 0.003827284898433684 0 0.0067759631261788402 0.0036475837391430296 0 0.0064575321812944814 0.003827284898433684 0 0.0064800030784483136 0.0035476530383705329 0 0.0067759631261788402 0.0036475837391430296 0 0.0064800030784483136 0.0035476530383705329 0 0.0067509341712663545 0.003319919845570749 0 0.0062495702863587764 0.0037717723591283048 0 0.0064575321812944814 0.003827284898433684 0 0.0064800030784483136 0.0035476530383705329 0 0.0062495702863587764 0.0037717723591283048 0 0.0064800030784483136 0.0035476530383705329 0 0.0061934676402690013 0.0034553267791160407 0 -0.0046818558260995347 -0.0003118931803539297 0 -0.0048161889815581402 -0.00037822028055289631 0 -0.0048396569313698479 -0.00012620021194448925 0 0.00059325878856971955 0.0017982703034783649 0 0.00053830864409289885 0.0016119545275280714 0 0.0059936952763237081 0.0040410618857199439 0 0.0058968235220869525 0.003237671633497799 0 0.0061934676402690013 0.0034553267791160407 0 0.0062495702863587764 0.0037717723591283048 0 0.0059936952763237081 0.0040410618857199439 0 0.0061934676402690013 0.0034553267791160407 0 0.0062095374575110137 0.0040173506981428051 0 0.0062495702863587764 0.0037717723591283048 0 0.0059936952763237081 0.0040410618857199439 0 -0.0046830033619269622 -0.00050249993920288821 0 -0.0048161889815581402 -0.00037822028055289631 0 -0.0047950944603800429 -0.00061075575227797791 0 -0.0046818558260995347 -0.0003118931803539297 0 -0.0046830033619269622 -0.00050249993920288821 0 -0.0048161889815581402 -0.00037822028055289631 0 0.0059936952763237081 0.0040410618857199439 0 0.0061390689313695771 0.004109193013316987 0 0.0062171036322443149 0.0040356648914023048 0 0.00059325878856971955 0.0017982703034783649 0 0.00070540935827690212 0.0017052414811895692 0 0.0062095374575110137 0.0040173506981428051 0 0.0059936952763237081 0.0040410618857199439 0 0.0061390689313695771 0.004109193013316987 0 0.0061390689313695771 0.004109193013316987 0 0.0060969628346407775 0.004022993509583123 0 0.0062171036322443149 0.0040356648914023048 0 0.0060969628346407775 0.004022993509583123 0 0.0062171036322443149 0.0040356648914023048 0 0.0060537345794669769 0.0037647317198468513 0 -0.0046830033619269622 -0.00050249993920288821 0 -0.0047950944603800429 -0.00061075575227797791 0 -0.0046111594371721094 -0.00074685187974723186 0 -0.0047950944603800429 -0.00061075575227797791 0 -0.0046111594371721094 -0.00074685187974723186 0 -0.0047758718403065753 -0.00083624548028092018 0 0.0062171036322443149 0.0040356648914023048 0 0.0060537345794669769 0.0037647317198468513 0 0.0063700831052361014 0.0032711350313204936 0 0.00070540935827690212 0.0017052414811895692 0 0.00079971202919771624 0.0011866200412628436 0 -0.0046111594371721094 -0.00074685187974723186 0 -0.0045353298901773583 -0.00047227346968516202 0 -0.0044524252867481828 -0.0006586878197823462 0 -0.0046830033619269622 -0.00050249993920288821 0 -0.0046111594371721094 -0.00074685187974723186 0 -0.0045353298901773583 -0.00047227346968516202 0 -0.0046111594371721094 -0.00074685187974723186 0 -0.0044524252867481828 -0.0006586878197823462 0 -0.0044658068518615441 -0.00084897021918213099 0 -0.0046818558260995347 -0.0003118931803539297 0 -0.0046830033619269622 -0.00050249993920288821 0 -0.0045353298901773583 -0.00047227346968516202 0 -0.0046818558260995347 -0.0003118931803539297 0 -0.0045353298901773583 -0.00047227346968516202 0 -0.0045670627712308901 -0.00018195516470694858 0 -0.0045353298901773583 -0.00047227346968516202 0 -0.004418082856645654 -0.00027266023496015684 0 -0.0045670627712308901 -0.00018195516470694858 0 -0.004418082856645654 -0.00027266023496015684 0 -0.0043144636881640797 -0.00031092094516021248 0 -0.0043751847926480755 -0.00047584441614024304 0 -0.0043144636881640797 -0.00031092094516021248 0 -0.0042485364645162187 -0.00038234600906300012 0 -0.0042491076455395413 -0.00019758464433622204 0 -0.0043144636881640797 -0.00031092094516021248 0 -0.0043751847926480755 -0.00047584441614024304 0 -0.0042485364645162187 -0.00038234600906300012 0 -0.0043751847926480755 -0.00047584441614024304 0 -0.0042485364645162187 -0.00038234600906300012 0 -0.0043225517511323638 -0.0006420337369435269 0 -0.0045353298901773583 -0.00047227346968516202 0 -0.0043751847926480755 -0.00047584441614024304 0 -0.0044524252867481828 -0.0006586878197823462 0 -0.0045353298901773583 -0.00047227346968516202 0 -0.004418082856645654 -0.00027266023496015684 0 -0.0043751847926480755 -0.00047584441614024304 0 -0.0041634202309416123 -0.00035103761852961631 0 -0.0042492531773925205 -0.00037887769907274361 0 -0.0041551908593137231 -0.00028587613242000894 0 -0.0042485364645162187 -0.00038234600906300012 0 -0.0042038678772072869 -0.00025251669586535161 0 -0.0042485364645162187 -0.00038234600906300012 0 -0.0042205228528559326 -0.00053334814695993847 0 -0.0043225517511323638 -0.0006420337369435269 0 -0.0041565939223725213 -0.00041291535197129675 0 -0.0042205228528559326 -0.00053334814695993847 0 -0.0041446164123481117 -0.00051027064719689856 0 -0.0041565939223725213 -0.00041291535197129675 0 -0.0042485364645162187 -0.00038234600906300012 0 -0.0042205228528559326 -0.00053334814695993847 0 -0.0042205228528559326 -0.00053334814695993847 0 -0.0041813266045462975 -0.00067859428581924298 0 -0.0041446164123481117 -0.00051027064719689856 0 -0.0042205228528559326 -0.00053334814695993847 0 -0.0041813266045462975 -0.00067859428581924298 0 -0.0043225517511323638 -0.0006420337369435269 0 -0.0043225517511323638 -0.0006420337369435269 0 -0.0043840284828945142 -0.0007870320258057846 0 -0.0042975347718463251 -0.00082481537145700828 0 -0.0041813266045462975 -0.00067859428581924298 0 -0.0043225517511323638 -0.0006420337369435269 0 -0.0042975347718463251 -0.00082481537145700828 0 -0.0041813266045462975 -0.00067859428581924298 0 -0.0042975347718463251 -0.00082481537145700828 0 -0.0042156708270117797 -0.0008752736272825076 0 -0.0043751847926480755 -0.00047584441614024304 0 -0.0043225517511323638 -0.0006420337369435269 0 -0.0044524252867481828 -0.0006586878197823462 0 -0.0043225517511323638 -0.0006420337369435269 0 -0.0044524252867481828 -0.0006586878197823462 0 -0.0043840284828945142 -0.0007870320258057846 0 -0.0044524252867481828 -0.0006586878197823462 0 -0.0043840284828945142 -0.0007870320258057846 0 -0.0044658068518615441 -0.00084897021918213099 0 -0.0043840284828945142 -0.0007870320258057846 0 -0.0044658068518615441 -0.00084897021918213099 0 -0.0043836870088857166 -0.00096103225275774129 0 -0.0043836870088857166 -0.00096103225275774129 0 -0.0043777514149181077 -0.0011682020133331648 0 -0.0044771330888319612 -0.0010953308719971293 0 -0.0044658068518615441 -0.00084897021918213099 0 -0.0043836870088857166 -0.00096103225275774129 0 -0.0044771330888319612 -0.0010953308719971293 0 -0.0044771330888319612 -0.0010953308719971293 0 -0.0045473850741552984 -0.0011096017989404054 0 -0.0045471822636126511 -0.0009578835634311227 0 -0.0044658068518615441 -0.00084897021918213099 0 -0.0044771330888319612 -0.0010953308719971293 0 -0.0045471822636126511 -0.0009578835634311227 0 -0.0042975347718463251 -0.00082481537145700828 0 -0.0043088037015134809 -0.0010374297150008152 0 -0.0042156708270117797 -0.0008752736272825076 0 -0.0043840284828945142 -0.0007870320258057846 0 -0.0043836870088857166 -0.00096103225275774129 0 -0.0042975347718463251 -0.00082481537145700828 0 -0.0043836870088857166 -0.00096103225275774129 0 -0.0042975347718463251 -0.00082481537145700828 0 -0.0043088037015134809 -0.0010374297150008152 0 -0.0043836870088857166 -0.00096103225275774129 0 -0.0043088037015134809 -0.0010374297150008152 0 -0.0043777514149181077 -0.0011682020133331648 0 -0.0043088037015134809 -0.0010374297150008152 0 -0.0042734321422540616 -0.0012397437635668673 0 -0.0042340747904557234 -0.0010586559782206212 0 -0.0043088037015134809 -0.0010374297150008152 0 -0.0042156708270117797 -0.0008752736272825076 0 -0.0042340747904557234 -0.0010586559782206212 0 -0.0043088037015134809 -0.0010374297150008152 0 -0.0042734321422540616 -0.0012397437635668673 0 -0.0043777514149181077 -0.0011682020133331648 0 -0.0042734321422540616 -0.0012397437635668673 0 -0.0043777514149181077 -0.0011682020133331648 0 -0.0043429208674999695 -0.0013146433649154732 0 -0.0043954621233350871 -0.0014892679252380169 0 -0.0043429208674999695 -0.0013146433649154732 0 -0.0044648602188152847 -0.0013559443556040616 0 -0.0043954621233350871 -0.0014892679252380169 0 -0.0043429208674999695 -0.0013146433649154732 0 -0.004319245756736827 -0.0014464758020668767 0 -0.0043777514149181077 -0.0011682020133331648 0 -0.0043429208674999695 -0.0013146433649154732 0 -0.0044648602188152847 -0.0013559443556040616 0 -0.0042734321422540616 -0.0012397437635668673 0 -0.004319245756736827 -0.0014464758020668767 0 -0.0042378331605515476 -0.0014461666252935214 0 -0.0042734321422540616 -0.0012397437635668673 0 -0.0043429208674999695 -0.0013146433649154732 0 -0.004319245756736827 -0.0014464758020668767 0 -0.0044771330888319612 -0.0010953308719971293 0 -0.0045281903415366241 -0.0012620279091744813 0 -0.0045473850741552984 -0.0011096017989404054 0 -0.0043777514149181077 -0.0011682020133331648 0 -0.0044771330888319612 -0.0010953308719971293 0 -0.0044648602188152847 -0.0013559443556040616 0 -0.0044771330888319612 -0.0010953308719971293 0 -0.0044648602188152847 -0.0013559443556040616 0 -0.0045281903415366241 -0.0012620279091744813 0 -0.0046004137869590034 -0.0012844690853107473 0 -0.0045281903415366241 -0.0012620279091744813 0 -0.0046237467115654981 -0.0011562824505878223 0 -0.0045281903415366241 -0.0012620279091744813 0 -0.0045473850741552984 -0.0011096017989404054 0 -0.0046237467115654981 -0.0011562824505878223 0 -0.0045473850741552984 -0.0011096017989404054 0 -0.0046237467115654981 -0.0011562824505878223 0 -0.0046399485105776137 -0.00097922065980729283 0 -0.0046004137869590034 -0.0012844690853107473 0 -0.0046237467115654981 -0.0011562824505878223 0 -0.0046965529147032312 -0.0012214191576030221 0 0.0064841327185646298 0.00095470253319791018 0 0.0060298869254351633 0.0011273320794773251 0 0.0064319882685058612 0.0021521016484402447 0 0.01324023840802669 -0.00063631224261636937 0 0.013017844893381508 -0.0002748081205947566 0 0.013460079833427199 -8.5790263129102224e-05 0 0.0012491136249357022 -0.00065249970546587838 0 0.0083476266918872111 -5.1016694561178429e-05 0 0.0070817695509632289 0.0013010044349631373 0 0.0078596440613201892 0.0010249589912643289 0 0.0075796383725963848 0.0022848272686251427 0 0.0060298869254351633 0.0011273320794773251 0 0.0064319882685058612 0.0021521016484402447 0 0.0058710030065278491 0.0022764118454295253 0 0.0083476266918872111 -5.1016694561178429e-05 0 0.0065450206054028298 0.0025433146536403841 0 -0.0046237467115654981 -0.0011562824505878223 0 -0.0046965529147032312 -0.0012214191576030221 0 -0.0047415271775150761 -0.0010491530633940898 0 -0.0046237467115654981 -0.0011562824505878223 0 -0.0047415271775150761 -0.0010491530633940898 0 -0.0046399485105776137 -0.00097922065980729283 0 0.0012491136249357022 -0.00065249970546587838 0 0.00079960328215007129 0.00067317063841762059 0 -0.0047415271775150761 -0.0010491530633940898 0 -0.0047758718403065753 -0.00083624548028092018 0 -0.0046399485105776137 -0.00097922065980729283 0 0.0064319882685058612 0.0021521016484402447 0 0.0058710030065278491 0.0022764118454295253 0 0.0063700831052361014 0.0032711350313204936 0 0.00079960328215007129 0.00067317063841762059 0 0.00079971202919771624 0.0011866200412628436 0 0.005807324808141787 0.0033284775472219108 0 0.0058710030065278491 0.0022764118454295253 0 0.0063700831052361014 0.0032711350313204936 0 0.005807324808141787 0.0033284775472219108 0 0.0060537345794669769 0.0037647317198468513 0 0.0063700831052361014 0.0032711350313204936 0 -0.0046111594371721094 -0.00074685187974723186 0 -0.0047758718403065753 -0.00083624548028092018 0 -0.0046399485105776137 -0.00097922065980729283 0 -0.0046111594371721094 -0.00074685187974723186 0 -0.0045471822636126511 -0.0009578835634311227 0 -0.0046399485105776137 -0.00097922065980729283 0 -0.0046111594371721094 -0.00074685187974723186 0 -0.0044658068518615441 -0.00084897021918213099 0 -0.0045471822636126511 -0.0009578835634311227 0 -0.0045473850741552984 -0.0011096017989404054 0 -0.0045471822636126511 -0.0009578835634311227 0 -0.0046399485105776137 -0.00097922065980729283 0 0.015671554462988086 0.0030805881974981866 0 0.014999949858965682 0.0031147095408902261 0 0.015611838341483201 0.0036799855311406356 0 0.015671554462988086 0.0030805881974981866 0 0.014999949858965682 0.0031147095408902261 0 0.015446172155688965 0.0025787904213946185 0 0.014999949858965682 0.0031147095408902261 0 0.015611838341483201 0.0036799855311406356 0 0.014999939502240359 0.0039307014550381218 0 0.015611838341483201 0.0036799855311406356 0 0.016107067835294388 0.0033854365305839252 0 0.016004797261199442 0.0037719221205574768 0 0.015671554462988086 0.0030805881974981866 0 0.015611838341483201 0.0036799855311406356 0 0.016107067835294388 0.0033854365305839252 0 0.016107067835294388 0.0033854365305839252 0 0.016431061803663105 0.0032307927093668167 0 0.016566098531571292 0.0035728894233177208 0 0.016107067835294388 0.0033854365305839252 0 0.016300259632604733 0.0038542097966186468 0 0.016004797261199442 0.0037719221205574768 0 0.016107067835294388 0.0033854365305839252 0 0.016566098531571292 0.0035728894233177208 0 0.016300259632604733 0.0038542097966186468 0 0.016107067835294388 0.0033854365305839252 0 0.016431061803663105 0.0032307927093668167 0 0.016265472318285103 0.0029293869686959611 0 0.016431061803663105 0.0032307927093668167 0 0.016265472318285103 0.0029293869686959611 0 0.016652369515624713 0.0030279990999602401 0 0.015671554462988086 0.0030805881974981866 0 0.016107067835294388 0.0033854365305839252 0 0.016265472318285103 0.0029293869686959611 0 0.015671554462988086 0.0030805881974981866 0 0.015920570825718901 0.0025535248862076391 0 0.016265472318285103 0.0029293869686959611 0 0.015920570825718901 0.0025535248862076391 0 0.016265472318285103 0.0029293869686959611 0 0.016348075446376269 0.0024704995230127491 0 0.016265472318285103 0.0029293869686959611 0 0.016348075446376269 0.0024704995230127491 0 0.016536405359955333 0.0027164688497972145 0 0.016348075446376269 0.0024704995230127491 0 0.016420195092702098 0.0021717892330145993 0 0.016592307298671061 0.0024424810139999668 0 0.016348075446376269 0.0024704995230127491 0 0.016420195092702098 0.0021717892330145993 0 0.01609238565455293 0.0021678473335753753 0 0.015920570825718901 0.0025535248862076391 0 0.01609238565455293 0.0021678473335753753 0 0.015634121078103524 0.0019910478950496838 0 0.015920570825718901 0.0025535248862076391 0 0.016348075446376269 0.0024704995230127491 0 0.01609238565455293 0.0021678473335753753 0 0.015920570825718901 0.0025535248862076391 0 0.015634121078103524 0.0019910478950496838 0 0.015446172155688965 0.0025787904213946185 0 0.015671554462988086 0.0030805881974981866 0 0.015920570825718901 0.0025535248862076391 0 0.015446172155688965 0.0025787904213946185 0 0.014999949858965682 0.0031147095408902261 0 0.015446172155688965 0.0025787904213946185 0 0.014999940718973651 0.00229868155461659 0 0.015634121078103524 0.0019910478950496838 0 0.014999940718973651 0.00229868155461659 0 0.01499993539233584 0.001482665145296981 0 0.015634121078103524 0.0019910478950496838 0 0.015446172155688965 0.0025787904213946185 0 0.014999940718973651 0.00229868155461659 0 0.015634121078103524 0.0019910478950496838 0 0.01499993539233584 0.001482665145296981 0 0.015660374380250953 0.0011722985080224091 0 0.01499993539233584 0.001482665145296981 0 0.015660374380250953 0.0011722985080224091 0 0.014999989126808659 0.00066657238234707733 0 0.015703189303788244 0.001161913739375097 0 0.014999905277624808 0.00066637820090783249 0 0.015612716420330823 0.00090446295464690696 0 0.01500000562227544 0.00066629082520930458 0 0.015428448407382053 0.00051515162356811038 0 0.015306511187250196 -0.00070200172648730516 0 0.015315879189299208 -0.00088811790743391307 0 0.015330261329115835 -0.0011004107931308087 0 0.015331534149516315 -9.3068392718418139e-05 0 0.015487496993555804 -0.00020151925982477174 0 0.015612716420330823 0.00090446295464690696 0 0.015428448407382053 0.00051515162356811038 0 0.015773116375727005 0.00084883441646924464 0 0.015311659729706661 -0.0006203722334854713 0 0.015306511187250196 -0.00070200172648730516 0 0.015315879189299208 -0.00088811790743391307 0 0.015331534149516315 -9.3068392718418139e-05 0 0.015000011045518661 5.5098075693993655e-05 0 0.01500000562227544 0.00066629082520930458 0 0.015428448407382053 0.00051515162356811038 0 0.014999978251304591 5.5454019763091725e-05 0 0.015311659729706661 -0.0006203722334854713 0 0.015306511187250196 -0.00070200172648730516 0 0.015000614090822626 5.3207036821003881e-05 0 0.015336306246223251 -0.0010920270737866224 0 0.015349713133101427 -0.0011116646592420898 0 0.015408177381433668 -0.0012940069343833358 0 0.015614518903437855 -0.00091208042257185718 0 0.015421949515138008 -0.001685769750762927 0 0.015336306246223251 -0.0010920270737866224 0 0.015408177381433668 -0.0012940069343833358 0 0.015502420322536377 -0.0015848350745698604 0 0.015336306246223251 -0.0010920270737866224 0 0.015315879189299208 -0.00088811790743391307 0 0.015349713133101427 -0.0011116646592420898 0 0.015311659729706661 -0.0006203722334854713 0 0.015336306246223251 -0.0010920270737866224 0 0.015315879189299208 -0.00088811790743391307 0 0.015349713133101427 -0.0011116646592420898 0 0.015439326898690016 -0.0012471885983001531 0 0.015330261329115835 -0.0011004107931308087 0 0.015315879189299208 -0.00088811790743391307 0 0.015349713133101427 -0.0011116646592420898 0 0.015330261329115835 -0.0011004107931308087 0 0.015349713133101427 -0.0011116646592420898 0 0.015408177381433668 -0.0012940069343833358 0 0.015439326898690016 -0.0012471885983001531 0 0.015439326898690016 -0.0012471885983001531 0 0.01542049177524517 -0.0010422651079567146 0 0.015856790031452978 -0.0010571192217044033 0 0.015703189303788244 0.001161913739375097 0 0.015893134410005182 0.00058595188311231941 0 0.015487496993555804 -0.00020151925982477174 0 0.015893134410005182 0.00058595188311231941 0 0.015439326898690016 -0.0012471885983001531 0 0.015330261329115835 -0.0011004107931308087 0 0.01542049177524517 -0.0010422651079567146 0 0.015612716420330823 0.00090446295464690696 0 0.015773116375727005 0.00084883441646924464 0 0.01607782734546406 0.0011030344392187019 0 0.015634121078103524 0.0019910478950496838 0 0.015660374380250953 0.0011722985080224091 0 0.016256877034608215 0.0016720292201821353 0 0.01609238565455293 0.0021678473335753753 0 0.015634121078103524 0.0019910478950496838 0 0.016256877034608215 0.0016720292201821353 0 0.016420195092702098 0.0021717892330145993 0 0.016256877034608215 0.0016720292201821353 0 0.016750819027380077 0.0021338052400218929 0 0.016420195092702098 0.0021717892330145993 0 0.01609238565455293 0.0021678473335753753 0 0.016256877034608215 0.0016720292201821353 0 0.015893134410005182 0.00058595188311231941 0 0.016246000179004204 0.00059448407740299812 0 0.01542049177524517 -0.0010422651079567146 0 0.015807390175103103 -0.00084889086035569775 0 0.015856790031452978 -0.0010571192217044033 0 0.015650165132096966 -0.0013719705474676497 0 0.015767243223066534 -0.0013963068026812519 0 0.015486016153563865 -0.00169901091291765 0 0.015380564980936956 -0.0018101456994906052 0 0.015305678109770364 -0.0019669397027064508 0 0.015807390175103103 -0.00084889086035569775 0 0.015856790031452978 -0.0010571192217044033 0 0.016234557457938958 -0.00084598446076007206 0 0.015435221551142048 -0.0016584553781809521 0 0.015486016153563865 -0.00169901091291765 0 0.015464884261465858 -0.0014827956803656159 0 0.015435221551142048 -0.0016584553781809521 0 0.015486016153563865 -0.00169901091291765 0 0.015380564980936956 -0.0018101456994906052 0 0.015439326898690016 -0.0012471885983001531 0 0.015486016153563865 -0.00169901091291765 0 0.015464884261465858 -0.0014827956803656159 0 0.015450453825436233 -0.0012868185229672321 0 0.015650165132096966 -0.0013719705474676497 0 0.015408177381433668 -0.0012940069343833358 0 0.015439326898690016 -0.0012471885983001531 0 0.015464884261465858 -0.0014827956803656159 0 0.015435221551142048 -0.0016584553781809521 0 0.015464884261465858 -0.0014827956803656159 0 0.015459184012727207 -0.0016546673544769756 0 0.015510097733191125 -0.001724032788309718 0 0.015502420322536377 -0.0015848350745698604 0 0.015459184012727207 -0.0016546673544769756 0 0.015464884261465858 -0.0014827956803656159 0 0.015502420322536377 -0.0015848350745698604 0 0.015459184012727207 -0.0016546673544769756 0 0.015408177381433668 -0.0012940069343833358 0 0.015464884261465858 -0.0014827956803656159 0 0.015502420322536377 -0.0015848350745698604 0 0.015354942175364735 -0.0017804771917704499 0 0.015510097733191125 -0.001724032788309718 0 0.015305184076783045 -0.0017562447524282368 0 0.015510097733191125 -0.001724032788309718 0 0.015459184012727207 -0.0016546673544769756 0 0.015305184076783045 -0.0017562447524282368 0 0.015459184012727207 -0.0016546673544769756 0 0.015305184076783045 -0.0017562447524282368 0 0.015369482977035899 -0.0017906854242314496 0 0.015435221551142048 -0.0016584553781809521 0 0.015459184012727207 -0.0016546673544769756 0 0.015369482977035899 -0.0017906854242314496 0 0.015305184076783045 -0.0017562447524282368 0 0.015369482977035899 -0.0017906854242314496 0 0.01517002810827826 -0.0019387832404630073 0 0.015369482977035899 -0.0017906854242314496 0 0.015327499245086621 -0.0019380981759450615 0 0.01517002810827826 -0.0019387832404630073 0 0.015272940085065589 -0.0020765652774999799 0 0.015327499245086621 -0.0019380981759450615 0 0.01517002810827826 -0.0019387832404630073 0 0.015435221551142048 -0.0016584553781809521 0 0.015369482977035899 -0.0017906854242314496 0 0.015380564980936956 -0.0018101456994906052 0 0.015369482977035899 -0.0017906854242314496 0 0.015380564980936956 -0.0018101456994906052 0 0.015327499245086621 -0.0019380981759450615 0 0.015380564980936956 -0.0018101456994906052 0 0.015305678109770364 -0.0019669397027064508 0 0.015327499245086621 -0.0019380981759450615 0 0.015305678109770364 -0.0019669397027064508 0 0.015272940085065589 -0.0020765652774999799 0 0.015327499245086621 -0.0019380981759450615 0 0.015305678109770364 -0.0019669397027064508 0 0.015272940085065589 -0.0020765652774999799 0 0.015303592191684255 -0.0018114118635843457 0 0.016297284879836702 -0.00075271893126116506 0 0.016378836594926241 -0.00073489924231206138 0 0.016180133986816132 -0.00071498906493490941 0 0.015767243223066534 -0.0013963068026812519 0 0.015844071623620445 -0.0012692807247887431 0 0.016234557457938958 -0.00084598446076007206 0 0.016297284879836702 -0.00075271893126116506 0 0.016374086251182553 -0.00072912802906623835 0 0.016961617231332063 0.0010815081713305096 0 0.016680473977098431 0.00091594283342813292 0 0.016297284879836702 -0.00075271893126116506 0 0.016378836594926241 -0.00073489924231206138 0 0.016374086251182553 -0.00072912802906623835 0 0.017580829176458267 0.0029182246532044338 0 0.017465227828957472 0.0030515473789113493 0 0.017294772996853527 0.0028629600430805464 0 0.017465227828957472 0.0030515473789113493 0 0.017294772996853527 0.0028629600430805464 0 0.017305040889151638 0.0031058984755903455 0 0.017580829176458267 0.0029182246532044338 0 0.017465227828957472 0.0030515473789113493 0 0.01765153321949612 0.0031652196917754793 0 0.017580829176458267 0.0029182246532044338 0 0.017294772996853527 0.0028629600430805464 0 0.017188338025891342 0.0025509382376982543 0 0.017098115317681333 0.002913320166160712 0 0.017294772996853527 0.0028629600430805464 0 0.017305040889151638 0.0031058984755903455 0 0.017098115317681333 0.002913320166160712 0 0.017294772996853527 0.0028629600430805464 0 0.017148506546332133 0.0027365519237091134 0 0.017294772996853527 0.0028629600430805464 0 0.017148506546332133 0.0027365519237091134 0 0.017188338025891342 0.0025509382376982543 0 0.017148506546332133 0.0027365519237091134 0 0.017188338025891342 0.0025509382376982543 0 0.017007542837884308 0.002619034941829395 0 0.016234557457938958 -0.00084598446076007206 0 0.016297284879836702 -0.00075271893126116506 0 0.016180133986816132 -0.00071498906493490941 0 0.016750819027380077 0.0021338052400218929 0 0.017188338025891342 0.0025509382376982543 0 0.017007542837884308 0.002619034941829395 0 0.016246000179004204 0.00059448407740299812 0 0.016680473977098431 0.00091594283342813292 0 0.015807390175103103 -0.00084889086035569775 0 0.016234557457938958 -0.00084598446076007206 0 0.016180133986816132 -0.00071498906493490941 0 0.016750819027380077 0.0021338052400218929 0 0.017007542837884308 0.002619034941829395 0 0.016807791580788465 0.002709937535719251 0 0.016750819027380077 0.0021338052400218929 0 0.016592307298671061 0.0024424810139999668 0 0.016807791580788465 0.002709937535719251 0 0.016420195092702098 0.0021717892330145993 0 0.016750819027380077 0.0021338052400218929 0 0.016592307298671061 0.0024424810139999668 0 0.016348075446376269 0.0024704995230127491 0 0.016592307298671061 0.0024424810139999668 0 0.016536405359955333 0.0027164688497972145 0 0.016265472318285103 0.0029293869686959611 0 0.016536405359955333 0.0027164688497972145 0 0.016652369515624713 0.0030279990999602401 0 0.016592307298671061 0.0024424810139999668 0 0.016536405359955333 0.0027164688497972145 0 0.016807791580788465 0.002709937535719251 0 0.016536405359955333 0.0027164688497972145 0 0.016807791580788465 0.002709937535719251 0 0.016652369515624713 0.0030279990999602401 0 0.017098115317681333 0.002913320166160712 0 0.017007542837884308 0.002619034941829395 0 0.016807791580788465 0.002709937535719251 0 0.016807791580788465 0.002709937535719251 0 0.016910652467206317 0.0031553654320066213 0 0.016652369515624713 0.0030279990999602401 0 0.017098115317681333 0.002913320166160712 0 0.016807791580788465 0.002709937535719251 0 0.016910652467206317 0.0031553654320066213 0 0.017098115317681333 0.002913320166160712 0 0.017148506546332133 0.0027365519237091134 0 0.017007542837884308 0.002619034941829395 0 0.017098115317681333 0.002913320166160712 0 0.016910652467206317 0.0031553654320066213 0 0.017141415497238733 0.0031899635131106209 0 0.016910652467206317 0.0031553654320066213 0 0.016688822723310695 0.0033037341509425159 0 0.016877286286850049 0.003490040402156482 0 0.016910652467206317 0.0031553654320066213 0 0.017084687449951633 0.0034163484592799609 0 0.017141415497238733 0.0031899635131106209 0 0.016910652467206317 0.0031553654320066213 0 0.016877286286850049 0.003490040402156482 0 0.017084687449951633 0.0034163484592799609 0 0.016910652467206317 0.0031553654320066213 0 0.016652369515624713 0.0030279990999602401 0 0.016688822723310695 0.0033037341509425159 0 0.016431061803663105 0.0032307927093668167 0 0.016652369515624713 0.0030279990999602401 0 0.016688822723310695 0.0033037341509425159 0 0.016431061803663105 0.0032307927093668167 0 0.016688822723310695 0.0033037341509425159 0 0.016566098531571292 0.0035728894233177208 0 0.016688822723310695 0.0033037341509425159 0 0.016566098531571292 0.0035728894233177208 0 0.016877286286850049 0.003490040402156482 0 0.016566098531571292 0.0035728894233177208 0 0.016877286286850049 0.003490040402156482 0 0.016856869883754483 0.0038409806804270896 0 0.016877286286850049 0.003490040402156482 0 0.017155035626480804 0.0036632346404418328 0 0.016856869883754483 0.0038409806804270896 0 0.016877286286850049 0.003490040402156482 0 0.017155035626480804 0.0036632346404418328 0 0.017084687449951633 0.0034163484592799609 0 0.017155035626480804 0.0036632346404418328 0 0.017084687449951633 0.0034163484592799609 0 0.017337504616129006 0.0034002260333208488 0 0.017155035626480804 0.0036632346404418328 0 0.017494129796424153 0.0036476939687703131 0 0.017337504616129006 0.0034002260333208488 0 0.017155035626480804 0.0036632346404418328 0 0.017494129796424153 0.0036476939687703131 0 0.01730836830313667 0.0039278761952644941 0 0.017494129796424153 0.0036476939687703131 0 0.017532538315416062 0.0034119337491687342 0 0.017689416753955394 0.0034943371738086395 0 0.017494129796424153 0.0036476939687703131 0 0.017337504616129006 0.0034002260333208488 0 0.017532538315416062 0.0034119337491687342 0 0.017337504616129006 0.0034002260333208488 0 0.017532538315416062 0.0034119337491687342 0 0.017479678842094087 0.0032060862893771276 0 0.017532538315416062 0.0034119337491687342 0 0.017479678842094087 0.0032060862893771276 0 0.017655383890987208 0.003310376466608176 0 0.017465227828957472 0.0030515473789113493 0 0.017479678842094087 0.0032060862893771276 0 0.01765153321949612 0.0031652196917754793 0 0.017479678842094087 0.0032060862893771276 0 0.01765153321949612 0.0031652196917754793 0 0.017655383890987208 0.003310376466608176 0 0.017465227828957472 0.0030515473789113493 0 0.017479678842094087 0.0032060862893771276 0 0.017305040889151638 0.0031058984755903455 0 0.017337504616129006 0.0034002260333208488 0 0.017479678842094087 0.0032060862893771276 0 0.017305040889151638 0.0031058984755903455 0 0.017337504616129006 0.0034002260333208488 0 0.017305040889151638 0.0031058984755903455 0 0.017141415497238733 0.0031899635131106209 0 0.017098115317681333 0.002913320166160712 0 0.017305040889151638 0.0031058984755903455 0 0.017141415497238733 0.0031899635131106209 0 0.017084687449951633 0.0034163484592799609 0 0.017337504616129006 0.0034002260333208488 0 0.017141415497238733 0.0031899635131106209 0 0.017907939920832942 0.0034350241193382269 0 0.017940015414032971 0.0032427117632397597 0 0.017783214784043346 0.003343277211967006 0 0.017907939920832942 0.0034350241193382269 0 0.017940015414032971 0.0032427117632397597 0 0.018046222277016712 0.0035082293506610946 0 0.017940015414032971 0.0032427117632397597 0 0.01765153321949612 0.0031652196917754793 0 0.017783214784043346 0.003343277211967006 0 0.01765153321949612 0.0031652196917754793 0 0.017655383890987208 0.003310376466608176 0 0.017783214784043346 0.003343277211967006 0 0.017532538315416062 0.0034119337491687342 0 0.017655383890987208 0.003310376466608176 0 0.017689416753955394 0.0034943371738086395 0 0.017655383890987208 0.003310376466608176 0 0.017783214784043346 0.003343277211967006 0 0.017689416753955394 0.0034943371738086395 0 0.017783214784043346 0.003343277211967006 0 0.017824918843228725 0.0034889971058040033 0 0.017689416753955394 0.0034943371738086395 0 0.017907939920832942 0.0034350241193382269 0 0.017783214784043346 0.003343277211967006 0 0.017824918843228725 0.0034889971058040033 0 0.017824918843228725 0.0034889971058040033 0 0.017689416753955394 0.0034943371738086395 0 0.017731812383440501 0.0036960292989675998 0 0.017824918843228725 0.0034889971058040033 0 0.017731812383440501 0.0036960292989675998 0 0.017935905426788135 0.0035881822407412248 0 0.017494129796424153 0.0036476939687703131 0 0.017689416753955394 0.0034943371738086395 0 0.017731812383440501 0.0036960292989675998 0 0.017494129796424153 0.0036476939687703131 0 0.017731812383440501 0.0036960292989675998 0 0.017514551148185283 0.0038923980601610849 0 0.017731812383440501 0.0036960292989675998 0 0.0179313005398039 0.0037510796619525453 0 0.017935905426788135 0.0035881822407412248 0 0.017907939920832942 0.0034350241193382269 0 0.017824918843228725 0.0034889971058040033 0 0.017935905426788135 0.0035881822407412248 0 0.017935905426788135 0.0035881822407412248 0 0.018046222277016712 0.0035082293506610946 0 0.018053977368546817 0.0036750908036958371 0 0.017907939920832942 0.0034350241193382269 0 0.017935905426788135 0.0035881822407412248 0 0.018046222277016712 0.0035082293506610946 0 0.0179313005398039 0.0037510796619525453 0 0.018053977368546817 0.0036750908036958371 0 0.018073375351206743 0.0038568498487709215 0 0.0179313005398039 0.0037510796619525453 0 0.017935905426788135 0.0035881822407412248 0 0.018053977368546817 0.0036750908036958371 0 0.018053977368546817 0.0036750908036958371 0 0.018180121166430526 0.0037432914075933763 0 0.018073375351206743 0.0038568498487709215 0 0.018053977368546817 0.0036750908036958371 0 0.018180121166430526 0.0037432914075933763 0 0.018153733474407466 0.0036248339964581066 0 0.018180121166430526 0.0037432914075933763 0 0.018223104642116822 0.0036590377108360905 0 0.018312154499746387 0.0037305920386615271 0 0.018180121166430526 0.0037432914075933763 0 0.018223104642116822 0.0036590377108360905 0 0.018153733474407466 0.0036248339964581066 0 0.018223104642116822 0.0036590377108360905 0 0.018153733474407466 0.0036248339964581066 0 0.018240320745649068 0.0035360449922929816 0 0.018046222277016712 0.0035082293506610946 0 0.018053977368546817 0.0036750908036958371 0 0.018153733474407466 0.0036248339964581066 0 0.018046222277016712 0.0035082293506610946 0 0.018153733474407466 0.0036248339964581066 0 0.018240320745649068 0.0035360449922929816 0 0.017016007534594237 0.0011642408056778051 0 0.017557288413499187 0.0011537422687937077 0 0.015894818667566181 -0.0012121061564143096 0 0.015947007105452039 -0.0012164819705759184 0 0.015922662772141268 -0.001204800409489494 0 0.018312154499746387 0.0037305920386615271 0 0.018240320745649068 0.0035360449922929816 0 0.018440360954724205 0.0037529287892782886 0 0.018223104642116822 0.0036590377108360905 0 0.018312154499746387 0.0037305920386615271 0 0.018240320745649068 0.0035360449922929816 0 0.01709798863446025 0.0011519006176482728 0 0.017016007534594237 0.0011642408056778051 0 0.017940015414032971 0.0032427117632397597 0 0.018046222277016712 0.0035082293506610946 0 0.018240320745649068 0.0035360449922929816 0 0.016253343519131068 -0.0009297671757735361 0 0.015947007105452039 -0.0012164819705759184 0 0.016174472857333172 -0.00086316495129497913 0 0.015894818667566181 -0.0012121061564143096 0 0.015947007105452039 -0.0012164819705759184 0 0.016174472857333172 -0.00086316495129497913 0 0.015900996581659742 -0.0011985746664428553 0 0.015887474809671332 -0.0011800785976453826 0 0.015894818667566181 -0.0012121061564143096 0 0.015799560805982143 -0.0015899329829820183 0 0.015580021364824196 -0.0014886126378275447 0 0.015894818667566181 -0.0012121061564143096 0 0.015799560805982143 -0.0015899329829820183 0 0.015961116627465723 -0.0012787943194742218 0 0.014978385648426294 -0.0023776253051023093 0 0.014737625669704832 -0.0023382387181711812 0 0.014173030498306831 -0.0031674790914073062 0 0.013790599674154604 -0.0030182365229956959 0 0.013529415659168416 -0.0034442554887350492 0 0.013790599674154604 -0.0030182365229956959 0 0.014255598665186489 -0.0026125123295710337 0 0.013661731403065371 -0.0027462253577621928 0 0.014173030498306831 -0.0031674790914073062 0 0.013790599674154604 -0.0030182365229956959 0 0.014255598665186489 -0.0026125123295710337 0 0.014173030498306831 -0.0031674790914073062 0 0.014804803624352467 -0.0027156645944129811 0 0.014255598665186489 -0.0026125123295710337 0 0.014978385648426294 -0.0023776253051023093 0 0.015144955123469358 -0.0022922464374474502 0 0.015512818859169728 -0.0018890034389975093 0 0.015580021364824196 -0.0014886126378275447 0 0.015303592191684255 -0.0018114118635843457 0 0.015799560805982143 -0.0015899329829820183 0 0.015512818859169728 -0.0018890034389975093 0 0.015580021364824196 -0.0014886126378275447 0 0.016253343519131068 -0.0009297671757735361 0 0.016174472857333172 -0.00086316495129497913 0 0.016303496109577861 -0.00081507158298208459 0 0.016378836594926241 -0.00073489924231206138 0 0.016253343519131068 -0.0009297671757735361 0 0.016303496109577861 -0.00081507158298208459 0 0.016174472857333172 -0.00086316495129497913 0 0.016303496109577861 -0.00081507158298208459 0 0.016374086251182553 -0.00072912802906623835 0 0.017580829176458267 0.0029182246532044338 0 0.017940015414032971 0.0032427117632397597 0 0.01765153321949612 0.0031652196917754793 0 0.015887474809671332 -0.0011800785976453826 0 0.015844071623620445 -0.0012692807247887431 0 0.016961617231332063 0.0010815081713305096 0 0.01709798863446025 0.0011519006176482728 0 0.016378836594926241 -0.00073489924231206138 0 0.016303496109577861 -0.00081507158298208459 0 0.016374086251182553 -0.00072912802906623835 0 0.015272940085065589 -0.0020765652774999799 0 0.015512818859169728 -0.0018890034389975093 0 0.015303592191684255 -0.0018114118635843457 0 0.015263206275583483 -0.0021136672516627766 0 0.015144955123469358 -0.0022922464374474502 0 0.014804803624352467 -0.0027156645944129811 0 0.014704600374679584 -0.002260937086963395 0 0.014255598665186489 -0.0026125123295710337 0 0.015272940085065589 -0.0020765652774999799 0 0.014804803624352467 -0.0027156645944129811 0 0.014704600374679584 -0.002260937086963395 0 0.014704600374679584 -0.002260937086963395 0 0.01517002810827826 -0.0019387832404630073 0 0.014887543897704882 -0.0019100091739792094 0 0.014704600374679584 -0.002260937086963395 0 0.014887543897704882 -0.0019100091739792094 0 0.014536611972773443 -0.0020264850093688921 0 0.015272940085065589 -0.0020765652774999799 0 0.014704600374679584 -0.002260937086963395 0 0.01517002810827826 -0.0019387832404630073 0 0.015305184076783045 -0.0017562447524282368 0 0.01517002810827826 -0.0019387832404630073 0 0.014887543897704882 -0.0019100091739792094 0 0.015305184076783045 -0.0017562447524282368 0 0.014887543897704882 -0.0019100091739792094 0 0.015073121227464594 -0.0017075467418401432 0 0.014887543897704882 -0.0019100091739792094 0 0.015073121227464594 -0.0017075467418401432 0 0.014437353819589027 -0.001749556743888639 0 0.014839177528741353 -0.0013941737273990183 0 0.015073121227464594 -0.0017075467418401432 0 0.014437353819589027 -0.001749556743888639 0 0.015354942175364735 -0.0017804771917704499 0 0.014839177528741353 -0.0013941737273990183 0 0.015073121227464594 -0.0017075467418401432 0 0.015354942175364735 -0.0017804771917704499 0 0.015305184076783045 -0.0017562447524282368 0 0.015073121227464594 -0.0017075467418401432 0 0.014186440470161739 -0.0012756973938397667 0 0.013856284117227193 -0.0015626637549408886 0 0.013480705892539004 -0.0012561422709527397 0 0.014186440470161739 -0.0012756973938397667 0 0.013856284117227193 -0.0015626637549408886 0 0.014437353819589027 -0.001749556743888639 0 0.014186440470161739 -0.0012756973938397667 0 0.014839177528741353 -0.0013941737273990183 0 0.014437353819589027 -0.001749556743888639 0 0.014437353819589027 -0.001749556743888639 0 0.014097412745179947 -0.0021834825794559394 0 0.014536611972773443 -0.0020264850093688921 0 0.014887543897704882 -0.0019100091739792094 0 0.014437353819589027 -0.001749556743888639 0 0.014536611972773443 -0.0020264850093688921 0 0.014437353819589027 -0.001749556743888639 0 0.013966037069293944 -0.0018987873928779672 0 0.014097412745179947 -0.0021834825794559394 0 0.013856284117227193 -0.0015626637549408886 0 0.014437353819589027 -0.001749556743888639 0 0.013966037069293944 -0.0018987873928779672 0 0.014097412745179947 -0.0021834825794559394 0 0.013947862991169964 -0.0024942200803249629 0 0.013629061662726212 -0.0023355111143797281 0 0.013966037069293944 -0.0018987873928779672 0 0.014097412745179947 -0.0021834825794559394 0 0.013629061662726212 -0.0023355111143797281 0 0.014704600374679584 -0.002260937086963395 0 0.014097412745179947 -0.0021834825794559394 0 0.014536611972773443 -0.0020264850093688921 0 0.014704600374679584 -0.002260937086963395 0 0.014097412745179947 -0.0021834825794559394 0 0.014255598665186489 -0.0026125123295710337 0 0.014097412745179947 -0.0021834825794559394 0 0.014255598665186489 -0.0026125123295710337 0 0.013947862991169964 -0.0024942200803249629 0 0.014255598665186489 -0.0026125123295710337 0 0.013947862991169964 -0.0024942200803249629 0 0.013661731403065371 -0.0027462253577621928 0 0.013947862991169964 -0.0024942200803249629 0 0.013661731403065371 -0.0027462253577621928 0 0.013629061662726212 -0.0023355111143797281 0 0.013661731403065371 -0.0027462253577621928 0 0.013255344547851218 -0.0027230863692538423 0 0.013629061662726212 -0.0023355111143797281 0 0.012925815984292694 -0.002782563827970441 0 0.013255344547851218 -0.0027230863692538423 0 0.012972659611249987 -0.0023801987232857668 0 0.013255344547851218 -0.0027230863692538423 0 0.012972659611249987 -0.0023801987232857668 0 0.013629061662726212 -0.0023355111143797281 0 0.012972659611249987 -0.0023801987232857668 0 0.013629061662726212 -0.0023355111143797281 0 0.013525203822618164 -0.0019176855879638275 0 0.013856284117227193 -0.0015626637549408886 0 0.013525203822618164 -0.0019176855879638275 0 0.013371700099197491 -0.0016110828439326839 0 0.013966037069293944 -0.0018987873928779672 0 0.013629061662726212 -0.0023355111143797281 0 0.013525203822618164 -0.0019176855879638275 0 0.013856284117227193 -0.0015626637549408886 0 0.013966037069293944 -0.0018987873928779672 0 0.013525203822618164 -0.0019176855879638275 0 0.012972659611249987 -0.0023801987232857668 0 0.013525203822618164 -0.0019176855879638275 0 0.013025570595319997 -0.0018312999169846191 0 0.013525203822618164 -0.0019176855879638275 0 0.013025570595319997 -0.0018312999169846191 0 0.013371700099197491 -0.0016110828439326839 0 0.013371700099197491 -0.0016110828439326839 0 0.013480705892539004 -0.0012561422709527397 0 0.012767134704308515 -0.0013062139944963599 0 0.01371028028289817 -0.0018139014949562445 0 0.013153083972361002 -0.00273853378889506 0 0.013025570595319997 -0.0018312999169846191 0 0.013371700099197491 -0.0016110828439326839 0 0.012767134704308515 -0.0013062139944963599 0 0.013856284117227193 -0.0015626637549408886 0 0.013371700099197491 -0.0016110828439326839 0 0.013480705892539004 -0.0012561422709527397 0 0.012690797805597311 -0.0027508046341174143 0 0.012688879673571549 -0.0027519523972498973 0 0.012691475718513583 -0.002750914192263016 0 0.012674448862976627 -0.0041309225891245265 0 0.012574780147457063 -0.0043523421971535308 0 0.012867389141100962 -0.0043349099731457234 0 0.012683938142128754 -0.002752957732740151 0 0.012690797805597311 -0.0027508046341174143 0 0.012688879673571549 -0.0027519523972498973 0 0.012435304223442726 -0.0030381650733657711 0 0.012757569861632808 -0.0035217913724258309 0 0.012435304223442726 -0.0030381650733657711 0 0.012488788129850431 -0.0026421295921974838 0 0.013153083972361002 -0.00273853378889506 0 0.012561254973340864 -0.0022538364761842478 0 0.012690797805597311 -0.0027508046341174143 0 0.012696798434251141 -0.0027493067699302775 0 0.012691475718513583 -0.002750914192263016 0 0.012757569861632808 -0.0035217913724258309 0 0.013153083972361002 -0.00273853378889506 0 0.012972659611249987 -0.0023801987232857668 0 0.013025570595319997 -0.0018312999169846191 0 0.012489949315351381 -0.0019477968892200883 0 0.013025570595319997 -0.0018312999169846191 0 0.012767134704308515 -0.0013062139944963599 0 0.012489949315351381 -0.0019477968892200883 0 0.012561254973340864 -0.0022538364761842478 0 0.012482709624987598 -0.0024223744489869541 0 0.012454760198890091 -0.0024627105301445289 0 0.012324253420028811 -0.0025347474497418991 0 0.012339518140144464 -0.0025901996432420716 0 0.012415834611094278 -0.0024915809297312674 0 0.012454760198890091 -0.0024627105301445289 0 0.012324253420028811 -0.0025347474497418991 0 0.012280617698725975 -0.0025274453776560563 0 0.012415834611094278 -0.0024915809297312674 0 0.012324253420028811 -0.0025347474497418991 0 0.012488788129850431 -0.0026421295921974838 0 0.012561254973340864 -0.0022538364761842478 0 0.012143562758603916 -0.0026045935467929465 0 0.012280617698725975 -0.0025274453776560563 0 0.012324253420028811 -0.0025347474497418991 0 0.012219410420835916 -0.0026130630952363211 0 0.012324253420028811 -0.0025347474497418991 0 0.012339518140144464 -0.0025901996432420716 0 0.012454760198890091 -0.0024627105301445289 0 0.012339518140144464 -0.0025901996432420716 0 0.012486792214501313 -0.0026136067509142445 0 0.012186930809553815 -0.0026775305362655793 0 0.012339518140144464 -0.0025901996432420716 0 0.012312629668955018 -0.0026963440395133143 0 0.012339518140144464 -0.0025901996432420716 0 0.012486792214501313 -0.0026136067509142445 0 0.012312629668955018 -0.0026963440395133143 0 0.012912947883582649 -0.002355441317208511 0 0.012561254973340864 -0.0022538364761842478 0 0.012972659611249987 -0.0023801987232857668 0 0.012486792214501313 -0.0026136067509142445 0 0.012653869909268039 -0.0027387461113800508 0 0.012972659611249987 -0.0023801987232857668 0 0.012454760198890091 -0.0024627105301445289 0 0.012486792214501313 -0.0026136067509142445 0 0.012972659611249987 -0.0023801987232857668 0 0.012509034310456021 -0.0023312707763727238 0 0.012454760198890091 -0.0024627105301445289 0 0.012925815984292694 -0.002782563827970441 0 0.012972659611249987 -0.0023801987232857668 0 0.012653869909268039 -0.0027387461113800508 0 0.012925815984292694 -0.002782563827970441 0 0.012653869909268039 -0.0027387461113800508 0 0.012662180581210811 -0.0029714057635149499 0 0.012312629668955018 -0.0026963440395133143 0 0.01245121884441781 -0.0027422725623623876 0 0.012311496532661345 -0.0028108460839351536 0 0.012486792214501313 -0.0026136067509142445 0 0.012653869909268039 -0.0027387461113800508 0 0.01245121884441781 -0.0027422725623623876 0 0.012486792214501313 -0.0026136067509142445 0 0.012312629668955018 -0.0026963440395133143 0 0.01245121884441781 -0.0027422725623623876 0 0.012653869909268039 -0.0027387461113800508 0 0.01245121884441781 -0.0027422725623623876 0 0.01252576951137919 -0.0028616002123959539 0 0.01245121884441781 -0.0027422725623623876 0 0.012311496532661345 -0.0028108460839351536 0 0.01252576951137919 -0.0028616002123959539 0 0.012311496532661345 -0.0028108460839351536 0 0.012405637039831829 -0.0029343345080316535 0 0.01252576951137919 -0.0028616002123959539 0 0.012241364424176889 -0.0029158204506084476 0 0.012311496532661345 -0.0028108460839351536 0 0.012405637039831829 -0.0029343345080316535 0 0.012405637039831829 -0.0029343345080316535 0 0.01252576951137919 -0.0028616002123959539 0 0.012662180581210811 -0.0029714057635149499 0 0.012405637039831829 -0.0029343345080316535 0 0.012466148315685649 -0.0030813732299336985 0 0.012662180581210811 -0.0029714057635149499 0 0.012308666268175124 -0.0030222757114498171 0 0.012405637039831829 -0.0029343345080316535 0 0.012466148315685649 -0.0030813732299336985 0 0.012466148315685649 -0.0030813732299336985 0 0.01264718422295838 -0.003197063464818592 0 0.012662180581210811 -0.0029714057635149499 0 0.012326672456989868 -0.0031527101187924442 0 0.012308666268175124 -0.0030222757114498171 0 0.012466148315685649 -0.0030813732299336985 0 0.012466148315685649 -0.0030813732299336985 0 0.01264718422295838 -0.003197063464818592 0 0.012472233565880477 -0.0032704108206924641 0 0.01264718422295838 -0.003197063464818592 0 0.012472233565880477 -0.0032704108206924641 0 0.012666032730701582 -0.0033776030665767097 0 0.012326672456989868 -0.0031527101187924442 0 0.012466148315685649 -0.0030813732299336985 0 0.012472233565880477 -0.0032704108206924641 0 0.012326672456989868 -0.0031527101187924442 0 0.012294419674703362 -0.0032481910481358144 0 0.012472233565880477 -0.0032704108206924641 0 0.01264718422295838 -0.003197063464818592 0 0.012829060181560905 -0.0031352876344216286 0 0.012662180581210811 -0.0029714057635149499 0 0.01279580715692152 -0.003299525667971594 0 0.012829060181560905 -0.0031352876344216286 0 0.013023412767084002 -0.0032998876182596328 0 0.01279580715692152 -0.003299525667971594 0 0.01264718422295838 -0.003197063464818592 0 0.012666032730701582 -0.0033776030665767097 0 0.01279580715692152 -0.003299525667971594 0 0.01264718422295838 -0.003197063464818592 0 0.012829060181560905 -0.0031352876344216286 0 0.012653869909268039 -0.0027387461113800508 0 0.01252576951137919 -0.0028616002123959539 0 0.012662180581210811 -0.0029714057635149499 0 0.012829060181560905 -0.0031352876344216286 0 0.012662180581210811 -0.0029714057635149499 0 0.013014308787712266 -0.0029792012429752934 0 0.012925815984292694 -0.002782563827970441 0 0.012662180581210811 -0.0029714057635149499 0 0.013014308787712266 -0.0029792012429752934 0 0.013255344547851218 -0.0027230863692538423 0 0.013014308787712266 -0.0029792012429752934 0 0.013378466385818995 -0.0030515417375221211 0 0.012925815984292694 -0.002782563827970441 0 0.013255344547851218 -0.0027230863692538423 0 0.013014308787712266 -0.0029792012429752934 0 0.013661731403065371 -0.0027462253577621928 0 0.013255344547851218 -0.0027230863692538423 0 0.013378466385818995 -0.0030515417375221211 0 0.013790599674154604 -0.0030182365229956959 0 0.013661731403065371 -0.0027462253577621928 0 0.013378466385818995 -0.0030515417375221211 0 0.013790599674154604 -0.0030182365229956959 0 0.013378466385818995 -0.0030515417375221211 0 0.013529415659168416 -0.0034442554887350492 0 0.013378466385818995 -0.0030515417375221211 0 0.013023412767084002 -0.0032998876182596328 0 0.013529415659168416 -0.0034442554887350492 0 0.012829060181560905 -0.0031352876344216286 0 0.013014308787712266 -0.0029792012429752934 0 0.013023412767084002 -0.0032998876182596328 0 0.013014308787712266 -0.0029792012429752934 0 0.013378466385818995 -0.0030515417375221211 0 0.013023412767084002 -0.0032998876182596328 0 0.013023412767084002 -0.0032998876182596328 0 0.013005435633818899 -0.0035920443600309425 0 0.012833873692556036 -0.0034413522934390976 0 0.013023412767084002 -0.0032998876182596328 0 0.013529415659168416 -0.0034442554887350492 0 0.013005435633818899 -0.0035920443600309425 0 0.015961116627465723 -0.0012787943194742218 0 0.015922662772141268 -0.001204800409489494 0 0.015887824141335893 -0.0012045376854457116 0 0.015894818667566181 -0.0012121061564143096 0 0.015961116627465723 -0.0012787943194742218 0 0.015922662772141268 -0.001204800409489494 0 0.014737625669704832 -0.0023382387181711812 0 0.014536554850397662 -0.0025924955444973502 0 0.015922662772141268 -0.001204800409489494 0 0.015887824141335893 -0.0012045376854457116 0 0.015860913776440479 -0.0012263921290388868 0 0.015887824141335893 -0.0012045376854457116 0 0.015787011890186015 -0.0012105560055520391 0 0.015860913776440479 -0.0012263921290388868 0 0.013005435633818899 -0.0035920443600309425 0 0.012703607362375314 -0.0035439210802577447 0 0.012600351554652119 -0.003735829828984938 0 0.014536554850397662 -0.0025924955444973502 0 0.013398026107919231 -0.00096719140946406493 0 0.012600351554652119 -0.003735829828984938 0 0.012490893390799599 -0.0036841989035078385 0 0.012530838523381736 -0.003577122541247263 0 0.01247008858463005 -0.0037463869426042811 0 0.012530838523381736 -0.003577122541247263 0 0.012394584934210104 -0.0033673994653986598 0 0.013398026107919231 -0.00096719140946406493 0 0.013430564592577804 -0.00072771400076889218 0 0.012511843983116592 0.0017160531201928365 0 0.012265552157169905 0.0018233944721348391 0 0.012432514894178357 0.0016681984460875873 0 0.013398026107919231 -0.00096719140946406493 0 0.011413077576063177 -0.0010923693041756913 0 0.011413077576063177 -0.0010923693041756913 0 0.01154906298511325 -0.0031119948660163878 0 0.012703607362375314 -0.0035439210802577447 0 0.012600351554652119 -0.003735829828984938 0 0.012530838523381736 -0.003577122541247263 0 0.012703607362375314 -0.0035439210802577447 0 0.012530838523381736 -0.003577122541247263 0 0.01255658427476619 -0.0034232319000029269 0 0.012530838523381736 -0.003577122541247263 0 0.01255658427476619 -0.0034232319000029269 0 0.012394584934210104 -0.0033673994653986598 0 0.012294419674703362 -0.0032481910481358144 0 0.012394584934210104 -0.0033673994653986598 0 0.012472233565880477 -0.0032704108206924641 0 0.01255658427476619 -0.0034232319000029269 0 0.012394584934210104 -0.0033673994653986598 0 0.012472233565880477 -0.0032704108206924641 0 0.01255658427476619 -0.0034232319000029269 0 0.012472233565880477 -0.0032704108206924641 0 0.012666032730701582 -0.0033776030665767097 0 0.01279580715692152 -0.003299525667971594 0 0.012666032730701582 -0.0033776030665767097 0 0.012833873692556036 -0.0034413522934390976 0 0.013005435633818899 -0.0035920443600309425 0 0.012703607362375314 -0.0035439210802577447 0 0.012833873692556036 -0.0034413522934390976 0 0.01279580715692152 -0.003299525667971594 0 0.013023412767084002 -0.0032998876182596328 0 0.012833873692556036 -0.0034413522934390976 0 0.012703607362375314 -0.0035439210802577447 0 0.012666032730701582 -0.0033776030665767097 0 0.012833873692556036 -0.0034413522934390976 0 0.012703607362375314 -0.0035439210802577447 0 0.01255658427476619 -0.0034232319000029269 0 0.012666032730701582 -0.0033776030665767097 0 0.011778369692499917 0.0064315714432444816 0 0.012694713603680841 0.0057234672612110999 0 0.011887703627660234 0.0056545440336520786 0 0.011778369692499917 0.0064315714432444816 0 0.012660884826289086 0.0068496889810010257 0 0.012694713603680841 0.0057234672612110999 0 0.010282421744253489 0.0024690113874996241 0 0.012134203851463103 0.003868432118514638 0 0.010879781705051406 0.0059959866195846657 0 0.011778369692499917 0.0064315714432444816 0 0.011887703627660234 0.0056545440336520786 0 0.011857303193286962 0.00078317935443111234 0 0.012535566484523687 0.0010978021275981804 0 0.012063291489703242 0.0013058215485238624 0 0.012535566484523687 0.0010978021275981804 0 0.012063291489703242 0.0013058215485238624 0 0.0125530813128955 0.0014461456549703451 0 0.011413077576063177 -0.0010923693041756913 0 0.010047651611613551 0.00074997420314821357 0 0.012265552157169905 0.0018233944721348391 0 0.012063291489703242 0.0013058215485238624 0 0.012432514894178357 0.0016681984460875873 0 0.012063291489703242 0.0013058215485238624 0 0.0125530813128955 0.0014461456549703451 0 0.012432514894178357 0.0016681984460875873 0 0.012518957891700532 0.0017271153035739743 0 0.0125530813128955 0.0014461456549703451 0 0.012432514894178357 0.0016681984460875873 0 0.013398026107919231 -0.00096719140946406493 0 0.015048294231148014 0.0027280398867353373 0 0.012535566484523687 0.0010978021275981804 0 0.0125530813128955 0.0014461456549703451 0 0.013232302124822532 0.0014368118180298397 0 0.012134203851463103 0.003868432118514638 0 0.015048294231148014 0.0027280398867353373 0 0.012518957891700532 0.0017271153035739743 0 0.0125530813128955 0.0014461456549703451 0 0.013232302124822532 0.0014368118180298397 0 0.017557288413499187 0.0011537422687937077 0 0.015048294231148014 0.0027280398867353373 0 0.015048294231148014 0.0027280398867353373 0 0.016072818189553785 0.005455805407896995 0 0.018440360954724205 0.0037529287892782886 0 0.01853815703683432 0.0038550372435780314 0 0.018444642225648678 0.0039548192063664301 0 0.018440360954724205 0.0037529287892782886 0 0.018444642225648678 0.0039548192063664301 0 0.018276826108577612 0.003916198287601199 0 0.013724907126142428 0.0063825330824911044 0 0.012694713603680841 0.0057234672612110999 0 0.013924761786552329 0.0054467050492051925 0 0.012660884826289086 0.0068496889810010257 0 0.013724907126142428 0.0063825330824911044 0 0.012694713603680841 0.0057234672612110999 0 0.012694713603680841 0.0057234672612110999 0 0.013924761786552329 0.0054467050492051925 0 0.013229890025262521 0.0049143059130691696 0 0.012694713603680841 0.0057234672612110999 0 0.013229890025262521 0.0049143059130691696 0 0.012373585937904056 0.0047839444097560547 0 0.014024520205807077 0.0044175547528344248 0 0.013229890025262521 0.0049143059130691696 0 0.013096329790496717 0.0041023188915179521 0 0.013924761786552329 0.0054467050492051925 0 0.014024520205807077 0.0044175547528344248 0 0.013229890025262521 0.0049143059130691696 0 0.013229890025262521 0.0049143059130691696 0 0.012373585937904056 0.0047839444097560547 0 0.013096329790496717 0.0041023188915179521 0 0.012373585937904056 0.0047839444097560547 0 0.011782538842376228 0.0041942498030529208 0 0.012320361891152803 0.003763893024145629 0 0.012373585937904056 0.0047839444097560547 0 0.011414229589756185 0.004986318827232228 0 0.011782538842376228 0.0041942498030529208 0 0.012373585937904056 0.0047839444097560547 0 0.012320361891152803 0.003763893024145629 0 0.013096329790496717 0.0041023188915179521 0 0.012694713603680841 0.0057234672612110999 0 0.012373585937904056 0.0047839444097560547 0 0.011887703627660234 0.0056545440336520786 0 0.012373585937904056 0.0047839444097560547 0 0.011887703627660234 0.0056545440336520786 0 0.011414229589756185 0.004986318827232228 0 0.010879781705051406 0.0059959866195846657 0 0.011887703627660234 0.0056545440336520786 0 0.011414229589756185 0.004986318827232228 0 0.011414229589756185 0.004986318827232228 0 0.011127738053727434 0.0042309494685536936 0 0.011782538842376228 0.0041942498030529208 0 0.011127738053727434 0.0042309494685536936 0 0.011782538842376228 0.0041942498030529208 0 0.011526333196421892 0.0034394720245113303 0 0.010620296007802406 0.0033976993228793198 0 0.011127738053727434 0.0042309494685536936 0 0.011526333196421892 0.0034394720245113303 0 0.011782538842376228 0.0041942498030529208 0 0.011526333196421892 0.0034394720245113303 0 0.012320361891152803 0.003763893024145629 0 0.011526333196421892 0.0034394720245113303 0 0.012320361891152803 0.003763893024145629 0 0.012118911311996043 0.0031747943476168657 0 0.012118911311996043 0.0031747943476168657 0 0.011625279260747103 0.0028391535408836955 0 0.012432807445882 0.0026349353107659136 0 0.012118911311996043 0.0031747943476168657 0 0.012432807445882 0.0026349353107659136 0 0.012752061428321885 0.0033721603439200976 0 0.012320361891152803 0.003763893024145629 0 0.012118911311996043 0.0031747943476168657 0 0.012752061428321885 0.0033721603439200976 0 0.010620296007802406 0.0033976993228793198 0 0.011526333196421892 0.0034394720245113303 0 0.01104807916664413 0.0028944171005868061 0 0.011526333196421892 0.0034394720245113303 0 0.012118911311996043 0.0031747943476168657 0 0.011625279260747103 0.0028391535408836955 0 0.011526333196421892 0.0034394720245113303 0 0.011625279260747103 0.0028391535408836955 0 0.01104807916664413 0.0028944171005868061 0 0.011625279260747103 0.0028391535408836955 0 0.01104807916664413 0.0028944171005868061 0 0.011032853270257277 0.0022343093244937585 0 0.012581333634819248 0.0042270406442660655 0 0.014311111239003832 0.0049618680714996971 0 0.011625279260747103 0.0028391535408836955 0 0.011032853270257277 0.0022343093244937585 0 0.012432807445882 0.0026349353107659136 0 0.012581333634819248 0.0042270406442660655 0 0.013312215020704184 0.0037604706848839986 0 0.01359630835469456 0.004861976430658119 0 0.014355140288665478 0.0050882491369404013 0 0.014364403600756486 0.0047227142794258022 0 0.013074057420652841 0.0049521274335554552 0 0.013944427016166052 0.0050585960177314711 0 0.013824446038032885 0.0048883667403457716 0 0.013944427016166052 0.0050585960177314711 0 0.013824446038032885 0.0048883667403457716 0 0.013917037461524265 0.0047896519425470775 0 0.013824446038032885 0.0048883667403457716 0 0.013778788729418824 0.0047991085446897428 0 0.013653213364448167 0.0048497694800346876 0 0.013824446038032885 0.0048883667403457716 0 0.013917037461524265 0.0047896519425470775 0 0.013778788729418824 0.0047991085446897428 0 0.013235219725374956 0.004802083502286612 0 0.01374349299678961 0.0048608016749162371 0 0.012892446784677566 0.0045724520902511922 0 0.013074057420652841 0.0049521274335554552 0 0.013824446038032885 0.0048883667403457716 0 0.013778788729418824 0.0047991085446897428 0 0.013653213364448167 0.0048497694800346876 0 0.013698054313553778 0.0047403147053716793 0 0.013494749455585769 0.0049875373568059669 0 0.013824446038032885 0.0048883667403457716 0 0.013653213364448167 0.0048497694800346876 0 0.013527147908524528 0.0048668385612770614 0 0.013653213364448167 0.0048497694800346876 0 0.013573324216342832 0.0047795016730307746 0 0.013527147908524528 0.0048668385612770614 0 0.013494749455585769 0.0049875373568059669 0 0.013653213364448167 0.0048497694800346876 0 0.013944427016166052 0.0050585960177314711 0 0.014564466445978782 0.0050091379695267717 0 0.01418229440950465 0.004797664711669856 0 0.014311111239003832 0.0049618680714996971 0 0.014752842134928926 0.0048255247986175656 0 0.013944427016166052 0.0050585960177314711 0 0.013917037461524265 0.0047896519425470775 0 0.01418229440950465 0.004797664711669856 0 0.014364403600756486 0.0047227142794258022 0 0.015007935034829813 0.0046711364627212903 0 0.014746558464173871 0.0049232017576843904 0 0.014355140288665478 0.0050882491369404013 0 0.014364403600756486 0.0047227142794258022 0 0.014746558464173871 0.0049232017576843904 0 0.015007935034829813 0.0046711364627212903 0 0.014746558464173871 0.0049232017576843904 0 0.014983862321216295 0.0052182322306261308 0 0.012432807445882 0.0026349353107659136 0 0.013772923993695676 0.0031725321259821978 0 0.012752061428321885 0.0033721603439200976 0 0.014355140288665478 0.0050882491369404013 0 0.014746558464173871 0.0049232017576843904 0 0.014983862321216295 0.0052182322306261308 0 0.013312215020704184 0.0037604706848839986 0 0.014386400605772537 0.0042108874204032729 0 0.013772923993695676 0.0031725321259821978 0 0.012752061428321885 0.0033721603439200976 0 0.013096329790496717 0.0041023188915179521 0 0.012320361891152803 0.003763893024145629 0 0.012752061428321885 0.0033721603439200976 0 0.013096329790496717 0.0041023188915179521 0 0.014024520205807077 0.0044175547528344248 0 0.013772923993695676 0.0031725321259821978 0 0.013096329790496717 0.0041023188915179521 0 0.014024520205807077 0.0044175547528344248 0 0.013772923993695676 0.0031725321259821978 0 0.015010925237722881 0.0037394764766648025 0 0.014024520205807077 0.0044175547528344248 0 0.015010925237722881 0.0037394764766648025 0 0.015013415074334376 0.0047770399686190715 0 0.015010925237722881 0.0037394764766648025 0 0.016113568180089764 0.0043521161711190699 0 0.015013415074334376 0.0047770399686190715 0 0.015526672451369442 0.0053358299585106149 0 0.015479593925714049 0.0049538792892356125 0 0.016062381693736527 0.0050685117355042412 0 0.014386400605772537 0.0042108874204032729 0 0.015252762514683445 0.0045317861892834642 0 0.014983862321216295 0.0052182322306261308 0 0.015526672451369442 0.0053358299585106149 0 0.015479593925714049 0.0049538792892356125 0 0.015007935034829813 0.0046711364627212903 0 0.014983862321216295 0.0052182322306261308 0 0.015479593925714049 0.0049538792892356125 0 0.015479593925714049 0.0049538792892356125 0 0.015432020055179024 0.0046932826767240327 0 0.015934806607206285 0.0048076066770644183 0 0.015007935034829813 0.0046711364627212903 0 0.015479593925714049 0.0049538792892356125 0 0.015432020055179024 0.0046932826767240327 0 0.014752842134928926 0.0048255247986175656 0 0.015401364865591521 0.0047063883497499613 0 0.014564466445978782 0.0050091379695267717 0 0.015432020055179024 0.0046932826767240327 0 0.014975737899822409 0.0044917100516245765 0 0.016279000703221899 0.004719504314613353 0 0.016037776890995011 0.0046428315739960695 0 0.016139450722542824 0.0044460382379426086 0 0.016279000703221899 0.004719504314613353 0 0.016037776890995011 0.0046428315739960695 0 0.015934806607206285 0.0048076066770644183 0 0.016037776890995011 0.0046428315739960695 0 0.015797346538564676 0.0045794748863216732 0 0.015934806607206285 0.0048076066770644183 0 0.016037776890995011 0.0046428315739960695 0 0.015797346538564676 0.0045794748863216732 0 0.016139450722542824 0.0044460382379426086 0 0.015432020055179024 0.0046932826767240327 0 0.015797346538564676 0.0045794748863216732 0 0.015934806607206285 0.0048076066770644183 0 0.015479593925714049 0.0049538792892356125 0 0.015934806607206285 0.0048076066770644183 0 0.016062381693736527 0.0050685117355042412 0 0.015934806607206285 0.0048076066770644183 0 0.016404247250603993 0.0049319869206742237 0 0.016062381693736527 0.0050685117355042412 0 0.016279000703221899 0.004719504314613353 0 0.015934806607206285 0.0048076066770644183 0 0.016404247250603993 0.0049319869206742237 0 0.016404247250603993 0.0049319869206742237 0 0.016062381693736527 0.0050685117355042412 0 0.016551001653849665 0.0051693132561199204 0 0.015526672451369442 0.0053358299585106149 0 0.016062381693736527 0.0050685117355042412 0 0.016181113347450156 0.0053890324791663665 0 0.015252762514683445 0.0045317861892834642 0 0.016124318932316382 0.0048540155512753159 0 0.016062381693736527 0.0050685117355042412 0 0.016181113347450156 0.0053890324791663665 0 0.016551001653849665 0.0051693132561199204 0 0.016124318932316382 0.0048540155512753159 0 0.016769256810361798 0.0050284401137119759 0 0.016181113347450156 0.0053890324791663665 0 0.016850837168573499 0.0050442504440362801 0 0.016551001653849665 0.0051693132561199204 0 0.016113568180089764 0.0043521161711190699 0 0.016452878721578069 0.0052134767209512205 0 0.015825657908618909 0.0049691109088321186 0 0.016113568180089764 0.0043521161711190699 0 0.016452878721578069 0.0052134767209512205 0 0.016850837168573499 0.0050442504440362801 0 0.017643633216228669 0.0047431385880190614 0 0.017804801432014804 0.0042584986683505948 0 0.017495484942264564 0.0043607892841171165 0 0.017038587312875872 0.0049809041009281777 0 0.016829566219119213 0.0049799902277946739 0 0.017643633216228669 0.0047431385880190614 0 0.018015776281441458 0.0044196895039927278 0 0.017804801432014804 0.0042584986683505948 0 0.016452878721578069 0.0052134767209512205 0 0.015666457185971035 0.0055209825490947157 0 0.015825657908618909 0.0049691109088321186 0 0.015666457185971035 0.0055209825490947157 0 0.015825657908618909 0.0049691109088321186 0 0.015013415074334376 0.0047770399686190715 0 0.016113568180089764 0.0043521161711190699 0 0.015825657908618909 0.0049691109088321186 0 0.015013415074334376 0.0047770399686190715 0 0.013924761786552329 0.0054467050492051925 0 0.014024520205807077 0.0044175547528344248 0 0.015013415074334376 0.0047770399686190715 0 0.013924761786552329 0.0054467050492051925 0 0.015013415074334376 0.0047770399686190715 0 0.014732837909597724 0.0059286980701878074 0 0.015666457185971035 0.0055209825490947157 0 0.015013415074334376 0.0047770399686190715 0 0.014732837909597724 0.0059286980701878074 0 0.016829566219119213 0.0049799902277946739 0 0.016511949503434147 0.0050103567201949702 0 0.018066342358020581 0.004096921017891845 0 0.018278182632108692 0.0041480491135843034 0 0.018276826108577612 0.003916198287601199 0 0.018015776281441458 0.0044196895039927278 0 0.018066342358020581 0.004096921017891845 0 0.018278182632108692 0.0041480491135843034 0 0.018444642225648678 0.0039548192063664301 0 0.018278182632108692 0.0041480491135843034 0 0.018276826108577612 0.003916198287601199 0 0.016072818189553785 0.005455805407896995 0 0.016511949503434147 0.0050103567201949702 0 0.013724907126142428 0.0063825330824911044 0 0.013924761786552329 0.0054467050492051925 0 0.014732837909597724 0.0059286980701878074 0 0.018312154499746387 0.0037305920386615271 0 0.018440360954724205 0.0037529287892782886 0 0.018276826108577612 0.003916198287601199 0 0.018180121166430526 0.0037432914075933763 0 0.018312154499746387 0.0037305920386615271 0 0.018276826108577612 0.003916198287601199 0 0.018180121166430526 0.0037432914075933763 0 0.018276826108577612 0.003916198287601199 0 0.018073375351206743 0.0038568498487709215 0 0.018066342358020581 0.004096921017891845 0 0.018276826108577612 0.003916198287601199 0 0.018073375351206743 0.0038568498487709215 0 0.0179313005398039 0.0037510796619525453 0 0.018073375351206743 0.0038568498487709215 0 0.017878548813539268 0.0039535763207173861 0 0.018066342358020581 0.004096921017891845 0 0.018073375351206743 0.0038568498487709215 0 0.017878548813539268 0.0039535763207173861 0 0.017731812383440501 0.0036960292989675998 0 0.0179313005398039 0.0037510796619525453 0 0.017878548813539268 0.0039535763207173861 0 0.017731812383440501 0.0036960292989675998 0 0.017652764566851553 0.0040536208907085321 0 0.017514551148185283 0.0038923980601610849 0 0.017731812383440501 0.0036960292989675998 0 0.017878548813539268 0.0039535763207173861 0 0.017652764566851553 0.0040536208907085321 0 0.017652764566851553 0.0040536208907085321 0 0.017804801432014804 0.0042584986683505948 0 0.017495484942264564 0.0043607892841171165 0 0.017878548813539268 0.0039535763207173861 0 0.017652764566851553 0.0040536208907085321 0 0.017804801432014804 0.0042584986683505948 0 0.018015776281441458 0.0044196895039927278 0 0.018066342358020581 0.004096921017891845 0 0.017804801432014804 0.0042584986683505948 0 0.018066342358020581 0.004096921017891845 0 0.017878548813539268 0.0039535763207173861 0 0.017804801432014804 0.0042584986683505948 0 0.017177175095335142 0.0043149415640117298 0 0.017065270019528799 0.0039809156135744064 0 0.016926297177251921 0.0042484310654744405 0 0.017177175095335142 0.0043149415640117298 0 0.016926297177251921 0.0042484310654744405 0 0.016922272089620129 0.0045165467179560659 0 0.017177175095335142 0.0043149415640117298 0 0.017438346778652837 0.004119861438404147 0 0.01730836830313667 0.0039278761952644941 0 0.017177175095335142 0.0043149415640117298 0 0.017495484942264564 0.0043607892841171165 0 0.017438346778652837 0.004119861438404147 0 0.017652764566851553 0.0040536208907085321 0 0.017495484942264564 0.0043607892841171165 0 0.017438346778652837 0.004119861438404147 0 0.017438346778652837 0.004119861438404147 0 0.017514551148185283 0.0038923980601610849 0 0.01730836830313667 0.0039278761952644941 0 0.017652764566851553 0.0040536208907085321 0 0.017438346778652837 0.004119861438404147 0 0.017514551148185283 0.0038923980601610849 0 0.017494129796424153 0.0036476939687703131 0 0.017514551148185283 0.0038923980601610849 0 0.01730836830313667 0.0039278761952644941 0 0.017155035626480804 0.0036632346404418328 0 0.01730836830313667 0.0039278761952644941 0 0.017065270019528799 0.0039809156135744064 0 0.017155035626480804 0.0036632346404418328 0 0.017065270019528799 0.0039809156135744064 0 0.016856869883754483 0.0038409806804270896 0 0.017177175095335142 0.0043149415640117298 0 0.01730836830313667 0.0039278761952644941 0 0.017065270019528799 0.0039809156135744064 0 0.016856869883754483 0.0038409806804270896 0 0.016735407967249458 0.0041458177167540194 0 0.016926297177251921 0.0042484310654744405 0 0.017065270019528799 0.0039809156135744064 0 0.016856869883754483 0.0038409806804270896 0 0.016926297177251921 0.0042484310654744405 0 0.016566098531571292 0.0035728894233177208 0 0.016856869883754483 0.0038409806804270896 0 0.016593691432060752 0.0039297275530587568 0 0.016566098531571292 0.0035728894233177208 0 0.016593691432060752 0.0039297275530587568 0 0.016300259632604733 0.0038542097966186468 0 0.016856869883754483 0.0038409806804270896 0 0.016735407967249458 0.0041458177167540194 0 0.016593691432060752 0.0039297275530587568 0 0.016735407967249458 0.0041458177167540194 0 0.016593691432060752 0.0039297275530587568 0 0.016478109649130358 0.0042477456868646587 0 0.016593691432060752 0.0039297275530587568 0 0.016478109649130358 0.0042477456868646587 0 0.016300259632604733 0.0038542097966186468 0 0.016478109649130358 0.0042477456868646587 0 0.016752986341032172 0.004553840744186923 0 0.016496341896629036 0.0047159743002768845 0 0.016735407967249458 0.0041458177167540194 0 0.016478109649130358 0.0042477456868646587 0 0.016752986341032172 0.004553840744186923 0 0.016735407967249458 0.0041458177167540194 0 0.016926297177251921 0.0042484310654744405 0 0.016752986341032172 0.004553840744186923 0 0.016926297177251921 0.0042484310654744405 0 0.016922272089620129 0.0045165467179560659 0 0.016752986341032172 0.004553840744186923 0 0.016922272089620129 0.0045165467179560659 0 0.016752986341032172 0.004553840744186923 0 0.016863961955534461 0.0047456263476218143 0 0.016752986341032172 0.004553840744186923 0 0.016863961955534461 0.0047456263476218143 0 0.016732780185939568 0.0049413128269696514 0 0.016752986341032172 0.004553840744186923 0 0.016496341896629036 0.0047159743002768845 0 0.016732780185939568 0.0049413128269696514 0 0.016505967486693352 0.0050692407661545877 0 0.016732780185939568 0.0049413128269696514 0 0.016674320303904835 0.0053120703482396475 0 0.016496341896629036 0.0047159743002768845 0 0.016505967486693352 0.0050692407661545877 0 0.016732780185939568 0.0049413128269696514 0 0.016732780185939568 0.0049413128269696514 0 0.016895132705738967 0.0049582752682017922 0 0.016832268279352674 0.0051288952105106537 0 0.016863961955534461 0.0047456263476218143 0 0.016732780185939568 0.0049413128269696514 0 0.016895132705738967 0.0049582752682017922 0 0.016732780185939568 0.0049413128269696514 0 0.016832268279352674 0.0051288952105106537 0 0.016674320303904835 0.0053120703482396475 0 0.016897083260644586 0.0050896295127530215 0 0.016895132705738967 0.0049582752682017922 0 0.016832268279352674 0.0051288952105106537 0 0.016897083260644586 0.0050896295127530215 0 0.016991537246144526 0.0050778438933256334 0 0.017008161525338305 0.0048743676726187828 0 0.016897083260644586 0.0050896295127530215 0 0.016991537246144526 0.0050778438933256334 0 0.016871682410848587 0.0050959098772585072 0 0.016991537246144526 0.0050778438933256334 0 0.017008161525338305 0.0048743676726187828 0 0.017272285966371499 0.0046982867075595555 0 0.016897083260644586 0.0050896295127530215 0 0.017008161525338305 0.0048743676726187828 0 0.016895132705738967 0.0049582752682017922 0 0.016863961955534461 0.0047456263476218143 0 0.016895132705738967 0.0049582752682017922 0 0.017010927201734419 0.0046745985016334694 0 0.017177175095335142 0.0043149415640117298 0 0.017010927201734419 0.0046745985016334694 0 0.017272285966371499 0.0046982867075595555 0 0.017008161525338305 0.0048743676726187828 0 0.016895132705738967 0.0049582752682017922 0 0.017010927201734419 0.0046745985016334694 0 0.017008161525338305 0.0048743676726187828 0 0.017010927201734419 0.0046745985016334694 0 0.017272285966371499 0.0046982867075595555 0 0.017177175095335142 0.0043149415640117298 0 0.016922272089620129 0.0045165467179560659 0 0.017010927201734419 0.0046745985016334694 0 0.016922272089620129 0.0045165467179560659 0 0.016863961955534461 0.0047456263476218143 0 0.017010927201734419 0.0046745985016334694 0 0.017177175095335142 0.0043149415640117298 0 0.017495484942264564 0.0043607892841171165 0 0.017272285966371499 0.0046982867075595555 0 0.017643633216228669 0.0047431385880190614 0 0.017495484942264564 0.0043607892841171165 0 0.017272285966371499 0.0046982867075595555 0 0.017643633216228669 0.0047431385880190614 0 0.016991537246144526 0.0050778438933256334 0 0.017272285966371499 0.0046982867075595555 0 0.016452878721578069 0.0052134767209512205 0 0.016991537246144526 0.0050778438933256334 0 0.016850837168573499 0.0050442504440362801 0 0.017038587312875872 0.0049809041009281777 0 0.016998654833186851 0.00505981211738639 0 0.016991537246144526 0.0050778438933256334 0 0.016850837168573499 0.0050442504440362801 0 0.016871682410848587 0.0050959098772585072 0 0.016850837168573499 0.0050442504440362801 0 0.01674478181648402 0.0051320787750846145 0 0.016551001653849665 0.0051693132561199204 0 0.016850837168573499 0.0050442504440362801 0 0.01674478181648402 0.0051320787750846145 0 0.016871682410848587 0.0050959098772585072 0 0.01674478181648402 0.0051320787750846145 0 0.016551001653849665 0.0051693132561199204 0 0.016764817249075598 0.0050978046558021141 0 0.016897083260644586 0.0050896295127530215 0 0.016840815289035152 0.0051395101358744097 0 0.016832268279352674 0.0051288952105106537 0 0.01674478181648402 0.0051320787750846145 0 0.016871682410848587 0.0050959098772585072 0 0.016840815289035152 0.0051395101358744097 0 0.016897083260644586 0.0050896295127530215 0 0.016871682410848587 0.0050959098772585072 0 0.016840815289035152 0.0051395101358744097 0 0.01674478181648402 0.0051320787750846145 0 0.016840815289035152 0.0051395101358744097 0 0.016764817249075598 0.0050978046558021141 0 0.016840815289035152 0.0051395101358744097 0 0.016805053484488401 0.0051416265380208326 0 0.016806795260489338 0.0051852406071690527 0 0.016840815289035152 0.0051395101358744097 0 0.016805053484488401 0.0051416265380208326 0 0.016764817249075598 0.0050978046558021141 0 0.016764817249075598 0.0050978046558021141 0 0.016791970421107541 0.0049063097156499969 0 0.016990922574958316 0.0048392787991313278 0 0.01687251056713034 0.0049633422746856041 0 0.0167404026024724 0.0054243203505540327 0 0.016805053484488401 0.0051416265380208326 0 0.016764817249075598 0.0050978046558021141 0 0.016806957379644993 0.0051254431543318645 0 0.016404247250603993 0.0049319869206742237 0 0.016764817249075598 0.0050978046558021141 0 0.016791970421107541 0.0049063097156499969 0 0.016404247250603993 0.0049319869206742237 0 0.016551001653849665 0.0051693132561199204 0 0.016764817249075598 0.0050978046558021141 0 0.016279000703221899 0.004719504314613353 0 0.016404247250603993 0.0049319869206742237 0 0.016482452983411673 0.0047884307210500311 0 0.016404247250603993 0.0049319869206742237 0 0.016791970421107541 0.0049063097156499969 0 0.016902759436260576 0.004709768019664223 0 0.016404247250603993 0.0049319869206742237 0 0.016482452983411673 0.0047884307210500311 0 0.016655425943235158 0.0048109715707482879 0 0.016606453641082698 0.004778563033590635 0 0.016390363105405023 0.005211176799485082 0 0.016791970421107541 0.0049063097156499969 0 0.016990922574958316 0.0048392787991313278 0 0.016902759436260576 0.004709768019664223 0 0.016234700051340145 0.0054946966838191154 0 0.016370860831450659 0.0056621296282790678 0 0.016178106005616252 0.0057407926331668468 0 0.0167404026024724 0.0054243203505540327 0 0.016390363105405023 0.005211176799485082 0 0.016390363105405023 0.005211176799485082 0 0.015434109817253903 0.0059403726765505701 0 0.014301378538032735 0.0061332662984881162 0 0.01417551977040901 0.0061523112224674192 0 0.014194677996609381 0.0060547139406171586 0 0.015606349437642518 0.0058418978156349359 0 0.015823111175131015 0.0057559707688717215 0 0.015324769595761668 0.0054987776952920312 0 0.015434109817253903 0.0059403726765505701 0 0.01504760447298218 0.0056118842614392593 0 0.016390363105405023 0.005211176799485082 0 0.01504760447298218 0.0056118842614392593 0 0.016482452983411673 0.0047884307210500311 0 0.016655425943235158 0.0048109715707482879 0 0.016562837729853182 0.0046626811350232375 0 0.014311362858189593 0.0062219161944855848 0 0.014301378538032735 0.0061332662984881162 0 0.01417551977040901 0.0061523112224674192 0 0.01417551977040901 0.0061523112224674192 0 0.01409236215268236 0.0060465377093808382 0 0.014194677996609381 0.0060547139406171586 0 0.016279000703221899 0.004719504314613353 0 0.016482452983411673 0.0047884307210500311 0 0.016562837729853182 0.0046626811350232375 0 0.01504760447298218 0.0056118842614392593 0 0.014114427334370083 0.0059729405073702981 0 0.01504760447298218 0.0056118842614392593 0 0.015125654724246753 0.0051917599146258844 0 0.014184911130888924 0.0060719467800787411 0 0.014105812170438072 0.0059884949476644786 0 0.013995683374666805 0.0059829015410873361 0 0.016279000703221899 0.004719504314613353 0 0.016562837729853182 0.0046626811350232375 0 0.016139450722542824 0.0044460382379426086 0 0.016447910579250071 0.006976566796152388 0 0.015731170631057164 0.0070413201618077046 0 0.017381255616397216 0.0071348833429877587 0 0.017078190327054685 0.0068969280417807239 0 0.016895538187215259 0.0073339457546018876 0 0.016447910579250071 0.006976566796152388 0 0.016623482689305052 0.0076149944004793137 0 0.016689792869702846 0.0077823309286512918 0 0.016694047834406405 0.0079266539454889897 0 0.016286939123221017 0.0079535302909069915 0 0.014301378538032735 0.0061332662984881162 0 0.01443554018305673 0.0061312482925562238 0 0.014310422823438742 0.0060419640527047992 0 0.014301378538032735 0.0061332662984881162 0 0.01443554018305673 0.0061312482925562238 0 0.014382555067078327 0.0061936399396040863 0 0.015434109817253903 0.0059403726765505701 0 0.015658560289127644 0.006567495858444997 0 0.014311362858189593 0.0062219161944855848 0 0.014301378538032735 0.0061332662984881162 0 0.014382555067078327 0.0061936399396040863 0 0.015731170631057164 0.0070413201618077046 0 0.015658560289127644 0.006567495858444997 0 0.015793359061541619 0.0067495907168841985 0 0.015795448815739931 0.0068235498003435483 0 0.01589415532225474 0.0067074857410065651 0 0.016447910579250071 0.006976566796152388 0 0.015658560289127644 0.006567495858444997 0 0.016394169378634724 0.0065669409136653303 0 0.016388904431037073 0.0065716469530255409 0 0.016405300123606088 0.0065792446102894281 0 0.016281754494480327 0.0061448403512203448 0 0.016874878554619794 0.0064607215571332623 0 0.016402496109345542 0.0065651572463658351 0 0.016394169378634724 0.0065669409136653303 0 0.016405300123606088 0.0065792446102894281 0 0.016234700051340145 0.0054946966838191154 0 0.016178106005616252 0.0057407926331668468 0 0.016068215646005964 0.0056849285189358202 0 0.015986743528154997 0.0061814299753960491 0 0.015696084169457288 0.0063011171314927492 0 0.015856923899701714 0.0061151309909105184 0 0.015434109817253903 0.0059403726765505701 0 0.016281754494480327 0.0061448403512203448 0 0.015658560289127644 0.006567495858444997 0 0.016281754494480327 0.0061448403512203448 0 0.0167404026024724 0.0054243203505540327 0 0.016281754494480327 0.0061448403512203448 0 0.017112347648213726 0.0062428758552655651 0 0.0170549637057032 0.0060374568055212323 0 0.016940309862570741 0.0060457303595530046 0 0.017247083991745703 0.0060883352044944269 0 0.017112347648213726 0.0062428758552655651 0 0.0170549637057032 0.0060374568055212323 0 0.017112347648213726 0.0062428758552655651 0 0.016940309862570741 0.0060457303595530046 0 0.016826784605784368 0.0061011923233010622 0 0.016940309862570741 0.0060457303595530046 0 0.01682208502208412 0.0060176118207911876 0 0.016826784605784368 0.0061011923233010622 0 0.01682208502208412 0.0060176118207911876 0 0.01682505025246302 0.0061015486867730447 0 0.016350177296725527 0.0058771691728366866 0 0.017369001131388024 0.006639704072606634 0 0.017078190327054685 0.0068969280417807239 0 0.016705560957734261 0.00627832290173886 0 0.016864621818194713 0.0062872176794457968 0 0.016874878554619794 0.0064607215571332623 0 0.017381255616397216 0.0071348833429877587 0 0.017369001131388024 0.006639704072606634 0 0.017078190327054685 0.0068969280417807239 0 0.016447910579250071 0.006976566796152388 0 0.016874878554619794 0.0064607215571332623 0 0.016874878554619794 0.0064607215571332623 0 0.016550671665450399 0.0060789934199699143 0 0.01682208502208412 0.0060176118207911876 0 0.016622332079587673 0.0056826620945908237 0 0.016350177296725527 0.0058771691728366866 0 0.01682208502208412 0.0060176118207911876 0 0.016622332079587673 0.0056826620945908237 0 0.016986133615098646 0.005741242673420013 0 0.016805053484488401 0.0051416265380208326 0 0.016806957379644993 0.0051254431543318645 0 0.016804395217438102 0.0051793287740084524 0 0.017247083991745703 0.0060883352044944269 0 0.0170549637057032 0.0060374568055212323 0 0.016986133615098646 0.005741242673420013 0 0.0167404026024724 0.0054243203505540327 0 0.016921069140865171 0.0055011758473582527 0 0.016940309862570741 0.0060457303595530046 0 0.01682208502208412 0.0060176118207911876 0 0.016986133615098646 0.005741242673420013 0 0.0170549637057032 0.0060374568055212323 0 0.016940309862570741 0.0060457303595530046 0 0.016986133615098646 0.005741242673420013 0 0.016805053484488401 0.0051416265380208326 0 0.016804395217438102 0.0051793287740084524 0 0.016806795260489338 0.0051852406071690527 0 0.016804395217438102 0.0051793287740084524 0 0.016806795260489338 0.0051852406071690527 0 0.016674320303904835 0.0053120703482396475 0 0.016806795260489338 0.0051852406071690527 0 0.016832268279352674 0.0051288952105106537 0 0.016674320303904835 0.0053120703482396475 0 0.016840815289035152 0.0051395101358744097 0 0.016806795260489338 0.0051852406071690527 0 0.016832268279352674 0.0051288952105106537 0 0.016622332079587673 0.0056826620945908237 0 0.016674320303904835 0.0053120703482396475 0 0.016333074250427182 0.0054268718206619375 0 0.016505967486693352 0.0050692407661545877 0 0.016674320303904835 0.0053120703482396475 0 0.016333074250427182 0.0054268718206619375 0 0.016622332079587673 0.0056826620945908237 0 0.016986133615098646 0.005741242673420013 0 0.016674320303904835 0.0053120703482396475 0 0.016921069140865171 0.0055011758473582527 0 0.016682492492351344 0.0052873404843567827 0 0.016333074250427182 0.0054268718206619375 0 0.015952722103983248 0.0058502803990241369 0 0.016350177296725527 0.0058771691728366866 0 0.015952722103983248 0.0058502803990241369 0 0.01559380165223267 0.0054012832421463271 0 0.015980961964110769 0.0052085666883873753 0 0.016333074250427182 0.0054268718206619375 0 0.015952722103983248 0.0058502803990241369 0 0.015980961964110769 0.0052085666883873753 0 0.015952722103983248 0.0058502803990241369 0 0.016086539688295803 0.006399187230457304 0 0.016705560957734261 0.00627832290173886 0 0.015971639425882034 0.005847575617666345 0 0.016550671665450399 0.0060789934199699143 0 0.016622332079587673 0.0056826620945908237 0 0.016333074250427182 0.0054268718206619375 0 0.016350177296725527 0.0058771691728366866 0 0.016705560957734261 0.00627832290173886 0 0.016695253080334062 0.0068322990088426168 0 0.016337898766173267 0.0067992610105104935 0 0.017078190327054685 0.0068969280417807239 0 0.016705560957734261 0.00627832290173886 0 0.016695253080334062 0.0068322990088426168 0 0.017078190327054685 0.0068969280417807239 0 0.016695253080334062 0.0068322990088426168 0 0.016664891213832682 0.0070837006211623864 0 0.016695253080334062 0.0068322990088426168 0 0.016337898766173267 0.0067992610105104935 0 0.016664891213832682 0.0070837006211623864 0 0.016086539688295803 0.006399187230457304 0 0.016705560957734261 0.00627832290173886 0 0.016337898766173267 0.0067992610105104935 0 0.016086539688295803 0.006399187230457304 0 0.015934282316599539 0.0068493574881650929 0 0.016337898766173267 0.0067992610105104935 0 0.015934282316599539 0.0068493574881650929 0 0.016337898766173267 0.0067992610105104935 0 0.016294406481781983 0.0071835315250310151 0 0.015934282316599539 0.0068493574881650929 0 0.016294406481781983 0.0071835315250310151 0 0.015948193098476775 0.0073283365087081073 0 0.016294406481781983 0.0071835315250310151 0 0.015948193098476775 0.0073283365087081073 0 0.016404557879651765 0.0075263460364952415 0 0.016294406481781983 0.0071835315250310151 0 0.016586911612960969 0.0073654139325151444 0 0.016404557879651765 0.0075263460364952415 0 0.016505387501115503 0.0074520211382131437 0 0.016221222807389322 0.0077191090400171728 0 0.016586911612960969 0.0073654139325151444 0 0.016895538187215259 0.0073339457546018876 0 0.016402464198200361 0.0075337352991400597 0 0.016586911612960969 0.0073654139325151444 0 0.016895538187215259 0.0073339457546018876 0 0.016664891213832682 0.0070837006211623864 0 0.016623482689305052 0.0076149944004793137 0 0.016221222807389322 0.0077191090400171728 0 0.017078190327054685 0.0068969280417807239 0 0.016895538187215259 0.0073339457546018876 0 0.016664891213832682 0.0070837006211623864 0 0.016294406481781983 0.0071835315250310151 0 0.016586911612960969 0.0073654139325151444 0 0.016664891213832682 0.0070837006211623864 0 0.016337898766173267 0.0067992610105104935 0 0.016294406481781983 0.0071835315250310151 0 0.016664891213832682 0.0070837006211623864 0 0.014999980636102677 0.0071949503544159457 0 0.015487892866609005 0.0070595289313966471 0 0.015340850153062958 0.0076007644487197691 0 0.015634312766500322 0.0074441620464734265 0 0.015487892866609005 0.0070595289313966471 0 0.015340850153062958 0.0076007644487197691 0 0.015948193098476775 0.0073283365087081073 0 0.015634312766500322 0.0074441620464734265 0 0.015487892866609005 0.0070595289313966471 0 0.015934282316599539 0.0068493574881650929 0 0.015948193098476775 0.0073283365087081073 0 0.015487892866609005 0.0070595289313966471 0 0.015934282316599539 0.0068493574881650929 0 0.015487892866609005 0.0070595289313966471 0 0.01555140505584914 0.006233080497400045 0 0.016086539688295803 0.006399187230457304 0 0.015934282316599539 0.0068493574881650929 0 0.01555140505584914 0.006233080497400045 0 0.014999980636102677 0.0071949503544159457 0 0.015487892866609005 0.0070595289313966471 0 0.014999942502635989 0.0063787750155777905 0 0.015487892866609005 0.0070595289313966471 0 0.014999942502635989 0.0063787750155777905 0 0.01555140505584914 0.006233080497400045 0 0.015952722103983248 0.0058502803990241369 0 0.016086539688295803 0.006399187230457304 0 0.01555140505584914 0.006233080497400045 0 0.015952722103983248 0.0058502803990241369 0 0.01555140505584914 0.006233080497400045 0 0.01559380165223267 0.0054012832421463271 0 0.014999942502635989 0.0063787750155777905 0 0.01555140505584914 0.006233080497400045 0 0.014999950447391662 0.0055626859888593758 0 0.01555140505584914 0.006233080497400045 0 0.014999950447391662 0.0055626859888593758 0 0.01559380165223267 0.0054012832421463271 0 0.014999972882720602 0.004746715166740953 0 0.01559380165223267 0.0054012832421463271 0 0.015798477948103129 0.0047378280435606719 0 0.014999950447391662 0.0055626859888593758 0 0.014999972882720602 0.004746715166740953 0 0.01559380165223267 0.0054012832421463271 0 0.01559380165223267 0.0054012832421463271 0 0.015980961964110769 0.0052085666883873753 0 0.015798477948103129 0.0047378280435606719 0 0.016505967486693352 0.0050692407661545877 0 0.016333074250427182 0.0054268718206619375 0 0.016233066838026184 0.0049103749287532743 0 0.016333074250427182 0.0054268718206619375 0 0.015980961964110769 0.0052085666883873753 0 0.016233066838026184 0.0049103749287532743 0 0.016496341896629036 0.0047159743002768845 0 0.016505967486693352 0.0050692407661545877 0 0.016233066838026184 0.0049103749287532743 0 0.016496341896629036 0.0047159743002768845 0 0.016233066838026184 0.0049103749287532743 0 0.016215833782768283 0.0045208824458521741 0 0.015980961964110769 0.0052085666883873753 0 0.016233066838026184 0.0049103749287532743 0 0.015798477948103129 0.0047378280435606719 0 0.016233066838026184 0.0049103749287532743 0 0.015798477948103129 0.0047378280435606719 0 0.016215833782768283 0.0045208824458521741 0 0.015798477948103129 0.0047378280435606719 0 0.016215833782768283 0.0045208824458521741 0 0.015986624174000243 0.0041655699748473418 0 0.016478109649130358 0.0042477456868646587 0 0.016496341896629036 0.0047159743002768845 0 0.016215833782768283 0.0045208824458521741 0 0.016478109649130358 0.0042477456868646587 0 0.016215833782768283 0.0045208824458521741 0 0.015986624174000243 0.0041655699748473418 0 0.016478109649130358 0.0042477456868646587 0 0.016300259632604733 0.0038542097966186468 0 0.015986624174000243 0.0041655699748473418 0 0.015611838341483201 0.0036799855311406356 0 0.015986624174000243 0.0041655699748473418 0 0.016004797261199442 0.0037719221205574768 0 0.016300259632604733 0.0038542097966186468 0 0.015986624174000243 0.0041655699748473418 0 0.016004797261199442 0.0037719221205574768 0 0.014999972882720602 0.004746715166740953 0 0.015798477948103129 0.0047378280435606719 0 0.015436254736402241 0.0042742111256625012 0 0.015611838341483201 0.0036799855311406356 0 0.015986624174000243 0.0041655699748473418 0 0.015436254736402241 0.0042742111256625012 0 0.015611838341483201 0.0036799855311406356 0 0.014999939502240359 0.0039307014550381218 0 0.015436254736402241 0.0042742111256625012 0 0.014999972882720602 0.004746715166740953 0 0.014999939502240359 0.0039307014550381218 0 0.015436254736402241 0.0042742111256625012 0 0.015798477948103129 0.0047378280435606719 0 0.015986624174000243 0.0041655699748473418 0 0.015436254736402241 0.0042742111256625012 0 0.015001071492547006 0.010712282882907535 0 0.014999571566236609 0.010529833309000388 0 0.015032374847621505 0.010269508461997236 0 0.015001071492547006 0.010712282882907535 0 0.014999571566236609 0.010529833309000388 0 0.01494655111165178 0.011198152648101862 0 0.014999571566236609 0.010529833309000388 0 0.01494655111165178 0.011198152648101862 0 0.01499958263849715 0.011380309663872452 0 0.015001071492547006 0.010712282882907535 0 0.01494655111165178 0.011198152648101862 0 0.014844556719650129 0.011307302298303106 0 0.01494655111165178 0.011198152648101862 0 0.014844556719650129 0.011307302298303106 0 0.014791489851816143 0.011575186081982903 0 0.014844556719650129 0.011307302298303106 0 0.014702638780073655 0.011561542040752614 0 0.014905677494217208 0.01119575450639114 0 0.014905677494217208 0.01119575450639114 0 0.014940965778028302 0.010961137585559649 0 0.015024708927272061 0.010617283191820487 0 0.015001071492547006 0.010712282882907535 0 0.014940965778028302 0.010961137585559649 0 0.015024708927272061 0.010617283191820487 0 0.015001071492547006 0.010712282882907535 0 0.014844556719650129 0.011307302298303106 0 0.014940965778028302 0.010961137585559649 0 0.014844556719650129 0.011307302298303106 0 0.014905677494217208 0.01119575450639114 0 0.014940965778028302 0.010961137585559649 0 0.015001071492547006 0.010712282882907535 0 0.015024708927272061 0.010617283191820487 0 0.015104281340683321 0.010172227174737985 0 0.015024708927272061 0.010617283191820487 0 0.015153642358903327 0.010452211237998898 0 0.015037512364009506 0.010979884411593229 0 0.014905677494217208 0.01119575450639114 0 0.015024708927272061 0.010617283191820487 0 0.015037512364009506 0.010979884411593229 0 0.01511787327788326 0.010066233994694543 0 0.015160490122829124 0.010132740729208792 0 0.015153642358903327 0.010452211237998898 0 0.015024708927272061 0.010617283191820487 0 0.01511787327788326 0.010066233994694543 0 0.015153642358903327 0.010452211237998898 0 0.015024708927272061 0.010617283191820487 0 0.015104281340683321 0.010172227174737985 0 0.01511787327788326 0.010066233994694543 0 0.015104281340683321 0.010172227174737985 0 0.014999728051336581 0.0096784975875218483 0 0.01523047205916489 0.0096746257456541331 0 0.015104281340683321 0.010172227174737985 0 0.01523047205916489 0.0096746257456541331 0 0.01511787327788326 0.010066233994694543 0 0.015001071492547006 0.010712282882907535 0 0.015104281340683321 0.010172227174737985 0 0.015032374847621505 0.010269508461997236 0 0.015104281340683321 0.010172227174737985 0 0.015032374847621505 0.010269508461997236 0 0.014999728051336581 0.0096784975875218483 0 0.014999571566236609 0.010529833309000388 0 0.015032374847621505 0.010269508461997236 0 0.014999728051336581 0.0096784975875218483 0 0.014999728051336581 0.0096784975875218483 0 0.014999563236847094 0.0088284899897372315 0 0.015115928818047521 0.0091299895368813274 0 0.014999728051336581 0.0096784975875218483 0 0.01523047205916489 0.0096746257456541331 0 0.015115928818047521 0.0091299895368813274 0 0.01523047205916489 0.0096746257456541331 0 0.015115928818047521 0.0091299895368813274 0 0.015616413575775295 0.0091514057335685597 0 0.01525252989536546 0.0096581985591768643 0 0.015330179096343353 0.0095970725988489807 0 0.01541599413438764 0.0089021796310995386 0 0.015115928818047521 0.0091299895368813274 0 0.015616413575775295 0.0091514057335685597 0 0.01541599413438764 0.0089021796310995386 0 0.015115928818047521 0.0091299895368813274 0 0.015141839672309929 0.008888511905349521 0 0.014999998390930172 0.008827088221544533 0 0.015306333614312729 0.0082699600186484836 0 0.015455316651847103 0.0083938082104299139 0 0.015000043541562535 0.0088271084494520296 0 0.01529800176012573 0.008625889578997693 0 0.014999563236847094 0.0088284899897372315 0 0.015115928818047521 0.0091299895368813274 0 0.015141839672309929 0.008888511905349521 0 0.014999998390930172 0.008827088221544533 0 0.015153536407502643 0.0080485936843374371 0 0.015306333614312729 0.0082699600186484836 0 0.014999998390930172 0.008827088221544533 0 0.014999986175174687 0.0080110373656669277 0 0.015153536407502643 0.0080485936843374371 0 0.015153536407502643 0.0080485936843374371 0 0.015306333614312729 0.0082699600186484836 0 0.015514436839402568 0.0080940350103818181 0 0.015306333614312729 0.0082699600186484836 0 0.015455316651847103 0.0083938082104299139 0 0.015514436839402568 0.0080940350103818181 0 0.015153536407502643 0.0080485936843374371 0 0.015514436839402568 0.0080940350103818181 0 0.015742832256246841 0.0078352826932428406 0 0.01541599413438764 0.0089021796310995386 0 0.015141839672309929 0.008888511905349521 0 0.01548386781396693 0.008517615477073158 0 0.01529800176012573 0.008625889578997693 0 0.015656947513235146 0.0082832608262366266 0 0.015455316651847103 0.0083938082104299139 0 0.015514436839402568 0.0080940350103818181 0 0.015880824839011612 0.00799079253498481 0 0.015182620716911014 0.0080380411929704184 0 0.01577320868807864 0.0077932272459564373 0 0.015514436839402568 0.0080940350103818181 0 0.015742832256246841 0.0078352826932428406 0 0.015880824839011612 0.00799079253498481 0 0.015948193098476775 0.0073283365087081073 0 0.015634312766500322 0.0074441620464734265 0 0.0157612047496451 0.0077826732271270779 0 0.015634312766500322 0.0074441620464734265 0 0.0157612047496451 0.0077826732271270779 0 0.015340850153062958 0.0076007644487197691 0 0.015153536407502643 0.0080485936843374371 0 0.0157612047496451 0.0077826732271270779 0 0.015340850153062958 0.0076007644487197691 0 0.014999980636102677 0.0071949503544159457 0 0.014999986175174687 0.0080110373656669277 0 0.015340850153062958 0.0076007644487197691 0 0.014999986175174687 0.0080110373656669277 0 0.015153536407502643 0.0080485936843374371 0 0.015340850153062958 0.0076007644487197691 0 0.016286939123221017 0.0079535302909069915 0 0.015886437046070685 0.0081242456342828367 0 0.016308081044562328 0.0083802805399644763 0 0.015927361628163092 0.0084744766793052387 0 0.015886437046070685 0.0081242456342828367 0 0.016308081044562328 0.0083802805399644763 0 0.015742832256246841 0.0078352826932428406 0 0.016286897790294474 0.0076219819988539647 0 0.015880824839011612 0.00799079253498481 0 0.01577320868807864 0.0077932272459564373 0 0.016221222807389322 0.0077191090400171728 0 0.015927361628163092 0.0084744766793052387 0 0.015886437046070685 0.0081242456342828367 0 0.01548386781396693 0.008517615477073158 0 0.016221222807389322 0.0077191090400171728 0 0.015656947513235146 0.0082832608262366266 0 0.015948193098476775 0.0073283365087081073 0 0.0157612047496451 0.0077826732271270779 0 0.016404557879651765 0.0075263460364952415 0 0.015669389083160651 0.0087068272093409997 0 0.015904675473368775 0.008815989057533247 0 0.015616413575775295 0.0091514057335685597 0 0.015927361628163092 0.0084744766793052387 0 0.015669389083160651 0.0087068272093409997 0 0.015924418868085058 0.0088230297633604977 0 0.015927361628163092 0.0084744766793052387 0 0.015669389083160651 0.0087068272093409997 0 0.01548386781396693 0.008517615477073158 0 0.01541599413438764 0.0089021796310995386 0 0.015669389083160651 0.0087068272093409997 0 0.01548386781396693 0.008517615477073158 0 0.015761393442960941 0.0088292681067574808 0 0.015364902707321954 0.0088035855567065151 0 0.015364902707321954 0.0088035855567065151 0 0.015762024637199532 0.0080176145771820601 0 0.014654536418897865 0.0082227972575335054 0 0.015301096780946988 0.0079951665543084999 0 0.015146003418402389 0.007648979160002135 0 0.015927361628163092 0.0084744766793052387 0 0.015924418868085058 0.0088230297633604977 0 0.016308081044562328 0.0083802805399644763 0 0.014654536418897865 0.0082227972575335054 0 0.015180667382089823 0.0083578829489982121 0 0.015301096780946988 0.0079951665543084999 0 0.015364902707321954 0.0088035855567065151 0 0.015196204671393749 0.0091740346789969431 0 0.014654536418897865 0.0082227972575335054 0 0.015139939262861965 0.0084447898888423516 0 0.015180667382089823 0.0083578829489982121 0 0.015144332524910471 0.0098951879587766012 0 0.015151610883523934 0.0099902674058396194 0 0.015235586435974943 0.0099188955333757087 0 0.015151610883523934 0.0099902674058396194 0 0.015243244058345061 0.010023010052091596 0 0.015235586435974943 0.0099188955333757087 0 0.01541599413438764 0.0089021796310995386 0 0.015669389083160651 0.0087068272093409997 0 0.015616413575775295 0.0091514057335685597 0 0.015144332524910471 0.0098951879587766012 0 0.015151610883523934 0.0099902674058396194 0 0.015118911915282156 0.0099430034125066232 0 0.015364902707321954 0.0088035855567065151 0 0.015330179096343353 0.0095970725988489807 0 0.01523047205916489 0.0096746257456541331 0 0.015118911915282156 0.0099430034125066232 0 0.01511787327788326 0.010066233994694543 0 0.015151610883523934 0.0099902674058396194 0 0.015118911915282156 0.0099430034125066232 0 0.01511787327788326 0.010066233994694543 0 0.015151610883523934 0.0099902674058396194 0 0.01511787327788326 0.010066233994694543 0 0.015160490122829124 0.010132740729208792 0 0.015151610883523934 0.0099902674058396194 0 0.015160490122829124 0.010132740729208792 0 0.015243244058345061 0.010023010052091596 0 0.015315571139280849 0.010117535469928269 0 0.015424180286170281 0.0099682494722160616 0 0.015449988505975129 0.010305159402389697 0 0.015160490122829124 0.010132740729208792 0 0.015315571139280849 0.010117535469928269 0 0.015153642358903327 0.010452211237998898 0 0.015160490122829124 0.010132740729208792 0 0.015315571139280849 0.010117535469928269 0 0.015243244058345061 0.010023010052091596 0 0.014538475633320171 0.016205589922373646 0 0.012980423492111919 0.015156806841555143 0 0.013733089651060165 0.014821204017316408 0 0.01484188646182447 0.0093731993525507876 0 0.015036757942281391 0.013290458199428043 0 0.014538475633320171 0.016205589922373646 0 0.014557884910134043 0.014805310905023222 0 0.013733089651060165 0.014821204017316408 0 0.01484188646182447 0.0093731993525507876 0 0.014001184604211602 0.011030994968348053 0 0.015513011951930486 0.0068521713124409999 0 0.014861493723553599 0.0064638514090748925 0 0.014762666553137864 0.0062014810924814357 0 0.01484188646182447 0.0093731993525507876 0 0.014420169363484385 0.0058612401197929466 0 0.014407405017804204 0.0057982897533608371 0 0.014338622993972108 0.0058101515570130194 0 0.014252726746791077 0.0057146342180974157 0 0.015680192034761752 0.0086929296885793726 0 0.01562461502772646 0.0086671303877071653 0 0.015663478641102253 0.0078818398713892904 0 0.014407405017804204 0.0057982897533608371 0 0.014338622993972108 0.0058101515570130194 0 0.014416769818860888 0.0059571741658234079 0 0.014338622993972108 0.0058101515570130194 0 0.014276271999197045 0.0057927155918045111 0 0.014252726746791077 0.0057146342180974157 0 0.01484188646182447 0.0093731993525507876 0 0.015207371117536119 0.0092650950454490327 0 0.014338622993972108 0.0058101515570130194 0 0.014297933836597552 0.0058571639651634018 0 0.014276271999197045 0.0057927155918045111 0 0.01562461502772646 0.0086671303877071653 0 0.015180667382089823 0.0083578829489982121 0 0.015301096780946988 0.0079951665543084999 0 0.015243244058345061 0.010023010052091596 0 0.015401197146298853 0.009960632845067716 0 0.015235586435974943 0.0099188955333757087 0 0.015315571139280849 0.010117535469928269 0 0.015424180286170281 0.0099682494722160616 0 0.015401197146298853 0.009960632845067716 0 0.015315571139280849 0.010117535469928269 0 0.015243244058345061 0.010023010052091596 0 0.015401197146298853 0.009960632845067716 0 0.015207371117536119 0.0092650950454490327 0 0.015215212509638193 0.0084360008836814014 0 0.015207371117536119 0.0092650950454490327 0 0.015196204671393749 0.0091740346789969431 0 0.015626782301488257 0.0086917362420467006 0 0.015139939262861965 0.0084447898888423516 0 0.015180667382089823 0.0083578829489982121 0 0.01562461502772646 0.0086671303877071653 0 0.015301096780946988 0.0079951665543084999 0 0.015663478641102253 0.0078818398713892904 0 0.015301096780946988 0.0079951665543084999 0 0.015663478641102253 0.0078818398713892904 0 0.015146003418402389 0.007648979160002135 0 0.01484188646182447 0.0093731993525507876 0 0.014988186522219796 0.0063998288517607242 0 0.014338622993972108 0.0058101515570130194 0 0.014297933836597552 0.0058571639651634018 0 0.014416769818860888 0.0059571741658234079 0 0.014297933836597552 0.0058571639651634018 0 0.014416769818860888 0.0059571741658234079 0 0.014294983476976646 0.0059443902478158424 0 0.01443554018305673 0.0061312482925562238 0 0.014416769818860888 0.0059571741658234079 0 0.014310422823438742 0.0060419640527047992 0 0.014416769818860888 0.0059571741658234079 0 0.014310422823438742 0.0060419640527047992 0 0.014294983476976646 0.0059443902478158424 0 0.016694047834406405 0.0079266539454889897 0 0.016286939123221017 0.0079535302909069915 0 0.016308081044562328 0.0083802805399644763 0 0.015731170631057164 0.0070413201618077046 0 0.015762024637199532 0.0080176145771820601 0 0.015644229892090029 0.0070741960048919476 0 0.015663478641102253 0.0078818398713892904 0 0.015146003418402389 0.007648979160002135 0 0.015731170631057164 0.0070413201618077046 0 0.014988186522219796 0.0063998288517607242 0 0.01409236215268236 0.0060465377093808382 0 0.01413603204152075 0.0059389391947687262 0 0.014022526060302321 0.0059225472356049108 0 0.01409236215268236 0.0060465377093808382 0 0.014194677996609381 0.0060547139406171586 0 0.01413603204152075 0.0059389391947687262 0 0.014301378538032735 0.0061332662984881162 0 0.014310422823438742 0.0060419640527047992 0 0.014194677996609381 0.0060547139406171586 0 0.014310422823438742 0.0060419640527047992 0 0.014194677996609381 0.0060547139406171586 0 0.014229111737099617 0.0059789065896158925 0 0.014310422823438742 0.0060419640527047992 0 0.014229111737099617 0.0059789065896158925 0 0.014294983476976646 0.0059443902478158424 0 0.014194677996609381 0.0060547139406171586 0 0.014229111737099617 0.0059789065896158925 0 0.01413603204152075 0.0059389391947687262 0 0.014229111737099617 0.0059789065896158925 0 0.014218591972168846 0.0058862228871851829 0 0.01413603204152075 0.0059389391947687262 0 0.014229111737099617 0.0059789065896158925 0 0.014294983476976646 0.0059443902478158424 0 0.014218591972168846 0.0058862228871851829 0 0.014297933836597552 0.0058571639651634018 0 0.014294983476976646 0.0059443902478158424 0 0.014218591972168846 0.0058862228871851829 0 0.01413603204152075 0.0059389391947687262 0 0.014069844770613547 0.0058637151031385101 0 0.014134488998557021 0.0058395262294800559 0 0.01413603204152075 0.0059389391947687262 0 0.014069844770613547 0.0058637151031385101 0 0.014022526060302321 0.0059225472356049108 0 0.014218591972168846 0.0058862228871851829 0 0.01413603204152075 0.0059389391947687262 0 0.014134488998557021 0.0058395262294800559 0 0.014069844770613547 0.0058637151031385101 0 0.014043437161141174 0.0057840874509591661 0 0.014134488998557021 0.0058395262294800559 0 0.014043437161141174 0.0057840874509591661 0 0.014134488998557021 0.0058395262294800559 0 0.014122958530083987 0.0057743390096939799 0 0.014134488998557021 0.0058395262294800559 0 0.014122958530083987 0.0057743390096939799 0 0.014210777003411317 0.0057953283611490627 0 0.014122958530083987 0.0057743390096939799 0 0.014070628885184877 0.0057344218841309334 0 0.014143830973852743 0.0057363165510804885 0 0.014043437161141174 0.0057840874509591661 0 0.014122958530083987 0.0057743390096939799 0 0.014070628885184877 0.0057344218841309334 0 0.014043437161141174 0.0057840874509591661 0 0.014070628885184877 0.0057344218841309334 0 0.013991435334511755 0.0057130262949413859 0 0.014297933836597552 0.0058571639651634018 0 0.014210777003411317 0.0057953283611490627 0 0.014276271999197045 0.0057927155918045111 0 0.014297933836597552 0.0058571639651634018 0 0.014218591972168846 0.0058862228871851829 0 0.014210777003411317 0.0057953283611490627 0 0.014218591972168846 0.0058862228871851829 0 0.014134488998557021 0.0058395262294800559 0 0.014210777003411317 0.0057953283611490627 0 0.014122958530083987 0.0057743390096939799 0 0.014210777003411317 0.0057953283611490627 0 0.014143830973852743 0.0057363165510804885 0 0.014210777003411317 0.0057953283611490627 0 0.014252726746791077 0.0057146342180974157 0 0.014143830973852743 0.0057363165510804885 0 0.014210777003411317 0.0057953283611490627 0 0.014276271999197045 0.0057927155918045111 0 0.014252726746791077 0.0057146342180974157 0 0.014420169363484385 0.0058612401197929466 0 0.014237934847653021 0.0059042087502877219 0 0.014252726746791077 0.0057146342180974157 0 0.014143830973852743 0.0057363165510804885 0 0.014081185405722675 0.0056678670336285054 0 0.014861493723553599 0.0064638514090748925 0 0.014762666553137864 0.0062014810924814357 0 0.014288957654409155 0.0060827365544731072 0 0.014070628885184877 0.0057344218841309334 0 0.014081185405722675 0.0056678670336285054 0 0.013991435334511755 0.0057130262949413859 0 0.014070628885184877 0.0057344218841309334 0 0.014143830973852743 0.0057363165510804885 0 0.014081185405722675 0.0056678670336285054 0 0.014288957654409155 0.0060827365544731072 0 0.014128299027632185 0.0056813672610504387 0 0.013945207908281944 0.005697826378824062 0 0.014762666553137864 0.0062014810924814357 0 0.014288957654409155 0.0060827365544731072 0 0.014128299027632185 0.0056813672610504387 0 0.012008696987892543 0.014506961001760223 0 0.012259651485507745 0.014373950426160484 0 0.012981516959675537 0.014368651265862863 0 0.014001184604211602 0.011030994968348053 0 0.013034008013722531 0.010052945034224615 0 0.012008696987892543 0.014506961001760223 0 0.012259651485507745 0.014373950426160484 0 0.011911286553952198 0.014502963420852744 0 0.012975463879454299 0.014392867441344362 0 0.012891309135501877 0.013306755604025715 0 0.012259651485507745 0.014373950426160484 0 0.012981516959675537 0.014368651265862863 0 0.011969916719948275 0.014424438552710478 0 0.012981516959675537 0.014368651265862863 0 0.014786705847985851 0.013130201959643532 0 0.013759435145486091 0.011966027683373848 0 0.012980423492111919 0.015156806841555143 0 0.012008696987892543 0.014506961001760223 0 0.012981516959675537 0.014368651265862863 0 0.012980423492111919 0.015156806841555143 0 0.012981516959675537 0.014368651265862863 0 0.013733089651060165 0.014821204017316408 0 0.015036757942281391 0.013290458199428043 0 0.015026262628504846 0.01179688043588009 0 0.012981516959675537 0.014368651265862863 0 0.013733089651060165 0.014821204017316408 0 0.014786705847985851 0.013130201959643532 0 0.014557884910134043 0.014805310905023222 0 0.013733089651060165 0.014821204017316408 0 0.014786705847985851 0.013130201959643532 0 0.015315571139280849 0.010117535469928269 0 0.015449988505975129 0.010305159402389697 0 0.015153642358903327 0.010452211237998898 0 0.015449988505975129 0.010305159402389697 0 0.015153642358903327 0.010452211237998898 0 0.015367490323700722 0.010820616146637686 0 0.015153642358903327 0.010452211237998898 0 0.015037512364009506 0.010979884411593229 0 0.015367490323700722 0.010820616146637686 0 0.015037512364009506 0.010979884411593229 0 0.015367490323700722 0.010820616146637686 0 0.01483617028257894 0.011664772144735772 0 0.014786705847985851 0.013130201959643532 0 0.01483617028257894 0.011664772144735772 0 0.013759435145486091 0.011966027683373848 0 0.01483617028257894 0.011664772144735772 0 0.014586596204970166 0.011622925954677428 0 0.013759435145486091 0.011966027683373848 0 0.015026262628504846 0.01179688043588009 0 0.014901918093011586 0.011703021781923719 0 0.014905677494217208 0.01119575450639114 0 0.015037512364009506 0.010979884411593229 0 0.01483617028257894 0.011664772144735772 0 0.014702638780073655 0.011561542040752614 0 0.014905677494217208 0.01119575450639114 0 0.01483617028257894 0.011664772144735772 0 0.014702638780073655 0.011561542040752614 0 0.01483617028257894 0.011664772144735772 0 0.014586596204970166 0.011622925954677428 0 0.012891309135501877 0.013306755604025715 0 0.01302323085362973 0.013280102301615509 0 0.014586596204970166 0.011622925954677428 0 0.013759435145486091 0.011966027683373848 0 0.014458635497575312 0.011710535823202329 0 0.011911286553952198 0.014502963420852744 0 0.011679123958914517 0.014922753041266858 0 0.011610026923255943 0.014784283634024885 0 0.011969916719948275 0.014424438552710478 0 0.011911286553952198 0.014502963420852744 0 0.011610026923255943 0.014784283634024885 0 0.012259651485507745 0.014373950426160484 0 0.011969916719948275 0.014424438552710478 0 0.011911286553952198 0.014502963420852744 0 0.011911286553952198 0.014502963420852744 0 0.011768657540107929 0.014752731548713276 0 0.011679123958914517 0.014922753041266858 0 0.01277420213887189 0.010123954675222407 0 0.01286140619414111 0.010073007845383718 0 0.01181227653412331 0.0146278229002915 0 0.011814566506936106 0.014632795652525682 0 0.011851492701957182 0.014547390354278473 0 0.01181227653412331 0.0146278229002915 0 0.011911286553952198 0.014502963420852744 0 0.011768657540107929 0.014752731548713276 0 0.01181227653412331 0.0146278229002915 0 0.011911286553952198 0.014502963420852744 0 0.011851492701957182 0.014547390354278473 0 0.01181227653412331 0.0146278229002915 0 0.011768657540107929 0.014752731548713276 0 0.011756450254494301 0.014793276603152751 0 0.011756450254494301 0.014793276603152751 0 0.011814566506936106 0.014632795652525682 0 0.011861184928026312 0.014724028446585002 0 0.01181227653412331 0.0146278229002915 0 0.011756450254494301 0.014793276603152751 0 0.011814566506936106 0.014632795652525682 0 0.01372781467338849 0.0056169182826045286 0 0.013704282194713464 0.0056203483337760483 0 0.013687592188747282 0.0057090963789780784 0 0.011756450254494301 0.014793276603152751 0 0.011861184928026312 0.014724028446585002 0 0.011765760739047297 0.014892661643868061 0 0.01277420213887189 0.010123954675222407 0 0.012770358253004857 0.010217063306954871 0 0.013774575757076302 0.0055966773975845274 0 0.013737043171592789 0.0055737653374769705 0 0.013825432410460851 0.0056336550381262838 0 0.01372781467338849 0.0056169182826045286 0 0.013774575757076302 0.0055966773975845274 0 0.013737043171592789 0.0055737653374769705 0 0.01372781467338849 0.0056169182826045286 0 0.013737043171592789 0.0055737653374769705 0 0.013704282194713464 0.0056203483337760483 0 0.01372781467338849 0.0056169182826045286 0 0.013774575757076302 0.0055966773975845274 0 0.01385127108130216 0.0055805536717220385 0 0.013737043171592789 0.0055737653374769705 0 0.013825432410460851 0.0056336550381262838 0 0.013808182414687738 0.0056489348969896583 0 0.013825432410460851 0.0056336550381262838 0 0.013945207908281944 0.005697826378824062 0 0.013904904063139536 0.0056962560419382292 0 0.013825432410460851 0.0056336550381262838 0 0.01385127108130216 0.0055805536717220385 0 0.013945207908281944 0.005697826378824062 0 0.013774575757076302 0.0055966773975845274 0 0.013825432410460851 0.0056336550381262838 0 0.01385127108130216 0.0055805536717220385 0 0.012008696987892543 0.014506961001760223 0 0.011911286553952198 0.014502963420852744 0 0.011851492701957182 0.014547390354278473 0 0.013034008013722531 0.010052945034224615 0 0.01286140619414111 0.010073007845383718 0 0.014128299027632185 0.0056813672610504387 0 0.01385127108130216 0.0055805536717220385 0 0.013945207908281944 0.005697826378824062 0 0.014237934847653021 0.0059042087502877219 0 0.013961851444813917 0.0057227789945352731 0 0.014081185405722675 0.0056678670336285054 0 0.013945207908281944 0.005697826378824062 0 0.013991435334511755 0.0057130262949413859 0 0.013945207908281944 0.005697826378824062 0 0.013991435334511755 0.0057130262949413859 0 0.013904904063139536 0.0056962560419382292 0 0.013991435334511755 0.0057130262949413859 0 0.013904904063139536 0.0056962560419382292 0 0.013955945635923684 0.0057634946740730266 0 0.013904904063139536 0.0056962560419382292 0 0.01388607358729658 0.0057451867402341606 0 0.013808182414687738 0.0056489348969896583 0 0.013825432410460851 0.0056336550381262838 0 0.013904904063139536 0.0056962560419382292 0 0.013808182414687738 0.0056489348969896583 0 0.01388607358729658 0.0057451867402341606 0 0.013955945635923684 0.0057634946740730266 0 0.013946273700612374 0.0058458347910252759 0 0.013904904063139536 0.0056962560419382292 0 0.01388607358729658 0.0057451867402341606 0 0.013955945635923684 0.0057634946740730266 0 0.014043437161141174 0.0057840874509591661 0 0.013991435334511755 0.0057130262949413859 0 0.013955945635923684 0.0057634946740730266 0 0.014043437161141174 0.0057840874509591661 0 0.013955945635923684 0.0057634946740730266 0 0.014004805946919698 0.0058381372819853372 0 0.014069844770613547 0.0058637151031385101 0 0.014043437161141174 0.0057840874509591661 0 0.014004805946919698 0.0058381372819853372 0 0.013955945635923684 0.0057634946740730266 0 0.014004805946919698 0.0058381372819853372 0 0.013946273700612374 0.0058458347910252759 0 0.014069844770613547 0.0058637151031385101 0 0.014004805946919698 0.0058381372819853372 0 0.014022526060302321 0.0059225472356049108 0 0.014004805946919698 0.0058381372819853372 0 0.013946273700612374 0.0058458347910252759 0 0.014022526060302321 0.0059225472356049108 0 0.01388607358729658 0.0057451867402341606 0 0.013946273700612374 0.0058458347910252759 0 0.013850537732639657 0.0058575354478388481 0 0.015797346538564676 0.0045794748863216732 0 0.016139450722542824 0.0044460382379426086 0 0.015536936300903937 0.0042454205996896918 0 0.015125654724246753 0.0051917599146258844 0 0.014689405343643288 0.0050602199462378194 0 0.013946273700612374 0.0058458347910252759 0 0.013995683374666805 0.0059829015410873361 0 0.013850537732639657 0.0058575354478388481 0 0.013946273700612374 0.0058458347910252759 0 0.013995683374666805 0.0059829015410873361 0 0.014022526060302321 0.0059225472356049108 0 0.014105812170438072 0.0059884949476644786 0 0.013995683374666805 0.0059829015410873361 0 0.014022526060302321 0.0059225472356049108 0 0.014114427334370083 0.0059729405073702981 0 0.014043035113380556 0.0059430900843859521 0 0.015432020055179024 0.0046932826767240327 0 0.015797346538564676 0.0045794748863216732 0 0.015536936300903937 0.0042454205996896918 0 0.015432020055179024 0.0046932826767240327 0 0.014975737899822409 0.0044917100516245765 0 0.015536936300903937 0.0042454205996896918 0 0.013850537732639657 0.0058575354478388481 0 0.013745810061923359 0.0057126423173307099 0 0.013801582241332048 0.0057008818077825506 0 0.014975737899822409 0.0044917100516245765 0 0.014784866782057159 0.0041136168687754028 0 0.014508340270770002 0.0044921441030216763 0 0.014689405343643288 0.0050602199462378194 0 0.014283786292036695 0.0049230990061470562 0 0.014975737899822409 0.0044917100516245765 0 0.015536936300903937 0.0042454205996896918 0 0.014784866782057159 0.0041136168687754028 0 0.013745810061923359 0.0057126423173307099 0 0.013801582241332048 0.0057008818077825506 0 0.013736744767733582 0.0055635390399460883 0 0.01388607358729658 0.0057451867402341606 0 0.013801582241332048 0.0057008818077825506 0 0.013808182414687738 0.0056489348969896583 0 0.01388607358729658 0.0057451867402341606 0 0.013850537732639657 0.0058575354478388481 0 0.013801582241332048 0.0057008818077825506 0 0.013737043171592789 0.0055737653374769705 0 0.013808182414687738 0.0056489348969896583 0 0.013736744767733582 0.0055635390399460883 0 0.013801582241332048 0.0057008818077825506 0 0.013808182414687738 0.0056489348969896583 0 0.013736744767733582 0.0055635390399460883 0 0.013736744767733582 0.0055635390399460883 0 0.013688385686287819 0.0054090713241063907 0 0.013688383976709415 0.0055606235019132824 0 0.014283786292036695 0.0049230990061470562 0 0.013924423503297607 0.0048465276878646261 0 0.013745810061923359 0.0057126423173307099 0 0.013736744767733582 0.0055635390399460883 0 0.013688383976709415 0.0055606235019132824 0 0.014784866782057159 0.0041136168687754028 0 0.014127855775150236 0.0041131599323379359 0 0.014508340270770002 0.0044921441030216763 0 0.014127855775150236 0.0041131599323379359 0 0.014017002360054133 0.0045615696910802101 0 0.014508340270770002 0.0044921441030216763 0 0.01418229440950465 0.004797664711669856 0 0.014017002360054133 0.0045615696910802101 0 0.014508340270770002 0.0044921441030216763 0 0.013917037461524265 0.0047896519425470775 0 0.01418229440950465 0.004797664711669856 0 0.014017002360054133 0.0045615696910802101 0 0.014564466445978782 0.0050091379695267717 0 0.014975737899822409 0.0044917100516245765 0 0.014508340270770002 0.0044921441030216763 0 0.014564466445978782 0.0050091379695267717 0 0.01418229440950465 0.004797664711669856 0 0.014508340270770002 0.0044921441030216763 0 0.013592750855750733 0.0046752348625464478 0 0.013698054313553778 0.0047403147053716793 0 0.013738242456825226 0.0046181658491679482 0 0.013592750855750733 0.0046752348625464478 0 0.013573324216342832 0.0047795016730307746 0 0.013698054313553778 0.0047403147053716793 0 0.013592750855750733 0.0046752348625464478 0 0.013573324216342832 0.0047795016730307746 0 0.013504077290637427 0.0047374108161702443 0 0.013653213364448167 0.0048497694800346876 0 0.013573324216342832 0.0047795016730307746 0 0.013698054313553778 0.0047403147053716793 0 0.013778788729418824 0.0047991085446897428 0 0.013698054313553778 0.0047403147053716793 0 0.013822742237223785 0.0047096465664351163 0 0.014017002360054133 0.0045615696910802101 0 0.013822742237223785 0.0047096465664351163 0 0.013738242456825226 0.0046181658491679482 0 0.013917037461524265 0.0047896519425470775 0 0.013778788729418824 0.0047991085446897428 0 0.013822742237223785 0.0047096465664351163 0 0.013917037461524265 0.0047896519425470775 0 0.014017002360054133 0.0045615696910802101 0 0.013822742237223785 0.0047096465664351163 0 0.013698054313553778 0.0047403147053716793 0 0.013822742237223785 0.0047096465664351163 0 0.013738242456825226 0.0046181658491679482 0 0.014127855775150236 0.0041131599323379359 0 0.014017002360054133 0.0045615696910802101 0 0.013774162578483086 0.0044697093670737521 0 0.014017002360054133 0.0045615696910802101 0 0.013738242456825226 0.0046181658491679482 0 0.013774162578483086 0.0044697093670737521 0 0.013774162578483086 0.0044697093670737521 0 0.013596611249874482 0.0045572892836193649 0 0.013587917969901749 0.0044370537642797695 0 0.013738242456825226 0.0046181658491679482 0 0.013774162578483086 0.0044697093670737521 0 0.013596611249874482 0.0045572892836193649 0 0.013592750855750733 0.0046752348625464478 0 0.013738242456825226 0.0046181658491679482 0 0.013596611249874482 0.0045572892836193649 0 0.013592750855750733 0.0046752348625464478 0 0.013596611249874482 0.0045572892836193649 0 0.013478951997528658 0.0046533008609848841 0 0.013596611249874482 0.0045572892836193649 0 0.013587917969901749 0.0044370537642797695 0 0.013459745740911692 0.0045368159047470642 0 0.013774162578483086 0.0044697093670737521 0 0.013587917969901749 0.0044370537642797695 0 0.013726601084720723 0.0043170823099113777 0 0.013562326144077604 0.0043620058611377223 0 0.013726601084720723 0.0043170823099113777 0 0.013619187730317591 0.0042407167420719285 0 0.013587917969901749 0.0044370537642797695 0 0.013562326144077604 0.0043620058611377223 0 0.013726601084720723 0.0043170823099113777 0 0.013562326144077604 0.0043620058611377223 0 0.013452647003546085 0.0044131627552077375 0 0.013473786113194859 0.004434297056910886 0 0.013587917969901749 0.0044370537642797695 0 0.013562326144077604 0.0043620058611377223 0 0.013473786113194859 0.004434297056910886 0 0.014127855775150236 0.0041131599323379359 0 0.013774162578483086 0.0044697093670737521 0 0.013726601084720723 0.0043170823099113777 0 0.014127855775150236 0.0041131599323379359 0 0.013726601084720723 0.0043170823099113777 0 0.013619187730317591 0.0042407167420719285 0 0.013924423503297607 0.0048465276878646261 0 0.013618384043406527 0.0047802900121378623 0 0.013688385686287819 0.0054090713241063907 0 0.013688383976709415 0.0055606235019132824 0 0.01355189100301586 0.0053102448326289922 0 0.013618384043406527 0.0047802900121378623 0 0.013411466633420447 0.0046636436148107582 0 0.013619187730317591 0.0042407167420719285 0 0.013452647003546085 0.0044131627552077375 0 0.013359861487320868 0.0046290962561156574 0 0.013562326144077604 0.0043620058611377223 0 0.013619187730317591 0.0042407167420719285 0 0.013452647003546085 0.0044131627552077375 0 0.013666856546038485 0.0053010539349942435 0 0.013681822064909897 0.0051477756793302815 0 0.013892442709823684 0.0055661507383238011 0 0.013824121114313161 0.0055265819413277866 0 0.01392154263963157 0.0055418820701359168 0 0.013471509642739177 0.0049711710404569771 0 0.013584305537474249 0.0050813437669157604 0 0.013367136665134288 0.0046743569982300968 0 0.01355189100301586 0.0053102448326289922 0 0.013471509642739177 0.0049711710404569771 0 0.013584305537474249 0.0050813437669157604 0 0.01355189100301586 0.0053102448326289922 0 0.013471509642739177 0.0049711710404569771 0 0.013359861487320868 0.0046290962561156574 0 0.013892442709823684 0.0055661507383238011 0 0.013866373285348442 0.0056022646821179412 0 0.013824121114313161 0.0055265819413277866 0 0.013892442709823684 0.0055661507383238011 0 0.013866373285348442 0.0056022646821179412 0 0.013919345763035771 0.0055909390575679951 0 0.013866373285348442 0.0056022646821179412 0 0.013786741442520881 0.0055910615285464137 0 0.013824121114313161 0.0055265819413277866 0 0.013786741442520881 0.0055910615285464137 0 0.013824121114313161 0.0055265819413277866 0 0.013717073732315127 0.0054657715349377915 0 0.013688385686287819 0.0054090713241063907 0 0.01355189100301586 0.0053102448326289922 0 0.013584305537474249 0.0050813437669157604 0 0.013666856546038485 0.0053010539349942435 0 0.013697726079473727 0.0054349160120385947 0 0.013688385686287819 0.0054090713241063907 0 0.013584305537474249 0.0050813437669157604 0 0.013717073732315127 0.0054657715349377915 0 0.013736744767733582 0.0055635390399460883 0 0.013688385686287819 0.0054090713241063907 0 0.013717073732315127 0.0054657715349377915 0 0.013737043171592789 0.0055737653374769705 0 0.013736744767733582 0.0055635390399460883 0 0.013717073732315127 0.0054657715349377915 0 0.013737043171592789 0.0055737653374769705 0 0.013717073732315127 0.0054657715349377915 0 0.013704282194713464 0.0056203483337760483 0 0.013786741442520881 0.0055910615285464137 0 0.013717073732315127 0.0054657715349377915 0 0.013704282194713464 0.0056203483337760483 0 0.013704282194713464 0.0056203483337760483 0 0.013727837963361182 0.0057303183877266796 0 0.013762437218690226 0.00570130814734684 0 0.013786741442520881 0.0055910615285464137 0 0.013704282194713464 0.0056203483337760483 0 0.013762437218690226 0.00570130814734684 0 0.013687592188747282 0.0057090963789780784 0 0.013727837963361182 0.0057303183877266796 0 0.013746990723428542 0.0058325212895412992 0 0.012770358253004857 0.010217063306954871 0 0.01297620326366904 0.010300369953621016 0 0.013704282194713464 0.0056203483337760483 0 0.013687592188747282 0.0057090963789780784 0 0.013727837963361182 0.0057303183877266796 0 0.013727837963361182 0.0057303183877266796 0 0.013753949685170906 0.0058323326408109182 0 0.013746990723428542 0.0058325212895412992 0 0.013727837963361182 0.0057303183877266796 0 0.013753949685170906 0.0058323326408109182 0 0.013762437218690226 0.00570130814734684 0 0.013753949685170906 0.0058323326408109182 0 0.013782010532604569 0.0057711700968023803 0 0.013715833246650388 0.0058915100450349714 0 0.013753949685170906 0.0058323326408109182 0 0.013782010532604569 0.0057711700968023803 0 0.013762437218690226 0.00570130814734684 0 0.013782010532604569 0.0057711700968023803 0 0.01389238728387762 0.0057524143658545549 0 0.013826427433915352 0.0056762146030367678 0 0.013782010532604569 0.0057711700968023803 0 0.01389238728387762 0.0057524143658545549 0 0.013715833246650388 0.0058915100450349714 0 0.013563081420341235 0.0061286583561754723 0 0.013706907205164109 0.0059277347820409065 0 0.013866373285348442 0.0056022646821179412 0 0.013786741442520881 0.0055910615285464137 0 0.013826427433915352 0.0056762146030367678 0 0.01389238728387762 0.0057524143658545549 0 0.013826427433915352 0.0056762146030367678 0 0.013894635021158046 0.0056647823263474128 0 0.013866373285348442 0.0056022646821179412 0 0.013894635021158046 0.0056647823263474128 0 0.013915983709287091 0.0056258495498086487 0 0.013866373285348442 0.0056022646821179412 0 0.013826427433915352 0.0056762146030367678 0 0.013894635021158046 0.0056647823263474128 0 0.013786741442520881 0.0055910615285464137 0 0.013826427433915352 0.0056762146030367678 0 0.013762437218690226 0.00570130814734684 0 0.013782010532604569 0.0057711700968023803 0 0.013826427433915352 0.0056762146030367678 0 0.013762437218690226 0.00570130814734684 0 0.012325962475676569 0.014961975432819533 0 0.012052674130647137 0.014815660326836991 0 0.012153113300716863 0.015118169396962292 0 0.012191414673468494 0.013001259762640405 0 0.012527392438198733 0.013230286170323851 0 0.011146364607546349 0.014050244198575649 0 0.011037445674543584 0.011611761452648956 0 0.010603995237942854 0.015146529337772715 0 0.012583849884569025 0.010628298087076609 0 0.011037445674543584 0.011611761452648956 0 0.012191414673468494 0.013001259762640405 0 0.010981576879615344 0.013938130923914088 0 0.011146364607546349 0.014050244198575649 0 0.012583849884569025 0.010628298087076609 0 0.01131505811252467 0.014737402730853855 0 0.011037445674543584 0.011611761452648956 0 0.0092516963448263812 0.013166613727890157 0 0.0089629100398517323 0.010286385695281003 0 0.0090519829742543266 0.010278426453996414 0 0.0090520466108060769 0.010364525456913838 0 0.0089629100398517323 0.010286385695281003 0 0.0090519829742543266 0.010278426453996414 0 0.0090377311617521865 0.010211638029526184 0 0.01204121340218583 0.0069643385729930554 0 0.012135747083767206 0.0070313488702596922 0 0.012511333850736217 0.006759131425605012 0 0.011037445674543584 0.011611761452648956 0 0.010549154395148594 0.0087316451193658884 0 0.013233324607620514 0.0065766237451047801 0 0.013715833246650388 0.0058915100450349714 0 0.01323975878640705 0.0058896540068197568 0 0.013754305916607128 0.0057554301449541448 0 0.013715833246650388 0.0058915100450349714 0 0.01323975878640705 0.0058896540068197568 0 0.01204121340218583 0.0069643385729930554 0 0.012511333850736217 0.006759131425605012 0 0.01249427575847652 0.0066128982357203953 0 0.012583849884569025 0.010628298087076609 0 0.013180086392989022 0.0057019427662567297 0 0.013753949685170906 0.0058323326408109182 0 0.013754305916607128 0.0057554301449541448 0 0.013715833246650388 0.0058915100450349714 0 0.013753949685170906 0.0058323326408109182 0 0.013754305916607128 0.0057554301449541448 0 0.013746990723428542 0.0058325212895412992 0 0.012583849884569025 0.010628298087076609 0 0.01297620326366904 0.010300369953621016 0 0.011861184928026312 0.014724028446585002 0 0.012052674130647137 0.014815660326836991 0 0.011843507774244155 0.014950022966829025 0 0.012052674130647137 0.014815660326836991 0 0.011956578653766585 0.015065494046497463 0 0.011843507774244155 0.014950022966829025 0 0.011956578653766585 0.015065494046497463 0 0.011843507774244155 0.014950022966829025 0 0.01172893969339479 0.015207063382364664 0 0.012052674130647137 0.014815660326836991 0 0.011956578653766585 0.015065494046497463 0 0.012153113300716863 0.015118169396962292 0 0.010772396244818828 0.015699621095339428 0 0.010497267418694698 0.015584032492957501 0 0.010494610954983915 0.015866003380048468 0 0.010981576879615344 0.013938130923914088 0 0.0098236365433183818 0.014853791352354546 0 0.011146364607546349 0.014050244198575649 0 0.010780663270487373 0.015419949014807371 0 0.010603995237942854 0.015146529337772715 0 0.011956578653766585 0.015065494046497463 0 0.012153113300716863 0.015118169396962292 0 0.011977451143445153 0.015292897385595966 0 0.01131505811252467 0.014737402730853855 0 0.010780663270487373 0.015419949014807371 0 0.011956578653766585 0.015065494046497463 0 0.011977451143445153 0.015292897385595966 0 0.01172893969339479 0.015207063382364664 0 0.011977451143445153 0.015292897385595966 0 0.011737601678766287 0.01545870122746656 0 0.01172893969339479 0.015207063382364664 0 0.010780663270487373 0.015419949014807371 0 0.01124252788914798 0.015604037626947068 0 0.010772396244818828 0.015699621095339428 0 0.010758141504634264 0.015556782854330299 0 0.010834855165426083 0.01551244003360963 0 0.010772396244818828 0.015699621095339428 0 0.010834855165426083 0.01551244003360963 0 0.010979449755934125 0.015556512582471434 0 0.010298570057140263 0.016034924242238596 0 0.010712739232249848 0.01581348014824303 0 0.010979449755934125 0.015556512582471434 0 0.010780663270487373 0.015419949014807371 0 0.010832685851378978 0.015737634613387768 0 0.010640891900867653 0.015526683698574734 0 0.010634786613922647 0.015448705489879179 0 0.010758141504634264 0.015556782854330299 0 0.010497267418694698 0.015584032492957501 0 0.010310442054876934 0.015281056075802909 0 0.010758141504634264 0.015556782854330299 0 0.010546268537625603 0.0155850954034803 0 0.010713779947619189 0.015512954134117178 0 0.010772396244818828 0.015699621095339428 0 0.010758141504634264 0.015556782854330299 0 0.010497267418694698 0.015584032492957501 0 0.010497267418694698 0.015584032492957501 0 0.010208895624078652 0.015663199975180321 0 0.010310442054876934 0.015281056075802909 0 0.010497267418694698 0.015584032492957501 0 0.010208895624078652 0.015663199975180321 0 0.010494610954983915 0.015866003380048468 0 0.010160551623779044 0.0160453499193366 0 0.010208895624078652 0.015663199975180321 0 0.010494610954983915 0.015866003380048468 0 0.010208895624078652 0.015663199975180321 0 0.0099623186269981734 0.015404799132379849 0 0.0097531052071869011 0.015802457921395358 0 0.010160551623779044 0.0160453499193366 0 0.010208895624078652 0.015663199975180321 0 0.0097531052071869011 0.015802457921395358 0 0.010208895624078652 0.015663199975180321 0 0.0099623186269981734 0.015404799132379849 0 0.010310442054876934 0.015281056075802909 0 0.0099623186269981734 0.015404799132379849 0 0.010310442054876934 0.015281056075802909 0 0.0097582063528493159 0.015074092398029966 0 0.0082978474346964842 0.016483741156265837 0 0.0077586631946034712 0.016209541065443984 0 0.0074519478839857435 0.016639138029905312 0 0.010546268537625603 0.0155850954034803 0 0.010579091135655997 0.015433048498902209 0 0.01015756482375299 0.015493127523669459 0 0.010634786613922647 0.015448705489879179 0 0.0089592252061085845 0.015405785698074182 0 0.0093897467856844836 0.01605275086433797 0 0.0089592252061085845 0.015405785698074182 0 0.010546268537625603 0.0155850954034803 0 0.010579091135655997 0.015433048498902209 0 0.010713779947619189 0.015512954134117178 0 0.0082978474346964842 0.016483741156265837 0 0.0081839796251630507 0.016002818861374161 0 0.0077586631946034712 0.016209541065443984 0 0.0081839796251630507 0.016002818861374161 0 0.0083909396957476696 0.01553495729341451 0 0.0087063276810764121 0.016030522627715142 0 0.0082978474346964842 0.016483741156265837 0 0.0081839796251630507 0.016002818861374161 0 0.0087063276810764121 0.016030522627715142 0 0.0077586631946034712 0.016209541065443984 0 0.0077233373185396819 0.015820399480020061 0 0.0071622780434578912 0.016107148743809318 0 0.0081839796251630507 0.016002818861374161 0 0.0077586631946034712 0.016209541065443984 0 0.0077233373185396819 0.015820399480020061 0 0.0083909396957476696 0.01553495729341451 0 0.0090769812360921038 0.014999788235889117 0 0.0072140561672377392 0.014999925847460648 0 0.0077233373185396819 0.015820399480020061 0 0.0083909396957476696 0.01553495729341451 0 0.0072140561672377392 0.014999925847460648 0 0.0081839796251630507 0.016002818861374161 0 0.0077233373185396819 0.015820399480020061 0 0.0083909396957476696 0.01553495729341451 0 0.0083909396957476696 0.01553495729341451 0 0.0090769812360921038 0.014999788235889117 0 0.0095684253243772926 0.015532861788600565 0 0.0083909396957476696 0.01553495729341451 0 0.0095684253243772926 0.015532861788600565 0 0.0087063276810764121 0.016030522627715142 0 0.0095684253243772926 0.015532861788600565 0 0.0092759267939680271 0.016261036452194209 0 0.010522008283255155 0.015670366264754345 0 0.0095684253243772926 0.015532861788600565 0 0.0092759267939680271 0.016261036452194209 0 0.0087063276810764121 0.016030522627715142 0 0.0082978474346964842 0.016483741156265837 0 0.0092759267939680271 0.016261036452194209 0 0.0087063276810764121 0.016030522627715142 0 0.0093897467856844836 0.01605275086433797 0 0.010065524807542067 0.015852354638438249 0 0.010579091135655997 0.015433048498902209 0 0.010859357438034329 0.015498192548078773 0 0.010713779947619189 0.015512954134117178 0 0.010859357438034329 0.015498192548078773 0 0.010713779947619189 0.015512954134117178 0 0.010793531557083675 0.015516738745227489 0 0.010758141504634264 0.015556782854330299 0 0.010713779947619189 0.015512954134117178 0 0.010793531557083675 0.015516738745227489 0 0.010859357438034329 0.015498192548078773 0 0.010834855165426083 0.01551244003360963 0 0.010830748251806107 0.015511486723586472 0 0.010859357438034329 0.015498192548078773 0 0.010793531557083675 0.015516738745227489 0 0.010834855165426083 0.01551244003360963 0 0.010758141504634264 0.015556782854330299 0 0.010793531557083675 0.015516738745227489 0 0.010834855165426083 0.01551244003360963 0 0.010834855165426083 0.01551244003360963 0 0.010830748251806107 0.015511486723586472 0 0.010979449755934125 0.015556512582471434 0 0.010830748251806107 0.015511486723586472 0 0.010957706153293664 0.015551371345354656 0 0.010522008283255155 0.015670366264754345 0 0.0090769812360921038 0.014999788235889117 0 0.010989152337060026 0.015269186043395078 0 0.011638379808137676 0.014998221486796914 0 0.010830748251806107 0.015511486723586472 0 0.010957706153293664 0.015551371345354656 0 0.010979449755934125 0.015556512582471434 0 0.010957706153293664 0.015551371345354656 0 0.011080886260850402 0.015549225376534944 0 0.011198223370445775 0.015537206812988712 0 0.010957706153293664 0.015551371345354656 0 0.010522008283255155 0.015670366264754345 0 0.011080886260850402 0.015549225376534944 0 0.010522008283255155 0.015670366264754345 0 0.010989152337060026 0.015269186043395078 0 0.011080886260850402 0.015549225376534944 0 0.010065524807542067 0.015852354638438249 0 0.010475415554500909 0.015706240440269005 0 0.010859357438034329 0.015498192548078773 0 0.010830748251806107 0.015511486723586472 0 0.010522008283255155 0.015670366264754345 0 0.0095684253243772926 0.015532861788600565 0 0.010522008283255155 0.015670366264754345 0 0.010989152337060026 0.015269186043395078 0 0.0090769812360921038 0.014999788235889117 0 0.0095684253243772926 0.015532861788600565 0 0.010989152337060026 0.015269186043395078 0 0.010989152337060026 0.015269186043395078 0 0.011556186385018574 0.015510412649366581 0 0.012391984392628015 0.015025709017029919 0 0.010989152337060026 0.015269186043395078 0 0.011080886260850402 0.015549225376534944 0 0.011556186385018574 0.015510412649366581 0 0.011080886260850402 0.015549225376534944 0 0.011556186385018574 0.015510412649366581 0 0.011316519034390959 0.015507646863665145 0 0.011080886260850402 0.015549225376534944 0 0.011316519034390959 0.015507646863665145 0 0.011198223370445775 0.015537206812988712 0 0.011556186385018574 0.015510412649366581 0 0.011487459276004686 0.015398898036550635 0 0.011602752232618198 0.015330190917770539 0 0.011487459276004686 0.015398898036550635 0 0.011623046211872576 0.015130733131030055 0 0.011602752232618198 0.015330190917770539 0 0.011534513043584823 0.01523884637346082 0 0.011487459276004686 0.015398898036550635 0 0.011623046211872576 0.015130733131030055 0 0.011534513043584823 0.01523884637346082 0 0.011376234385683937 0.015424007756356026 0 0.011465485114074287 0.015304983608171343 0 0.011534513043584823 0.01523884637346082 0 0.011487459276004686 0.015398898036550635 0 0.011376234385683937 0.015424007756356026 0 0.011487459276004686 0.015398898036550635 0 0.011376234385683937 0.015424007756356026 0 0.011316519034390959 0.015507646863665145 0 0.011556186385018574 0.015510412649366581 0 0.011487459276004686 0.015398898036550635 0 0.011316519034390959 0.015507646863665145 0 0.011376234385683937 0.015424007756356026 0 0.011316519034390959 0.015507646863665145 0 0.011198223370445775 0.015537206812988712 0 0.010957706153293664 0.015551371345354656 0 0.011198223370445775 0.015537206812988712 0 0.011163864806492348 0.015586245129990918 0 0.011198223370445775 0.015537206812988712 0 0.011338798871876681 0.015436694698208107 0 0.011163864806492348 0.015586245129990918 0 0.011376234385683937 0.015424007756356026 0 0.011198223370445775 0.015537206812988712 0 0.011338798871876681 0.015436694698208107 0 0.010712739232249848 0.01581348014824303 0 0.010979449755934125 0.015556512582471434 0 0.011163864806492348 0.015586245129990918 0 0.01124252788914798 0.015604037626947068 0 0.011186749526919976 0.015602162082116441 0 0.010957706153293664 0.015551371345354656 0 0.010979449755934125 0.015556512582471434 0 0.011163864806492348 0.015586245129990918 0 0.011338798871876681 0.015436694698208107 0 0.011163864806492348 0.015586245129990918 0 0.011479193017840329 0.015382679787899185 0 0.011737601678766287 0.01545870122746656 0 0.011163864806492348 0.015586245129990918 0 0.011479193017840329 0.015382679787899185 0 0.011737601678766287 0.01545870122746656 0 0.011479193017840329 0.015382679787899185 0 0.01172893969339479 0.015207063382364664 0 0.011338798871876681 0.015436694698208107 0 0.011479193017840329 0.015382679787899185 0 0.011533795228897296 0.015251559393752811 0 0.011479193017840329 0.015382679787899185 0 0.011533795228897296 0.015251559393752811 0 0.01172893969339479 0.015207063382364664 0 0.011533795228897296 0.015251559393752811 0 0.01172893969339479 0.015207063382364664 0 0.011690501427506342 0.015068461253795079 0 0.011533795228897296 0.015251559393752811 0 0.011465485114074287 0.015304983608171343 0 0.011630812306521526 0.01507066117942577 0 0.011534513043584823 0.01523884637346082 0 0.011465485114074287 0.015304983608171343 0 0.011630812306521526 0.01507066117942577 0 0.011376234385683937 0.015424007756356026 0 0.011338798871876681 0.015436694698208107 0 0.011465485114074287 0.015304983608171343 0 0.011338798871876681 0.015436694698208107 0 0.011533795228897296 0.015251559393752811 0 0.011465485114074287 0.015304983608171343 0 0.011533795228897296 0.015251559393752811 0 0.011630812306521526 0.01507066117942577 0 0.011690501427506342 0.015068461253795079 0 0.011843507774244155 0.014950022966829025 0 0.01172893969339479 0.015207063382364664 0 0.011690501427506342 0.015068461253795079 0 0.011630812306521526 0.01507066117942577 0 0.011690501427506342 0.015068461253795079 0 0.011765760739047297 0.014892661643868061 0 0.011843507774244155 0.014950022966829025 0 0.011690501427506342 0.015068461253795079 0 0.011765760739047297 0.014892661643868061 0 0.011861184928026312 0.014724028446585002 0 0.011843507774244155 0.014950022966829025 0 0.011765760739047297 0.014892661643868061 0 0.011756450254494301 0.014793276603152751 0 0.011630812306521526 0.01507066117942577 0 0.011689108019701274 0.014945645014435949 0 0.011756450254494301 0.014793276603152751 0 0.011630812306521526 0.01507066117942577 0 0.011765760739047297 0.014892661643868061 0 0.011768657540107929 0.014752731548713276 0 0.011756450254494301 0.014793276603152751 0 0.011689108019701274 0.014945645014435949 0 0.011768657540107929 0.014752731548713276 0 0.011689108019701274 0.014945645014435949 0 0.011679123958914517 0.014922753041266858 0 0.011689108019701274 0.014945645014435949 0 0.011623046211872576 0.015130733131030055 0 0.011679123958914517 0.014922753041266858 0 0.011623046211872576 0.015130733131030055 0 0.011679123958914517 0.014922753041266858 0 0.011602752232618198 0.015330190917770539 0 0.011534513043584823 0.01523884637346082 0 0.011630812306521526 0.01507066117942577 0 0.011689108019701274 0.014945645014435949 0 0.011534513043584823 0.01523884637346082 0 0.011689108019701274 0.014945645014435949 0 0.011623046211872576 0.015130733131030055 0 0.014664335122518113 0.01249116802074942 0 0.014458635497575312 0.011710535823202329 0 0.014425477174805176 0.012017931688982192 0 0.013081856978621794 0.013850233131927139 0 0.01302323085362973 0.013280102301615509 0 0.011515763331001181 0.015214245778016484 0 0.011679123958914517 0.014922753041266858 0 0.011602752232618198 0.015330190917770539 0 0.011515763331001181 0.015214245778016484 0 0.011679123958914517 0.014922753041266858 0 0.011610026923255943 0.014784283634024885 0 0.014586596204970166 0.011622925954677428 0 0.014390895018897348 0.011950143053213609 0 0.014425477174805176 0.012017931688982192 0 0.014586596204970166 0.011622925954677428 0 0.014458635497575312 0.011710535823202329 0 0.014425477174805176 0.012017931688982192 0 0.014702638780073655 0.011561542040752614 0 0.014586596204970166 0.011622925954677428 0 0.014390895018897348 0.011950143053213609 0 0.014390895018897348 0.011950143053213609 0 0.014425477174805176 0.012017931688982192 0 0.014117022797364095 0.012641885123772199 0 0.014664335122518113 0.01249116802074942 0 0.014425477174805176 0.012017931688982192 0 0.014117022797364095 0.012641885123772199 0 0.014390895018897348 0.011950143053213609 0 0.014117022797364095 0.012641885123772199 0 0.014043011216228569 0.012423301141510745 0 0.014117022797364095 0.012641885123772199 0 0.013693811702546601 0.013802380477623697 0 0.014043011216228569 0.012423301141510745 0 0.013806798552755567 0.013719625266444643 0 0.014207778699132506 0.013133353911766529 0 0.013693811702546601 0.013802380477623697 0 0.014058948833891076 0.013909211754801908 0 0.01434319710222548 0.013802856627594886 0 0.014117022797364095 0.012641885123772199 0 0.013693811702546601 0.013802380477623697 0 0.01413186987515095 0.013868892898957173 0 0.014664335122518113 0.01249116802074942 0 0.014117022797364095 0.012641885123772199 0 0.01413186987515095 0.013868892898957173 0 0.013081856978621794 0.013850233131927139 0 0.012911337836228021 0.014588817938504287 0 0.011515763331001181 0.015214245778016484 0 0.01179431064401684 0.015477513379586414 0 0.011602752232618198 0.015330190917770539 0 0.011556186385018574 0.015510412649366581 0 0.01179431064401684 0.015477513379586414 0 0.011602752232618198 0.015330190917770539 0 0.011556186385018574 0.015510412649366581 0 0.01179431064401684 0.015477513379586414 0 0.012391984392628015 0.015025709017029919 0 0.012911337836228021 0.014588817938504287 0 0.01248686112383912 0.014886780660024137 0 0.011638379808137676 0.014998221486796914 0 0.013488638239278072 0.014752379037197845 0 0.013913144044389014 0.015012645912945584 0 0.01413186987515095 0.013868892898957173 0 0.013372534649794302 0.014450105688337447 0 0.012391984392628015 0.015025709017029919 0 0.013693811702546601 0.013802380477623697 0 0.01413186987515095 0.013868892898957173 0 0.013372534649794302 0.014450105688337447 0 0.013372534649794302 0.014450105688337447 0 0.012391984392628015 0.015025709017029919 0 0.013146109504785928 0.014720945636513282 0 0.010989152337060026 0.015269186043395078 0 0.012391984392628015 0.015025709017029919 0 0.011638379808137676 0.014998221486796914 0 0.012391984392628015 0.015025709017029919 0 0.011638379808137676 0.014998221486796914 0 0.013146109504785928 0.014720945636513282 0 0.011638379808137676 0.014998221486796914 0 0.013146109504785928 0.014720945636513282 0 0.013488638239278072 0.014752379037197845 0 0.013146109504785928 0.014720945636513282 0 0.0137070654711547 0.014318269100534815 0 0.013488638239278072 0.014752379037197845 0 0.013693811702546601 0.013802380477623697 0 0.013372534649794302 0.014450105688337447 0 0.013146109504785928 0.014720945636513282 0 0.013693811702546601 0.013802380477623697 0 0.013146109504785928 0.014720945636513282 0 0.0137070654711547 0.014318269100534815 0 0.013693811702546601 0.013802380477623697 0 0.014058948833891076 0.013909211754801908 0 0.0137070654711547 0.014318269100534815 0 0.011638379808137676 0.014998221486796914 0 0.013913144044389014 0.015012645912945584 0 0.01499978416914086 0.014998609281852726 0 0.014058948833891076 0.013909211754801908 0 0.014420791698929462 0.013967699286290982 0 0.0137070654711547 0.014318269100534815 0 0.014058948833891076 0.013909211754801908 0 0.014420791698929462 0.013967699286290982 0 0.014777030597639988 0.013488295027624997 0 0.014420791698929462 0.013967699286290982 0 0.014076497281426851 0.014300034137004432 0 0.014746224442440347 0.014042240649735076 0 0.014076497281426851 0.014300034137004432 0 0.0137070654711547 0.014318269100534815 0 0.013488638239278072 0.014752379037197845 0 0.014420791698929462 0.013967699286290982 0 0.014076497281426851 0.014300034137004432 0 0.0137070654711547 0.014318269100534815 0 0.013606048197448463 0.014699817043222239 0 0.014162377300909945 0.014561660620508867 0 0.014076497281426851 0.014300034137004432 0 0.013488638239278072 0.014752379037197845 0 0.014376032309204357 0.014029397955886853 0 0.014076497281426851 0.014300034137004432 0 0.014376032309204357 0.014029397955886853 0 0.014746224442440347 0.014042240649735076 0 0.013913144044389014 0.015012645912945584 0 0.01499978416914086 0.014998609281852726 0 0.014465421992611803 0.015061492576919411 0 0.014999606935429764 0.014786833499458146 0 0.01499978416914086 0.014998609281852726 0 0.014465421992611803 0.015061492576919411 0 0.014999790321972068 0.014784873857604566 0 0.01464973324086047 0.014644125281879482 0 0.014162377300909945 0.014561660620508867 0 0.01464973324086047 0.014644125281879482 0 0.014376032309204357 0.014029397955886853 0 0.014929890881658938 0.014217020828807804 0 0.014746224442440347 0.014042240649735076 0 0.014999571538491888 0.014783509094047975 0 0.014929890881658938 0.014217020828807804 0 0.014999665946554689 0.013934131576755753 0 0.014929890881658938 0.014217020828807804 0 0.014999665946554689 0.013934131576755753 0 0.014746224442440347 0.014042240649735076 0 0.014999665946554689 0.013934131576755753 0 0.014746224442440347 0.014042240649735076 0 0.014878349754335708 0.013678413475097812 0 0.014420791698929462 0.013967699286290982 0 0.014746224442440347 0.014042240649735076 0 0.014878349754335708 0.013678413475097812 0 0.014420791698929462 0.013967699286290982 0 0.014878349754335708 0.013678413475097812 0 0.014777030597639988 0.013488295027624997 0 0.014878349754335708 0.013678413475097812 0 0.014999553243371632 0.013083184332652528 0 0.014777030597639988 0.013488295027624997 0 0.014999665946554689 0.013934131576755753 0 0.014878349754335708 0.013678413475097812 0 0.014999553243371632 0.013083184332652528 0 0.014999553243371632 0.013083184332652528 0 0.014972044476080054 0.012945829040023992 0 0.014777030597639988 0.013488295027624997 0 0.014999553243371632 0.013083184332652528 0 0.014999598960370985 0.012232305220252173 0 0.014972044476080054 0.012945829040023992 0 0.014999598960370985 0.012232305220252173 0 0.014972044476080054 0.012945829040023992 0 0.014999498565916189 0.012987153519453778 0 0.014972044476080054 0.012945829040023992 0 0.014999498565916189 0.012987153519453778 0 0.014777030597639988 0.013488295027624997 0 0.014058948833891076 0.013909211754801908 0 0.014777030597639988 0.013488295027624997 0 0.01434319710222548 0.013802856627594886 0 0.014999498565916189 0.012987153519453778 0 0.014777030597639988 0.013488295027624997 0 0.01434319710222548 0.013802856627594886 0 0.014762238550044741 0.0123763568344068 0 0.014207778699132506 0.013133353911766529 0 0.01459562255779184 0.011788069273188245 0 0.014043011216228569 0.012423301141510745 0 0.014537900130034163 0.011774180829944398 0 0.01459562255779184 0.011788069273188245 0 0.014537900130034163 0.011774180829944398 0 0.014791489851816143 0.011575186081982903 0 0.014390895018897348 0.011950143053213609 0 0.014043011216228569 0.012423301141510745 0 0.014537900130034163 0.011774180829944398 0 0.014844556719650129 0.011307302298303106 0 0.014702638780073655 0.011561542040752614 0 0.014537900130034163 0.011774180829944398 0 0.014702638780073655 0.011561542040752614 0 0.014390895018897348 0.011950143053213609 0 0.014537900130034163 0.011774180829944398 0 0.014844556719650129 0.011307302298303106 0 0.014537900130034163 0.011774180829944398 0 0.014791489851816143 0.011575186081982903 0 0.01494655111165178 0.011198152648101862 0 0.014791489851816143 0.011575186081982903 0 0.014902814513740707 0.011604728007334898 0 0.01494655111165178 0.011198152648101862 0 0.01499958263849715 0.011380309663872452 0 0.014902814513740707 0.011604728007334898 0 0.01499958263849715 0.011380309663872452 0 0.014902814513740707 0.011604728007334898 0 0.01500790425006625 0.01177846628725754 0 0.014999598960370985 0.012232305220252173 0 0.014999498565916189 0.012987153519453778 0 0.01500790425006625 0.01177846628725754 0 0.014762238550044741 0.0123763568344068 0 0.014936212343664863 0.011843180567837589 0 0.01459562255779184 0.011788069273188245 0 0.014902814513740707 0.011604728007334898 0 0.01500790425006625 0.01177846628725754 0 0.014999598960370985 0.012232305220252173 0 0.01499958263849715 0.011380309663872452 0 0.01500790425006625 0.01177846628725754 0 0.01459562255779184 0.011788069273188245 0 0.014791489851816143 0.011575186081982903 0 0.014902814513740707 0.011604728007334898 0 -0.0016224417020378487 0.0053184595934238398 0 -0.0034134009983417439 0.00396125056158869 0 -0.0043615450489096494 0.00082234281713884259 0 -0.0044203210057857691 0.00060870810094765357 0 -0.0042219475626415698 0.00056182540340026519 0 -0.0045779285244361917 0.00076118756785049598 0 -0.0043615450489096494 0.00082234281713884259 0 -0.0044203210057857691 0.00060870810094765357 0 -0.0044203210057857691 0.00060870810094765357 0 -0.0042219475626415698 0.00056182540340026519 0 -0.0043830437383821389 0.00040435075287536561 0 -0.0044203210057857691 0.00060870810094765357 0 -0.0045528766184502597 0.00049600210082967984 0 -0.0043830437383821389 0.00040435075287536561 0 -0.0045779285244361917 0.00076118756785049598 0 -0.0044203210057857691 0.00060870810094765357 0 -0.0045528766184502597 0.00049600210082967984 0 -0.0045779285244361917 0.00076118756785049598 0 -0.0045528766184502597 0.00049600210082967984 0 -0.0047323010549221358 0.00059764284399176754 0 -0.0045528766184502597 0.00049600210082967984 0 -0.0047323010549221358 0.00059764284399176754 0 -0.004702972882648415 0.0003284927026946085 0 0.0017466250582359659 0.0069819861975874958 0 0.0015293564576607454 0.0023493245015270355 0 0.0049358693759020142 0.0069688949133307225 0 0.0051299930922318613 0.0045227990922897532 0 0.0042875266241957513 0.005595926173471712 0 -0.00047809687647482838 0.004301756523689926 0 -4.8536975421654734e-05 0.0041621630938379244 0 -8.4382702766738147e-05 0.004610350744547174 0 -0.0034458253691766884 0.0017997727846104468 0 0.0015293564576607454 0.0023493245015270355 0 0.0017466250582359659 0.0069819861975874958 0 0.0040692622714204821 0.010501008667873738 0 -0.00047809687647482838 0.004301756523689926 0 -4.8536975421654734e-05 0.0041621630938379244 0 -0.00045891355314127543 0.0040693903192159488 0 7.2034120312508012e-05 0.0091087662791243078 0 0.00084439154977111947 0.00929674145072352 0 -1.7729217981640865e-05 0.010291633697784205 0 0.0017466250582359659 0.0069819861975874958 0 0.00027053931224539613 0.0066836933478191841 0 0.0016085849804551794 0.0094783120345663316 0 0.00084439154977111947 0.00929674145072352 0 0.0010723947602185619 0.010027097264485443 0 -0.00088480945910545869 0.0039930833610659312 0 -0.00047809687647482838 0.004301756523689926 0 -0.00045891355314127543 0.0040693903192159488 0 -0.0016224417020378487 0.0053184595934238398 0 0.00027053931224539613 0.0066836933478191841 0 -0.0016224417020378487 0.0053184595934238398 0 -0.0034458253691766884 0.0017997727846104468 0 0.0010723947602185619 0.010027097264485443 0 0.0011597423014354947 0.010894382941687625 0 0.0017294138905776012 0.010334023913899273 0 0.0010723947602185619 0.010027097264485443 0 -1.7729217981640865e-05 0.010291633697784205 0 0.0011597423014354947 0.010894382941687625 0 0.0016085849804551794 0.0094783120345663316 0 0.0010723947602185619 0.010027097264485443 0 0.0017294138905776012 0.010334023913899273 0 0.00084439154977111947 0.00929674145072352 0 0.0010723947602185619 0.010027097264485443 0 -1.7729217981640865e-05 0.010291633697784205 0 0.0040692622714204821 0.010501008667873738 0 0.0013158925582786498 0.012139471255897682 0 -1.7729217981640865e-05 0.010291633697784205 0 0.0011597423014354947 0.010894382941687625 0 0.00036877378268662756 0.011526180853106345 0 0.0025717460540008682 0.011457394515776417 0 0.0027008737659954523 0.012545463751659526 0 0.0029280791200243569 0.012776036217764264 0 0.0025717460540008682 0.011457394515776417 0 0.0027008737659954523 0.012545463751659526 0 0.0024843753362310682 0.012530052846540811 0 0.0017294138905776012 0.010334023913899273 0 0.0024891135226841358 0.01027599327545857 0 0.0022559429992113581 0.011298791469081509 0 0.0011597423014354947 0.010894382941687625 0 0.0017294138905776012 0.010334023913899273 0 0.0022559429992113581 0.011298791469081509 0 0.0016085849804551794 0.0094783120345663316 0 0.0017294138905776012 0.010334023913899273 0 0.0024891135226841358 0.01027599327545857 0 -0.0016224417020378487 0.0053184595934238398 0 0.0010483863538223446 0.0094823843043987249 0 -0.0027205834060811079 0.0066110774966312369 0 -0.0012820415451723142 0.0069686707412862292 0 -0.0015232995755012158 0.0077081295531334949 0 -0.00094072919713822172 0.0075458767774571091 0 -0.0015232995755012158 0.0077081295531334949 0 -0.00029514113876442509 0.0088115017908924828 0 -0.0012820415451723142 0.0069686707412862292 0 -0.00094072919713822172 0.0075458767774571091 0 -0.00026328546108412188 0.0072047337213992681 0 -0.0012820415451723142 0.0069686707412862292 0 -0.00094072919713822172 0.0075458767774571091 0 -0.0015232995755012158 0.0077081295531334949 0 0.0010483863538223446 0.0094823843043987249 0 -0.00018637879837530069 0.010262397926112009 0 0.0024891135226841358 0.01027599327545857 0 0.0022559429992113581 0.011298791469081509 0 0.0033527066913593005 0.011062020579422578 0 -0.0026768898143644305 0.0090968394497659109 0 -0.001824319705082706 0.0090482209623526776 0 -0.0026530965564806374 0.0078780155174105523 0 -0.001824319705082706 0.0090482209623526776 0 -0.0016846631396328408 0.0081058552442040306 0 -0.00097675962947482622 0.0091674199645877946 0 -0.0026768898143644305 0.0090968394497659109 0 -0.001824319705082706 0.0090482209623526776 0 -0.0017509014803170023 0.009917397282037119 0 -0.001824319705082706 0.0090482209623526776 0 -0.0016846631396328408 0.0081058552442040306 0 -0.0026530965564806374 0.0078780155174105523 0 -0.0035832780492949263 0.004669354189912895 0 -0.0041744332843219019 0.0045239328117758718 0 -0.0037685915626485792 0.0042921799654568405 0 -0.0026889589323560075 0.0063654003681827597 0 -0.0027625339316882493 0.0062624827049207058 0 -0.00094072919713822172 0.0075458767774571091 0 -0.00029514113876442509 0.0088115017908924828 0 -0.00026328546108412188 0.0072047337213992681 0 -0.00018637879837530069 0.010262397926112009 0 -0.0027625339316882493 0.0062624827049207058 0 -0.0028902248372573145 0.010807459016076904 0 -0.002912840144813677 0.010833792444933045 0 -0.0029344355928970153 0.010806533574753805 0 -0.0019880544598669253 0.0095128722236186465 0 -0.002158221404968796 0.0080781882510233428 0 -0.0014485611672667737 0.0082424472724468428 0 -0.0025064801518327488 0.010294219766147245 0 -0.0032608333995008316 0.0077251931960629246 0 -0.001824319705082706 0.0090482209623526776 0 -0.00097675962947482622 0.0091674199645877946 0 -0.001415537148281353 0.0094871696649883267 0 -0.0019880544598669253 0.0095128722236186465 0 -0.0025691698689162528 0.0093907873624213909 0 -0.002158221404968796 0.0080781882510233428 0 -0.0018145577570632294 0.0093854684410205891 0 -0.0022412767855180694 0.0068624799997467146 0 -0.0016846631396328408 0.0081058552442040306 0 -0.00097675962947482622 0.0091674199645877946 0 -0.00071779227016585028 0.0083279771776181982 0 -0.0026889589323560075 0.0063654003681827597 0 -0.0022412767855180694 0.0068624799997467146 0 -0.0035832780492949263 0.004669354189912895 0 -0.0029785847482063556 0.0048197169033649479 0 -0.00320437555717855 0.0043169728035923711 0 -0.0049787978141817568 0.0066966165412591242 0 -0.0044774183263466211 0.0067893733857633419 0 -0.0046725297856744265 0.0058199313964029499 0 -0.002923521227586955 0.0059530529840452649 0 -0.0029413931369404278 0.0052372683986157487 0 -0.0024143241824422863 0.0047055648922312704 0 -0.0032608333995008316 0.0077251931960629246 0 -0.0035405989619395639 0.0049855735781951767 0 -0.0022412767855180694 0.0068624799997467146 0 -0.0032608333995008316 0.0077251931960629246 0 -0.0034425441171395165 0.0058313862982458222 0 -0.002923521227586955 0.0059530529840452649 0 -0.0029413931369404278 0.0052372683986157487 0 -0.0022412767855180694 0.0068624799997467146 0 -0.0029135434450191853 0.0039663269755853209 0 -0.0034425441171395165 0.0058313862982458222 0 -0.0029413931369404278 0.0052372683986157487 0 -0.0029887298526650261 0.0044661094049372697 0 -0.0029887298526650261 0.0044661094049372697 0 -0.0024776052269624899 0.0040346525832851811 0 -0.0024143241824422863 0.0047055648922312704 0 -0.0029413931369404278 0.0052372683986157487 0 -0.0029887298526650261 0.0044661094049372697 0 -0.0024143241824422863 0.0047055648922312704 0 -0.0029785847482063556 0.0048197169033649479 0 -0.0027502391775669158 0.0040543736902209724 0 -0.00320437555717855 0.0043169728035923711 0 -0.0027502391775669158 0.0040543736902209724 0 -0.0031086051957501561 0.0039657441319985529 0 -0.00320437555717855 0.0043169728035923711 0 -0.0031086051957501561 0.0039657441319985529 0 -0.00320437555717855 0.0043169728035923711 0 -0.0034745794149795973 0.0039327526200545341 0 -0.0031086051957501561 0.0039657441319985529 0 -0.0030516265690492981 0.0035619020538880559 0 -0.0034745794149795973 0.0039327526200545341 0 -0.0030516265690492981 0.0035619020538880559 0 -0.0034745794149795973 0.0039327526200545341 0 -0.0035474773130440276 0.0035170436034459508 0 -0.0027502391775669158 0.0040543736902209724 0 -0.0031086051957501561 0.0039657441319985529 0 -0.0030516265690492981 0.0035619020538880559 0 -0.0027502391775669158 0.0040543736902209724 0 -0.0030516265690492981 0.0035619020538880559 0 -0.0025259905973658322 0.0033194613156904127 0 -0.0029887298526650261 0.0044661094049372697 0 -0.0024776052269624899 0.0040346525832851811 0 -0.0025259905973658322 0.0033194613156904127 0 -0.0029135434450191853 0.0039663269755853209 0 -0.0025631930164842806 0.0034930600877039792 0 -0.0041707041160384045 0.0043017627442095878 0 -0.0038206597307737455 0.0039356198416780784 0 -0.0041658236907378705 0.0037016066476642773 0 -0.0046371675082030831 0.0044038369853455772 0 -0.0041707041160384045 0.0043017627442095878 0 -0.0041658236907378705 0.0037016066476642773 0 -0.0034134009983417439 0.00396125056158869 0 -0.0042992371328841837 0.0019120952159507132 0 -0.0034134009983417439 0.00396125056158869 0 -0.0027625339316882493 0.0062624827049207058 0 -0.0046371675082030831 0.0044038369853455772 0 -0.0041717122038060954 0.0045154107087549567 0 -0.0041707041160384045 0.0043017627442095878 0 -0.0041744332843219019 0.0045239328117758718 0 -0.0041707041160384045 0.0043017627442095878 0 -0.0037685915626485792 0.0042921799654568405 0 -0.0027625339316882493 0.0062624827049207058 0 -0.0032281668765306443 0.0047338992145171841 0 -0.00320437555717855 0.0043169728035923711 0 -0.0037685915626485792 0.0042921799654568405 0 -0.0034745794149795973 0.0039327526200545341 0 -0.0035832780492949263 0.004669354189912895 0 -0.00320437555717855 0.0043169728035923711 0 -0.0037685915626485792 0.0042921799654568405 0 -0.0037685915626485792 0.0042921799654568405 0 -0.0038206597307737455 0.0039356198416780784 0 -0.0034745794149795973 0.0039327526200545341 0 -0.0041707041160384045 0.0043017627442095878 0 -0.0037685915626485792 0.0042921799654568405 0 -0.0038206597307737455 0.0039356198416780784 0 -0.0038206597307737455 0.0039356198416780784 0 -0.0035474773130440276 0.0035170436034459508 0 -0.0041658236907378705 0.0037016066476642773 0 -0.0038206597307737455 0.0039356198416780784 0 -0.0034745794149795973 0.0039327526200545341 0 -0.0035474773130440276 0.0035170436034459508 0 -0.004080815622306418 0.00031089986145311935 0 -0.0043197235035214538 0.00015235487906430068 0 -0.0043830437383821389 0.00040435075287536561 0 -0.0042219475626415698 0.00056182540340026519 0 -0.004080815622306418 0.00031089986145311935 0 -0.0043830437383821389 0.00040435075287536561 0 -0.0035474773130440276 0.0035170436034459508 0 -0.0041658236907378705 0.0037016066476642773 0 -0.0036904968885704201 0.0029788058284979709 0 -0.0042992371328841837 0.0019120952159507132 0 -0.0038486515213446404 0.0017826945835901391 0 -0.004080815622306418 0.00031089986145311935 0 -0.0041443503647411156 9.2614989435455528e-05 0 -0.0043197235035214538 0.00015235487906430068 0 -0.004080815622306418 0.00031089986145311935 0 -0.0041443503647411156 9.2614989435455528e-05 0 -0.0038643311298991205 2.5858120528303204e-05 0 -0.0025259905973658322 0.0033194613156904127 0 -0.003065951844707183 0.0029809496048114805 0 -0.0024985653014902485 0.0025038736094880826 0 -0.0030516265690492981 0.0035619020538880559 0 -0.0025259905973658322 0.0033194613156904127 0 -0.003065951844707183 0.0029809496048114805 0 -0.0030516265690492981 0.0035619020538880559 0 -0.0035474773130440276 0.0035170436034459508 0 -0.003065951844707183 0.0029809496048114805 0 -0.0035474773130440276 0.0035170436034459508 0 -0.0036904968885704201 0.0029788058284979709 0 -0.003065951844707183 0.0029809496048114805 0 -0.0038486515213446404 0.0017826945835901391 0 -0.0039014127721626653 0.00046078368601169145 0 -0.0036904968885704201 0.0029788058284979709 0 -0.003065951844707183 0.0029809496048114805 0 -0.0031927000683502561 0.0022272916673180994 0 -0.003065951844707183 0.0029809496048114805 0 -0.0024985653014902485 0.0025038736094880826 0 -0.0031927000683502561 0.0022272916673180994 0 -0.003137090393241952 0.0012432131939604284 0 -0.0039014127721626653 0.00046078368601169145 0 -0.0041756383107002153 -0.00016195934747621443 0 -0.0041863903888349121 -0.00018916143119992654 0 -0.0042171894345709006 -0.00017860931104928649 0 -0.0041863903888349121 -0.00018916143119992654 0 -0.0041963549586771067 -0.00021364997822771026 0 -0.0041692052890657527 -0.00022375003870739424 0 -0.0041863903888349121 -0.00018916143119992654 0 -0.0041692052890657527 -0.00022375003870739424 0 -0.0041662964241030017 -0.00019256457165968286 0 -0.0041756383107002153 -0.00016195934747621443 0 -0.0041863903888349121 -0.00018916143119992654 0 -0.0041662964241030017 -0.00019256457165968286 0 -0.0041863903888349121 -0.00018916143119992654 0 -0.0042037142582360115 -0.0001914882631503506 0 -0.0042171894345709006 -0.00017860931104928649 0 -0.0041863903888349121 -0.00018916143119992654 0 -0.0042037142582360115 -0.0001914882631503506 0 -0.0041963549586771067 -0.00021364997822771026 0 -0.0042037142582360115 -0.0001914882631503506 0 -0.0042135740830091615 -0.00018677769289637293 0 -0.0041963549586771067 -0.00021364997822771026 0 -0.0042172580678190782 -0.00020238131015673592 0 -0.0042199135903551325 -0.0001790745902819398 0 -0.0042135740830091615 -0.00018677769289637293 0 -0.0042172580678190782 -0.00020238131015673592 0 -0.0042135740830091615 -0.00018677769289637293 0 -0.0041963549586771067 -0.00021364997822771026 0 -0.0042037142582360115 -0.0001914882631503506 0 -0.0042171894345709006 -0.00017860931104928649 0 -0.0042135740830091615 -0.00018677769289637293 0 -0.0039014127721626653 0.00046078368601169145 0 -0.0038862634049267783 0.00028260500247129894 0 -0.0042172580678190782 -0.00020238131015673592 0 -0.0042199135903551325 -0.0001790745902819398 0 -0.0042491076455395413 -0.00019758464433622204 0 -0.0042485364645162187 -0.00038234600906300012 0 -0.0042038678772072869 -0.00025251669586535161 0 -0.0042491076455395413 -0.00019758464433622204 0 -0.0042172580678190782 -0.00020238131015673592 0 -0.0042038678772072869 -0.00025251669586535161 0 -0.0042491076455395413 -0.00019758464433622204 0 -0.0042172580678190782 -0.00020238131015673592 0 -0.0042038678772072869 -0.00025251669586535161 0 -0.0041963549586771067 -0.00021364997822771026 0 -0.0041551908593137231 -0.00028587613242000894 0 -0.0042038678772072869 -0.00025251669586535161 0 -0.0041692052890657527 -0.00022375003870739424 0 -0.0042038678772072869 -0.00025251669586535161 0 -0.0041963549586771067 -0.00021364997822771026 0 -0.0041692052890657527 -0.00022375003870739424 0 -0.0041443503647411156 9.2614989435455528e-05 0 -0.0043197235035214538 0.00015235487906430068 0 -0.0042839525936049115 -0.00014033667291282056 0 -0.0043197235035214538 0.00015235487906430068 0 -0.0042839525936049115 -0.00014033667291282056 0 -0.0044705226320140116 -2.7081827730466234e-05 0 -0.0042199135903551325 -0.0001790745902819398 0 -0.0042491076455395413 -0.00019758464433622204 0 -0.0042839525936049115 -0.00014033667291282056 0 -0.0039014127721626653 0.00046078368601169145 0 -0.0043640602306818273 -0.00031260553707952347 0 -0.0041443503647411156 9.2614989435455528e-05 0 -0.0038643311298991205 2.5858120528303204e-05 0 -0.0042839525936049115 -0.00014033667291282056 0 -0.0043144636881640797 -0.00031092094516021248 0 -0.0042491076455395413 -0.00019758464433622204 0 -0.0042839525936049115 -0.00014033667291282056 0 -0.004418082856645654 -0.00027266023496015684 0 -0.0043144636881640797 -0.00031092094516021248 0 -0.0042839525936049115 -0.00014033667291282056 0 -0.004418082856645654 -0.00027266023496015684 0 -0.0042839525936049115 -0.00014033667291282056 0 -0.0044705226320140116 -2.7081827730466234e-05 0 -0.0046818558260995347 -0.0003118931803539297 0 -0.0045670627712308901 -0.00018195516470694858 0 -0.0046676930325125271 6.0578840273556105e-06 0 -0.004418082856645654 -0.00027266023496015684 0 -0.0045670627712308901 -0.00018195516470694858 0 -0.0044705226320140116 -2.7081827730466234e-05 0 -0.0044705226320140116 -2.7081827730466234e-05 0 -0.0045256063738045712 0.00024225227121497744 0 -0.0046676930325125271 6.0578840273556105e-06 0 -0.0045670627712308901 -0.00018195516470694858 0 -0.0044705226320140116 -2.7081827730466234e-05 0 -0.0046676930325125271 6.0578840273556105e-06 0 -0.0043197235035214538 0.00015235487906430068 0 -0.0044705226320140116 -2.7081827730466234e-05 0 -0.0045256063738045712 0.00024225227121497744 0 -0.0043197235035214538 0.00015235487906430068 0 -0.0045256063738045712 0.00024225227121497744 0 -0.0043830437383821389 0.00040435075287536561 0 -0.0045256063738045712 0.00024225227121497744 0 -0.004702972882648415 0.0003284927026946085 0 -0.0046676930325125271 6.0578840273556105e-06 0 -0.0045528766184502597 0.00049600210082967984 0 -0.0045256063738045712 0.00024225227121497744 0 -0.0043830437383821389 0.00040435075287536561 0 -0.0045528766184502597 0.00049600210082967984 0 -0.0045256063738045712 0.00024225227121497744 0 -0.004702972882648415 0.0003284927026946085 0 0.0057870196113861067 0.0015510647478472633 0 0.0057877104979322915 0.0023647053568186895 0 0.0062016687499598933 0.0018829025227036955 0 -0.0047323010549221358 0.00059764284399176754 0 -0.0048664595650471446 0.00045181272646107213 0 -0.004702972882648415 0.0003284927026946085 0 -0.0048664595650471446 0.00045181272646107213 0 -0.004702972882648415 0.0003284927026946085 0 -0.0048601603948601746 0.00015245923741736325 0 0.0015293564576607454 0.0023493245015270355 0 0.00035656558641418982 0.00096404809095338622 0 -0.004702972882648415 0.0003284927026946085 0 -0.0048601603948601746 0.00015245923741736325 0 -0.0046676930325125271 6.0578840273556105e-06 0 0.00035656558641418982 0.00096404809095338622 0 0.00053830864409289885 0.0016119545275280714 0 0.0057877104979322915 0.0023647053568186895 0 0.0058968235220869525 0.003237671633497799 0 0.0060463634579498351 0.0031393192740055979 0 -0.0048601603948601746 0.00015245923741736325 0 -0.0046676930325125271 6.0578840273556105e-06 0 -0.0048396569313698479 -0.00012620021194448925 0 0.0057877104979322915 0.0023647053568186895 0 0.0060463634579498351 0.0031393192740055979 0 0.0060754051984918808 0.0024933539087792773 0 -0.0046818558260995347 -0.0003118931803539297 0 -0.0046676930325125271 6.0578840273556105e-06 0 -0.0048396569313698479 -0.00012620021194448925 0 0.0058968235220869525 0.003237671633497799 0 0.0060463634579498351 0.0031393192740055979 0 0.0061934676402690013 0.0034553267791160407 0 0.0061934676402690013 0.0034553267791160407 0 0.0064938747072148572 0.0032598615179716341 0 0.006328166171139348 0.0031222177967931246 0 0.0064800030784483136 0.0035476530383705329 0 0.0061934676402690013 0.0034553267791160407 0 0.0064938747072148572 0.0032598615179716341 0 0.0064800030784483136 0.0035476530383705329 0 0.0064938747072148572 0.0032598615179716341 0 0.0067509341712663545 0.003319919845570749 0 0.0064938747072148572 0.0032598615179716341 0 0.006328166171139348 0.0031222177967931246 0 0.00666784213563927 0.0029880301280016393 0 0.0064938747072148572 0.0032598615179716341 0 0.00666784213563927 0.0029880301280016393 0 0.0067509341712663545 0.003319919845570749 0 0.0060463634579498351 0.0031393192740055979 0 0.0061934676402690013 0.0034553267791160407 0 0.006328166171139348 0.0031222177967931246 0 0.0060463634579498351 0.0031393192740055979 0 0.006328166171139348 0.0031222177967931246 0 0.0063937921495484376 0.0029103510509999766 0 0.006039653328616305 0.0031547661186308515 0 0.0062664061124085299 0.0024506577509699696 0 0.0060463634579498351 0.0031393192740055979 0 0.0063937921495484376 0.0029103510509999766 0 0.0063613663360024015 0.0026154229584219911 0 0.0063937921495484376 0.0029103510509999766 0 0.00666784213563927 0.0029880301280016393 0 0.0065640736324349717 0.0026945723051949675 0 0.006328166171139348 0.0031222177967931246 0 0.0063937921495484376 0.0029103510509999766 0 0.00666784213563927 0.0029880301280016393 0 0.0063937921495484376 0.0029103510509999766 0 0.0065640736324349717 0.0026945723051949675 0 0.0063613663360024015 0.0026154229584219911 0 0.0097424887091756337 0.0040019935110979258 0 0.0096981636624138123 0.0032447621870380521 0 0.00666784213563927 0.0029880301280016393 0 0.0065640736324349717 0.0026945723051949675 0 0.0068036633990197267 0.0025232864800824478 0 0.012323527389044011 0.0047216791159113043 0 0.012374039402896657 0.0047002698221430576 0 0.012264991364307927 0.0045871522614608562 0 0.00666784213563927 0.0029880301280016393 0 0.0071869550857069286 0.0032586492032486885 0 0.0068036633990197267 0.0025232864800824478 0 0.00666784213563927 0.0029880301280016393 0 0.0067509341712663545 0.003319919845570749 0 0.0071869550857069286 0.0032586492032486885 0 0.0067759631261788402 0.0036475837391430296 0 0.0067509341712663545 0.003319919845570749 0 0.0071869550857069286 0.0032586492032486885 0 0.012323527389044011 0.0047216791159113043 0 0.012315865289461289 0.00470702725157444 0 0.012374039402896657 0.0047002698221430576 0 0.012315865289461289 0.00470702725157444 0 0.0122944107543585 0.0047173779978011568 0 0.012374039402896657 0.0047002698221430576 0 0.01228885950234725 0.0046881116724695002 0 0.012315865289461289 0.00470702725157444 0 0.0122944107543585 0.0047173779978011568 0 0.01249541789417657 0.0047761337327892764 0 0.012386454654367026 0.0047080835789931382 0 0.012744461093312743 0.0048774222292856202 0 0.012754249607427394 0.0046177692936484596 0 0.012374039402896657 0.0047002698221430576 0 0.012754249607427394 0.0046177692936484596 0 0.012374039402896657 0.0047002698221430576 0 0.012515929576847917 0.0045428468936314732 0 0.012374039402896657 0.0047002698221430576 0 0.012268389846923491 0.0045814947339454948 0 0.012264991364307927 0.0045871522614608562 0 0.012267169436536253 0.0045705653675988814 0 0.012226711179486023 0.0045973348076725849 0 0.012268389846923491 0.0045814947339454948 0 0.012155210651570443 0.0047024625383062894 0 0.01192115604775588 0.0047967514703854642 0 0.012268389846923491 0.0045814947339454948 0 0.012515929576847917 0.0045428468936314732 0 0.012562834156087107 0.0043347003103853081 0 0.012374039402896657 0.0047002698221430576 0 0.012268389846923491 0.0045814947339454948 0 0.012515929576847917 0.0045428468936314732 0 0.012268389846923491 0.0045814947339454948 0 0.012155210651570443 0.0047024625383062894 0 0.01224942669627832 0.0046768006090493501 0 0.012155210651570443 0.0047024625383062894 0 0.012218287582088537 0.0047987883280726541 0 0.01224942669627832 0.0046768006090493501 0 0.012754249607427394 0.0046177692936484596 0 0.012515929576847917 0.0045428468936314732 0 0.012720107472174828 0.0044491787079584478 0 0.012515929576847917 0.0045428468936314732 0 0.012720107472174828 0.0044491787079584478 0 0.012562834156087107 0.0043347003103853081 0 0.01192115604775588 0.0047967514703854642 0 0.011889450957577801 0.0049829510526854916 0 0.011625697239815358 0.0050705104487569208 0 0.012773625737536095 0.0043401743593187549 0 0.012562834156087107 0.0043347003103853081 0 0.01284428894004151 0.0042077414534733414 0 0.012226711179486023 0.0045973348076725849 0 0.012292555460935304 0.0045133045560567051 0 0.012720107472174828 0.0044491787079584478 0 0.012773625737536095 0.0043401743593187549 0 0.012562834156087107 0.0043347003103853081 0 0.012155210651570443 0.0047024625383062894 0 0.012081393820970291 0.0048933452071322787 0 0.012218287582088537 0.0047987883280726541 0 0.012155210651570443 0.0047024625383062894 0 0.01192115604775588 0.0047967514703854642 0 0.011889450957577801 0.0049829510526854916 0 0.012155210651570443 0.0047024625383062894 0 0.01183366401092672 0.0049386968308777045 0 0.012081393820970291 0.0048933452071322787 0 0.012032738370986026 0.0048208405503006018 0 0.012089589947133389 0.0046929818702522641 0 0.01183366401092672 0.0049386968308777045 0 0.012081393820970291 0.0048933452071322787 0 0.012060076827455347 0.0051449406368297953 0 0.012081393820970291 0.0048933452071322787 0 0.012198158693491307 0.004931249477385732 0 0.012060076827455347 0.0051449406368297953 0 0.012081393820970291 0.0048933452071322787 0 0.012198158693491307 0.004931249477385732 0 0.012218287582088537 0.0047987883280726541 0 0.01228928076216605 0.0047518416850337204 0 0.012264991364307927 0.0045871522614608562 0 0.01243697162449563 0.0049670449174263453 0 0.0066439675693487094 0.0023697467408419033 0 0.0068036633990197267 0.0025232864800824478 0 0.0066118015960526157 0.0021405263155697889 0 0.012198158693491307 0.004931249477385732 0 0.012285110021504059 0.004884685213356099 0 0.012218287582088537 0.0047987883280726541 0 0.0096981636624138123 0.0032447621870380521 0 0.0082639024446538849 0.0052015569919544175 0 0.012198158693491307 0.004931249477385732 0 0.012285110021504059 0.004884685213356099 0 0.012287960943901218 0.0049806462319393072 0 0.012218287582088537 0.0047987883280726541 0 0.01228928076216605 0.0047518416850337204 0 0.01224942669627832 0.0046768006090493501 0 0.012285110021504059 0.004884685213356099 0 0.012218287582088537 0.0047987883280726541 0 0.01228928076216605 0.0047518416850337204 0 0.012285110021504059 0.004884685213356099 0 0.01228928076216605 0.0047518416850337204 0 0.01243697162449563 0.0049670449174263453 0 0.012285110021504059 0.004884685213356099 0 0.01243697162449563 0.0049670449174263453 0 0.012287960943901218 0.0049806462319393072 0 0.0065732312892160501 0.0023159827965755311 0 0.0066439675693487094 0.0023697467408419033 0 0.0066118015960526157 0.0021405263155697889 0 0.0058961159060820952 0.0026904769339427224 0 0.0082639024446538849 0.0052015569919544175 0 0.0051299930922318613 0.0045227990922897532 0 0.00363685548710776 0.0032006695704773634 0 0.0031322827843914903 0.0048846266426175022 0 0.0015293564576607454 0.0023493245015270355 0 0.0058961159060820952 0.0026904769339427224 0 0.0058961159060820952 0.0026904769339427224 0 0.0062442500294037197 0.0026723549739074994 0 0.0063613663360024015 0.0026154229584219911 0 0.0065550426353124412 0.0022829290790255135 0 0.0065847052495863244 0.0024977657493945294 0 0.0062664061124085299 0.0024506577509699696 0 0.0058961159060820952 0.0026904769339427224 0 0.0065550426353124412 0.0022829290790255135 0 0.0066439675693487094 0.0023697467408419033 0 0.0065847052495863244 0.0024977657493945294 0 0.0066439675693487094 0.0023697467408419033 0 0.0065847052495863244 0.0024977657493945294 0 0.0068036633990197267 0.0025232864800824478 0 0.0057877104979322915 0.0023647053568186895 0 0.0060754051984918808 0.0024933539087792773 0 0.0062016687499598933 0.0018829025227036955 0 0.0065640736324349717 0.0026945723051949675 0 0.0065847052495863244 0.0024977657493945294 0 0.0068036633990197267 0.0025232864800824478 0 0.0065640736324349717 0.0026945723051949675 0 0.0063613663360024015 0.0026154229584219911 0 0.0065847052495863244 0.0024977657493945294 0 0.012268389846923491 0.0045814947339454948 0 0.012264991364307927 0.0045871522614608562 0 0.01224942669627832 0.0046768006090493501 0 0.01228928076216605 0.0047518416850337204 0 0.012264991364307927 0.0045871522614608562 0 0.01224942669627832 0.0046768006090493501 0 0.013459745740911692 0.0045368159047470642 0 0.013373191241830557 0.0046691489824219647 0 0.01335019098875858 0.0045824721010838719 0 0.013459745740911692 0.0045368159047470642 0 0.013373191241830557 0.0046691489824219647 0 0.013478951997528658 0.0046533008609848841 0 0.013596611249874482 0.0045572892836193649 0 0.013459745740911692 0.0045368159047470642 0 0.013478951997528658 0.0046533008609848841 0 0.013478951997528658 0.0046533008609848841 0 0.013504077290637427 0.0047374108161702443 0 0.013410381714778968 0.0047581264553542757 0 0.013592750855750733 0.0046752348625464478 0 0.013478951997528658 0.0046533008609848841 0 0.013504077290637427 0.0047374108161702443 0 0.013527147908524528 0.0048668385612770614 0 0.013573324216342832 0.0047795016730307746 0 0.013469980919508382 0.0048231905113772389 0 0.013504077290637427 0.0047374108161702443 0 0.013469980919508382 0.0048231905113772389 0 0.013410381714778968 0.0047581264553542757 0 0.013573324216342832 0.0047795016730307746 0 0.013504077290637427 0.0047374108161702443 0 0.013469980919508382 0.0048231905113772389 0 0.013363916882455052 0.0048613552696072215 0 0.013469980919508382 0.0048231905113772389 0 0.013410381714778968 0.0047581264553542757 0 0.013373191241830557 0.0046691489824219647 0 0.013478951997528658 0.0046533008609848841 0 0.013410381714778968 0.0047581264553542757 0 0.013373191241830557 0.0046691489824219647 0 0.013410381714778968 0.0047581264553542757 0 0.013309886207337841 0.0048015488573616184 0 0.013373191241830557 0.0046691489824219647 0 0.013309886207337841 0.0048015488573616184 0 0.013272693728883468 0.0047033967106399396 0 0.013363916882455052 0.0048613552696072215 0 0.013410381714778968 0.0047581264553542757 0 0.013309886207337841 0.0048015488573616184 0 0.013222888974616145 0.0049255324903049388 0 0.013363916882455052 0.0048613552696072215 0 0.013309886207337841 0.0048015488573616184 0 0.013222888974616145 0.0049255324903049388 0 0.013309886207337841 0.0048015488573616184 0 0.013208180168987661 0.0048094777314081376 0 0.013208180168987661 0.0048094777314081376 0 0.013272693728883468 0.0047033967106399396 0 0.013145015187602714 0.0047000400235051665 0 0.013309886207337841 0.0048015488573616184 0 0.013208180168987661 0.0048094777314081376 0 0.013272693728883468 0.0047033967106399396 0 0.013272693728883468 0.0047033967106399396 0 0.013262560546473366 0.0046138519744387263 0 0.013145015187602714 0.0047000400235051665 0 0.013272693728883468 0.0047033967106399396 0 0.01335019098875858 0.0045824721010838719 0 0.013262560546473366 0.0046138519744387263 0 0.013373191241830557 0.0046691489824219647 0 0.013272693728883468 0.0047033967106399396 0 0.01335019098875858 0.0045824721010838719 0 0.01335019098875858 0.0045824721010838719 0 0.013262560546473366 0.0046138519744387263 0 0.013318228108608211 0.004524001652664515 0 0.013145015187602714 0.0047000400235051665 0 0.013001609775334481 0.0046015694186177427 0 0.013217379200389972 0.0045492457021070474 0 0.013262560546473366 0.0046138519744387263 0 0.013145015187602714 0.0047000400235051665 0 0.013217379200389972 0.0045492457021070474 0 0.013145015187602714 0.0047000400235051665 0 0.012962481195526274 0.0047740672733711147 0 0.013001609775334481 0.0046015694186177427 0 0.013000594329926115 0.0049546145571691281 0 0.013093636559725019 0.0048397343940752551 0 0.012962481195526274 0.0047740672733711147 0 0.013208180168987661 0.0048094777314081376 0 0.013145015187602714 0.0047000400235051665 0 0.013093636559725019 0.0048397343940752551 0 0.013222888974616145 0.0049255324903049388 0 0.013208180168987661 0.0048094777314081376 0 0.013093636559725019 0.0048397343940752551 0 0.013145015187602714 0.0047000400235051665 0 0.013093636559725019 0.0048397343940752551 0 0.012962481195526274 0.0047740672733711147 0 0.013000594329926115 0.0049546145571691281 0 0.012744461093312743 0.0048774222292856202 0 0.012962481195526274 0.0047740672733711147 0 0.012694256526313435 0.0048739175539999312 0 0.01249541789417657 0.0047761337327892764 0 0.012754249607427394 0.0046177692936484596 0 0.012962481195526274 0.0047740672733711147 0 0.013001609775334481 0.0046015694186177427 0 0.012744461093312743 0.0048774222292856202 0 0.012754249607427394 0.0046177692936484596 0 0.012962481195526274 0.0047740672733711147 0 0.013001609775334481 0.0046015694186177427 0 0.012967869109134247 0.0044109235657540232 0 0.013107910621503027 0.0045151475004798422 0 0.012754249607427394 0.0046177692936484596 0 0.013001609775334481 0.0046015694186177427 0 0.012967869109134247 0.0044109235657540232 0 0.012754249607427394 0.0046177692936484596 0 0.012720107472174828 0.0044491787079584478 0 0.012967869109134247 0.0044109235657540232 0 0.012773625737536095 0.0043401743593187549 0 0.012924663625639104 0.0042826630069777352 0 0.012967869109134247 0.0044109235657540232 0 0.012720107472174828 0.0044491787079584478 0 0.012773625737536095 0.0043401743593187549 0 0.012967869109134247 0.0044109235657540232 0 0.012924663625639104 0.0042826630069777352 0 0.012952760653325176 0.0042271291152841334 0 0.01284428894004151 0.0042077414534733414 0 0.012773625737536095 0.0043401743593187549 0 0.012924663625639104 0.0042826630069777352 0 0.01284428894004151 0.0042077414534733414 0 0.012924663625639104 0.0042826630069777352 0 0.013021862767630539 0.0042538573175441687 0 0.012952760653325176 0.0042271291152841334 0 0.012924663625639104 0.0042826630069777352 0 0.012967869109134247 0.0044109235657540232 0 0.013021862767630539 0.0042538573175441687 0 0.012978497379166655 0.0044281165770613459 0 0.013114719018683932 0.0043237530115336426 0 0.012967869109134247 0.0044109235657540232 0 0.013197842308148196 0.0044000280187508796 0 0.013204533004670085 0.0044607242318517697 0 0.013197842308148196 0.0044000280187508796 0 0.01329574272457942 0.0044513558805459163 0 0.013302967252127972 0.0044517994912424055 0 0.013197842308148196 0.0044000280187508796 0 0.013204533004670085 0.0044607242318517697 0 0.01329574272457942 0.0044513558805459163 0 0.013204533004670085 0.0044607242318517697 0 0.013275870061073499 0.0044946552750227253 0 0.01329574272457942 0.0044513558805459163 0 0.013204533004670085 0.0044607242318517697 0 0.013107910621503027 0.0045151475004798422 0 0.013217379200389972 0.0045492457021070474 0 0.013204533004670085 0.0044607242318517697 0 0.013217379200389972 0.0045492457021070474 0 0.013275870061073499 0.0044946552750227253 0 0.013001609775334481 0.0046015694186177427 0 0.013107910621503027 0.0045151475004798422 0 0.013217379200389972 0.0045492457021070474 0 0.012967869109134247 0.0044109235657540232 0 0.013204533004670085 0.0044607242318517697 0 0.013107910621503027 0.0045151475004798422 0 0.013217379200389972 0.0045492457021070474 0 0.013318228108608211 0.004524001652664515 0 0.013275870061073499 0.0044946552750227253 0 0.013262560546473366 0.0046138519744387263 0 0.013217379200389972 0.0045492457021070474 0 0.013318228108608211 0.004524001652664515 0 0.01335019098875858 0.0045824721010838719 0 0.013318228108608211 0.004524001652664515 0 0.013393131547792089 0.0044836992756531104 0 0.013334468487997599 0.00446554737447528 0 0.013396373801585751 0.0044508262690909359 0 0.013393131547792089 0.0044836992756531104 0 0.013318228108608211 0.004524001652664515 0 0.013334468487997599 0.00446554737447528 0 0.013393131547792089 0.0044836992756531104 0 0.013318228108608211 0.004524001652664515 0 0.013275870061073499 0.0044946552750227253 0 0.013334468487997599 0.00446554737447528 0 0.013275870061073499 0.0044946552750227253 0 0.01329574272457942 0.0044513558805459163 0 0.013334468487997599 0.00446554737447528 0 0.01329574272457942 0.0044513558805459163 0 0.01335853205223274 0.0044682879602613241 0 0.013334468487997599 0.00446554737447528 0 0.01329574272457942 0.0044513558805459163 0 0.013302967252127972 0.0044517994912424055 0 0.013341288718859408 0.0044785682921230354 0 0.01329574272457942 0.0044513558805459163 0 0.01335853205223274 0.0044682879602613241 0 0.013341288718859408 0.0044785682921230354 0 0.01335853205223274 0.0044682879602613241 0 0.013394127855491 0.0044786467357879195 0 0.013371713797395433 0.004521811588084396 0 0.01335853205223274 0.0044682879602613241 0 0.013371713797395433 0.004521811588084396 0 0.013341288718859408 0.0044785682921230354 0 0.01335853205223274 0.0044682879602613241 0 0.013334468487997599 0.00446554737447528 0 0.013396373801585751 0.0044508262690909359 0 0.01335853205223274 0.0044682879602613241 0 0.013396373801585751 0.0044508262690909359 0 0.013394127855491 0.0044786467357879195 0 0.013396373801585751 0.0044508262690909359 0 0.013394127855491 0.0044786467357879195 0 0.013452647003546085 0.0044131627552077375 0 0.013394127855491 0.0044786467357879195 0 0.013452647003546085 0.0044131627552077375 0 0.013359861487320868 0.0046290962561156574 0 0.013396373801585751 0.0044508262690909359 0 0.013452647003546085 0.0044131627552077375 0 0.013473786113194859 0.004434297056910886 0 0.013396373801585751 0.0044508262690909359 0 0.013473786113194859 0.004434297056910886 0 0.013393131547792089 0.0044836992756531104 0 0.013459745740911692 0.0045368159047470642 0 0.01335019098875858 0.0045824721010838719 0 0.013393131547792089 0.0044836992756531104 0 0.013459745740911692 0.0045368159047470642 0 0.013473786113194859 0.004434297056910886 0 0.013393131547792089 0.0044836992756531104 0 0.013587917969901749 0.0044370537642797695 0 0.013459745740911692 0.0045368159047470642 0 0.013473786113194859 0.004434297056910886 0 0.013919345763035771 0.0055909390575679951 0 0.013944408143738365 0.0055903976927911062 0 0.013915983709287091 0.0056258495498086487 0 0.013866373285348442 0.0056022646821179412 0 0.013919345763035771 0.0055909390575679951 0 0.013915983709287091 0.0056258495498086487 0 0.013944408143738365 0.0055903976927911062 0 0.013950151586357363 0.0056396533780469858 0 0.013915983709287091 0.0056258495498086487 0 0.013919345763035771 0.0055909390575679951 0 0.013944408143738365 0.0055903976927911062 0 0.013928522534614129 0.0055691615929558723 0 0.013928522534614129 0.0055691615929558723 0 0.01392154263963157 0.0055418820701359168 0 0.013955459359658615 0.0055627165152539538 0 0.013944408143738365 0.0055903976927911062 0 0.013928522534614129 0.0055691615929558723 0 0.013955459359658615 0.0055627165152539538 0 0.013892442709823684 0.0055661507383238011 0 0.013919345763035771 0.0055909390575679951 0 0.013928522534614129 0.0055691615929558723 0 0.013892442709823684 0.0055661507383238011 0 0.013928522534614129 0.0055691615929558723 0 0.01392154263963157 0.0055418820701359168 0 0.013471509642739177 0.0049711710404569771 0 0.013367136665134288 0.0046743569982300968 0 0.013359861487320868 0.0046290962561156574 0 0.013394127855491 0.0044786467357879195 0 0.013359861487320868 0.0046290962561156574 0 0.013371713797395433 0.004521811588084396 0 0.013359861487320868 0.0046290962561156574 0 0.013354683199019919 0.0045373792797323096 0 0.013371713797395433 0.004521811588084396 0 0.013367136665134288 0.0046743569982300968 0 0.013359861487320868 0.0046290962561156574 0 0.013354683199019919 0.0045373792797323096 0 0.01392154263963157 0.0055418820701359168 0 0.01400113477674691 0.0055365776867391551 0 0.013955459359658615 0.0055627165152539538 0 0.013367136665134288 0.0046743569982300968 0 0.013354683199019919 0.0045373792797323096 0 0.013329291057569271 0.0044494128270951708 0 0.013681822064909897 0.0051477756793302815 0 0.013409605884933177 0.0046780081271677841 0 0.013354683199019919 0.0045373792797323096 0 0.013341288718859408 0.0044785682921230354 0 0.01333405946760583 0.0044775376401441783 0 0.013354683199019919 0.0045373792797323096 0 0.013371713797395433 0.004521811588084396 0 0.013341288718859408 0.0044785682921230354 0 0.013354683199019919 0.0045373792797323096 0 0.01333405946760583 0.0044775376401441783 0 0.013329291057569271 0.0044494128270951708 0 0.013302967252127972 0.0044517994912424055 0 0.01333405946760583 0.0044775376401441783 0 0.013329291057569271 0.0044494128270951708 0 0.013302967252127972 0.0044517994912424055 0 0.013341288718859408 0.0044785682921230354 0 0.01333405946760583 0.0044775376401441783 0 0.013409605884933177 0.0046780081271677841 0 0.013055991758515521 0.0055423612291498562 0 0.01400113477674691 0.0055365776867391551 0 0.013985990936136556 0.0055589707479189307 0 0.013955459359658615 0.0055627165152539538 0 0.013944408143738365 0.0055903976927911062 0 0.013985990936136556 0.0055589707479189307 0 0.013950151586357363 0.0056396533780469858 0 0.012656921127667512 0.006955330709819664 0 0.012696023449140675 0.0068679240855531436 0 0.012759436858628235 0.0069095704046561865 0 0.012656921127667512 0.006955330709819664 0 0.012631894507220976 0.0069185605797025167 0 0.012696023449140675 0.0068679240855531436 0 0.013055991758515521 0.0055423612291498562 0 0.01335613288704797 0.0063628113945391924 0 0.013944408143738365 0.0055903976927911062 0 0.013985990936136556 0.0055589707479189307 0 0.013955459359658615 0.0055627165152539538 0 0.013055991758515521 0.0055423612291498562 0 0.012307791894313079 0.0059558766663913984 0 0.012656921127667512 0.006955330709819664 0 0.012631894507220976 0.0069185605797025167 0 0.012577077710474652 0.0069502289420512522 0 0.012347463748596774 0.0072025866295439764 0 0.012135013738012507 0.0071313953880033426 0 0.012444962174025713 0.0069238267407277908 0 0.012135013738012507 0.0071313953880033426 0 0.011900895804165579 0.00711408008274111 0 0.011903795027641566 0.0075778831758716589 0 0.012370560999806308 0.0071696497874980999 0 0.012307791894313079 0.0059558766663913984 0 0.012347463748596774 0.0072025866295439764 0 0.012135013738012507 0.0071313953880033426 0 0.011903795027641566 0.0075778831758716589 0 0.013409605884933177 0.0046780081271677841 0 0.012889860620560346 0.0042047725571630465 0 0.013047887508526966 0.004193227181262687 0 0.01306633649617483 0.004182145154913823 0 0.012989615710339492 0.0041604657375199977 0 0.013047887508526966 0.004193227181262687 0 0.012989615710339492 0.0041604657375199977 0 0.012974959735531585 0.004175068838837598 0 0.01308758413426713 0.0041690989361741898 0 0.012993824685947682 0.0042126790527492741 0 0.012974959735531585 0.004175068838837598 0 0.013114719018683932 0.0043237530115336426 0 0.013409605884933177 0.0046780081271677841 0 0.013197842308148196 0.0044000280187508796 0 0.013302967252127972 0.0044517994912424055 0 0.013329291057569271 0.0044494128270951708 0 0.013021862767630539 0.0042538573175441687 0 0.012993824685947682 0.0042126790527492741 0 0.012952760653325176 0.0042271291152841334 0 0.013021862767630539 0.0042538573175441687 0 0.01308758413426713 0.0041690989361741898 0 0.012993824685947682 0.0042126790527492741 0 0.012307791894313079 0.0059558766663913984 0 0.010737360974054734 0.006876135041898314 0 0.012307791894313079 0.0059558766663913984 0 0.012292555460935304 0.0045133045560567051 0 0.012989615710339492 0.0041604657375199977 0 0.012974959735531585 0.004175068838837598 0 0.01284428894004151 0.0042077414534733414 0 0.011334748016013597 0.005345101174467801 0 0.011625697239815358 0.0050705104487569208 0 0.011632382522817061 0.0052848600886415825 0 0.012993824685947682 0.0042126790527492741 0 0.012974959735531585 0.004175068838837598 0 0.012952760653325176 0.0042271291152841334 0 0.012974959735531585 0.004175068838837598 0 0.012952760653325176 0.0042271291152841334 0 0.01284428894004151 0.0042077414534733414 0 0.010105444557949747 0.0089561199733975052 0 0.010737360974054734 0.006876135041898314 0 0.0091711613047599852 0.0091915684704190637 0 0.0090543984905481906 0.009369509032689011 0 0.0090831734648003804 0.0093692196097624626 0 0.011900895804165579 0.00711408008274111 0 0.011903795027641566 0.0075778831758716589 0 0.011367522410366006 0.0076593706620627791 0 0.0089694539964374868 0.0094229076944042124 0 0.0091711613047599852 0.0091915684704190637 0 0.0090543984905481906 0.009369509032689011 0 0.0091711613047599852 0.0091915684704190637 0 0.0091523698741676242 0.0092949712657769013 0 0.0090831734648003804 0.0093692196097624626 0 0.0091523698741676242 0.0092949712657769013 0 0.0090831734648003804 0.0093692196097624626 0 0.0091245791687114882 0.0093715749402218957 0 0.0089694539964374868 0.0094229076944042124 0 0.00905415465685485 0.0094335595700846594 0 0.0090746595097117924 0.0094908829258033393 0 0.0090543984905481906 0.009369509032689011 0 0.00905415465685485 0.0094335595700846594 0 0.0090831734648003804 0.0093692196097624626 0 0.0089694539964374868 0.0094229076944042124 0 0.0090543984905481906 0.009369509032689011 0 0.00905415465685485 0.0094335595700846594 0 0.00905415465685485 0.0094335595700846594 0 0.0091052206016942454 0.0094219996206285662 0 0.0090746595097117924 0.0094908829258033393 0 0.00905415465685485 0.0094335595700846594 0 0.0091052206016942454 0.0094219996206285662 0 0.0090831734648003804 0.0093692196097624626 0 0.009157797184778391 0.0093996125241025165 0 0.0091426745775166265 0.0094790494566047573 0 0.0091949822418554636 0.00945599487156552 0 0.0091052206016942454 0.0094219996206285662 0 0.009157797184778391 0.0093996125241025165 0 0.0091426745775166265 0.0094790494566047573 0 0.0091523698741676242 0.0092949712657769013 0 0.009157797184778391 0.0093996125241025165 0 0.0091245791687114882 0.0093715749402218957 0 0.0091523698741676242 0.0092949712657769013 0 0.009157797184778391 0.0093996125241025165 0 0.0092195360822232789 0.0093783000779837714 0 0.0091052206016942454 0.0094219996206285662 0 0.009157797184778391 0.0093996125241025165 0 0.0091245791687114882 0.0093715749402218957 0 0.0091052206016942454 0.0094219996206285662 0 0.0090831734648003804 0.0093692196097624626 0 0.0091245791687114882 0.0093715749402218957 0 0.0089694539964374868 0.0094229076944042124 0 0.0090916762203622544 0.0096183226121759561 0 0.0089888666756525182 0.0098143390292134494 0 0.0091359702864967657 0.009549584265879334 0 0.0090746595097117924 0.0094908829258033393 0 0.0090916762203622544 0.0096183226121759561 0 0.0091359702864967657 0.009549584265879334 0 0.0091426745775166265 0.0094790494566047573 0 0.0090746595097117924 0.0094908829258033393 0 0.0091359702864967657 0.009549584265879334 0 0.0091426745775166265 0.0094790494566047573 0 0.0091947153584905576 0.0095329333284049616 0 0.0091052206016942454 0.0094219996206285662 0 0.0091426745775166265 0.0094790494566047573 0 0.0090746595097117924 0.0094908829258033393 0 0.0089694539964374868 0.0094229076944042124 0 0.0090746595097117924 0.0094908829258033393 0 0.0090916762203622544 0.0096183226121759561 0 0.0091359702864967657 0.009549584265879334 0 0.0090916762203622544 0.0096183226121759561 0 0.0092034667723698074 0.0096205747293212837 0 0.0090916762203622544 0.0096183226121759561 0 0.0091455788083495901 0.0097381408220707372 0 0.0092034667723698074 0.0096205747293212837 0 0.0091455788083495901 0.0097381408220707372 0 0.0089888666756525182 0.0098143390292134494 0 0.0091745637608536528 0.009908413601098549 0 0.0090916762203622544 0.0096183226121759561 0 0.0091455788083495901 0.0097381408220707372 0 0.0089888666756525182 0.0098143390292134494 0 0.0094160383122199459 0.010007517905363188 0 0.0092515975004639848 0.0098309480504090267 0 0.0092527707394032353 0.010019886197963049 0 0.012135013738012507 0.0071313953880033426 0 0.011900895804165579 0.00711408008274111 0 0.012427653188114169 0.0066455157310672227 0 0.012135013738012507 0.0071313953880033426 0 0.012444962174025713 0.0069238267407277908 0 0.012427653188114169 0.0066455157310672227 0 0.0094463245197368255 0.009614659297259593 0 0.0094160383122199459 0.010007517905363188 0 0.0092515975004639848 0.0098309480504090267 0 0.010105444557949747 0.0089561199733975052 0 0.0090715763049093248 0.01003543118342898 0 0.010105444557949747 0.0089561199733975052 0 0.010939899519899449 0.0081292236569157246 0 0.012370560999806308 0.0071696497874980999 0 0.012715780200730366 0.0068566087668568681 0 0.012444962174025713 0.0069238267407277908 0 0.012696023449140675 0.0068679240855531436 0 0.012542882173941727 0.0067647462810212292 0 0.012347463748596774 0.0072025866295439764 0 0.012444962174025713 0.0069238267407277908 0 0.012696023449140675 0.0068679240855531436 0 0.012696023449140675 0.0068679240855531436 0 0.012542882173941727 0.0067647462810212292 0 0.012594486553308437 0.0066574941906670853 0 0.012696023449140675 0.0068679240855531436 0 0.012594486553308437 0.0066574941906670853 0 0.012730197454836799 0.0067860256853663464 0 0.012542882173941727 0.0067647462810212292 0 0.012427653188114169 0.0066455157310672227 0 0.012594486553308437 0.0066574941906670853 0 0.012444962174025713 0.0069238267407277908 0 0.012542882173941727 0.0067647462810212292 0 0.012427653188114169 0.0066455157310672227 0 0.010939899519899449 0.0081292236569157246 0 0.010860970751791347 0.0082609119270515789 0 0.0092515975004639848 0.0098309480504090267 0 0.0092527707394032353 0.010019886197963049 0 0.0091137452562846631 0.010037108459040133 0 0.012427653188114169 0.0066455157310672227 0 0.012575889898202224 0.0065026897011201288 0 0.012562947270069133 0.0065176912080493182 0 0.012562947270069133 0.0065176912080493182 0 0.012594486553308437 0.0066574941906670853 0 0.012693386502139067 0.0065961631471391025 0 0.012427653188114169 0.0066455157310672227 0 0.012562947270069133 0.0065176912080493182 0 0.012594486553308437 0.0066574941906670853 0 0.012562947270069133 0.0065176912080493182 0 0.012839194622029692 0.0065310090747578266 0 0.012693386502139067 0.0065961631471391025 0 0.012594486553308437 0.0066574941906670853 0 0.012845153786199551 0.006672297726231814 0 0.012693386502139067 0.0065961631471391025 0 0.013233324607620514 0.0065766237451047801 0 0.012960016685293705 0.0063720321140926873 0 0.01323975878640705 0.0058896540068197568 0 0.012562947270069133 0.0065176912080493182 0 0.012960016685293705 0.0063720321140926873 0 0.01323975878640705 0.0058896540068197568 0 0.012845153786199551 0.006672297726231814 0 0.012839194622029692 0.0065310090747578266 0 0.012693386502139067 0.0065961631471391025 0 0.012562947270069133 0.0065176912080493182 0 0.012839194622029692 0.0065310090747578266 0 0.012960016685293705 0.0063720321140926873 0 0.013233324607620514 0.0065766237451047801 0 0.012839194622029692 0.0065310090747578266 0 0.012960016685293705 0.0063720321140926873 0 0.013233324607620514 0.0065766237451047801 0 0.012845153786199551 0.006672297726231814 0 0.012839194622029692 0.0065310090747578266 0 0.01389238728387762 0.0057524143658545549 0 0.013894635021158046 0.0056647823263474128 0 0.013950151586357363 0.0056396533780469858 0 0.013563081420341235 0.0061286583561754723 0 0.01335613288704797 0.0063628113945391924 0 0.013233324607620514 0.0065766237451047801 0 0.012845153786199551 0.006672297726231814 0 0.012759436858628235 0.0069095704046561865 0 0.012845153786199551 0.006672297726231814 0 0.012730197454836799 0.0067860256853663464 0 0.012759436858628235 0.0069095704046561865 0 0.012594486553308437 0.0066574941906670853 0 0.012845153786199551 0.006672297726231814 0 0.012730197454836799 0.0067860256853663464 0 0.012696023449140675 0.0068679240855531436 0 0.012730197454836799 0.0067860256853663464 0 0.012759436858628235 0.0069095704046561865 0 0.013894635021158046 0.0056647823263474128 0 0.013950151586357363 0.0056396533780469858 0 0.013915983709287091 0.0056258495498086487 0 0.0092542228338195823 0.0095111114971258154 0 0.0092338251202104676 0.0095261604513215536 0 0.0092999203271594832 0.0092235508525227924 0 0.0097035571177076715 0.0092443780770062878 0 0.0096701972975551578 0.0093299231935007765 0 0.0097223740178096676 0.0093934462474676347 0 0.0097035571177076715 0.0092443780770062878 0 0.0096291803502479845 0.0092737180157762469 0 0.0096598503032837759 0.0091815264234509555 0 0.0097035571177076715 0.0092443780770062878 0 0.0096291803502479845 0.0092737180157762469 0 0.0096701972975551578 0.0093299231935007765 0 0.0096291803502479845 0.0092737180157762469 0 0.0095511455775997567 0.0093235683553355066 0 0.0095574862124237058 0.0092373468265297791 0 0.0096291803502479845 0.0092737180157762469 0 0.0096251747454756849 0.0093584277176666369 0 0.0095511455775997567 0.0093235683553355066 0 0.0096291803502479845 0.0092737180157762469 0 0.0096701972975551578 0.0093299231935007765 0 0.0096251747454756849 0.0093584277176666369 0 0.0096309580238360237 0.0094550500165429801 0 0.0097223740178096676 0.0093934462474676347 0 0.0096094513686245005 0.0095218479564723943 0 0.0096701972975551578 0.0093299231935007765 0 0.0096251747454756849 0.0093584277176666369 0 0.0096700828177817191 0.0093819274982438524 0 0.0096251747454756849 0.0093584277176666369 0 0.0096139568912124284 0.0094068481552484953 0 0.0096700828177817191 0.0093819274982438524 0 0.0096467378807039619 0.009419522735499555 0 0.0096139568912124284 0.0094068481552484953 0 0.0096700828177817191 0.0093819274982438524 0 0.0096251747454756849 0.0093584277176666369 0 0.0095752203663977842 0.0093929132130786096 0 0.0095511455775997567 0.0093235683553355066 0 0.0096251747454756849 0.0093584277176666369 0 0.0095752203663977842 0.0093929132130786096 0 0.0096139568912124284 0.0094068481552484953 0 0.0095752203663977842 0.0093929132130786096 0 0.0095938484178059794 0.0094476506139477487 0 0.0095476548027168991 0.0094600549976215399 0 0.0095752203663977842 0.0093929132130786096 0 0.0095938484178059794 0.0094476506139477487 0 0.0096139568912124284 0.0094068481552484953 0 0.0095938484178059794 0.0094476506139477487 0 0.0096467378807039619 0.009419522735499555 0 0.0096139568912124284 0.0094068481552484953 0 0.0095938484178059794 0.0094476506139477487 0 0.0096467378807039619 0.009419522735499555 0 0.0096309580238360237 0.0094550500165429801 0 0.0096467378807039619 0.009419522735499555 0 0.0096309580238360237 0.0094550500165429801 0 0.0097223740178096676 0.0093934462474676347 0 0.0096701972975551578 0.0093299231935007765 0 0.0097223740178096676 0.0093934462474676347 0 0.0096700828177817191 0.0093819274982438524 0 0.0096467378807039619 0.009419522735499555 0 0.0097223740178096676 0.0093934462474676347 0 0.0096700828177817191 0.0093819274982438524 0 0.0049525285740836698 0.0069757735325572503 0 0.0047105918511147872 0.010028987894334476 0 0.0039033883179383092 0.0074331116513948843 0 0.0040692622714204821 0.010501008667873738 0 0.0068309807933263139 0.0086615573073502376 0 0.0092542228338195823 0.0095111114971258154 0 0.0095184527105394851 0.0093793571607951494 0 0.0093802419790940967 0.0099051241528516614 0 0.0049525285740836698 0.0069757735325572503 0 0.0039033883179383092 0.0074331116513948843 0 0.0041219170491176129 0.0067866049539278255 0 0.0017466250582359659 0.0069819861975874958 0 0.0038306557612062487 0.0072046578769926605 0 0.0092542228338195823 0.0095111114971258154 0 0.0095184527105394851 0.0093793571607951494 0 0.0092999203271594832 0.0092235508525227924 0 0.0039033883179383092 0.0074331116513948843 0 0.0041219170491176129 0.0067866049539278255 0 0.0031322827843914903 0.0048846266426175022 0 0.0095184527105394851 0.0093793571607951494 0 0.0093159519895114357 0.0088448258330334224 0 0.0092971135678788508 0.0089242104293486037 0 0.0095184527105394851 0.0093793571607951494 0 0.0092999203271594832 0.0092235508525227924 0 0.0092971135678788508 0.0089242104293486037 0 0.0068309807933263139 0.0086615573073502376 0 0.0082639024446538849 0.0052015569919544175 0 0.0051299930922318613 0.0045227990922897532 0 0.0042875266241957513 0.005595926173471712 0 0.0031322827843914903 0.0048846266426175022 0 0.0049358693759020142 0.0069688949133307225 0 0.0041219170491176129 0.0067866049539278255 0 0.0042875266241957513 0.005595926173471712 0 0.0041219170491176129 0.0067866049539278255 0 0.0042875266241957513 0.005595926173471712 0 0.0031322827843914903 0.0048846266426175022 0 0.0082639024446538849 0.0052015569919544175 0 0.0097919471040889203 0.00715832492576141 0 0.01243697162449563 0.0049670449174263453 0 0.01242531061339317 0.0050145589430250319 0 0.012287960943901218 0.0049806462319393072 0 0.0097919471040889203 0.00715832492576141 0 0.01095306384970667 0.0071424384036118662 0 0.0097035571177076715 0.0092443780770062878 0 0.0097223740178096676 0.0093934462474676347 0 0.009827276321645961 0.0090331779060876041 0 0.0094056625803630757 0.0098331433799241624 0 0.0097919471040889203 0.00715832492576141 0 0.0092338251202104676 0.0095261604513215536 0 0.0092999203271594832 0.0092235508525227924 0 0.0092971135678788508 0.0089242104293486037 0 0.01242531061339317 0.0050145589430250319 0 0.012287960943901218 0.0049806462319393072 0 0.012060076827455347 0.0051449406368297953 0 0.009827276321645961 0.0090331779060876041 0 0.0096598503032837759 0.0091815264234509555 0 0.0094720747925324065 0.0091243724321397185 0 0.0097035571177076715 0.0092443780770062878 0 0.009827276321645961 0.0090331779060876041 0 0.0096598503032837759 0.0091815264234509555 0 0.0096291803502479845 0.0092737180157762469 0 0.0096598503032837759 0.0091815264234509555 0 0.0095574862124237058 0.0092373468265297791 0 0.012198158693491307 0.004931249477385732 0 0.012287960943901218 0.0049806462319393072 0 0.012060076827455347 0.0051449406368297953 0 0.0094720747925324065 0.0091243724321397185 0 0.0095574862124237058 0.0092373468265297791 0 0.009479243751869388 0.0092832105005454194 0 0.0096598503032837759 0.0091815264234509555 0 0.0094720747925324065 0.0091243724321397185 0 0.0095574862124237058 0.0092373468265297791 0 0.0091711613047599852 0.0091915684704190637 0 0.0094720747925324065 0.0091243724321397185 0 0.0092434287245028151 0.0093107601587360117 0 0.01183366401092672 0.0049386968308777045 0 0.011525937138311539 0.0052753925399479026 0 0.012060076827455347 0.0051449406368297953 0 0.010737360974054734 0.006876135041898314 0 0.01095306384970667 0.0071424384036118662 0 0.011889450957577801 0.0049829510526854916 0 0.011625697239815358 0.0050705104487569208 0 0.011632382522817061 0.0052848600886415825 0 0.012089589947133389 0.0046929818702522641 0 0.010737360974054734 0.006876135041898314 0 0.0094720747925324065 0.0091243724321397185 0 0.0092434287245028151 0.0093107601587360117 0 0.0093666560355968199 0.0093299160053213152 0 0.0091711613047599852 0.0091915684704190637 0 0.0091523698741676242 0.0092949712657769013 0 0.0092434287245028151 0.0093107601587360117 0 0.0091523698741676242 0.0092949712657769013 0 0.0092434287245028151 0.0093107601587360117 0 0.0092195360822232789 0.0093783000779837714 0 0.0092434287245028151 0.0093107601587360117 0 0.0092884862496390875 0.0093990171875480248 0 0.0093666560355968199 0.0093299160053213152 0 0.0093523762646405134 0.0094496168357887569 0 0.0092884862496390875 0.0093990171875480248 0 0.0093666560355968199 0.0093299160053213152 0 0.0093523762646405134 0.0094496168357887569 0 0.0092884862496390875 0.0093990171875480248 0 0.0092988077865079968 0.0094785309584660173 0 0.0092884862496390875 0.0093990171875480248 0 0.0092514869821567619 0.0094457341043936872 0 0.0092988077865079968 0.0094785309584660173 0 0.0092434287245028151 0.0093107601587360117 0 0.0092884862496390875 0.0093990171875480248 0 0.0092195360822232789 0.0093783000779837714 0 0.0092884862496390875 0.0093990171875480248 0 0.0092514869821567619 0.0094457341043936872 0 0.0092195360822232789 0.0093783000779837714 0 0.0092514869821567619 0.0094457341043936872 0 0.0092195360822232789 0.0093783000779837714 0 0.0091949822418554636 0.00945599487156552 0 0.009157797184778391 0.0093996125241025165 0 0.0092195360822232789 0.0093783000779837714 0 0.0091949822418554636 0.00945599487156552 0 0.009479243751869388 0.0092832105005454194 0 0.0094397489032898574 0.0093616224587613726 0 0.00949489674922235 0.0093616675970739256 0 0.0095511455775997567 0.0093235683553355066 0 0.009479243751869388 0.0092832105005454194 0 0.00949489674922235 0.0093616675970739256 0 0.0095511455775997567 0.0093235683553355066 0 0.0095574862124237058 0.0092373468265297791 0 0.009479243751869388 0.0092832105005454194 0 0.0094720747925324065 0.0091243724321397185 0 0.009479243751869388 0.0092832105005454194 0 0.0093666560355968199 0.0093299160053213152 0 0.009479243751869388 0.0092832105005454194 0 0.0093666560355968199 0.0093299160053213152 0 0.0094397489032898574 0.0093616224587613726 0 0.0093523762646405134 0.0094496168357887569 0 0.0093666560355968199 0.0093299160053213152 0 0.0094055092156471089 0.0094118099117217989 0 0.0094397489032898574 0.0093616224587613726 0 0.0094055092156471089 0.0094118099117217989 0 0.0094614176283093158 0.009421864567918917 0 0.0093666560355968199 0.0093299160053213152 0 0.0094397489032898574 0.0093616224587613726 0 0.0094055092156471089 0.0094118099117217989 0 0.0093523762646405134 0.0094496168357887569 0 0.0094055092156471089 0.0094118099117217989 0 0.0094183953658423109 0.0094787249844590256 0 0.0094055092156471089 0.0094118099117217989 0 0.0094614176283093158 0.009421864567918917 0 0.0094183953658423109 0.0094787249844590256 0 0.0094614176283093158 0.009421864567918917 0 0.0095217115286245334 0.0094152058075909189 0 0.0094911888572125035 0.0094906080712103789 0 0.0094614176283093158 0.009421864567918917 0 0.00949489674922235 0.0093616675970739256 0 0.0095217115286245334 0.0094152058075909189 0 0.0094397489032898574 0.0093616224587613726 0 0.0094614176283093158 0.009421864567918917 0 0.00949489674922235 0.0093616675970739256 0 0.0095752203663977842 0.0093929132130786096 0 0.0095511455775997567 0.0093235683553355066 0 0.0095217115286245334 0.0094152058075909189 0 0.0095511455775997567 0.0093235683553355066 0 0.00949489674922235 0.0093616675970739256 0 0.0095217115286245334 0.0094152058075909189 0 0.0095476548027168991 0.0094600549976215399 0 0.0095217115286245334 0.0094152058075909189 0 0.0094911888572125035 0.0094906080712103789 0 0.0095752203663977842 0.0093929132130786096 0 0.0095476548027168991 0.0094600549976215399 0 0.0095217115286245334 0.0094152058075909189 0 0.0095476548027168991 0.0094600549976215399 0 0.0095352321781319999 0.0095143867845431176 0 0.0094911888572125035 0.0094906080712103789 0 0.0095352321781319999 0.0095143867845431176 0 0.0095023716143951571 0.0095575694886621855 0 0.0094911888572125035 0.0094906080712103789 0 0.0095352321781319999 0.0095143867845431176 0 0.0095023716143951571 0.0095575694886621855 0 0.0095484571607314748 0.009573441827262278 0 0.0095023716143951571 0.0095575694886621855 0 0.009450717152612689 0.0095504668378216754 0 0.0094911888572125035 0.0094906080712103789 0 0.0094614176283093158 0.009421864567918917 0 0.0094911888572125035 0.0094906080712103789 0 0.0094183953658423109 0.0094787249844590256 0 0.009450717152612689 0.0095504668378216754 0 0.0094911888572125035 0.0094906080712103789 0 0.0094183953658423109 0.0094787249844590256 0 0.0093523762646405134 0.0094496168357887569 0 0.0094183953658423109 0.0094787249844590256 0 0.0093455613887053427 0.0095185840080605558 0 0.0094183953658423109 0.0094787249844590256 0 0.0093936954801102437 0.0095564264093026038 0 0.0093455613887053427 0.0095185840080605558 0 0.0093936954801102437 0.0095564264093026038 0 0.0093455613887053427 0.0095185840080605558 0 0.0093350241748103788 0.0095764755007553045 0 0.009450717152612689 0.0095504668378216754 0 0.0094183953658423109 0.0094787249844590256 0 0.0093936954801102437 0.0095564264093026038 0 0.009450717152612689 0.0095504668378216754 0 0.0093936954801102437 0.0095564264093026038 0 0.0094223562029492978 0.0096010156877551368 0 0.0093936954801102437 0.0095564264093026038 0 0.0094223562029492978 0.0096010156877551368 0 0.0093795335092071355 0.0096109251766130534 0 0.0093936954801102437 0.0095564264093026038 0 0.0093795335092071355 0.0096109251766130534 0 0.0093350241748103788 0.0095764755007553045 0 0.0093795335092071355 0.0096109251766130534 0 0.0093359189349355824 0.0096532507262467818 0 0.0094100349629727704 0.0096655552674319752 0 0.0094223562029492978 0.0096010156877551368 0 0.0093795335092071355 0.0096109251766130534 0 0.0094100349629727704 0.0096655552674319752 0 0.0094223562029492978 0.0096010156877551368 0 0.009472380369225767 0.0096160857281666224 0 0.0094100349629727704 0.0096655552674319752 0 0.009472380369225767 0.0096160857281666224 0 0.0094820485265954321 0.0096989564566101402 0 0.0094100349629727704 0.0096655552674319752 0 0.009472380369225767 0.0096160857281666224 0 0.0094820485265954321 0.0096989564566101402 0 0.0095153478453079247 0.0096412860072912759 0 0.009509100820436895 0.0095975286150133503 0 0.009472380369225767 0.0096160857281666224 0 0.0095153478453079247 0.0096412860072912759 0 0.0095023716143951571 0.0095575694886621855 0 0.009509100820436895 0.0095975286150133503 0 0.0095484571607314748 0.009573441827262278 0 0.0095023716143951571 0.0095575694886621855 0 0.009509100820436895 0.0095975286150133503 0 0.009472380369225767 0.0096160857281666224 0 0.009450717152612689 0.0095504668378216754 0 0.0094223562029492978 0.0096010156877551368 0 0.009472380369225767 0.0096160857281666224 0 0.0095023716143951571 0.0095575694886621855 0 0.009450717152612689 0.0095504668378216754 0 0.009472380369225767 0.0096160857281666224 0 0.0091426745775166265 0.0094790494566047573 0 0.0091947153584905576 0.0095329333284049616 0 0.0091949822418554636 0.00945599487156552 0 0.0091947153584905576 0.0095329333284049616 0 0.0091949822418554636 0.00945599487156552 0 0.0092444432360417918 0.0095051237515529699 0 0.0092514869821567619 0.0094457341043936872 0 0.0091949822418554636 0.00945599487156552 0 0.0092444432360417918 0.0095051237515529699 0 0.0092514869821567619 0.0094457341043936872 0 0.0092444432360417918 0.0095051237515529699 0 0.0092988077865079968 0.0094785309584660173 0 0.0092444432360417918 0.0095051237515529699 0 0.0092913243068922582 0.0095425294355614681 0 0.009243237292590599 0.0095667005045480761 0 0.0091947153584905576 0.0095329333284049616 0 0.0092444432360417918 0.0095051237515529699 0 0.009243237292590599 0.0095667005045480761 0 0.0092913243068922582 0.0095425294355614681 0 0.0092988077865079968 0.0094785309584660173 0 0.0093455613887053427 0.0095185840080605558 0 0.0092444432360417918 0.0095051237515529699 0 0.0092913243068922582 0.0095425294355614681 0 0.0092988077865079968 0.0094785309584660173 0 0.0093523762646405134 0.0094496168357887569 0 0.0092988077865079968 0.0094785309584660173 0 0.0093455613887053427 0.0095185840080605558 0 0.0092913243068922582 0.0095425294355614681 0 0.0093455613887053427 0.0095185840080605558 0 0.0093350241748103788 0.0095764755007553045 0 0.0093350241748103788 0.0095764755007553045 0 0.0093359189349355824 0.0096532507262467818 0 0.0092789251034697488 0.0096153054290925282 0 0.0093795335092071355 0.0096109251766130534 0 0.0093350241748103788 0.0095764755007553045 0 0.0093359189349355824 0.0096532507262467818 0 0.0092913243068922582 0.0095425294355614681 0 0.0093350241748103788 0.0095764755007553045 0 0.0092789251034697488 0.0096153054290925282 0 0.0092913243068922582 0.0095425294355614681 0 0.0092789251034697488 0.0096153054290925282 0 0.009243237292590599 0.0095667005045480761 0 0.0092789251034697488 0.0096153054290925282 0 0.0092034667723698074 0.0096205747293212837 0 0.0092638262892562988 0.0097276399999235187 0 0.0092789251034697488 0.0096153054290925282 0 0.009243237292590599 0.0095667005045480761 0 0.0092034667723698074 0.0096205747293212837 0 0.0091947153584905576 0.0095329333284049616 0 0.009243237292590599 0.0095667005045480761 0 0.0092034667723698074 0.0096205747293212837 0 0.0091359702864967657 0.009549584265879334 0 0.0091947153584905576 0.0095329333284049616 0 0.0092034667723698074 0.0096205747293212837 0 0.0091455788083495901 0.0097381408220707372 0 0.0092034667723698074 0.0096205747293212837 0 0.0092638262892562988 0.0097276399999235187 0 0.0093359189349355824 0.0096532507262467818 0 0.0092638262892562988 0.0097276399999235187 0 0.0093565672554896985 0.0097413412138851515 0 0.0093359189349355824 0.0096532507262467818 0 0.0092789251034697488 0.0096153054290925282 0 0.0092638262892562988 0.0097276399999235187 0 0.0092638262892562988 0.0097276399999235187 0 0.0093565672554896985 0.0097413412138851515 0 0.0093378958360625305 0.0099096384937672841 0 0.0092638262892562988 0.0097276399999235187 0 0.0093378958360625305 0.0099096384937672841 0 0.0091745637608536528 0.009908413601098549 0 0.0091455788083495901 0.0097381408220707372 0 0.0092638262892562988 0.0097276399999235187 0 0.0091745637608536528 0.009908413601098549 0 0.0094820485265954321 0.0096989564566101402 0 0.0094100349629727704 0.0096655552674319752 0 0.0094294987733629237 0.0097855045988607149 0 0.0094100349629727704 0.0096655552674319752 0 0.0093565672554896985 0.0097413412138851515 0 0.0094294987733629237 0.0097855045988607149 0 0.0093359189349355824 0.0096532507262467818 0 0.0094100349629727704 0.0096655552674319752 0 0.0093565672554896985 0.0097413412138851515 0 0.0093565672554896985 0.0097413412138851515 0 0.0094294987733629237 0.0097855045988607149 0 0.0093378958360625305 0.0099096384937672841 0 0.0094294987733629237 0.0097855045988607149 0 0.0095266826138900168 0.0097987779181918921 0 0.0094638660299249094 0.0099349357955231827 0 0.0094820485265954321 0.0096989564566101402 0 0.0094294987733629237 0.0097855045988607149 0 0.0095266826138900168 0.0097987779181918921 0 0.0095266826138900168 0.0097987779181918921 0 0.0095952424429852391 0.0097466007106343615 0 0.0095561526444681664 0.0097071696119519837 0 0.009154184862818892 0.010147635227666246 0 0.0091808093578003656 0.010047112059128224 0 0.0094820485265954321 0.0096989564566101402 0 0.0095266826138900168 0.0097987779181918921 0 0.0095342856128105089 0.0096967562374865625 0 0.0095266826138900168 0.0097987779181918921 0 0.0095561526444681664 0.0097071696119519837 0 0.0095342856128105089 0.0096967562374865625 0 0.0094820485265954321 0.0096989564566101402 0 0.0095342856128105089 0.0096967562374865625 0 0.0095153478453079247 0.0096412860072912759 0 0.0095342856128105089 0.0096967562374865625 0 0.0095484571607314748 0.009573441827262278 0 0.0096094513686245005 0.0095218479564723943 0 0.0093080290608446685 0.0095322676471334914 0 0.009154184862818892 0.010147635227666246 0 0.0097223740178096676 0.0093934462474676347 0 0.0095342856128105089 0.0096967562374865625 0 0.0096094513686245005 0.0095218479564723943 0 0.0094056625803630757 0.0098331433799241624 0 0.009559809438286224 0.0094969493152388951 0 0.0092542228338195823 0.0095111114971258154 0 0.0096017964068997146 0.0097318638785340288 0 0.0095561526444681664 0.0097071696119519837 0 0.0092338251202104676 0.0095261604513215536 0 0.0095561526444681664 0.0097071696119519837 0 0.0095342856128105089 0.0096967562374865625 0 0.0095342856128105089 0.0096967562374865625 0 0.0095153478453079247 0.0096412860072912759 0 0.0095484571607314748 0.009573441827262278 0 0.0092542228338195823 0.0095111114971258154 0 0.0092338251202104676 0.0095261604513215536 0 0.0095561526444681664 0.0097071696119519837 0 0.009509100820436895 0.0095975286150133503 0 0.0095153478453079247 0.0096412860072912759 0 0.0095484571607314748 0.009573441827262278 0 0.0096309580238360237 0.0094550500165429801 0 0.0095773504293723607 0.0094958476746322962 0 0.0096094513686245005 0.0095218479564723943 0 0.0095938484178059794 0.0094476506139477487 0 0.0096309580238360237 0.0094550500165429801 0 0.0095773504293723607 0.0094958476746322962 0 0.0095938484178059794 0.0094476506139477487 0 0.0095476548027168991 0.0094600549976215399 0 0.0095773504293723607 0.0094958476746322962 0 0.0095476548027168991 0.0094600549976215399 0 0.0095352321781319999 0.0095143867845431176 0 0.0095773504293723607 0.0094958476746322962 0 0.0095352321781319999 0.0095143867845431176 0 0.0095484571607314748 0.009573441827262278 0 0.0095773504293723607 0.0094958476746322962 0 0.0095484571607314748 0.009573441827262278 0 0.0095773504293723607 0.0094958476746322962 0 0.0096094513686245005 0.0095218479564723943 0 0.0092542228338195823 0.0095111114971258154 0 0.0090128448363636926 0.010405125164563959 0 0.0093802419790940967 0.0099051241528516614 0 0.0096680378187395787 0.0099846358456065504 0 0.0095184527105394851 0.0093793571607951494 0 0.0093802419790940967 0.0099051241528516614 0 0.0096680378187395787 0.0099846358456065504 0 0.0093802419790940967 0.0099051241528516614 0 0.0094098743500624464 0.010295568031997562 0 0.0090128448363636926 0.010405125164563959 0 0.0096004601042787505 0.0106600533602242 0 0.0094098743500624464 0.010295568031997562 0 0.0096680378187395787 0.0099846358456065504 0 0.0096004601042787505 0.0106600533602242 0 0.0094098743500624464 0.010295568031997562 0 0.0040692622714204821 0.010501008667873738 0 0.006211980430478139 0.011484042461499529 0 0.0090128448363636926 0.010405125164563959 0 0.0093802419790940967 0.0099051241528516614 0 0.0094098743500624464 0.010295568031997562 0 0.009154184862818892 0.010147635227666246 0 0.0079377467519238763 0.011797753740566167 0 0.0096004601042787505 0.0106600533602242 0 0.0094791490760364923 0.011247860327702983 0 0.0094970833605028133 0.011380650448789621 0 0.0027008737659954523 0.012545463751659526 0 0.0024843753362310682 0.012530052846540811 0 0.0024982560179359244 0.013355301442711813 0 0.006211980430478139 0.011484042461499529 0 0.0047037539038412976 0.012938849320056378 0 0.0090128448363636926 0.010405125164563959 0 0.0096004601042787505 0.0106600533602242 0 0.0094791490760364923 0.011247860327702983 0 0.0090128448363636926 0.010405125164563959 0 0.0094791490760364923 0.011247860327702983 0 0.0093981572513611895 0.011351519883583513 0 0.0088001319804462338 0.011115226846833375 0 0.0085559718022733475 0.011437613991735315 0 0.0083852001413532509 0.011098361596353032 0 0.0047037539038412976 0.012938849320056378 0 0.005401219050368682 0.013553332413094702 0 0.0094970833605028133 0.011380650448789621 0 0.0094692280015422296 0.01157770425318605 0 0.0093757990062811169 0.011355694202063411 0 0.005401219050368682 0.013553332413094702 0 0.0079377467519238763 0.011797753740566167 0 0.0083535975508164089 0.011437881458786218 0 0.0079377467519238763 0.011797753740566167 0 0.0094791490760364923 0.011247860327702983 0 0.0094970833605028133 0.011380650448789621 0 0.0093757990062811169 0.011355694202063411 0 0.0073780371137764176 0.012680696967365093 0 0.0073751733779271952 0.012670930602588658 0 0.0073634577775449498 0.012691627222485184 0 0.0079377467519238763 0.011797753740566167 0 0.0078883605471701968 0.012146378456645675 0 0.0096141144493801789 0.010053715702718111 0 0.0094266753986728038 0.010113569944537911 0 0.009574690895414387 0.010350647028964875 0 0.0090743691751044159 0.010439829673387859 0 0.0082038839503178265 0.011624021209971459 0 0.0085559718022733475 0.011437613991735315 0 0.0083852001413532509 0.011098361596353032 0 0.0083122901542307635 0.011760247281810167 0 0.009154184862818892 0.010147635227666246 0 0.0090743691751044159 0.010439829673387859 0 0.0095266826138900168 0.0097987779181918921 0 0.0095952424429852391 0.0097466007106343615 0 0.0096141144493801789 0.010053715702718111 0 0.0095266826138900168 0.0097987779181918921 0 0.0096141144493801789 0.010053715702718111 0 0.0094638660299249094 0.0099349357955231827 0 0.0084625086398034503 0.010432936758468561 0 0.0088001319804462338 0.011115226846833375 0 0.0083852001413532509 0.011098361596353032 0 0.0094638660299249094 0.0099349357955231827 0 0.0093378958360625305 0.0099096384937672841 0 0.0094266753986728038 0.010113569944537911 0 0.0096141144493801789 0.010053715702718111 0 0.0094638660299249094 0.0099349357955231827 0 0.0094266753986728038 0.010113569944537911 0 0.0094294987733629237 0.0097855045988607149 0 0.0094638660299249094 0.0099349357955231827 0 0.0093378958360625305 0.0099096384937672841 0 0.0093378958360625305 0.0099096384937672841 0 0.009258480812468238 0.010093473012163434 0 0.0094266753986728038 0.010113569944537911 0 0.0093378958360625305 0.0099096384937672841 0 0.009258480812468238 0.010093473012163434 0 0.0091745637608536528 0.009908413601098549 0 0.009258480812468238 0.010093473012163434 0 0.0094266753986728038 0.010113569944537911 0 0.0093144543183165812 0.010315669510474728 0 0.0094266753986728038 0.010113569944537911 0 0.0093144543183165812 0.010315669510474728 0 0.009574690895414387 0.010350647028964875 0 0.0093144543183165812 0.010315669510474728 0 0.0092537189744133826 0.010481004495628721 0 0.0094254060208709411 0.010534769528594548 0 0.0093144543183165812 0.010315669510474728 0 0.0092537189744133826 0.010481004495628721 0 0.0091964127742655676 0.010371236450777775 0 0.0093144543183165812 0.010315669510474728 0 0.009574690895414387 0.010350647028964875 0 0.0094254060208709411 0.010534769528594548 0 0.0082038839503178265 0.011624021209971459 0 0.0083929672308482254 0.011302967696862159 0 0.0073501457181980234 0.012764117754235088 0 0.0073400011572131796 0.012716066782431269 0 0.0073223354128371596 0.012792778426314589 0 0.0065022425626009737 0.0132906756645858 0 0.0063512523547714318 0.013520450470843137 0 0.0073501457181980234 0.012764117754235088 0 0.0073736665715558574 0.012725490381891566 0 0.0073699211260425668 0.012832472577995604 0 0.0074708989488556322 0.012051964903411682 0 0.0074112450124163513 0.012523075944126509 0 0.0071284718961319897 0.012521936276294731 0 0.0082038839503178265 0.011624021209971459 0 0.0073137857982479059 0.0128240436548012 0 0.0073501457181980234 0.012764117754235088 0 0.0073736665715558574 0.012725490381891566 0 0.0073400011572131796 0.012716066782431269 0 0.0054414593864868781 0.014101000810962614 0 0.0053739287793258903 0.014016448263092059 0 0.0052938888699779188 0.014283764084037805 0 0.0033630896165168507 0.01554964046027712 0 0.0033531792610554294 0.015620909837723865 0 0.0033548833041027628 0.015614825363843524 0 0.0054663815225999739 0.013751683424951717 0 0.0054414593864868781 0.014101000810962614 0 0.0053739287793258903 0.014016448263092059 0 0.005401219050368682 0.013553332413094702 0 0.0042456610656229432 0.015122799867503846 0 0.005401219050368682 0.013553332413094702 0 0.0065022425626009737 0.0132906756645858 0 0.0073780371137764176 0.012680696967365093 0 0.0073634577775449498 0.012691627222485184 0 0.0073736665715558574 0.012725490381891566 0 0.0078883605471701968 0.012146378456645675 0 0.0082038839503178265 0.011624021209971459 0 0.0073634577775449498 0.012691627222485184 0 0.0073736665715558574 0.012725490381891566 0 0.0073400011572131796 0.012716066782431269 0 0.0090519829742543266 0.010278426453996414 0 0.0091288684265148287 0.010285272601950486 0 0.0090520466108060769 0.010364525456913838 0 0.0090519829742543266 0.010278426453996414 0 0.0090780442107694405 0.010163467410718049 0 0.0091288684265148287 0.010285272601950486 0 0.0090519829742543266 0.010278426453996414 0 0.0090377311617521865 0.010211638029526184 0 0.0090780442107694405 0.010163467410718049 0 0.0090330666276999746 0.010205275942375847 0 0.0091043328756515041 0.01011077620628606 0 0.0090780442107694405 0.010163467410718049 0 0.012575889898202224 0.0065026897011201288 0 0.012562947270069133 0.0065176912080493182 0 0.01249427575847652 0.0066128982357203953 0 0.012427981492900492 0.0066599228206207289 0 0.013180086392989022 0.0057019427662567297 0 0.010860970751791347 0.0082609119270515789 0 0.010549154395148594 0.0087316451193658884 0 0.0091137452562846631 0.010037108459040133 0 0.0090330666276999746 0.010205275942375847 0 0.0091043328756515041 0.01011077620628606 0 0.012575889898202224 0.0065026897011201288 0 0.012511333850736217 0.006759131425605012 0 0.01249427575847652 0.0066128982357203953 0 0.010549154395148594 0.0087316451193658884 0 0.0089331007571806335 0.0099438361337216806 0 0.0091043328756515041 0.01011077620628606 0 0.0090780442107694405 0.010163467410718049 0 0.0091488071701733877 0.010147560539441313 0 0.0090780442107694405 0.010163467410718049 0 0.0091488071701733877 0.010147560539441313 0 0.0091288684265148287 0.010285272601950486 0 0.0092527707394032353 0.010019886197963049 0 0.0091137452562846631 0.010037108459040133 0 0.0091761373031343449 0.010084627851349205 0 0.0091043328756515041 0.01011077620628606 0 0.0091488071701733877 0.010147560539441313 0 0.0091761373031343449 0.010084627851349205 0 0.0091137452562846631 0.010037108459040133 0 0.0091043328756515041 0.01011077620628606 0 0.0091761373031343449 0.010084627851349205 0 0.0092527707394032353 0.010019886197963049 0 0.0091761373031343449 0.010084627851349205 0 0.00923368222070323 0.010183846916168948 0 0.0091488071701733877 0.010147560539441313 0 0.0091761373031343449 0.010084627851349205 0 0.00923368222070323 0.010183846916168948 0 0.00923368222070323 0.010183846916168948 0 0.0091288684265148287 0.010285272601950486 0 0.0092053571913745785 0.010351119510226974 0 0.0091488071701733877 0.010147560539441313 0 0.00923368222070323 0.010183846916168948 0 0.0091288684265148287 0.010285272601950486 0 0.00923368222070323 0.010183846916168948 0 0.0093285843250444905 0.010307867201515667 0 0.0092053571913745785 0.010351119510226974 0 0.0090715763049093248 0.01003543118342898 0 0.009206184783115046 0.010204068538655589 0 0.0094160383122199459 0.010007517905363188 0 0.00923368222070323 0.010183846916168948 0 0.0093285843250444905 0.010307867201515667 0 0.0094160383122199459 0.010007517905363188 0 0.0092527707394032353 0.010019886197963049 0 0.00923368222070323 0.010183846916168948 0 0.0089888666756525182 0.0098143390292134494 0 0.0090464380126895998 0.010180245794296387 0 0.0091745637608536528 0.009908413601098549 0 0.009258480812468238 0.010093473012163434 0 0.0093144543183165812 0.010315669510474728 0 0.0090464380126895998 0.010180245794296387 0 0.009258480812468238 0.010093473012163434 0 0.0090464380126895998 0.010180245794296387 0 0.0091745637608536528 0.009908413601098549 0 0.0090464380126895998 0.010180245794296387 0 0.0091964127742655676 0.010371236450777775 0 0.0091704637257349984 0.010479692260642489 0 0.0093144543183165812 0.010315669510474728 0 0.0090464380126895998 0.010180245794296387 0 0.0091964127742655676 0.010371236450777775 0 0.0092537189744133826 0.010481004495628721 0 0.0091704637257349984 0.010479692260642489 0 0.0091945229586095131 0.010587905206775957 0 0.0092537189744133826 0.010481004495628721 0 0.0091964127742655676 0.010371236450777775 0 0.0091704637257349984 0.010479692260642489 0 0.0091675677674697992 0.010499641004344576 0 0.0091809171894828359 0.010463390981032191 0 0.0091471070166285855 0.010448819200615132 0 0.0091675677674697992 0.010499641004344576 0 0.0091608432462503258 0.010500310119989304 0 0.0091809171894828359 0.010463390981032191 0 0.0091704637257349984 0.010479692260642489 0 0.0091608432462503258 0.010500310119989304 0 0.0091809171894828359 0.010463390981032191 0 0.0085398816792033368 0.013219831036727284 0 0.0087150013382521624 0.013058037360209853 0 0.0093285843250444905 0.010307867201515667 0 0.0091809171894828359 0.010463390981032191 0 0.0092053571913745785 0.010351119510226974 0 0.009206184783115046 0.010204068538655589 0 0.0091677722059152946 0.010470965320587248 0 0.0093285843250444905 0.010307867201515667 0 0.0091704637257349984 0.010479692260642489 0 0.0091809171894828359 0.010463390981032191 0 0.0091288684265148287 0.010285272601950486 0 0.0092053571913745785 0.010351119510226974 0 0.0091471070166285855 0.010448819200615132 0 0.0091809171894828359 0.010463390981032191 0 0.0092053571913745785 0.010351119510226974 0 0.0091471070166285855 0.010448819200615132 0 0.0088539432088363783 0.015200223821066595 0 0.0093079958370986815 0.015519370574290143 0 0.0093140355365926193 0.015131728593937684 0 0.0093079958370986815 0.015519370574290143 0 0.0096326146956637517 0.015393549355537009 0 0.0093140355365926193 0.015131728593937684 0 0.0085398816792033368 0.013219831036727284 0 0.0092980149668253492 0.012969035586016071 0 0.0099623186269981734 0.015404799132379849 0 0.0096326146956637517 0.015393549355537009 0 0.0097531052071869011 0.015802457921395358 0 0.0093079958370986815 0.015519370574290143 0 0.0096326146956637517 0.015393549355537009 0 0.0097531052071869011 0.015802457921395358 0 0.0099623186269981734 0.015404799132379849 0 0.0096326146956637517 0.015393549355537009 0 0.0097582063528493159 0.015074092398029966 0 0.0091288684265148287 0.010285272601950486 0 0.0091471070166285855 0.010448819200615132 0 0.0090520466108060769 0.010364525456913838 0 0.0092980149668253492 0.012969035586016071 0 0.0092516963448263812 0.013166613727890157 0 0.0063135510263557827 0.015626695082678829 0 0.0072140561672377392 0.014999925847460648 0 0.0048729924401759057 0.014999981703193608 0 0.0077586631946034712 0.016209541065443984 0 0.0071622780434578912 0.016107148743809318 0 0.0074519478839857435 0.016639138029905312 0 0.0089592252061085845 0.015405785698074182 0 0.008737569603772425 0.014898165510120517 0 0.0096326146956637517 0.015393549355537009 0 0.0097582063528493159 0.015074092398029966 0 0.0093140355365926193 0.015131728593937684 0 0.0071622780434578912 0.016107148743809318 0 0.0074519478839857435 0.016639138029905312 0 0.0066594836506645456 0.016432785870800423 0 0.0085398816792033368 0.013219831036727284 0 0.008737569603772425 0.014898165510120517 0 0.0089592252061085845 0.015405785698074182 0 0.0071632714640875728 0.015364014432578916 0 0.0087121304450378176 0.014508034279233802 0 0.0080185034211407939 0.014310434952615511 0 0.0082187049891931062 0.014593360697103576 0 0.0077332873588671818 0.014675911333069525 0 0.0080185034211407939 0.014310434952615511 0 0.0082187049891931062 0.014593360697103576 0 0.0071622780434578912 0.016107148743809318 0 0.0066594836506645456 0.016432785870800423 0 0.0063135510263557827 0.015626695082678829 0 0.0066594836506645456 0.016432785870800423 0 0.0058828727358079249 0.016237112171378916 0 0.0063135510263557827 0.015626695082678829 0 0.0071632714640875728 0.015364014432578916 0 0.0065909686921279947 0.015254359793066391 0 0.0077332873588671818 0.014675911333069525 0 0.0080185034211407939 0.014310434952615511 0 0.0073313059512690217 0.014396891884083773 0 0.0080185034211407939 0.014310434952615511 0 0.0073313059512690217 0.014396891884083773 0 0.0073391518540195551 0.014122014791033279 0 0.0091517852113731247 0.010501725314264018 0 0.0091608432462503258 0.010500310119989304 0 0.0091945229586095131 0.010587905206775957 0 0.0091704637257349984 0.010479692260642489 0 0.0091608432462503258 0.010500310119989304 0 0.0091945229586095131 0.010587905206775957 0 0.0085398816792033368 0.013219831036727284 0 0.0082067895938505355 0.01243549599216579 0 0.0073313059512690217 0.014396891884083773 0 0.0073391518540195551 0.014122014791033279 0 0.0069318142478091063 0.014122636923333522 0 0.0058828727358079249 0.016237112171378916 0 0.0063135510263557827 0.015626695082678829 0 0.0053649659603518945 0.01572533025950535 0 0.0077233373185396819 0.015820399480020061 0 0.0071622780434578912 0.016107148743809318 0 0.0072140561672377392 0.014999925847460648 0 0.0071622780434578912 0.016107148743809318 0 0.0063135510263557827 0.015626695082678829 0 0.0072140561672377392 0.014999925847460648 0 0.0053220817548952359 0.014461255663356461 0 0.0052938888699779188 0.014283764084037805 0 0.0052143502524158942 0.014541501872875666 0 0.0063512523547714318 0.013520450470843137 0 0.0060154884655439526 0.014068493190675544 0 0.0073046175000876868 0.012940513319034294 0 0.0073699211260425668 0.012832472577995604 0 0.0073280799200480824 0.013061783677191945 0 0.0073046175000876868 0.012940513319034294 0 0.0072091458692035868 0.012973645461147303 0 0.0073280799200480824 0.013061783677191945 0 0.0053220817548952359 0.014461255663356461 0 0.0052143502524158942 0.014541501872875666 0 0.0053660624754018399 0.014589336961986573 0 0.0053220817548952359 0.014461255663356461 0 0.0054137436547114139 0.01442898314638567 0 0.0053660624754018399 0.014589336961986573 0 0.0053220817548952359 0.014461255663356461 0 0.0054137436547114139 0.01442898314638567 0 0.0052938888699779188 0.014283764084037805 0 0.0054414593864868781 0.014101000810962614 0 0.0054137436547114139 0.01442898314638567 0 0.0052938888699779188 0.014283764084037805 0 0.0042456610656229432 0.015122799867503846 0 0.0044877368763777473 0.014903586946425454 0 0.0033531792610554294 0.015620909837723865 0 0.0034661781259222842 0.015551800846995574 0 0.0033325713730215424 0.015584635671539419 0 0.0073501457181980234 0.012764117754235088 0 0.0073699211260425668 0.012832472577995604 0 0.0073223354128371596 0.012792778426314589 0 0.0073262830975401845 0.012849034391402106 0 0.0073137857982479059 0.0128240436548012 0 0.0073046175000876868 0.012940513319034294 0 0.0074112450124163513 0.012523075944126509 0 0.0072418181545360538 0.012705292865036067 0 0.0073046175000876868 0.012940513319034294 0 0.0073699211260425668 0.012832472577995604 0 0.0073223354128371596 0.012792778426314589 0 0.0074112450124163513 0.012523075944126509 0 0.0071284718961319897 0.012521936276294731 0 0.0072418181545360538 0.012705292865036067 0 0.0071284718961319897 0.012521936276294731 0 0.0071238879090968453 0.012820971870664742 0 0.0068691981016338922 0.01291411640271207 0 0.0071284718961319897 0.012521936276294731 0 0.0071238879090968453 0.012820971870664742 0 0.0072418181545360538 0.012705292865036067 0 0.0073046175000876868 0.012940513319034294 0 0.0071238879090968453 0.012820971870664742 0 0.0072418181545360538 0.012705292865036067 0 0.0083929672308482254 0.011302967696862159 0 0.0080326666696205352 0.012593550992801255 0 0.0092537189744133826 0.010481004495628721 0 0.0094254060208709411 0.010534769528594548 0 0.0092961286490980902 0.01069092871719491 0 0.0092537189744133826 0.010481004495628721 0 0.0091945229586095131 0.010587905206775957 0 0.0092961286490980902 0.01069092871719491 0 0.0082067895938505355 0.01243549599216579 0 0.0080326666696205352 0.012593550992801255 0 0.0073391518540195551 0.014122014791033279 0 0.0069318142478091063 0.014122636923333522 0 0.0066643753103459115 0.013940263479137285 0 0.0058828727358079249 0.016237112171378916 0 0.005112156660273392 0.01603428772185142 0 0.0053649659603518945 0.01572533025950535 0 0.0065909686921279947 0.015254359793066391 0 0.0062277782104081386 0.014367793500052923 0 0.0080326666696205352 0.012593550992801255 0 0.0062277782104081386 0.014367793500052923 0 0.0072091458692035868 0.012973645461147303 0 0.007059261755443893 0.013037621673679216 0 0.0073280799200480824 0.013061783677191945 0 0.0062277782104081386 0.014367793500052923 0 0.0060154884655439526 0.014068493190675544 0 0.0073046175000876868 0.012940513319034294 0 0.0071238879090968453 0.012820971870664742 0 0.0072091458692035868 0.012973645461147303 0 0.0071238879090968453 0.012820971870664742 0 0.0072091458692035868 0.012973645461147303 0 0.007059261755443893 0.013037621673679216 0 0.0071238879090968453 0.012820971870664742 0 0.0068691981016338922 0.01291411640271207 0 0.007059261755443893 0.013037621673679216 0 0.006025779962708225 0.014686173915228971 0 0.0055287354115960254 0.014558419485442448 0 0.005582901714719036 0.014388950602748883 0 0.005112156660273392 0.01603428772185142 0 0.0053649659603518945 0.01572533025950535 0 0.004657726723576186 0.015726133289772983 0 0.0053649659603518945 0.01572533025950535 0 0.0048729924401759057 0.014999981703193608 0 0.004657726723576186 0.015726133289772983 0 0.0062277782104081386 0.014367793500052923 0 0.0050896533907285766 0.015267852095903133 0 0.0063135510263557827 0.015626695082678829 0 0.0053649659603518945 0.01572533025950535 0 0.0048729924401759057 0.014999981703193608 0 0.0048724150742232861 0.015000954573810062 0 0.0050896533907285766 0.015267852095903133 0 0.0048728491960242275 0.014999996266675499 0 0.0046323699684327688 0.015741007969566335 0 0.0040639295201371018 0.01535804811283431 0 0.0048728491960242275 0.014999996266675499 0 0.0040639295201371018 0.01535804811283431 0 0.0040882116310340215 0.014999992457797822 0 0.0050896533907285766 0.015267852095903133 0 0.0043541421617932421 0.015065120105845899 0 0.0051888015632934005 0.01461224308737227 0 0.0053660624754018399 0.014589336961986573 0 0.0053791762398474746 0.014750050782838703 0 0.0052103009999876831 0.014549237666612966 0 0.0051888015632934005 0.01461224308737227 0 0.0053660624754018399 0.014589336961986573 0 0.0060154884655439526 0.014068493190675544 0 0.005165452306136512 0.014491107749786718 0 0.0060154884655439526 0.014068493190675544 0 0.0050896533907285766 0.015267852095903133 0 0.0034661781259222842 0.015551800846995574 0 0.003636106420279631 0.015225039620177351 0 0.0033328844533188099 0.015355681334938543 0 0.0054137436547114139 0.01442898314638567 0 0.0053660624754018399 0.014589336961986573 0 0.0053791762398474746 0.014750050782838703 0 0.0044877368763777473 0.014903586946425454 0 0.0043541421617932421 0.015065120105845899 0 0.0040611354439809427 0.015360238977302102 0 0.004088183487058859 0.014999995706088556 0 0.0035300446095650382 0.015000000537929131 0 0.0043541421617932421 0.015065120105845899 0 0.003529729800022436 0.014999963625500943 0 0.0043541421617932421 0.015065120105845899 0 0.0040882773313959857 0.015000280684167861 0 0.003636106420279631 0.015225039620177351 0 0.0035293765803841941 0.014999997971449769 0 0.0033328844533188099 0.015355681334938543 0 0.0035293765803841941 0.014999997971449769 0 0.0029360141698663569 0.014999952539136829 0 0.0033328844533188099 0.015355681334938543 0 0.0029360141698663569 0.014999952539136829 0 0.0033328844533188099 0.015355681334938543 0 0.0028208613606289542 0.015457075832724191 0 0.0033328844533188099 0.015355681334938543 0 0.0028208613606289542 0.015457075832724191 0 0.003262157909101246 0.015579286901384281 0 0.0023403063419550779 0.015000154251018335 0 0.0020561259421363305 0.014999846244397996 0 0.0022285252963610653 0.015195437269983262 0 0.0020547231006020198 0.015000089072083845 0 0.0021024276516786542 0.015567396314972025 0 0.0018126132513710499 0.015239202016755894 0 0.0020550276306382036 0.014999944494376291 0 0.0021611635051419563 0.01542303881380367 0 0.0023415222343534654 0.014999985633611566 0 0.0024656815034417401 0.01528259426897517 0 0.0029360141698663569 0.014999952539136829 0 0.0023417813158970401 0.014999920595147001 0 0.0028208613606289542 0.015457075832724191 0 0.0023403063419550779 0.015000154251018335 0 0.0021395351620881508 0.015187037792756012 0 0.0022285252963610653 0.015195437269983262 0 0.0024190278276000655 0.015695214445312976 0 0.0021344798994748469 0.015558588491282496 0 0.0021024276516786542 0.015567396314972025 0 0.0020305786561095347 0.015642068253668484 0 0.0018126132513710499 0.015239202016755894 0 0.0024190278276000655 0.015695214445312976 0 0.0021815725262093973 0.014913485118103295 0 0.0021611635051419563 0.01542303881380367 0 0.0021815725262093973 0.014913485118103295 0 0.0021024276516786542 0.015567396314972025 0 0.0020305786561095347 0.015642068253668484 0 0.0021413157460916012 0.015903390066811133 0 0.0026989143282204176 0.015517435889450691 0 0.0027977745191658798 0.014914495467629763 0 0.003101579534320453 0.015438554392734415 0 0.0021395351620881508 0.015187037792756012 0 0.0022285252963610653 0.015195437269983262 0 0.0017688705107379227 0.014780149847578904 0 0.0022285252963610653 0.015195437269983262 0 0.0017688705107379227 0.014780149847578904 0 0.0021759872378868399 0.014491093403489195 0 0.0024656815034417401 0.01528259426897517 0 0.0024610354167187874 0.015182936115801873 0 0.0017688705107379227 0.014780149847578904 0 0.0021090440212032939 0.014287378147757854 0 0.0017427458014027542 0.014026123696185354 0 0.0017688705107379227 0.014780149847578904 0 0.0021759872378868399 0.014491093403489195 0 0.0021090440212032939 0.014287378147757854 0 0.0021815725262093973 0.014913485118103295 0 0.0020734464887687534 0.014521427143614757 0 0.0022668082630648832 0.014563494028526481 0 0.0027977745191658798 0.014914495467629763 0 0.0031850528754964733 0.014386887551422034 0 0.0026989143282204176 0.015517435889450691 0 0.0022668082630648832 0.014563494028526481 0 0.0027977745191658798 0.014914495467629763 0 0.0034661781259222842 0.015551800846995574 0 0.0033328844533188099 0.015355681334938543 0 0.003262157909101246 0.015579286901384281 0 0.0034661781259222842 0.015551800846995574 0 0.003262157909101246 0.015579286901384281 0 0.0033325713730215424 0.015584635671539419 0 0.0028208613606289542 0.015457075832724191 0 0.0031660783315511152 0.015651809327033608 0 0.003262157909101246 0.015579286901384281 0 0.0031660783315511152 0.015651809327033608 0 0.0032398859347687139 0.015574128721800204 0 0.0033886505090104818 0.015278292190972945 0 0.0031660783315511152 0.015651809327033608 0 0.003262157909101246 0.015579286901384281 0 0.0032398859347687139 0.015574128721800204 0 0.0024610354167187874 0.015182936115801873 0 0.0023082913980204825 0.014554754343198001 0 0.003262157909101246 0.015579286901384281 0 0.0032398859347687139 0.015574128721800204 0 0.0033325713730215424 0.015584635671539419 0 0.0032398859347687139 0.015574128721800204 0 0.0033325713730215424 0.015584635671539419 0 0.0033262306045642185 0.015601130963196513 0 0.0032757591055363228 0.015538447427312953 0 0.0028458704052686033 0.015372196131633877 0 0.0033531792610554294 0.015620909837723865 0 0.0033325713730215424 0.015584635671539419 0 0.0033262306045642185 0.015601130963196513 0 0.0032398859347687139 0.015574128721800204 0 0.0033262306045642185 0.015601130963196513 0 0.0033548833041027628 0.015614825363843524 0 0.0033531792610554294 0.015620909837723865 0 0.0033262306045642185 0.015601130963196513 0 0.0033548833041027628 0.015614825363843524 0 0.002838210183279944 0.014963476640253267 0 0.0033886505090104818 0.015278292190972945 0 0.0032389983993299427 0.01416322301574144 0 0.005401219050368682 0.013553332413094702 0 0.0028458704052686033 0.015372196131633877 0 0.0023082913980204825 0.014554754343198001 0 0.0020503454212508071 0.013454897703643965 0 0.0015110000407604616 0.013170880402236537 0 0.0012608863730949858 0.013902139406616037 0 0.00078738141302726482 0.012746423062110308 0 0.0015110000407604616 0.013170880402236537 0 0.0012608863730949858 0.013902139406616037 0 0.0017427458014027542 0.014026123696185354 0 0.0032398859347687139 0.015574128721800204 0 0.002838210183279944 0.014963476640253267 0 0.0033886505090104818 0.015278292190972945 0 0.0017688705107379227 0.014780149847578904 0 0.0012608863730949858 0.013902139406616037 0 0.0017427458014027542 0.014026123696185354 0 0.0021995436037371952 0.014535731480105984 0 0.0021090440212032939 0.014287378147757854 0 0.0021031283055850509 0.013688403593424256 0 0.0021815725262093973 0.014913485118103295 0 0.0020984288831197612 0.013628014910569303 0 0.0021090440212032939 0.014287378147757854 0 0.0021031283055850509 0.013688403593424256 0 0.0017427458014027542 0.014026123696185354 0 0.0022668082630648832 0.014563494028526481 0 0.0021031283055850509 0.013688403593424256 0 0.0027733608666837667 0.013850339726919337 0 0.0022668082630648832 0.014563494028526481 0 0.0027733608666837667 0.013850339726919337 0 0.0031850528754964733 0.014386887551422034 0 0.0027733608666837667 0.013850339726919337 0 0.0028658635692946333 0.013489171831988271 0 0.0025404734938644443 0.013267891518193678 0 0.0027733608666837667 0.013850339726919337 0 0.0028658635692946333 0.013489171831988271 0 0.0032632623690972357 0.013223979359464356 0 0.0028658635692946333 0.013489171831988271 0 0.0028636581071238613 0.013236790318381698 0 0.0031512357767206588 0.013249839709231085 0 0.0028658635692946333 0.013489171831988271 0 0.0025404734938644443 0.013267891518193678 0 0.0028636581071238613 0.013236790318381698 0 0.0021031283055850509 0.013688403593424256 0 0.0027733608666837667 0.013850339726919337 0 0.0025404734938644443 0.013267891518193678 0 0.0025404734938644443 0.013267891518193678 0 0.0021023237110290634 0.013174061712669006 0 0.0022562402952186586 0.012559964999835764 0 0.0025404734938644443 0.013267891518193678 0 0.0028636581071238613 0.013236790318381698 0 0.0028971840347951526 0.012936983928839624 0 0.0028636581071238613 0.013236790318381698 0 0.0028971840347951526 0.012936983928839624 0 0.0031512357767206588 0.013249839709231085 0 0.0015110000407604616 0.013170880402236537 0 0.0021031283055850509 0.013688403593424256 0 0.0017427458014027542 0.014026123696185354 0 0.0015110000407604616 0.013170880402236537 0 0.0021023237110290634 0.013174061712669006 0 0.0022562402952186586 0.012559964999835764 0 0.0015110000407604616 0.013170880402236537 0 0.0021031283055850509 0.013688403593424256 0 0.0021023237110290634 0.013174061712669006 0 0.0021031283055850509 0.013688403593424256 0 0.0025404734938644443 0.013267891518193678 0 0.0021023237110290634 0.013174061712669006 0 0.0015110000407604616 0.013170880402236537 0 0.0022562402952186586 0.012559964999835764 0 0.0013935253724199393 0.012038415665323187 0 0.0022562402952186586 0.012559964999835764 0 0.0028971840347951526 0.012936983928839624 0 0.0033240976730237238 0.012148725245140749 0 0.0025404734938644443 0.013267891518193678 0 0.0022562402952186586 0.012559964999835764 0 0.0028971840347951526 0.012936983928839624 0 0.0022559429992113581 0.011298791469081509 0 0.0022562402952186586 0.012559964999835764 0 0.0033240976730237238 0.012148725245140749 0 0.0022559429992113581 0.011298791469081509 0 0.0033527066913593005 0.011062020579422578 0 0.0033240976730237238 0.012148725245140749 0 0.0022559429992113581 0.011298791469081509 0 0.0022562402952186586 0.012559964999835764 0 0.0013935253724199393 0.012038415665323187 0 0.0011597423014354947 0.010894382941687625 0 0.0022559429992113581 0.011298791469081509 0 0.0013935253724199393 0.012038415665323187 0 0.0013935253724199393 0.012038415665323187 0 0.00036877378268662756 0.011526180853106345 0 0.00078738141302726482 0.012746423062110308 0 0.0011597423014354947 0.010894382941687625 0 0.0013935253724199393 0.012038415665323187 0 0.00036877378268662756 0.011526180853106345 0 0.0029280791200243569 0.012776036217764264 0 0.002712974856231279 0.01330144815749042 0 0.0032389983993299427 0.01416322301574144 0 0.0023065523414581269 0.01301298200102104 0 0.0047037539038412976 0.012938849320056378 0 0.0013158925582786498 0.012139471255897682 0 0.0020503454212508071 0.013454897703643965 0 0.0027008737659954523 0.012545463751659526 0 0.0022964429198098963 0.013667843556050375 0 0.002712974856231279 0.01330144815749042 0 0.0027008737659954523 0.012545463751659526 0 0.0029280791200243569 0.012776036217764264 0 0.002712974856231279 0.01330144815749042 0 0.002838210183279944 0.014963476640253267 0 0.0027782278425506637 0.013889716261485864 0 0.0032389983993299427 0.01416322301574144 0 0.0022886428743941556 0.013915250088360061 0 0.002838210183279944 0.014963476640253267 0 0.0027782278425506637 0.013889716261485864 0 0.002712974856231279 0.01330144815749042 0 0.0027782278425506637 0.013889716261485864 0 0.0032389983993299427 0.01416322301574144 0 0.0022964429198098963 0.013667843556050375 0 0.002712974856231279 0.01330144815749042 0 0.0027782278425506637 0.013889716261485864 0 0.0022964429198098963 0.013667843556050375 0 0.0022886428743941556 0.013915250088360061 0 0.0027782278425506637 0.013889716261485864 0 0.0015110000407604616 0.013170880402236537 0 0.0013935253724199393 0.012038415665323187 0 0.00078738141302726482 0.012746423062110308 0 0.00040214011036422573 0.013228137600670401 0 0.00086229071861915879 0.013182336901755239 0 0.00014123507876811356 0.013355287191455022 0 -3.8450473919190078e-05 0.015241520069875251 0 0.00048026714888062873 0.015440342284970933 0 -0.00048664546253089755 0.012828560134789174 0 -3.8450473919190078e-05 0.015241520069875251 0 -0.0011882421041666967 0.013489208185113923 0 -0.0012724094092211016 0.013421228765180112 0 -0.0013108458169977066 0.013496075901345777 0 -0.0011882421041666967 0.013489208185113923 0 -0.0013108458169977066 0.013496075901345777 0 -0.001224107071503381 0.013561393231115455 0 0.00057508808037345525 0.012850947925673699 0 0.00040214011036422573 0.013228137600670401 0 0.00021082888435916243 0.012950623425067235 0 -0.00048664546253089755 0.012828560134789174 0 9.8014337610152495e-05 0.012942985540272733 0 0.00054244009683970243 0.012905056755655253 0 0.00040214011036422573 0.013228137600670401 0 0.00086229071861915879 0.013182336901755239 0 -0.0012724094092211016 0.013421228765180112 0 -0.0013108458169977066 0.013496075901345777 0 -0.001451174255669203 0.013465350467120264 0 0.00017692888385532809 0.017399195479080025 0 -2.1863413713594243e-05 0.017234757101030111 0 -0.00026564699590499077 0.017504070806899145 0 -3.8450473919190078e-05 0.015241520069875251 0 0.00054547774907515178 0.017070803232389697 0 -3.8450473919190078e-05 0.015241520069875251 0 -0.00090228284085086389 0.015501475119937363 0 -2.1863413713594243e-05 0.017234757101030111 0 -0.0004217781773605416 0.017163056838490912 0 -0.00026564699590499077 0.017504070806899145 0 -0.0013108458169977066 0.013496075901345777 0 -0.0014244367165886236 0.013540902683666872 0 -0.001451174255669203 0.013465350467120264 0 -0.0028902248372573145 0.010807459016076904 0 -0.0029198350376209636 0.01076627108378383 0 -0.002866048137797797 0.01077518799793264 0 -0.002317953825528303 0.012082120322745159 0 -0.0018805582256854981 0.011461380208646121 0 -0.0013108458169977066 0.013496075901345777 0 -0.0014244367165886236 0.013540902683666872 0 -0.001224107071503381 0.013561393231115455 0 -0.0028902248372573145 0.010807459016076904 0 -0.0029198350376209636 0.01076627108378383 0 -0.0029344355928970153 0.010806533574753805 0 -0.0025064801518327488 0.010294219766147245 0 -0.0018805582256854981 0.011461380208646121 0 -0.0019880544598669253 0.0095128722236186465 0 -0.0025691698689162528 0.0093907873624213909 0 -0.0025252025471171587 0.010776258068912267 0 -0.0018145577570632294 0.0093854684410205891 0 -0.0015698498919238248 0.010858951337239022 0 -0.0025691698689162528 0.0093907873624213909 0 -0.0025252025471171587 0.010776258068912267 0 -0.0029770093759471069 0.010696238180414621 0 -0.00097675962947482622 0.0091674199645877946 0 -0.0012390613433184586 0.010008798475860619 0 -0.001415537148281353 0.0094871696649883267 0 -0.0010975238466005911 0.011582146601371985 0 -0.0010839737922669348 0.011538367068504807 0 -0.0011906724740037378 0.011518164124693293 0 -0.0010606443494600578 0.011638651660690412 0 -0.0010975238466005911 0.011582146601371985 0 -0.0011906724740037378 0.011518164124693293 0 -0.0015502950120249112 0.01111424520841477 0 -0.0015698498919238248 0.010858951337239022 0 -0.00048664546253089755 0.012828560134789174 0 -0.0018805582256854981 0.011461380208646121 0 -0.0010606443494600578 0.011638651660690412 0 -0.0010269290569620846 0.011551612044996492 0 -0.0010975238466005911 0.011582146601371985 0 -0.0010269290569620846 0.011551612044996492 0 -0.0010975238466005911 0.011582146601371985 0 -0.0010856505730076794 0.011540511089100387 0 -0.0018805582256854981 0.011461380208646121 0 -0.0015698498919238248 0.010858951337239022 0 -0.00062507504868542744 0.011737737174932678 0 -0.00021171536068551351 0.012346237387222229 0 0.00011271524072531744 0.012404257150963369 0 -0.00018637879837530069 0.010262397926112009 0 -0.0009338186470100033 0.011458610561689871 0 -0.001824319705082706 0.0090482209623526776 0 -0.001415537148281353 0.0094871696649883267 0 -0.0017509014803170023 0.009917397282037119 0 -0.0012390613433184586 0.010008798475860619 0 -0.001415537148281353 0.0094871696649883267 0 -0.0017509014803170023 0.009917397282037119 0 -0.00021171536068551351 0.012346237387222229 0 9.9548111255887603e-05 0.012411845983897007 0 -0.00015773570794304776 0.012888110600710033 0 -9.2241433125235791e-05 0.011944746055954924 0 -0.0009338186470100033 0.011458610561689871 0 -0.00048664546253089755 0.012828560134789174 0 -0.0009338186470100033 0.011458610561689871 0 -0.0015698498919238248 0.010858951337239022 0 -0.0009338186470100033 0.011458610561689871 0 -0.00062507504868542744 0.011737737174932678 0 -0.00021171536068551351 0.012346237387222229 0 -0.00064199497756024814 0.012666131300963238 0 -0.00018637879837530069 0.010262397926112009 0 0.0014553825747873254 0.012423939268065605 0 -0.00021171536068551351 0.012346237387222229 0 -0.00064199497756024814 0.012666131300963238 0 -0.00015773570794304776 0.012888110600710033 0 0.0028971840347951526 0.012936983928839624 0 0.0033240976730237238 0.012148725245140749 0 0.0032732102240834405 0.013219493933927578 0 0.0014553825747873254 0.012423939268065605 0 0.0012156667633724651 0.014400508517898909 0 -0.00064199497756024814 0.012666131300963238 0 -0.00015773570794304776 0.012888110600710033 0 -0.00064771105521836106 0.013561743631333969 0 -0.00015773570794304776 0.012888110600710033 0 0.00014123507876811356 0.013355287191455022 0 -0.00064771105521836106 0.013561743631333969 0 9.9548111255887603e-05 0.012411845983897007 0 0.00021082888435916243 0.012950623425067235 0 -0.00015773570794304776 0.012888110600710033 0 0.00057508808037345525 0.012850947925673699 0 9.9548111255887603e-05 0.012411845983897007 0 0.00021082888435916243 0.012950623425067235 0 0.00021082888435916243 0.012950623425067235 0 -0.00015773570794304776 0.012888110600710033 0 0.00014123507876811356 0.013355287191455022 0 0.00040214011036422573 0.013228137600670401 0 0.00021082888435916243 0.012950623425067235 0 0.00014123507876811356 0.013355287191455022 0 0.00048026714888062873 0.015440342284970933 0 0.0012156667633724651 0.014400508517898909 0 0.0009730770721765998 0.017379670761717928 0 0.0014770839929434708 0.01723715677598343 0 0.00124667810192813 0.017088424031649424 0 0.00097828173429965245 0.017198211447628998 0 0.0009730770721765998 0.017379670761717928 0 0.00075488334168518452 0.017272430344833792 0 0.00097828173429965245 0.017198211447628998 0 0.0009730770721765998 0.017379670761717928 0 0.00124667810192813 0.017088424031649424 0 0.00097828173429965245 0.017198211447628998 0 0.00124667810192813 0.017088424031649424 0 0.00098386396132788879 0.016951423137160228 0 0.00097828173429965245 0.017198211447628998 0 0.00098386396132788879 0.016951423137160228 0 0.00073201712529891269 0.01696688682979176 0 0.0028658635692946333 0.013489171831988271 0 0.0031512357767206588 0.013249839709231085 0 0.0032632623690972357 0.013223979359464356 0 0.0028971840347951526 0.012936983928839624 0 0.0031512357767206588 0.013249839709231085 0 0.0032732102240834405 0.013219493933927578 0 0.0016816600859476619 0.014242328386989456 0 0.0012156667633724651 0.014400508517898909 0 0.00124667810192813 0.017088424031649424 0 0.0011613111313915584 0.016740438548232595 0 0.0015208167816758765 0.01663660979411908 0 0.0012156667633724651 0.014400508517898909 0 0.0024794957436151629 0.015671277016231971 0 0.0027733608666837667 0.013850339726919337 0 0.0032632623690972357 0.013223979359464356 0 0.0031850528754964733 0.014386887551422034 0 0.0014770839929434708 0.01723715677598343 0 0.00124667810192813 0.017088424031649424 0 0.0015208167816758765 0.01663660979411908 0 0.00124667810192813 0.017088424031649424 0 0.00098386396132788879 0.016951423137160228 0 0.0011613111313915584 0.016740438548232595 0 0.00098386396132788879 0.016951423137160228 0 0.0011613111313915584 0.016740438548232595 0 0.00083952654095958837 0.016641593367926099 0 0.00052969616711687694 0.016752171078182988 0 0.00073201712529891269 0.01696688682979176 0 0.00083952654095958837 0.016641593367926099 0 0.00052969616711687694 0.016752171078182988 0 0.00073201712529891269 0.01696688682979176 0 0.00036432258023682277 0.017152572970158687 0 0.00098386396132788879 0.016951423137160228 0 0.00073201712529891269 0.01696688682979176 0 0.00083952654095958837 0.016641593367926099 0 0.00097828173429965245 0.017198211447628998 0 0.00073201712529891269 0.01696688682979176 0 0.00036432258023682277 0.017152572970158687 0 0.00097828173429965245 0.017198211447628998 0 0.00049174049754881438 0.01719601867257884 0 0.00010476104701613236 0.016932646341355922 0 0.00092115466220345893 0.017187508759190236 0 0.0002414393464338586 0.017047040242882318 0 0.00026604135241916835 0.017528156769876995 0 0.0009730770721765998 0.017379670761717928 0 0.00075488334168518452 0.017272430344833792 0 0.00049174049754881438 0.01719601867257884 0 0.00020849468921800281 0.017219629891518706 0 0.00010476104701613236 0.016932646341355922 0 0.00026604135241916835 0.017528156769876995 0 0.00049174049754881438 0.01719601867257884 0 0.00020849468921800281 0.017219629891518706 0 0.00026604135241916835 0.017528156769876995 0 0.00049174049754881438 0.01719601867257884 0 0.00075488334168518452 0.017272430344833792 0 0.00097828173429965245 0.017198211447628998 0 0.00049174049754881438 0.01719601867257884 0 0.00075488334168518452 0.017272430344833792 0 -2.1863413713594243e-05 0.017234757101030111 0 0.00010476104701613236 0.016932646341355922 0 -0.0004217781773605416 0.017163056838490912 0 0.0002414393464338586 0.017047040242882318 0 -0.00045248789264270726 0.01692735017568029 0 -2.1863413713594243e-05 0.017234757101030111 0 0.00020849468921800281 0.017219629891518706 0 0.00010476104701613236 0.016932646341355922 0 0.00026604135241916835 0.017528156769876995 0 -2.1863413713594243e-05 0.017234757101030111 0 0.00020849468921800281 0.017219629891518706 0 0.00036432258023682277 0.017152572970158687 0 0.00018091624111728446 0.016647038389764772 0 -0.00033165053661563383 0.017043068382292616 0 0.00052969616711687694 0.016752171078182988 0 0.00036432258023682277 0.017152572970158687 0 0.00018091624111728446 0.016647038389764772 0 0.00018091624111728446 0.016647038389764772 0 0.00026235210254184588 0.01608474611500315 0 -0.00021528410663280029 0.016382276831454903 0 0.00018091624111728446 0.016647038389764772 0 0.00052231020367516224 0.016400166301576008 0 0.00026235210254184588 0.01608474611500315 0 0.00052969616711687694 0.016752171078182988 0 0.00018091624111728446 0.016647038389764772 0 0.00052231020367516224 0.016400166301576008 0 0.00083952654095958837 0.016641593367926099 0 0.00052231020367516224 0.016400166301576008 0 0.00080443699028677495 0.016106746851941214 0 0.00052969616711687694 0.016752171078182988 0 0.00083952654095958837 0.016641593367926099 0 0.00052231020367516224 0.016400166301576008 0 0.00052231020367516224 0.016400166301576008 0 0.00080443699028677495 0.016106746851941214 0 0.00026235210254184588 0.01608474611500315 0 0.00080443699028677495 0.016106746851941214 0 0.00026235210254184588 0.01608474611500315 0 0.00048401477513532122 0.01559666023436755 0 0.00026235210254184588 0.01608474611500315 0 -0.00011314938619785595 0.015661817602061645 0 -0.00013691583383663086 0.016032842856865046 0 0.0024794957436151629 0.015671277016231971 0 0.0023656600965055647 0.015730779243941229 0 0.0027977745191658798 0.014914495467629763 0 0.0031850528754964733 0.014386887551422034 0 0.003101579534320453 0.015438554392734415 0 0.0015208167816758765 0.01663660979411908 0 0.0012141342134494961 0.016313586317754789 0 0.0016022587880130327 0.015995915514027317 0 0.0011613111313915584 0.016740438548232595 0 0.0015208167816758765 0.01663660979411908 0 0.0012141342134494961 0.016313586317754789 0 0.0011613111313915584 0.016740438548232595 0 0.00083952654095958837 0.016641593367926099 0 0.0012141342134494961 0.016313586317754789 0 0.00083952654095958837 0.016641593367926099 0 0.00080443699028677495 0.016106746851941214 0 0.0012141342134494961 0.016313586317754789 0 0.0012141342134494961 0.016313586317754789 0 0.0016022587880130327 0.015995915514027317 0 0.0010918354467835704 0.015656876822120941 0 0.00080443699028677495 0.016106746851941214 0 0.0012141342134494961 0.016313586317754789 0 0.0010918354467835704 0.015656876822120941 0 0.0016022587880130327 0.015995915514027317 0 0.0010918354467835704 0.015656876822120941 0 0.0016922531033564613 0.015307520626986057 0 0.0023656600965055647 0.015730779243941229 0 0.0021344798994748469 0.015558588491282496 0 0.0026989143282204176 0.015517435889450691 0 0.003101579534320453 0.015438554392734415 0 0.0030486145397228218 0.016355606968556979 0 0.0010918354467835704 0.015656876822120941 0 0.0012870399916601837 0.015300322329398415 0 0.0016922531033564613 0.015307520626986057 0 0.0010918354467835704 0.015656876822120941 0 0.0012870399916601837 0.015300322329398415 0 0.00078765261473660723 0.01499997704155921 0 0.0012870399916601837 0.015300322329398415 0 0.0016120166892866202 0.01499998960599172 0 0.00078765261473660723 0.01499997704155921 0 0.0012870399916601837 0.015300322329398415 0 0.0016120166892866202 0.01499998960599172 0 0.0016922531033564613 0.015307520626986057 0 0.0016122832364329797 0.0149999471848334 0 0.0021344798994748469 0.015558588491282496 0 0.001761078708177425 0.015000049788516665 0 0.0021344798994748469 0.015558588491282496 0 0.0020547231006020198 0.015000089072083845 0 0.0017611542203634953 0.014999894795225139 0 0.0018126132513710499 0.015239202016755894 0 0.0016121830933579473 0.014999999031279248 0 0.0017608666494961043 0.015000002649654993 0 0.0017552601560861291 0.015334847244057512 0 0.00026235210254184588 0.01608474611500315 0 0.00048401477513532122 0.01559666023436755 0 -0.00011314938619785595 0.015661817602061645 0 0.00080443699028677495 0.016106746851941214 0 0.0010918354467835704 0.015656876822120941 0 0.00048401477513532122 0.01559666023436755 0 0.0010918354467835704 0.015656876822120941 0 0.00048401477513532122 0.01559666023436755 0 0.00078765261473660723 0.01499997704155921 0 0.00048401477513532122 0.01559666023436755 0 -3.6867793217132824e-05 0.014999973923224056 0 -0.00011314938619785595 0.015661817602061645 0 0.00048401477513532122 0.01559666023436755 0 0.00078765261473660723 0.01499997704155921 0 -3.6867793217132824e-05 0.014999973923224056 0 -3.6867793217132824e-05 0.014999973923224056 0 -0.00011314938619785595 0.015661817602061645 0 -0.00073687448888346517 0.015565824873824022 0 -0.00011314938619785595 0.015661817602061645 0 -0.00073687448888346517 0.015565824873824022 0 -0.00054334130010932566 0.016022271394766637 0 -3.6867793217132824e-05 0.014999973923224056 0 -0.00073687448888346517 0.015565824873824022 0 -0.00086135834022340251 0.01499998009917337 0 -0.00086135834022340251 0.01499998009917337 0 -0.0012890174272493912 0.015389489034738239 0 -0.0016858840570586719 0.014999976964654955 0 -0.00073687448888346517 0.015565824873824022 0 -0.00086135834022340251 0.01499998009917337 0 -0.0012890174272493912 0.015389489034738239 0 -0.0012890174272493912 0.015389489034738239 0 -0.0016858840570586719 0.014999976964654955 0 -0.0018458663296672818 0.015772931875504007 0 -0.0012890174272493912 0.015389489034738239 0 -0.0018458663296672818 0.015772931875504007 0 -0.001323324888175629 0.015837390175599292 0 -0.00073687448888346517 0.015565824873824022 0 -0.001323324888175629 0.015837390175599292 0 -0.0009462120890487047 0.016064237463531878 0 -0.00073687448888346517 0.015565824873824022 0 -0.0012890174272493912 0.015389489034738239 0 -0.001323324888175629 0.015837390175599292 0 -0.001323324888175629 0.015837390175599292 0 -0.0009462120890487047 0.016064237463531878 0 -0.0012369499570743698 0.016365193550611001 0 -0.0018458663296672818 0.015772931875504007 0 -0.001323324888175629 0.015837390175599292 0 -0.0016357787169566707 0.01631095295940492 0 -0.001323324888175629 0.015837390175599292 0 -0.0015486795978624447 0.016212473005363669 0 -0.0012369499570743698 0.016365193550611001 0 -0.0018458663296672818 0.015772931875504007 0 -0.0016357787169566707 0.01631095295940492 0 -0.0019460344479654632 0.016159098432817119 0 -0.0013491848085718549 0.015881451591521736 0 -0.0015925279690977316 0.016261890092319368 0 -0.0016357787169566707 0.01631095295940492 0 -0.0018565511802768977 0.01636065389304776 0 -0.0019460344479654632 0.016159098432817119 0 -0.0015486795978624447 0.016212473005363669 0 -0.0012369499570743698 0.016365193550611001 0 -0.0017768594609533651 0.01664663837512205 0 -0.0015486795978624447 0.016212473005363669 0 -0.0017768594609533651 0.01664663837512205 0 -0.001805476958431597 0.016601243369910344 0 -0.0012346205273728193 0.01638759500080355 0 -0.0018819459705365616 0.016553108661225006 0 -0.0012369499570743698 0.016365193550611001 0 -0.001735766495622917 0.016614230326629027 0 -0.0016608202199691114 0.016676662791234302 0 -0.0015925279690977316 0.016261890092319368 0 -0.0019707247548162309 0.016546612090334728 0 -0.0016357787169566707 0.01631095295940492 0 -0.0018565511802768977 0.01636065389304776 0 -0.0019362865221507386 0.016762077967900066 0 -0.0012369499570743698 0.016365193550611001 0 -0.0010275041946841551 0.016884966896987021 0 -0.0016608202199691114 0.016676662791234302 0 -0.0009462120890487047 0.016064237463531878 0 -0.0012369499570743698 0.016365193550611001 0 -0.00072916730929037247 0.016480937878071037 0 -0.0012369499570743698 0.016365193550611001 0 -0.00072916730929037247 0.016480937878071037 0 -0.0010275041946841551 0.016884966896987021 0 -0.00072916730929037247 0.016480937878071037 0 -0.00021528410663280029 0.016382276831454903 0 -0.00054334130010932566 0.016022271394766637 0 -0.00072916730929037247 0.016480937878071037 0 -0.00021528410663280029 0.016382276831454903 0 -0.00033165053661563383 0.017043068382292616 0 -0.00021528410663280029 0.016382276831454903 0 -0.00013691583383663086 0.016032842856865046 0 -0.00054334130010932566 0.016022271394766637 0 0.00026235210254184588 0.01608474611500315 0 -0.00021528410663280029 0.016382276831454903 0 -0.00013691583383663086 0.016032842856865046 0 -0.00011314938619785595 0.015661817602061645 0 -0.00013691583383663086 0.016032842856865046 0 -0.00054334130010932566 0.016022271394766637 0 -0.00073687448888346517 0.015565824873824022 0 -0.0009462120890487047 0.016064237463531878 0 -0.00054334130010932566 0.016022271394766637 0 -0.0009462120890487047 0.016064237463531878 0 -0.00072916730929037247 0.016480937878071037 0 -0.00054334130010932566 0.016022271394766637 0 -0.0033633158945049037 0.015659010046139628 0 -0.0034193066893578802 0.016062507303540641 0 -0.0039656277002350195 0.015624843689544501 0 -0.0033633158945049037 0.015659010046139628 0 -0.0036122612309460967 0.015366051133870214 0 -0.0039656277002350195 0.015624843689544501 0 -0.0033633158945049037 0.015659010046139628 0 -0.0036122612309460967 0.015366051133870214 0 -0.0032662324156494181 0.015344786087666996 0 -0.0036122612309460967 0.015366051133870214 0 -0.003335012628096093 0.014999991133119898 0 -0.00415940984429019 0.014999990448366151 0 -0.0036122612309460967 0.015366051133870214 0 -0.003335012628096093 0.014999991133119898 0 -0.0032662324156494181 0.015344786087666996 0 -0.0032662324156494181 0.015344786087666996 0 -0.0029378472529358124 0.015225807000358546 0 -0.0030209746067300577 0.0155775670099158 0 -0.003335012628096093 0.014999991133119898 0 -0.0029378472529358124 0.015225807000358546 0 -0.002510451499934281 0.014999987950347118 0 -0.003335012628096093 0.014999991133119898 0 -0.0032662324156494181 0.015344786087666996 0 -0.0029378472529358124 0.015225807000358546 0 -0.0029378472529358124 0.015225807000358546 0 -0.0030209746067300577 0.0155775670099158 0 -0.0027025581372980612 0.015693787158629017 0 -0.0033633158945049037 0.015659010046139628 0 -0.0030209746067300577 0.0155775670099158 0 -0.0029165124134105554 0.015933352586466602 0 -0.0033633158945049037 0.015659010046139628 0 -0.0032662324156494181 0.015344786087666996 0 -0.0030209746067300577 0.0155775670099158 0 -0.0029166018309455216 0.015267563260617753 0 -0.002654596983964063 0.015700653008370057 0 -0.0030209746067300577 0.0155775670099158 0 -0.0027025581372980612 0.015693787158629017 0 -0.0029165124134105554 0.015933352586466602 0 -0.0025945818365659869 0.015733210916733031 0 -0.0025603529962949208 0.015340486284697698 0 -0.0022024395032553207 0.015403538578738335 0 -0.0029378472529358124 0.015225807000358546 0 -0.0025945818365659869 0.015733210916733031 0 -0.0025603529962949208 0.015340486284697698 0 -0.0029378472529358124 0.015225807000358546 0 -0.002510451499934281 0.014999987950347118 0 -0.0025603529962949208 0.015340486284697698 0 -0.002510451499934281 0.014999987950347118 0 -0.0025603529962949208 0.015340486284697698 0 -0.0022024395032553207 0.015403538578738335 0 -0.0016858840570586719 0.014999976964654955 0 -0.002510451499934281 0.014999987950347118 0 -0.0022024395032553207 0.015403538578738335 0 -0.0016858840570586719 0.014999976964654955 0 -0.0018458663296672818 0.015772931875504007 0 -0.0022024395032553207 0.015403538578738335 0 -0.0018458663296672818 0.015772931875504007 0 -0.0022024395032553207 0.015403538578738335 0 -0.0021715879028279838 0.015860817622893545 0 -0.0025945818365659869 0.015733210916733031 0 -0.0022024395032553207 0.015403538578738335 0 -0.0021715879028279838 0.015860817622893545 0 -0.0018458663296672818 0.015772931875504007 0 -0.0021715879028279838 0.015860817622893545 0 -0.0019460344479654632 0.016159098432817119 0 -0.0021715879028279838 0.015860817622893545 0 -0.0022649330599582729 0.016242198394494901 0 -0.0019460344479654632 0.016159098432817119 0 -0.0024473169539128703 0.016135530074126221 0 -0.0024429309951474161 0.016210602664671309 0 -0.0025230286895683894 0.016191377940930878 0 -0.0022649330599582729 0.016242198394494901 0 -0.0019460344479654632 0.016159098432817119 0 -0.0020072460001681982 0.016399747435841369 0 -0.0018565511802768977 0.01636065389304776 0 -0.0019460344479654632 0.016159098432817119 0 -0.0020072460001681982 0.016399747435841369 0 -0.0022649330599582729 0.016242198394494901 0 -0.0020072460001681982 0.016399747435841369 0 -0.0019362865221507386 0.016762077967900066 0 -0.0024473169539128703 0.016135530074126221 0 -0.0024429309951474161 0.016210602664671309 0 -0.0022107829698823924 0.016515121415313576 0 -0.0024429309951474161 0.016210602664671309 0 -0.0022107829698823924 0.016515121415313576 0 -0.0022616454732015765 0.016591600237857138 0 -0.0024429309951474161 0.016210602664671309 0 -0.0025418111752658549 0.016735081165292553 0 -0.0022616454732015765 0.016591600237857138 0 -0.0018565511802768977 0.01636065389304776 0 -0.0020072460001681982 0.016399747435841369 0 -0.0019362865221507386 0.016762077967900066 0 -0.0023901488879931689 0.016349297534378009 0 -0.002898201483613061 0.016483275750925678 0 -0.0023588899965864096 0.016195975697088978 0 -0.0019707247548162309 0.016546612090334728 0 -0.0019707247548162309 0.016546612090334728 0 -0.0021193312108016673 0.016532383900330516 0 -0.0018819459705365616 0.016553108661225006 0 -0.0021193312108016673 0.016532383900330516 0 -0.0020506234544727634 0.016512362951799822 0 -0.002040982301024162 0.016527667491023919 0 -0.0020210763632712257 0.016496820441821731 0 -0.0018819459705365616 0.016553108661225006 0 -0.0019707247548162309 0.016546612090334728 0 -0.0024429309951474161 0.016210602664671309 0 -0.0026198314412842886 0.016493213205573391 0 -0.0025591246589113589 0.016818121992266705 0 -0.0025780459526054478 0.016270714238953616 0 -0.0026889465263781466 0.016324823259937261 0 -0.0026198314412842886 0.016493213205573391 0 -0.0024429309951474161 0.016210602664671309 0 -0.0025780459526054478 0.016270714238953616 0 -0.0026198314412842886 0.016493213205573391 0 -0.0026198314412842886 0.016493213205573391 0 -0.0028389861793545793 0.016450782294203669 0 -0.002830448024008469 0.016696365496698458 0 -0.0026889465263781466 0.016324823259937261 0 -0.0028389861793545793 0.016450782294203669 0 -0.0028206844166381905 0.016235090949470423 0 -0.0026889465263781466 0.016324823259937261 0 -0.0026198314412842886 0.016493213205573391 0 -0.0028389861793545793 0.016450782294203669 0 -0.002654596983964063 0.015700653008370057 0 -0.0023588899965864096 0.016195975697088978 0 -0.0028206844166381905 0.016235090949470423 0 -0.0026257347454057408 0.016150040508062811 0 -0.0029165124134105554 0.015933352586466602 0 -0.0027025581372980612 0.015693787158629017 0 -0.0024473169539128703 0.016135530074126221 0 -0.0026257347454057408 0.016150040508062811 0 -0.0027025581372980612 0.015693787158629017 0 -0.0026257347454057408 0.016150040508062811 0 -0.0029165124134105554 0.015933352586466602 0 -0.0025945818365659869 0.015733210916733031 0 -0.0021715879028279838 0.015860817622893545 0 -0.0022649330599582729 0.016242198394494901 0 -0.0026889465263781466 0.016324823259937261 0 -0.0028206844166381905 0.016235090949470423 0 -0.0026257347454057408 0.016150040508062811 0 -0.0025780459526054478 0.016270714238953616 0 -0.0026889465263781466 0.016324823259937261 0 -0.0026257347454057408 0.016150040508062811 0 -0.0024473169539128703 0.016135530074126221 0 -0.0025230286895683894 0.016191377940930878 0 -0.0026257347454057408 0.016150040508062811 0 -0.0024429309951474161 0.016210602664671309 0 -0.0025780459526054478 0.016270714238953616 0 -0.0025230286895683894 0.016191377940930878 0 -0.0025780459526054478 0.016270714238953616 0 -0.0025230286895683894 0.016191377940930878 0 -0.0026257347454057408 0.016150040508062811 0 -0.0029165124134105554 0.015933352586466602 0 -0.0030621664492385381 0.01629406419479008 0 -0.0034193066893578802 0.016062507303540641 0 -0.0033633158945049037 0.015659010046139628 0 -0.0029165124134105554 0.015933352586466602 0 -0.0034193066893578802 0.016062507303540641 0 -0.0028206844166381905 0.016235090949470423 0 -0.0029165124134105554 0.015933352586466602 0 -0.0030621664492385381 0.01629406419479008 0 -0.0028389861793545793 0.016450782294203669 0 -0.0028206844166381905 0.016235090949470423 0 -0.0030621664492385381 0.01629406419479008 0 -0.0030621664492385381 0.01629406419479008 0 -0.0033901641589353672 0.016475830333533874 0 -0.0034193066893578802 0.016062507303540641 0 -0.0028389861793545793 0.016450782294203669 0 -0.0030892462318183847 0.016654814902629347 0 -0.002830448024008469 0.016696365496698458 0 -0.0028389861793545793 0.016450782294203669 0 -0.0030621664492385381 0.01629406419479008 0 -0.0030892462318183847 0.016654814902629347 0 -0.0030621664492385381 0.01629406419479008 0 -0.0033901641589353672 0.016475830333533874 0 -0.0030892462318183847 0.016654814902629347 0 -0.0033901641589353672 0.016475830333533874 0 -0.0036587744749458852 0.016752917888937648 0 -0.0038021561597044351 0.016198420811421609 0 -0.0033901641589353672 0.016475830333533874 0 -0.0034193066893578802 0.016062507303540641 0 -0.0038021561597044351 0.016198420811421609 0 -0.0035324171954880484 0.01730367026656222 0 -0.0033898600835432918 0.016977783939500495 0 -0.0030438582191638273 0.017062538285276201 0 -0.0035324171954880484 0.01730367026656222 0 -0.0033898600835432918 0.016977783939500495 0 -0.0036587744749458852 0.016752917888937648 0 -0.0033901641589353672 0.016475830333533874 0 -0.0033898600835432918 0.016977783939500495 0 -0.0036587744749458852 0.016752917888937648 0 -0.0042819489933300457 0.016161239634143915 0 -0.0038973507971159053 0.016865498208375809 0 -0.0033901641589353672 0.016475830333533874 0 -0.0033898600835432918 0.016977783939500495 0 -0.0030892462318183847 0.016654814902629347 0 -0.0033898600835432918 0.016977783939500495 0 -0.0030892462318183847 0.016654814902629347 0 -0.0030438582191638273 0.017062538285276201 0 -0.0030892462318183847 0.016654814902629347 0 -0.0030438582191638273 0.017062538285276201 0 -0.002830448024008469 0.016696365496698458 0 -0.0040732018157071037 0.016316731603651886 0 -0.0037906514506330434 0.016174488576196338 0 -0.0036353982727440901 0.016388673474467784 0 -0.0042819489933300457 0.016161239634143915 0 -0.0042921288807646505 0.015448834682969911 0 -0.0042819489933300457 0.016161239634143915 0 -0.0033889510429190089 0.016658455324865533 0 -0.0037906514506330434 0.016174488576196338 0 -0.003565487800854993 0.016287076775775199 0 -0.0036353982727440901 0.016388673474467784 0 -0.0037906514506330434 0.016174488576196338 0 -0.003565487800854993 0.016287076775775199 0 -0.0035141343781946695 0.016037774203496984 0 -0.003228951479426563 0.016376712810606514 0 -0.0042921288807646505 0.015448834682969911 0 -0.0036277002121199572 0.016101185065532483 0 -0.0035065518278447664 0.015425850004846803 0 -0.0032223116419318621 0.01547574878853508 0 -0.003228951479426563 0.016376712810606514 0 -0.0032654648505456431 0.015437961937323053 0 -0.0033889510429190089 0.016658455324865533 0 -0.002898201483613061 0.016483275750925678 0 -0.0030438582191638273 0.017062538285276201 0 -0.002830448024008469 0.016696365496698458 0 -0.0025591246589113589 0.016818121992266705 0 -0.003228951479426563 0.016376712810606514 0 -0.002898201483613061 0.016483275750925678 0 -0.0026198314412842886 0.016493213205573391 0 -0.002830448024008469 0.016696365496698458 0 -0.0025591246589113589 0.016818121992266705 0 -0.0028282767151365691 0.016636048412696235 0 -0.0027778391749079391 0.016392017881115252 0 -0.0025963213803655008 0.01630186293839329 0 -0.003228951479426563 0.016376712810606514 0 -0.0021193312108016673 0.016532383900330516 0 -0.0023910171653148877 0.017069767919037273 0 -0.0019619557610879631 0.016429525504134124 0 -0.0018984434545034183 0.016868187895425622 0 -0.0018701704654787645 0.01638131467780447 0 -0.0019619557610879631 0.016429525504134124 0 -0.0018984434545034183 0.016868187895425622 0 -0.002898201483613061 0.016483275750925678 0 -0.0021193312108016673 0.016532383900330516 0 -0.0023910171653148877 0.017069767919037273 0 -0.0018984434545034183 0.016868187895425622 0 -0.0018213563740694203 0.017383254479059227 0 -0.0023910171653148877 0.017069767919037273 0 -0.0024309488385653765 0.017273095129826471 0 -0.0018213563740694203 0.017383254479059227 0 -0.0028440031357978737 0.01418418229259444 0 -0.0027144864120066925 0.014380178826203528 0 -0.0026570899167628345 0.014099062195978907 0 -0.0032654648505456431 0.015437961937323053 0 -0.0021518917292188918 0.015753768041493504 0 -0.0028440031357978737 0.01418418229259444 0 -0.0029867617976767182 0.014050826319655764 0 -0.0026570899167628345 0.014099062195978907 0 -0.0033053623411528721 0.010789481495736225 0 -0.0034150172282008985 0.010848125550711058 0 -0.0031738991499016891 0.010874951939513523 0 -0.0028440031357978737 0.01418418229259444 0 -0.0027144864120066925 0.014380178826203528 0 -0.0030277969985704834 0.014255257475870501 0 -0.0033053623411528721 0.010789481495736225 0 -0.0034150172282008985 0.010848125550711058 0 -0.0035356164235869052 0.010858800101944071 0 -0.0028217216804040097 0.012493116604696061 0 -0.00401974183877132 0.013446054880884751 0 -0.0027144864120066925 0.014380178826203528 0 -0.0030716171193296638 0.014461000750370524 0 -0.0030277969985704834 0.014255257475870501 0 -0.00401974183877132 0.013446054880884751 0 -0.0041698914682772878 0.014476395952332093 0 -0.0053548206202920544 0.014360380540619591 0 -0.0054008178938554459 0.01462064150905272 0 -0.0052272638823094844 0.014500135359817505 0 -0.0054008178938554459 0.01462064150905272 0 -0.0053217975528122314 0.014793847106477492 0 -0.0052273290234799751 0.014639790792604608 0 -0.0041698914682772878 0.014476395952332093 0 -0.0032654648505456431 0.015437961937323053 0 -0.0028440031357978737 0.01418418229259444 0 -0.0030277969985704834 0.014255257475870501 0 -0.0029867617976767182 0.014050826319655764 0 -0.0053896828619487535 0.014900125012772448 0 -0.0053217975528122314 0.014793847106477492 0 -0.0052039703620930721 0.01476359636140062 0 -0.0054008178938554459 0.01462064150905272 0 -0.0054390151642496332 0.014891072505561015 0 -0.0053217975528122314 0.014793847106477492 0 -0.0054390151642496332 0.014891072505561015 0 -0.0053830028086372323 0.014900679697854696 0 -0.0053217975528122314 0.014793847106477492 0 -0.0032654648505456431 0.015437961937323053 0 -0.0042921288807646505 0.015448834682969911 0 -0.0042921288807646505 0.015448834682969911 0 -0.0047079324748634374 0.015237785251983983 0 -0.0053896828619487535 0.014900125012772448 0 -0.0050557358222065706 0.01482039456522468 0 -0.0052039703620930721 0.01476359636140062 0 -0.0048567416879048845 0.015000683611858169 0 -0.0053896828619487535 0.014900125012772448 0 -0.0050557358222065706 0.01482039456522468 0 -0.0050557358222065706 0.01482039456522468 0 -0.0052039703620930721 0.01476359636140062 0 -0.0051126445414852893 0.014587430884272294 0 -0.0050557358222065706 0.01482039456522468 0 -0.0051126445414852893 0.014587430884272294 0 -0.0049391908351181166 0.014663993569162802 0 -0.0053217975528122314 0.014793847106477492 0 -0.0052273290234799751 0.014639790792604608 0 -0.0052039703620930721 0.01476359636140062 0 -0.0052273290234799751 0.014639790792604608 0 -0.0052039703620930721 0.01476359636140062 0 -0.0051126445414852893 0.014587430884272294 0 -0.0052273290234799751 0.014639790792604608 0 -0.0052272638823094844 0.014500135359817505 0 -0.0051126445414852893 0.014587430884272294 0 -0.0054008178938554459 0.01462064150905272 0 -0.0052273290234799751 0.014639790792604608 0 -0.0052272638823094844 0.014500135359817505 0 -0.0053548206202920544 0.014360380540619591 0 -0.0051677416995810771 0.014413112539503843 0 -0.0051102946144063873 0.014282482371526045 0 -0.0053548206202920544 0.014360380540619591 0 -0.0052272638823094844 0.014500135359817505 0 -0.0051677416995810771 0.014413112539503843 0 -0.0051677416995810771 0.014413112539503843 0 -0.0051126445414852893 0.014587430884272294 0 -0.0050502694481308306 0.014342756704215892 0 -0.0052272638823094844 0.014500135359817505 0 -0.0051677416995810771 0.014413112539503843 0 -0.0051126445414852893 0.014587430884272294 0 -0.0047882312397001811 0.014435403190465433 0 -0.0049931669780158925 0.014732235875928468 0 -0.0049449853618038818 0.014315834446562873 0 -0.0051126445414852893 0.014587430884272294 0 -0.0049391908351181166 0.014663993569162802 0 -0.0050502694481308306 0.014342756704215892 0 -0.0049931669780158925 0.014732235875928468 0 -0.0049449853618038818 0.014315834446562873 0 -0.0050502694481308306 0.014342756704215892 0 -0.0050267896588528571 0.014474147187978955 0 -0.0050214265422585357 0.014463102257550485 0 -0.0047882312397001811 0.014435403190465433 0 -0.0049931669780158925 0.014732235875928468 0 -0.0047231798852382647 0.014717857575936896 0 -0.0048567416879048845 0.015000683611858169 0 -0.0050557358222065706 0.01482039456522468 0 -0.0049391908351181166 0.014663993569162802 0 -0.0042819489933300457 0.016161239634143915 0 -0.0050267896588528571 0.014474147187978955 0 -0.0049086420134344718 0.015124916204999913 0 -0.0049931669780158925 0.014732235875928468 0 -0.0047231798852382647 0.014717857575936896 0 0.00010476104701613236 0.016932646341355922 0 -0.0004217781773605416 0.017163056838490912 0 -0.00057568503428602252 0.016815201850089379 0 -0.00092627602731052956 0.017154093402972383 0 -0.0004217781773605416 0.017163056838490912 0 -0.00057568503428602252 0.016815201850089379 0 0.00018091624111728446 0.016647038389764772 0 -0.00021528410663280029 0.016382276831454903 0 -0.00033165053661563383 0.017043068382292616 0 -0.00072916730929037247 0.016480937878071037 0 -0.00033165053661563383 0.017043068382292616 0 -0.0010275041946841551 0.016884966896987021 0 -0.00045248789264270726 0.01692735017568029 0 -0.001100915069440456 0.016802659858881668 0 -0.00092627602731052956 0.017154093402972383 0 -0.00057568503428602252 0.016815201850089379 0 -0.0011743901516629209 0.016724689879978046 0 -0.0018819459705365616 0.016553108661225006 0 -0.0014413723751525648 0.017023093906327197 0 -0.0011743901516629209 0.016724689879978046 0 -0.0016608202199691114 0.016676662791234302 0 -0.0014478876889002579 0.017063281550845504 0 -0.0018701704654787645 0.01638131467780447 0 -0.0018984434545034183 0.016868187895425622 0 -0.0014478876889002579 0.017063281550845504 0 -0.001735766495622917 0.016614230326629027 0 -0.0016608202199691114 0.016676662791234302 0 -0.0014478876889002579 0.017063281550845504 0 -0.001100915069440456 0.016802659858881668 0 -0.001619912206570084 0.016686411245646179 0 -0.0018984434545034183 0.016868187895425622 0 -0.0014478876889002579 0.017063281550845504 0 -0.0018213563740694203 0.017383254479059227 0 -0.00092627602731052956 0.017154093402972383 0 -0.0011743901516629209 0.016724689879978046 0 -0.0014478876889002579 0.017063281550845504 0 -0.00092627602731052956 0.017154093402972383 0 -0.0014478876889002579 0.017063281550845504 0 -0.0012553330406759556 0.017473082094213908 0 -0.0023192574306451761 0.01415042808689811 0 -0.0023490099681999369 0.014294544660357268 0 -0.0019805827867562333 0.014202331917222638 0 -0.0023192574306451761 0.01415042808689811 0 -0.0026570899167628345 0.014099062195978907 0 -0.0023490099681999369 0.014294544660357268 0 -0.0014478876889002579 0.017063281550845504 0 -0.0012553330406759556 0.017473082094213908 0 -0.0018213563740694203 0.017383254479059227 0 -0.0016718630016711116 0.015984225942135354 0 -0.0021518917292188918 0.015753768041493504 0 -0.0033053623411528721 0.010789481495736225 0 -0.0030995700425890528 0.0107551338710668 0 -0.0031263738874758255 0.010841685506004374 0 -0.0028217216804040097 0.012493116604696061 0 -0.0028626598121344856 0.012391202919653607 0 -0.0027144864120066925 0.014380178826203528 0 -0.0026570899167628345 0.014099062195978907 0 -0.0023490099681999369 0.014294544660357268 0 -0.0030995700425890528 0.0107551338710668 0 -0.0030441749283251023 0.010798422395721057 0 -0.0031263738874758255 0.010841685506004374 0 -0.0028626598121344856 0.012391202919653607 0 -0.0018282965891152946 0.013967298366085417 0 -0.0030441749283251023 0.010798422395721057 0 -0.0029864259058177845 0.010802818820736856 0 -0.002982617550814721 0.010754172480789147 0 -0.0030995700425890528 0.0107551338710668 0 -0.0030441749283251023 0.010798422395721057 0 -0.002982617550814721 0.010754172480789147 0 -0.0016718630016711116 0.015984225942135354 0 -0.0018282965891152946 0.013967298366085417 0 -0.00092627602731052956 0.017154093402972383 0 -0.0012553330406759556 0.017473082094213908 0 -0.00071743653506660626 0.017585428757793529 0 -0.00092627602731052956 0.017154093402972383 0 -0.0004217781773605416 0.017163056838490912 0 -0.00071743653506660626 0.017585428757793529 0 -0.0004217781773605416 0.017163056838490912 0 -0.00071743653506660626 0.017585428757793529 0 -0.00026564699590499077 0.017504070806899145 0 -0.0018282965891152946 0.013967298366085417 0 -0.00090228284085086389 0.015501475119937363 0 -0.002317953825528303 0.012082120322745159 0 -0.0018282965891152946 0.013967298366085417 0 -0.0014244367165886236 0.013540902683666872 0 -0.0016369140392276794 0.013518773018880829 0 -0.001451174255669203 0.013465350467120264 0 -0.0029198350376209636 0.01076627108378383 0 -0.0029864259058177845 0.010802818820736856 0 -0.002982617550814721 0.010754172480789147 0 -0.0029198350376209636 0.01076627108378383 0 -0.0029864259058177845 0.010802818820736856 0 -0.0029344355928970153 0.010806533574753805 0 -0.0029864259058177845 0.010802818820736856 0 -0.0029714579500221411 0.010841022063893587 0 -0.0029344355928970153 0.010806533574753805 0 -0.002912840144813677 0.010833792444933045 0 -0.0029714579500221411 0.010841022063893587 0 -0.0029344355928970153 0.010806533574753805 0 -0.0037380123353735247 0.0088931942272050916 0 -0.0035737473760345888 0.0088119421592838636 0 -0.0029864259058177845 0.010802818820736856 0 -0.0029714579500221411 0.010841022063893587 0 -0.0030512326545534029 0.010851995704799298 0 -0.0030441749283251023 0.010798422395721057 0 -0.0029864259058177845 0.010802818820736856 0 -0.0030512326545534029 0.010851995704799298 0 -0.004319567646157433 0.0068668600164244493 0 -0.0040062616881855976 0.0069047765069799151 0 -0.0041503167447725572 0.0066591639057783335 0 -0.0040062616881855976 0.0069047765069799151 0 -0.0041503167447725572 0.0066591639057783335 0 -0.0039671169925275243 0.0066707992743858888 0 -0.0032608333995008316 0.0077251931960629246 0 -0.0037380123353735247 0.0088931942272050916 0 -0.0049787978141817568 0.0066966165412591242 0 -0.004319567646157433 0.0068668600164244493 0 -0.0044774183263466211 0.0067893733857633419 0 -0.0044567237217624286 0.006695571037287954 0 -0.0041235500921204442 0.0061150747106226422 0 -0.004319567646157433 0.0068668600164244493 0 -0.0041503167447725572 0.0066591639057783335 0 -0.0044774183263466211 0.0067893733857633419 0 -0.0041503167447725572 0.0066591639057783335 0 -0.0044774183263466211 0.0067893733857633419 0 -0.0043024874427213923 0.006318299551127231 0 -0.0044774183263466211 0.0067893733857633419 0 -0.0040018529886374421 0.0056403296884958848 0 -0.0046725297856744265 0.0058199313964029499 0 -0.0041503167447725572 0.0066591639057783335 0 -0.0043024874427213923 0.006318299551127231 0 -0.0039164924227644959 0.0063085452043955825 0 -0.0041503167447725572 0.0066591639057783335 0 -0.0039164924227644959 0.0063085452043955825 0 -0.0039671169925275243 0.0066707992743858888 0 -0.0040018529886374421 0.0056403296884958848 0 -0.0042696325991325532 0.0047637542663275063 0 -0.0035160131803582385 0.0042411452858944175 0 -0.0043024874427213923 0.006318299551127231 0 -0.0039164924227644959 0.0063085452043955825 0 -0.0041409037144527171 0.0057784040190966886 0 -0.0041235500921204442 0.0061150747106226422 0 -0.0042015477571318094 0.004369279875852213 0 -0.0042469926452719936 0.0059750530584608561 0 -0.0042015477571318094 0.004369279875852213 0 -0.0035405989619395639 0.0049855735781951767 0 -0.0031332291721745341 0.0044958050792398398 0 -0.0024776052269624899 0.0040346525832851811 0 -0.0024143241824422863 0.0047055648922312704 0 -0.002028828288436528 0.0036148674165570618 0 -0.0040018529886374421 0.0056403296884958848 0 -0.0046725297856744265 0.0058199313964029499 0 -0.0042696325991325532 0.0047637542663275063 0 -0.0024776052269624899 0.0040346525832851811 0 -0.0025259905973658322 0.0033194613156904127 0 -0.002028828288436528 0.0036148674165570618 0 -0.0038504621437361742 0.0050006615354625961 0 -0.0037671039382885193 0.0058665831222339615 0 -0.0030672100546091925 0.0050130823310088925 0 -0.0038504621437361742 0.0050006615354625961 0 -0.0030672100546091925 0.0050130823310088925 0 -0.0035462778495873484 0.0042189446666382529 0 -0.0038504621437361742 0.0050006615354625961 0 -0.0043921452419993755 0.0044779047010997759 0 -0.0035462778495873484 0.0042189446666382529 0 -0.0043921452419993755 0.0044779047010997759 0 -0.004489234169162735 0.0054289584347055157 0 -0.0051329270675062946 0.0040293954016480836 0 -0.0038504621437361742 0.0050006615354625961 0 -0.0043921452419993755 0.0044779047010997759 0 -0.004489234169162735 0.0054289584347055157 0 -0.0042469926452719936 0.0059750530584608561 0 -0.0038069279966524527 0.0066916058349741122 0 -0.004489234169162735 0.0054289584347055157 0 -0.0037671039382885193 0.0058665831222339615 0 -0.0037922820138143608 0.0067813772954032642 0 -0.0038504621437361742 0.0050006615354625961 0 -0.004489234169162735 0.0054289584347055157 0 -0.0037671039382885193 0.0058665831222339615 0 -0.0037671039382885193 0.0058665831222339615 0 -0.0029460641793702044 0.0059368820511612229 0 -0.0030672100546091925 0.0050130823310088925 0 -0.0037671039382885193 0.0058665831222339615 0 -0.0037183416214825191 0.0067058441361200587 0 -0.0029460641793702044 0.0059368820511612229 0 -0.0037671039382885193 0.0058665831222339615 0 -0.0037922820138143608 0.0067813772954032642 0 -0.0037183416214825191 0.0067058441361200587 0 -0.0037183416214825191 0.0067058441361200587 0 -0.0036496858882995226 0.0067469104928787813 0 -0.003643750261674906 0.0067171193065017317 0 -0.0037118134949895468 0.0067015174951870239 0 -0.003211200708818833 0.0062927561319738503 0 -0.0037922820138143608 0.0067813772954032642 0 -0.0037183416214825191 0.0067058441361200587 0 -0.0036937193795469341 0.006812646051678261 0 -0.0037183416214825191 0.0067058441361200587 0 -0.0036937193795469341 0.006812646051678261 0 -0.0036496858882995226 0.0067469104928787813 0 -0.0040062616881855976 0.0069047765069799151 0 -0.0037922820138143608 0.0067813772954032642 0 -0.0039671169925275243 0.0066707992743858888 0 -0.0039164924227644959 0.0063085452043955825 0 -0.0037922820138143608 0.0067813772954032642 0 -0.0039671169925275243 0.0066707992743858888 0 -0.0030512326545534029 0.010851995704799298 0 -0.0031263738874758255 0.010841685506004374 0 -0.0031537912339278614 0.010857293994942575 0 -0.0035737473760345888 0.0088119421592838636 0 -0.0033238011060754353 0.0099752841044555909 0 -0.0040062616881855976 0.0069047765069799151 0 -0.0037922820138143608 0.0067813772954032642 0 -0.0037368097539642038 0.0069349521736572928 0 -0.0030441749283251023 0.010798422395721057 0 -0.0030512326545534029 0.010851995704799298 0 -0.0031263738874758255 0.010841685506004374 0 -0.0033053623411528721 0.010789481495736225 0 -0.0031263738874758255 0.010841685506004374 0 -0.0031738991499016891 0.010874951939513523 0 -0.0036937193795469341 0.006812646051678261 0 -0.0037368097539642038 0.0069349521736572928 0 -0.0035834758763250664 0.006756919085723523 0 -0.0033238011060754353 0.0099752841044555909 0 -0.0032410229803073224 0.0085272820882629028 0 -0.0037922820138143608 0.0067813772954032642 0 -0.0036937193795469341 0.006812646051678261 0 -0.0037368097539642038 0.0069349521736572928 0 -0.0033771461708523498 0.010325422464854687 0 -0.0033238011060754353 0.0099752841044555909 0 -0.0034150172282008985 0.010848125550711058 0 -0.003202748993144672 0.010879463204561641 0 -0.0033883132549917304 0.010998636677565867 0 -0.0033116988410270627 0.011081083259019374 0 -0.0033238011060754353 0.0099752841044555909 0 -0.00401974183877132 0.013446054880884751 0 -0.0045101695285780499 0.012714704434658627 0 -0.0035356164235869052 0.010858800101944071 0 -0.0034759565817067566 0.010929662107104119 0 -0.0035616523739091851 0.010985610644244612 0 -0.0034150172282008985 0.010848125550711058 0 -0.0035356164235869052 0.010858800101944071 0 -0.0034759565817067566 0.010929662107104119 0 -0.0034759565817067566 0.010929662107104119 0 -0.0035616523739091851 0.010985610644244612 0 -0.0033883132549917304 0.010998636677565867 0 -0.0034150172282008985 0.010848125550711058 0 -0.0034759565817067566 0.010929662107104119 0 -0.0033883132549917304 0.010998636677565867 0 -0.0054323122230827857 0.014346404735551059 0 -0.0053809925287774682 0.014022322599053446 0 -0.0052857768968098675 0.014193562635497554 0 -0.0036090125752973848 0.0067846571214484801 0 -0.0035834758763250664 0.006756919085723523 0 -0.003782312532360466 0.0068524087383985306 0 -0.0035616523739091851 0.010985610644244612 0 -0.0033883132549917304 0.010998636677565867 0 -0.003594657600746043 0.011112620702453864 0 -0.0032410229803073224 0.0085272820882629028 0 -0.0046666918054131049 0.010224283568967532 0 -0.0036937193795469341 0.006812646051678261 0 -0.0036496858882995226 0.0067469104928787813 0 -0.0035834758763250664 0.006756919085723523 0 -0.0036090125752973848 0.0067846571214484801 0 -0.0036183470545892351 0.0067533932236594702 0 -0.0036125506790443142 0.0067255760596102694 0 -0.0036183470545892351 0.0067533932236594702 0 -0.0036496858882995226 0.0067469104928787813 0 -0.003643750261674906 0.0067171193065017317 0 -0.0036183470545892351 0.0067533932236594702 0 -0.0036496858882995226 0.0067469104928787813 0 -0.0035834758763250664 0.006756919085723523 0 -0.0036090125752973848 0.0067846571214484801 0 -0.0036183470545892351 0.0067533932236594702 0 -0.0035834758763250664 0.006756919085723523 0 -0.0048187123023286527 0.014143172080592134 0 -0.0048263474804874648 0.014041279999935416 0 -0.0047456405530313366 0.014067113657204425 0 -0.0049052414421644763 0.01407343055645068 0 -0.0048187123023286527 0.014143172080592134 0 -0.0048263474804874648 0.014041279999935416 0 -0.0049052414421644763 0.01407343055645068 0 -0.0048187123023286527 0.014143172080592134 0 -0.0049229648301405519 0.01417755695583984 0 -0.0048187123023286527 0.014143172080592134 0 -0.0048466818988062068 0.0142523219724676 0 -0.0049229648301405519 0.01417755695583984 0 -0.0047882312397001811 0.014435403190465433 0 -0.0048466818988062068 0.0142523219724676 0 -0.0049449853618038818 0.014315834446562873 0 -0.0048187123023286527 0.014143172080592134 0 -0.0048466818988062068 0.0142523219724676 0 -0.0047260315471760435 0.014226692699577305 0 -0.0047882312397001811 0.014435403190465433 0 -0.0048466818988062068 0.0142523219724676 0 -0.0047260315471760435 0.014226692699577305 0 -0.0048466818988062068 0.0142523219724676 0 -0.0049449853618038818 0.014315834446562873 0 -0.0049229648301405519 0.01417755695583984 0 -0.0049449853618038818 0.014315834446562873 0 -0.0050070774041614972 0.014194730288183671 0 -0.0049229648301405519 0.01417755695583984 0 -0.0049449853618038818 0.014315834446562873 0 -0.0050502694481308306 0.014342756704215892 0 -0.005041627918975982 0.014266549051746515 0 -0.0049449853618038818 0.014315834446562873 0 -0.005041627918975982 0.014266549051746515 0 -0.0050070774041614972 0.014194730288183671 0 -0.0050070774041614972 0.014194730288183671 0 -0.0050154368791763158 0.014082400041728622 0 -0.0051385927756411398 0.014140890732054103 0 -0.0050070774041614972 0.014194730288183671 0 -0.0049229648301405519 0.01417755695583984 0 -0.0050154368791763158 0.014082400041728622 0 -0.0049052414421644763 0.01407343055645068 0 -0.0049229648301405519 0.01417755695583984 0 -0.0050154368791763158 0.014082400041728622 0 -0.0054323122230827857 0.014346404735551059 0 -0.0051102946144063873 0.014282482371526045 0 -0.0052857768968098675 0.014193562635497554 0 -0.00401974183877132 0.013446054880884751 0 -0.0056304810535124494 0.014399689718313244 0 -0.0050154368791763158 0.014082400041728622 0 -0.0051385927756411398 0.014140890732054103 0 -0.0051403688972124903 0.013942116050171201 0 -0.0051385927756411398 0.014140890732054103 0 -0.0051102946144063873 0.014282482371526045 0 -0.0052857768968098675 0.014193562635497554 0 -0.005041627918975982 0.014266549051746515 0 -0.0050070774041614972 0.014194730288183671 0 -0.0051385927756411398 0.014140890732054103 0 -0.005041627918975982 0.014266549051746515 0 -0.0051385927756411398 0.014140890732054103 0 -0.0051102946144063873 0.014282482371526045 0 -0.0051677416995810771 0.014413112539503843 0 -0.0050502694481308306 0.014342756704215892 0 -0.0051102946144063873 0.014282482371526045 0 -0.0050502694481308306 0.014342756704215892 0 -0.005041627918975982 0.014266549051746515 0 -0.0051102946144063873 0.014282482371526045 0 -0.0053809925287774682 0.014022322599053446 0 -0.0051385927756411398 0.014140890732054103 0 -0.0052857768968098675 0.014193562635497554 0 -0.0053809925287774682 0.014022322599053446 0 -0.0051385927756411398 0.014140890732054103 0 -0.0051403688972124903 0.013942116050171201 0 -0.0051403688972124903 0.013942116050171201 0 -0.0050066805455272487 0.013784830814108947 0 -0.0053263119757144921 0.013689166153918539 0 -0.0045101695285780499 0.012714704434658627 0 -0.0046666918054131049 0.010224283568967532 0 -0.0053809925287774682 0.014022322599053446 0 -0.0051403688972124903 0.013942116050171201 0 -0.0053263119757144921 0.013689166153918539 0 -0.0051403688972124903 0.013942116050171201 0 -0.0049990883760130857 0.013943367753431867 0 -0.0050066805455272487 0.013784830814108947 0 -0.0049990883760130857 0.013943367753431867 0 -0.0050066805455272487 0.013784830814108947 0 -0.004872417367986279 0.013957395437360581 0 -0.0050154368791763158 0.014082400041728622 0 -0.0051403688972124903 0.013942116050171201 0 -0.0049990883760130857 0.013943367753431867 0 -0.0049052414421644763 0.01407343055645068 0 -0.0050154368791763158 0.014082400041728622 0 -0.0049990883760130857 0.013943367753431867 0 -0.0049052414421644763 0.01407343055645068 0 -0.0049990883760130857 0.013943367753431867 0 -0.004872417367986279 0.013957395437360581 0 -0.0050066805455272487 0.013784830814108947 0 -0.0048150828182650296 0.013815210866887574 0 -0.004872417367986279 0.013957395437360581 0 -0.0050066805455272487 0.013784830814108947 0 -0.0048150828182650296 0.013815210866887574 0 -0.0048489208792281135 0.013606557489558815 0 -0.0048150828182650296 0.013815210866887574 0 -0.004789552363253448 0.013964121698688945 0 -0.0047260143850877193 0.013901283880276357 0 -0.0048150828182650296 0.013815210866887574 0 -0.004789552363253448 0.013964121698688945 0 -0.004872417367986279 0.013957395437360581 0 -0.0049052414421644763 0.01407343055645068 0 -0.004872417367986279 0.013957395437360581 0 -0.0048263474804874648 0.014041279999935416 0 -0.004789552363253448 0.013964121698688945 0 -0.004872417367986279 0.013957395437360581 0 -0.0048263474804874648 0.014041279999935416 0 -0.004789552363253448 0.013964121698688945 0 -0.0048263474804874648 0.014041279999935416 0 -0.0047456405530313366 0.014067113657204425 0 -0.0054914091877340853 0.011724688171119138 0 -0.0069488423494594737 0.012118373492109943 0 -0.0048489208792281135 0.013606557489558815 0 -0.0050271410385134456 0.013513498964456708 0 -0.0047076060258660953 0.013310858830759465 0 -0.0048150828182650296 0.013815210866887574 0 -0.0048489208792281135 0.013606557489558815 0 -0.0046647721602320743 0.013596991644034927 0 -0.0050066805455272487 0.013784830814108947 0 -0.0048489208792281135 0.013606557489558815 0 -0.0050271410385134456 0.013513498964456708 0 -0.0060352949463320501 0.0099121149369474342 0 -0.0063018659968472239 0.010072122856809496 0 -0.0062568458395239048 0.0097104278824236036 0 -0.003782312532360466 0.0068524087383985306 0 -0.0038115526561964871 0.0069984696690118201 0 -0.0037397477844362086 0.0069486738718441566 0 -0.0046666918054131049 0.010224283568967532 0 -0.0050738411897819982 0.0084290546908578762 0 -0.0054914091877340853 0.011724688171119138 0 -0.0046666918054131049 0.010224283568967532 0 -0.0050066805455272487 0.013784830814108947 0 -0.0050271410385134456 0.013513498964456708 0 -0.0053263119757144921 0.013689166153918539 0 -0.0038115526561964871 0.0069984696690118201 0 -0.0037571704679523771 0.0070466557488152812 0 -0.0038420485608881339 0.007105262929889296 0 -0.0060352949463320501 0.0099121149369474342 0 -0.0062568458395239048 0.0097104278824236036 0 -0.0060460796602417781 0.009584953158158183 0 -0.0062568458395239048 0.0097104278824236036 0 -0.0060460796602417781 0.009584953158158183 0 -0.0062187413031220412 0.0093162298549370279 0 -0.0050738411897819982 0.0084290546908578762 0 -0.0048485596305894137 0.0060967302097205706 0 -0.0038115526561964871 0.0069984696690118201 0 -0.0037397477844362086 0.0069486738718441566 0 -0.0037571704679523771 0.0070466557488152812 0 -0.0058872880057268973 0.0096376289343451296 0 -0.0058081553907715962 0.009383524298603594 0 -0.0057316010590256362 0.0097403815455725032 0 -0.0060352949463320501 0.0099121149369474342 0 -0.0058872880057268973 0.0096376289343451296 0 -0.0057316010590256362 0.0097403815455725032 0 -0.0060352949463320501 0.0099121149369474342 0 -0.0060460796602417781 0.009584953158158183 0 -0.0058872880057268973 0.0096376289343451296 0 -0.0060460796602417781 0.009584953158158183 0 -0.0058872880057268973 0.0096376289343451296 0 -0.0059267620168415702 0.0094986778119064402 0 -0.0029460641793702044 0.0059368820511612229 0 -0.0021752602179852189 0.005170305471822405 0 -0.0030672100546091925 0.0050130823310088925 0 -0.0036233110627696217 0.0072257053609109979 0 -0.0036970456350854317 0.0057102270288033634 0 -0.0036090125752973848 0.0067846571214484801 0 -0.0036125506790443142 0.0067255760596102694 0 -0.0035657881590394503 0.0066282935876035955 0 -0.003643750261674906 0.0067171193065017317 0 -0.0036125506790443142 0.0067255760596102694 0 -0.0035657881590394503 0.0066282935876035955 0 -0.003211200708818833 0.0062927561319738503 0 -0.0036970456350854317 0.0057102270288033634 0 -0.0036183470545892351 0.0067533932236594702 0 -0.003643750261674906 0.0067171193065017317 0 -0.0036125506790443142 0.0067255760596102694 0 -0.0036090125752973848 0.0067846571214484801 0 -0.003782312532360466 0.0068524087383985306 0 -0.0036975113481888498 0.0068909117020923031 0 -0.0036090125752973848 0.0067846571214484801 0 -0.0036975113481888498 0.0068909117020923031 0 -0.0036581300531151758 0.0069754674801929253 0 -0.003782312532360466 0.0068524087383985306 0 -0.0036975113481888498 0.0068909117020923031 0 -0.0037397477844362086 0.0069486738718441566 0 -0.0036975113481888498 0.0068909117020923031 0 -0.0037397477844362086 0.0069486738718441566 0 -0.0036581300531151758 0.0069754674801929253 0 -0.0036970456350854317 0.0057102270288033634 0 -0.0034699709409061166 0.0029106541926753461 0 -0.0048155865094334747 0.0039146194369312493 0 -0.0047577272499911344 0.0034776759922844642 0 -0.0046301131671043251 0.0035303985311775595 0 -0.0037397477844362086 0.0069486738718441566 0 -0.0036581300531151758 0.0069754674801929253 0 -0.0037571704679523771 0.0070466557488152812 0 -0.0036970456350854317 0.0057102270288033634 0 -0.0037136945629333163 0.0049394336561410278 0 -0.0048155865094334747 0.0039146194369312493 0 -0.0040598348979477292 0.0031681202962873692 0 -0.0046301131671043251 0.0035303985311775595 0 -0.0040598348979477292 0.0031681202962873692 0 -0.0047613900543387244 0.0034743804029511919 0 -0.0046301131671043251 0.0035303985311775595 0 -0.0034699709409061166 0.0029106541926753461 0 -0.0036229481305115182 0.0028974111544464239 0 -0.0034699709409061166 0.0029106541926753461 0 -0.003836934194446365 0.0021737648635763874 0 -0.0021752602179852189 0.005170305471822405 0 -0.0021275341424428118 0.0048170249154445522 0 -0.0030672100546091925 0.0050130823310088925 0 -0.0021275341424428118 0.0048170249154445522 0 -0.0030672100546091925 0.0050130823310088925 0 -0.0035462778495873484 0.0042189446666382529 0 -0.004058541446134406 5.3140555825164103e-05 0 -0.0041047912965468496 -5.8342512034539664e-05 0 -0.0041823137046912186 0.00010436929070490878 0 -0.0039732956354386634 0.00022514210431256974 0 -0.004058541446134406 5.3140555825164103e-05 0 -0.0041823137046912186 0.00010436929070490878 0 -0.0040598348979477292 0.0031681202962873692 0 -0.0047613900543387244 0.0034743804029511919 0 -0.0044917271500085395 0.001534625089828672 0 -0.0039732956354386634 0.00022514210431256974 0 -0.004058541446134406 5.3140555825164103e-05 0 -0.0039696137262301831 -5.28581765463828e-05 0 -0.0040598348979477292 0.0031681202962873692 0 -0.0044917271500085395 0.001534625089828672 0 -0.0033122459795716292 0.0024313771959641696 0 -0.0034699709409061166 0.0029106541926753461 0 -0.0043463658453664865 0.00049664139733021553 0 -0.0039696137262301831 -5.28581765463828e-05 0 -0.0041047912965468496 -5.8342512034539664e-05 0 -0.0040639907189364294 -0.00019367078711544669 0 -0.004058541446134406 5.3140555825164103e-05 0 -0.0039696137262301831 -5.28581765463828e-05 0 -0.0041047912965468496 -5.8342512034539664e-05 0 -0.0059955578557126885 0.00937510981374713 0 -0.0062187413031220412 0.0093162298549370279 0 -0.0058007012536687094 0.0088582123044504309 0 -0.0058081553907715962 0.009383524298603594 0 -0.0059955578557126885 0.00937510981374713 0 -0.0058007012536687094 0.0088582123044504309 0 -0.0059267620168415702 0.0094986778119064402 0 -0.0058081553907715962 0.009383524298603594 0 -0.0059955578557126885 0.00937510981374713 0 -0.0058872880057268973 0.0096376289343451296 0 -0.0059267620168415702 0.0094986778119064402 0 -0.0058081553907715962 0.009383524298603594 0 -0.0060460796602417781 0.009584953158158183 0 -0.0059955578557126885 0.00937510981374713 0 -0.0062187413031220412 0.0093162298549370279 0 -0.0060460796602417781 0.009584953158158183 0 -0.0059267620168415702 0.0094986778119064402 0 -0.0059955578557126885 0.00937510981374713 0 -0.0037136945629333163 0.0049394336561410278 0 -0.0048485596305894137 0.0060967302097205706 0 -0.0033122459795716292 0.0024313771959641696 0 -0.0030545331185073449 0.00090412726275633591 0 -0.0039513203295644221 0.00077254778669090171 0 -0.0044917271500085395 0.001534625089828672 0 -0.0033122459795716292 0.0024313771959641696 0 -0.0039513203295644221 0.00077254778669090171 0 -0.0048485596305894137 0.0060967302097205706 0 -0.0045585515467386085 0.0020091157486222476 0 -0.0064578806728935257 0.0059391153334676025 0 -0.0045986674734032019 0.0041430590897196078 0 -0.0060869472152652662 0.0038140969149181854 0 -0.0048485596305894137 0.0060967302097205706 0 -0.0073261196510184205 0.0074342550153903902 0 -0.0045585515467386085 0.0020091157486222476 0 -0.0040814519530868324 0.00039707747107144809 0 -0.0045986674734032019 0.0041430590897196078 0 -0.004736509773462687 0.0027220639057795992 0 -0.0060869472152652662 0.0038140969149181854 0 -0.0073261196510184205 0.0074342550153903902 0 -0.0066371596861410096 0.002742126944200474 0 -0.004736509773462687 0.0027220639057795992 0 -0.0060869472152652662 0.0038140969149181854 0 -0.0057041800179197105 0.001661517078250925 0 -0.0034164705358732308 0.0002468563678660769 0 -0.0030545331185073449 0.00090412726275633591 0 -0.0028098644019899622 -0.00056841266580034315 0 -0.0034164705358732308 0.0002468563678660769 0 -0.0030545331185073449 0.00090412726275633591 0 -0.0039513203295644221 0.00077254778669090171 0 -0.0034164705358732308 0.0002468563678660769 0 -0.0038454948061101123 -0.00012487910087837821 0 -0.0039513203295644221 0.00077254778669090171 0 -0.0034937893160812542 -0.0003292281110492562 0 -0.0040814519530868324 0.00039707747107144809 0 -0.0034164705358732308 0.0002468563678660769 0 -0.0038454948061101123 -0.00012487910087837821 0 -0.0028098644019899622 -0.00056841266580034315 0 -0.0038454948061101123 -0.00012487910087837821 0 -0.0038810609966208193 -0.00032288502037908738 0 -0.0038423918761663531 -0.00032853169973654433 0 -0.0038454948061101123 -0.00012487910087837821 0 -0.00392971898978177 -0.00027990162658245171 0 -0.0038810609966208193 -0.00032288502037908738 0 -0.00392971898978177 -0.00027990162658245171 0 -0.0039327251620855791 -0.00033741445485098589 0 -0.0040009086341336294 -0.00032031433218241003 0 -0.00392971898978177 -0.00027990162658245171 0 -0.0039327251620855791 -0.00033741445485098589 0 -0.0038810609966208193 -0.00032288502037908738 0 -0.0039327251620855791 -0.00033741445485098589 0 -0.0038810609966208193 -0.00032288502037908738 0 -0.0039307607637365473 -0.00038544556382330499 0 -0.0038810609966208193 -0.00032288502037908738 0 -0.0038423918761663531 -0.00032853169973654433 0 -0.0039074849908677925 -0.00039798554993466151 0 -0.0066371596861410096 0.002742126944200474 0 -0.0054935327407074743 0.0010480212361885469 0 -0.0084784395389324151 0.0034599457932250294 0 -0.0085687644223662075 0.0023435455219163346 0 -0.007988782632763947 0.0029160890625031435 0 -0.004736509773462687 0.0027220639057795992 0 -0.0057041800179197105 0.001661517078250925 0 -0.0048788341761397689 0.0012971992296646583 0 -0.0040814519530868324 0.00039707747107144809 0 -0.0054935327407074743 0.0010480212361885469 0 -0.0041047912965468496 -5.8342512034539664e-05 0 -0.0040639907189364294 -0.00019367078711544669 0 -0.0041531107274917021 -0.00016959209979502263 0 -0.0040639907189364294 -0.00019367078711544669 0 -0.0041095521803753031 -0.00023621973685331539 0 -0.0041531107274917021 -0.00016959209979502263 0 -0.0039696137262301831 -5.28581765463828e-05 0 -0.0040639907189364294 -0.00019367078711544669 0 -0.0040660870904978543 -0.00025612701190002056 0 -0.0044917271500085395 0.001534625089828672 0 -0.0039513203295644221 0.00077254778669090171 0 -0.0040660870904978543 -0.00025612701190002056 0 -0.0038454948061101123 -0.00012487910087837821 0 -0.0039513203295644221 0.00077254778669090171 0 -0.0040660870904978543 -0.00025612701190002056 0 -0.0043463658453664865 0.00049664139733021553 0 -0.0040499209735704433 -9.4361581389004946e-05 0 -0.0040639907189364294 -0.00019367078711544669 0 -0.004063275708638547 -0.00025625070598112173 0 -0.0040660870904978543 -0.00025612701190002056 0 -0.004063275708638547 -0.00025625070598112173 0 -0.0040660870904978543 -0.00025612701190002056 0 -0.004048182811898989 -0.00030896531181328404 0 -0.004063275708638547 -0.00025625070598112173 0 -0.004048182811898989 -0.00030896531181328404 0 -0.0040719430292968806 -0.00027641642491999115 0 -0.0038454948061101123 -0.00012487910087837821 0 -0.00392971898978177 -0.00027990162658245171 0 -0.0040660870904978543 -0.00025612701190002056 0 -0.00392971898978177 -0.00027990162658245171 0 -0.0040660870904978543 -0.00025612701190002056 0 -0.0040009086341336294 -0.00032031433218241003 0 -0.0040660870904978543 -0.00025612701190002056 0 -0.0040009086341336294 -0.00032031433218241003 0 -0.004048182811898989 -0.00030896531181328404 0 -0.0040009086341336294 -0.00032031433218241003 0 -0.004048182811898989 -0.00030896531181328404 0 -0.0040163153594568049 -0.00037664198609135081 0 -0.0039327251620855791 -0.00033741445485098589 0 -0.0040009086341336294 -0.00032031433218241003 0 -0.0039743776234293423 -0.00038518522497399247 0 -0.004048182811898989 -0.00030896531181328404 0 -0.0040690802766327168 -0.00034893873776665899 0 -0.0040719430292968806 -0.00027641642491999115 0 -0.004048182811898989 -0.00030896531181328404 0 -0.0040442992087372778 -0.00035835307592294166 0 -0.0040163153594568049 -0.00037664198609135081 0 -0.004048182811898989 -0.00030896531181328404 0 -0.0040690802766327168 -0.00034893873776665899 0 -0.0040442992087372778 -0.00035835307592294166 0 -0.0040690802766327168 -0.00034893873776665899 0 -0.0040902673140058342 -0.00032231970559322355 0 -0.0040719430292968806 -0.00027641642491999115 0 -0.0040902673140058342 -0.00032231970559322355 0 -0.0040719430292968806 -0.00027641642491999115 0 -0.0041095521803753031 -0.00023621973685331539 0 -0.0040639907189364294 -0.00019367078711544669 0 -0.0040719430292968806 -0.00027641642491999115 0 -0.0041095521803753031 -0.00023621973685331539 0 -0.0040639907189364294 -0.00019367078711544669 0 -0.004063275708638547 -0.00025625070598112173 0 -0.0040719430292968806 -0.00027641642491999115 0 -0.0040902673140058342 -0.00032231970559322355 0 -0.0041095521803753031 -0.00023621973685331539 0 -0.004141345269138251 -0.00026724233433998099 0 -0.0040845966677137439 -0.0003199878307851278 0 -0.004123996903444436 -0.00032351142347306294 0 -0.0040902673140058342 -0.00032231970559322355 0 -0.004141345269138251 -0.00026724233433998099 0 -0.0041947477056698849 -0.00025197688920130021 0 -0.004141345269138251 -0.00026724233433998099 0 -0.0041603622199765317 -0.00024006456897540754 0 -0.0041947477056698849 -0.00025197688920130021 0 -0.0041877038983914915 -0.00023376303093419735 0 -0.0041603622199765317 -0.00024006456897540754 0 -0.0041947477056698849 -0.00025197688920130021 0 -0.0041877038983914915 -0.00023376303093419735 0 -0.0041789288156184592 -0.00020979699230255295 0 -0.0042148604444385042 -0.00018851010725201811 0 -0.0041877038983914915 -0.00023376303093419735 0 -0.0041603622199765317 -0.00024006456897540754 0 -0.0041789288156184592 -0.00020979699230255295 0 -0.0041095521803753031 -0.00023621973685331539 0 -0.004141345269138251 -0.00026724233433998099 0 -0.0041603622199765317 -0.00024006456897540754 0 -0.0041095521803753031 -0.00023621973685331539 0 -0.0041603622199765317 -0.00024006456897540754 0 -0.0041531107274917021 -0.00016959209979502263 0 -0.0041531107274917021 -0.00016959209979502263 0 -0.0042148604444385042 -0.00018851010725201811 0 -0.0042149739673852001 -7.7844643195790664e-05 0 -0.0041603622199765317 -0.00024006456897540754 0 -0.0041531107274917021 -0.00016959209979502263 0 -0.0041789288156184592 -0.00020979699230255295 0 -0.0041531107274917021 -0.00016959209979502263 0 -0.0041789288156184592 -0.00020979699230255295 0 -0.0042148604444385042 -0.00018851010725201811 0 -0.0043003372231634647 -0.00013906491559933121 0 -0.0042148604444385042 -0.00018851010725201811 0 -0.0042149739673852001 -7.7844643195790664e-05 0 -0.0043003372231634647 -0.00013906491559933121 0 -0.0042148604444385042 -0.00018851010725201811 0 -0.004188226620392789 -0.00024690213895651352 0 -0.0041227272820529232 -0.00020454609837226607 0 -0.004188226620392789 -0.00024690213895651352 0 -0.004150288766006662 -0.00022957501963176145 0 -0.0041402403404763987 -0.00044397194236990345 0 -0.0042255095948296384 -0.00012649272803512467 0 -0.004188226620392789 -0.00024690213895651352 0 -0.0041630705753928545 -0.00023896193194775344 0 -0.0041947477056698849 -0.00025197688920130021 0 -0.0041630705753928545 -0.00023896193194775344 0 -0.0041947477056698849 -0.00025197688920130021 0 -0.0041481120998423417 -0.00023599484641092445 0 -0.004188226620392789 -0.00024690213895651352 0 -0.0041630705753928545 -0.00023896193194775344 0 -0.004150288766006662 -0.00022957501963176145 0 -0.0041877038983914915 -0.00023376303093419735 0 -0.0042148604444385042 -0.00018851010725201811 0 -0.004188226620392789 -0.00024690213895651352 0 -0.0041877038983914915 -0.00023376303093419735 0 -0.004188226620392789 -0.00024690213895651352 0 -0.0041947477056698849 -0.00025197688920130021 0 -0.0041630705753928545 -0.00023896193194775344 0 -0.0041492164522309964 -0.00023142103914739186 0 -0.0041481120998423417 -0.00023599484641092445 0 -0.0041492164522309964 -0.00023142103914739186 0 -0.004150092964944692 -0.00023789866253600973 0 -0.0041481120998423417 -0.00023599484641092445 0 -0.0041630705753928545 -0.00023896193194775344 0 -0.0041492164522309964 -0.00023142103914739186 0 -0.004150288766006662 -0.00022957501963176145 0 -0.0041551908593137231 -0.00028587613242000894 0 -0.0041692052890657527 -0.00022375003870739424 0 -0.004150092964944692 -0.00023789866253600973 0 -0.0041492164522309964 -0.00023142103914739186 0 -0.004150092964944692 -0.00023789866253600973 0 -0.0041529198619031614 -0.00021338491418514995 0 -0.0041692052890657527 -0.00022375003870739424 0 -0.004150092964944692 -0.00023789866253600973 0 -0.0041529198619031614 -0.00021338491418514995 0 -0.0041692052890657527 -0.00022375003870739424 0 -0.0041529198619031614 -0.00021338491418514995 0 -0.0041662964241030017 -0.00019256457165968286 0 -0.0041529198619031614 -0.00021338491418514995 0 -0.0041490213233928092 -0.00017790923731767375 0 -0.0041446426901443501 -0.00020606183037937741 0 -0.0041529198619031614 -0.00021338491418514995 0 -0.0041490213233928092 -0.00017790923731767375 0 -0.0041662964241030017 -0.00019256457165968286 0 -0.0041756383107002153 -0.00016195934747621443 0 -0.0041490213233928092 -0.00017790923731767375 0 -0.0041662964241030017 -0.00019256457165968286 0 -0.0041492164522309964 -0.00023142103914739186 0 -0.004150288766006662 -0.00022957501963176145 0 -0.0041446426901443501 -0.00020606183037937741 0 -0.0041227272820529232 -0.00020454609837226607 0 -0.004150288766006662 -0.00022957501963176145 0 -0.0041446426901443501 -0.00020606183037937741 0 -0.0041492164522309964 -0.00023142103914739186 0 -0.0041529198619031614 -0.00021338491418514995 0 -0.0041446426901443501 -0.00020606183037937741 0 -0.0041490213233928092 -0.00017790923731767375 0 -0.0041446426901443501 -0.00020606183037937741 0 -0.004143579089284386 -0.0001641026217821793 0 -0.0041227272820529232 -0.00020454609837226607 0 -0.0041446426901443501 -0.00020606183037937741 0 -0.004143579089284386 -0.0001641026217821793 0 -0.0041227272820529232 -0.00020454609837226607 0 -0.004143579089284386 -0.0001641026217821793 0 -0.0041230929167241654 -0.00010571763696116241 0 -0.0041402403404763987 -0.00044397194236990345 0 -0.0043803024181406974 0.0013701930404734519 0 -0.0041490213233928092 -0.00017790923731767375 0 -0.004143579089284386 -0.0001641026217821793 0 -0.0041475296951354072 -0.00014399944336160059 0 -0.0043912281268293808 -0.00059298619973938095 0 -0.0037428484916484676 0.0015903707283516954 0 -0.004143579089284386 -0.0001641026217821793 0 -0.0041600299189636456 -0.00011759198444754278 0 -0.0041230929167241654 -0.00010571763696116241 0 -0.0036813899139601191 -1.105443301661597e-05 0 -0.0037428484916484676 0.0015903707283516954 0 -0.0037428484916484676 0.0015903707283516954 0 -0.0043803024181406974 0.0013701930404734519 0 -0.0025259905973658322 0.0033194613156904127 0 -0.0024985653014902485 0.0025038736094880826 0 -0.0017254915135344357 0.0027909827557344351 0 -0.0041756383107002153 -0.00016195934747621443 0 -0.0041490213233928092 -0.00017790923731767375 0 -0.0041244144176853827 -0.00012016803828937885 0 -0.003137090393241952 0.0012432131939604284 0 -0.0037428484916484676 0.0015903707283516954 0 -0.0031332291721745341 0.0044958050792398398 0 -0.0037428484916484676 0.0015903707283516954 0 -0.0025259905973658322 0.0033194613156904127 0 -0.002028828288436528 0.0036148674165570618 0 -0.0017254915135344357 0.0027909827557344351 0 -0.0042696325991325532 0.0047637542663275063 0 -0.0037883667069993692 0.0036471461500330177 0 -0.0035160131803582385 0.0042411452858944175 0 -0.0043921452419993755 0.0044779047010997759 0 -0.0051329270675062946 0.0040293954016480836 0 -0.0049916246517004289 0.0036059366913956661 0 -0.0042015477571318094 0.004369279875852213 0 -0.0043803024181406974 0.0013701930404734519 0 -0.0045023121918681287 0.0019176828679644928 0 -0.0040081152858158593 0.0029894856796637251 0 -0.0037548135088667453 0.0022272572606958272 0 -0.0037428484916484676 0.0015903707283516954 0 -0.0042015477571318094 0.004369279875852213 0 -0.0043803024181406974 0.0013701930404734519 0 -0.003836934194446365 0.0021737648635763874 0 -0.0043921452419993755 0.0044779047010997759 0 -0.0049916246517004289 0.0036059366913956661 0 -0.0035462778495873484 0.0042189446666382529 0 -0.0041047912965468496 -5.8342512034539664e-05 0 -0.0041823137046912186 0.00010436929070490878 0 -0.0042149739673852001 -7.7844643195790664e-05 0 -0.0041047912965468496 -5.8342512034539664e-05 0 -0.0041531107274917021 -0.00016959209979502263 0 -0.0042149739673852001 -7.7844643195790664e-05 0 -0.0043597953970857823 1.85585974449686e-05 0 -0.0041823137046912186 0.00010436929070490878 0 -0.0042149739673852001 -7.7844643195790664e-05 0 -0.0043003372231634647 -0.00013906491559933121 0 -0.0043597953970857823 1.85585974449686e-05 0 -0.0042149739673852001 -7.7844643195790664e-05 0 -0.0051053812910736192 0.013298041787043219 0 -0.0060225060672829313 0.015417294793908328 0 -0.0035550625464731652 0.011473643066764195 0 -0.0046932432296327561 0.011107285324088051 0 -0.0037051388410521322 0.010512105955312673 0 -0.0051053812910736192 0.013298041787043219 0 -0.0045791231465113821 0.01169727611284207 0 -0.0038295203992988452 0.011793751869493897 0 -0.0048829009306137535 0.012423370549297021 0 -0.0053168793705713931 0.012237159562100121 0 -0.0035550625464731652 0.011473643066764195 0 -0.0046932432296327561 0.011107285324088051 0 -0.0053168793705713931 0.012237159562100121 0 -0.0046932432296327561 0.011107285324088051 0 -0.0053931954598789543 0.011357244912555842 0 -0.0053723783507968617 0.010546750734467231 0 -0.0046932432296327561 0.011107285324088051 0 -0.0053931954598789543 0.011357244912555842 0 -0.0053168793705713931 0.012237159562100121 0 -0.0068109937481290912 0.017965355053220108 0 -0.0067891352267664285 0.017799357618199074 0 -0.006582288205342202 0.017756411580127144 0 -0.0060225060672829313 0.015417294793908328 0 -0.0062497851118461971 0.015525125504106724 0 -0.0048829009306137535 0.012423370549297021 0 -0.0053168793705713931 0.012237159562100121 0 -0.0058253179542959825 0.012505834916589119 0 -0.0068109937481290912 0.017965355053220108 0 -0.0067891352267664285 0.017799357618199074 0 -0.0069289287698387457 0.017823676812301549 0 -0.0069289287698387457 0.017823676812301549 0 -0.0070540729326666789 0.017979238832636302 0 -0.007140961450509669 0.017824475208347398 0 -0.0068109937481290912 0.017965355053220108 0 -0.0069289287698387457 0.017823676812301549 0 -0.0070540729326666789 0.017979238832636302 0 -0.007114532357718732 0.018234870240376261 0 -0.0068109937481290912 0.017965355053220108 0 -0.0070540729326666789 0.017979238832636302 0 -0.007114532357718732 0.018234870240376261 0 -0.0070540729326666789 0.017979238832636302 0 -0.0073129178965775496 0.018057545886629212 0 -0.0070540729326666789 0.017979238832636302 0 -0.007140961450509669 0.017824475208347398 0 -0.0073129178965775496 0.018057545886629212 0 -0.0073129178965775496 0.018057545886629212 0 -0.0077191043274917404 0.018080628977396519 0 -0.0073548275345421427 0.017765971170278155 0 -0.007140961450509669 0.017824475208347398 0 -0.0073129178965775496 0.018057545886629212 0 -0.0073548275345421427 0.017765971170278155 0 -0.007943305450331329 0.018460767307464227 0 -0.008427820715234716 0.01826471934799417 0 -0.0082775292639563972 0.018032910727370507 0 -0.0077191043274917404 0.018080628977396519 0 -0.007943305450331329 0.018460767307464227 0 -0.0076304594153120166 0.017732981888816637 0 -0.007943305450331329 0.018460767307464227 0 -0.0080696547629213345 0.017809515828022572 0 -0.0082775292639563972 0.018032910727370507 0 -0.0079237094789573349 0.018440963464455198 0 -0.0078565456342564888 0.017804221284582363 0 -0.0077191043274917404 0.018080628977396519 0 -0.0076304594153120166 0.017732981888816637 0 -0.0073548275345421427 0.017765971170278155 0 -0.0077191043274917404 0.018080628977396519 0 -0.007943305450331329 0.018460767307464227 0 -0.0076451163747617221 0.018570810729472115 0 -0.007943305450331329 0.018460767307464227 0 -0.0076451163747617221 0.018570810729472115 0 -0.0081419621550463464 0.018753798937370149 0 -0.0071936087125310843 0.019240121178148425 0 -0.0085300417261934894 0.015166051325529966 0 -0.007943305450331329 0.018460767307464227 0 -0.0081419621550463464 0.018753798937370149 0 -0.0083266135995595444 0.01849124351522554 0 -0.0035550625464731652 0.011473643066764195 0 -0.0025823533730554979 0.01078307613222244 0 -0.0037051388410521322 0.010512105955312673 0 -0.007114532357718732 0.018234870240376261 0 -0.0073129178965775496 0.018057545886629212 0 -0.0074642710534462428 0.018391114442544636 0 -0.005621281708485905 0.012148835464588644 0 -0.0093160158313199438 0.013478894229981676 0 -0.0088998302470836149 0.014277226435233902 0 -0.0073129178965775496 0.018057545886629212 0 -0.0077191043274917404 0.018080628977396519 0 -0.0074642710534462428 0.018391114442544636 0 -0.0051053812910736192 0.013298041787043219 0 -0.0085300417261934894 0.015166051325529966 0 -0.0085300417261934894 0.015166051325529966 0 -0.0095784474599440398 0.0097700490061426292 0 -0.0051053812910736192 0.013298041787043219 0 -0.0095784474599440398 0.0097700490061426292 0 -0.0095784474599440398 0.0097700490061426292 0 -0.0085183506585713095 0.0066663627480713266 0 -0.014100634614902135 0.0041254690883414415 0 -0.014343266602906584 0.0047603675286020256 0 -0.01368435439964627 0.0049093370395906621 0 -0.014100634614902135 0.0041254690883414415 0 -0.014459910663722772 0.0044671242585097174 0 -0.014343266602906584 0.0047603675286020256 0 -0.0025823533730554979 0.01078307613222244 0 -0.0032816259076631871 0.0093355263712320523 0 -0.0037051388410521322 0.010512105955312673 0 -0.010096112649810767 0.0097311547123540582 0 -0.0098236156577331223 0.010252930090234454 0 -0.011507367353439607 0.011339879318051508 0 -0.0085300417261934894 0.015166051325529966 0 -0.012632034939366564 0.01067294684757346 0 -0.010096112649810767 0.0097311547123540582 0 -0.012609550761423926 0.010632426022805019 0 -0.011507367353439607 0.011339879318051508 0 -0.012632034939366564 0.01067294684757346 0 -0.013753943205871925 0.0062740900465233767 0 -0.0095784474599440398 0.0097700490061426292 0 -0.013753943205871925 0.0062740900465233767 0 -0.014100634614902135 0.0041254690883414415 0 -0.014459910663722772 0.0044671242585097174 0 -0.014569531270176161 0.0043984747639387129 0 -0.014536230431505303 0.0046279561162950499 0 -0.014587961876343442 0.0043784100273262317 0 -0.014752729016788669 0.0047495249194329948 0 -0.014459910663722772 0.0044671242585097174 0 -0.014536230431505303 0.0046279561162950499 0 -0.014343266602906584 0.0047603675286020256 0 -0.014459910663722772 0.0044671242585097174 0 -0.014536230431505303 0.0046279561162950499 0 -0.014587961876343442 0.0043784100273262317 0 -0.014157195679271399 0.0058737117994614764 0 -0.013753943205871925 0.0062740900465233767 0 -0.015197576354304163 0.0044843369158140385 0 -0.014955716645387453 0.0046403012533641364 0 -0.015434078664736863 0.0049108349418417125 0 -0.013753943205871925 0.0062740900465233767 0 -0.015313556503234644 0.0048481929997025745 0 -0.014587961876343442 0.0043784100273262317 0 -0.014752729016788669 0.0047495249194329948 0 -0.01523777449533633 0.0047428679256590516 0 -0.014752729016788669 0.0047495249194329948 0 -0.014626998487500037 0.0051005116142356392 0 -0.014992582454947662 0.0050168879240420419 0 -0.014752729016788669 0.0047495249194329948 0 -0.014992582454947662 0.0050168879240420419 0 -0.01523777449533633 0.0047428679256590516 0 -0.014626998487500037 0.0051005116142356392 0 -0.014343266602906584 0.0047603675286020256 0 -0.01420987284460655 0.0051664775262377964 0 -0.014536230431505303 0.0046279561162950499 0 -0.014752729016788669 0.0047495249194329948 0 -0.014343266602906584 0.0047603675286020256 0 -0.014752729016788669 0.0047495249194329948 0 -0.014626998487500037 0.0051005116142356392 0 -0.014343266602906584 0.0047603675286020256 0 -0.014626998487500037 0.0051005116142356392 0 -0.01420987284460655 0.0051664775262377964 0 -0.014552665602233996 0.0054900309502594197 0 -0.014626998487500037 0.0051005116142356392 0 -0.014992582454947662 0.0050168879240420419 0 -0.015203211455957398 0.0053266800748639764 0 -0.014626998487500037 0.0051005116142356392 0 -0.015203211455957398 0.0053266800748639764 0 -0.014552665602233996 0.0054900309502594197 0 -0.01420987284460655 0.0051664775262377964 0 -0.01368435439964627 0.0049093370395906621 0 -0.013954770584469728 0.0055698443842169309 0 -0.014343266602906584 0.0047603675286020256 0 -0.01420987284460655 0.0051664775262377964 0 -0.01368435439964627 0.0049093370395906621 0 -0.0041289833318971948 0.0089675085129886038 0 -0.0032816259076631871 0.0093355263712320523 0 -0.0044388581734573929 0.0098537857186197508 0 -0.0085183506585713095 0.0066663627480713266 0 -0.0085637769685543118 0.0074618544072881984 0 -0.0041289833318971948 0.0089675085129886038 0 -0.0032816259076631871 0.0093355263712320523 0 -0.0040084432604510691 0.0078549974299737032 0 -0.0041289833318971948 0.0089675085129886038 0 -0.004859463983552934 0.0088998971988600781 0 -0.0040084432604510691 0.0078549974299737032 0 -0.0046932432296327561 0.011107285324088051 0 -0.0037051388410521322 0.010512105955312673 0 -0.0044388581734573929 0.0098537857186197508 0 -0.0032816259076631871 0.0093355263712320523 0 -0.0037051388410521322 0.010512105955312673 0 -0.0044388581734573929 0.0098537857186197508 0 -0.0046932432296327561 0.011107285324088051 0 -0.0053723783507968617 0.010546750734467231 0 -0.0044388581734573929 0.0098537857186197508 0 -0.0053723783507968617 0.010546750734467231 0 -0.0044388581734573929 0.0098537857186197508 0 -0.0055567163903139198 0.0096806328675471467 0 -0.004859463983552934 0.0088998971988600781 0 -0.0057554708376778667 0.0087925851083527334 0 -0.0055567163903139198 0.0096806328675471467 0 -0.0044388581734573929 0.0098537857186197508 0 -0.004859463983552934 0.0088998971988600781 0 -0.0055567163903139198 0.0096806328675471467 0 -0.0041289833318971948 0.0089675085129886038 0 -0.0044388581734573929 0.0098537857186197508 0 -0.004859463983552934 0.0088998971988600781 0 -0.004859463983552934 0.0088998971988600781 0 -0.0057554708376778667 0.0087925851083527334 0 -0.0051387711699374134 0.0082394732558604359 0 -0.0057554708376778667 0.0087925851083527334 0 -0.0061216344814399096 0.009279555907179696 0 -0.0064003164044134806 0.0088864211215896639 0 -0.0057554708376778667 0.0087925851083527334 0 -0.0055567163903139198 0.0096806328675471467 0 -0.0061216344814399096 0.009279555907179696 0 -0.0061216344814399096 0.009279555907179696 0 -0.0067063197220662233 0.0093948893933507912 0 -0.006310174239626121 0.010203394009339024 0 -0.0061216344814399096 0.009279555907179696 0 -0.0064003164044134806 0.0088864211215896639 0 -0.0067063197220662233 0.0093948893933507912 0 -0.0057554708376778667 0.0087925851083527334 0 -0.0064003164044134806 0.0088864211215896639 0 -0.0062525932392072485 0.0083921224810345509 0 -0.0064003164044134806 0.0088864211215896639 0 -0.0068711148706294741 0.0089602618909673335 0 -0.0067063197220662233 0.0093948893933507912 0 -0.0064003164044134806 0.0088864211215896639 0 -0.0066949758076517655 0.0085384591033963314 0 -0.0068711148706294741 0.0089602618909673335 0 -0.0064003164044134806 0.0088864211215896639 0 -0.0066949758076517655 0.0085384591033963314 0 -0.0062525932392072485 0.0083921224810345509 0 -0.0066949758076517655 0.0085384591033963314 0 -0.0071202272949128587 0.008684681257041825 0 -0.0068711148706294741 0.0089602618909673335 0 -0.0071202272949128587 0.008684681257041825 0 -0.0068711148706294741 0.0089602618909673335 0 -0.0072684076796567755 0.0091926596425785396 0 -0.0071202272949128587 0.008684681257041825 0 -0.0077261087847166794 0.0086342441638975042 0 -0.0072684076796567755 0.0091926596425785396 0 -0.0071202272949128587 0.008684681257041825 0 -0.0077261087847166794 0.0086342441638975042 0 -0.0068715821190160932 0.0082274234554243313 0 -0.0072684076796567755 0.0091926596425785396 0 -0.0071951123290643756 0.0098392101391006279 0 -0.0079327195270953287 0.0096353118010988944 0 -0.0077261087847166794 0.0086342441638975042 0 -0.0072684076796567755 0.0091926596425785396 0 -0.0079327195270953287 0.0096353118010988944 0 -0.0072684076796567755 0.0091926596425785396 0 -0.0067063197220662233 0.0093948893933507912 0 -0.0071951123290643756 0.0098392101391006279 0 -0.0068711148706294741 0.0089602618909673335 0 -0.0072684076796567755 0.0091926596425785396 0 -0.0067063197220662233 0.0093948893933507912 0 -0.0071951123290643756 0.0098392101391006279 0 -0.0069834580026416106 0.010563041423857129 0 -0.006310174239626121 0.010203394009339024 0 -0.0067063197220662233 0.0093948893933507912 0 -0.0071951123290643756 0.0098392101391006279 0 -0.006310174239626121 0.010203394009339024 0 -0.0071951123290643756 0.0098392101391006279 0 -0.0079327195270953287 0.0096353118010988944 0 -0.0080014618110204709 0.010602095872051005 0 -0.0071951123290643756 0.0098392101391006279 0 -0.0069834580026416106 0.010563041423857129 0 -0.0080014618110204709 0.010602095872051005 0 -0.0069834580026416106 0.010563041423857129 0 -0.0080014618110204709 0.010602095872051005 0 -0.0071201239894745222 0.011288516057975475 0 -0.0069834580026416106 0.010563041423857129 0 -0.006310174239626121 0.010203394009339024 0 -0.0064922055361564084 0.011275126867127566 0 -0.006310174239626121 0.010203394009339024 0 -0.0058563704735483078 0.011080674638072047 0 -0.0064922055361564084 0.011275126867127566 0 -0.0053723783507968617 0.010546750734467231 0 -0.006310174239626121 0.010203394009339024 0 -0.0058563704735483078 0.011080674638072047 0 -0.0053723783507968617 0.010546750734467231 0 -0.0055567163903139198 0.0096806328675471467 0 -0.006310174239626121 0.010203394009339024 0 -0.0055567163903139198 0.0096806328675471467 0 -0.0061216344814399096 0.009279555907179696 0 -0.006310174239626121 0.010203394009339024 0 -0.0084784395389324151 0.0034599457932250294 0 -0.007988782632763947 0.0029160890625031435 0 -0.0072220131010155295 0.0034638648485697779 0 -0.0085687644223662075 0.0023435455219163346 0 -0.007988782632763947 0.0029160890625031435 0 -0.0075192358172264896 0.0025081674768901801 0 -0.007988782632763947 0.0029160890625031435 0 -0.0075192358172264896 0.0025081674768901801 0 -0.0072220131010155295 0.0034638648485697779 0 -0.0061535421873457914 0.002333255488581498 0 -0.0068362192558394305 0.0023057211979765537 0 -0.0072220131010155295 0.0034638648485697779 0 -0.0077261087847166794 0.0086342441638975042 0 -0.0079327195270953287 0.0096353118010988944 0 -0.0089365939237588399 0.0098056663664063664 0 -0.0075192358172264896 0.0025081674768901801 0 -0.0068362192558394305 0.0023057211979765537 0 -0.0072220131010155295 0.0034638648485697779 0 -0.0070005175445506272 0.0056283818789398402 0 -0.008366894862287767 0.0067798374198401283 0 -0.0079327195270953287 0.0096353118010988944 0 -0.0080014618110204709 0.010602095872051005 0 -0.0089365939237588399 0.0098056663664063664 0 -0.0080014618110204709 0.010602095872051005 0 -0.0089365939237588399 0.0098056663664063664 0 -0.009109690554053633 0.010882206948509341 0 -0.0073261196510184205 0.0074342550153903902 0 -0.008366894862287767 0.0067798374198401283 0 -0.010186763616342126 0.010997301405871464 0 -0.0089365939237588399 0.0098056663664063664 0 -0.009109690554053633 0.010882206948509341 0 -0.0083603896477898818 0.0046108162432004869 0 -0.0084784395389324151 0.0034599457932250294 0 -0.0072220131010155295 0.0034638648485697779 0 -0.0073261196510184205 0.0074342550153903902 0 -0.0079263131581197212 0.011438573899586781 0 -0.009109690554053633 0.010882206948509341 0 -0.0085884217080331657 0.011755684752285922 0 -0.010027841671033632 0.012622881109508544 0 -0.010186763616342126 0.010997301405871464 0 -0.009109690554053633 0.010882206948509341 0 -0.010027841671033632 0.012622881109508544 0 -0.0080014618110204709 0.010602095872051005 0 -0.0085884217080331657 0.011755684752285922 0 -0.0076505564673563153 0.011978256718405793 0 -0.0080014618110204709 0.010602095872051005 0 -0.009109690554053633 0.010882206948509341 0 -0.0085884217080331657 0.011755684752285922 0 -0.0081827907244881436 0.012649748919551611 0 -0.010027841671033632 0.012622881109508544 0 -0.0085019740975310152 0.013491853062391755 0 -0.0085884217080331657 0.011755684752285922 0 -0.0081827907244881436 0.012649748919551611 0 -0.010027841671033632 0.012622881109508544 0 -0.0085884217080331657 0.011755684752285922 0 -0.0081827907244881436 0.012649748919551611 0 -0.0076505564673563153 0.011978256718405793 0 -0.0081827907244881436 0.012649748919551611 0 -0.0077225893795329764 0.013526981515057735 0 -0.0085019740975310152 0.013491853062391755 0 -0.0058081553907715962 0.009383524298603594 0 -0.0057331926753677598 0.0093285909566523974 0 -0.0056597647423349898 0.010089168989309387 0 -0.0058081553907715962 0.009383524298603594 0 -0.0058007012536687094 0.0088582123044504309 0 -0.0057331926753677598 0.0093285909566523974 0 -0.005934463699990785 0.011808450053893462 0 -0.0064922055361564084 0.011275126867127566 0 -0.0066338860110328277 0.012194406517311953 0 -0.0053931954598789543 0.011357244912555842 0 -0.0053168793705713931 0.012237159562100121 0 -0.005934463699990785 0.011808450053893462 0 -0.0053931954598789543 0.011357244912555842 0 -0.0053723783507968617 0.010546750734467231 0 -0.0058563704735483078 0.011080674638072047 0 -0.0053931954598789543 0.011357244912555842 0 -0.005934463699990785 0.011808450053893462 0 -0.0058563704735483078 0.011080674638072047 0 -0.005934463699990785 0.011808450053893462 0 -0.0058563704735483078 0.011080674638072047 0 -0.0064922055361564084 0.011275126867127566 0 -0.0080014618110204709 0.010602095872051005 0 -0.0071201239894745222 0.011288516057975475 0 -0.0076505564673563153 0.011978256718405793 0 -0.0069834580026416106 0.010563041423857129 0 -0.0064922055361564084 0.011275126867127566 0 -0.0071201239894745222 0.011288516057975475 0 -0.0064922055361564084 0.011275126867127566 0 -0.0071201239894745222 0.011288516057975475 0 -0.0066338860110328277 0.012194406517311953 0 -0.0071201239894745222 0.011288516057975475 0 -0.0076505564673563153 0.011978256718405793 0 -0.0066338860110328277 0.012194406517311953 0 -0.0076505564673563153 0.011978256718405793 0 -0.0066338860110328277 0.012194406517311953 0 -0.007264415263846317 0.013003837608138126 0 -0.0066338860110328277 0.012194406517311953 0 -0.007264415263846317 0.013003837608138126 0 -0.0060581418348437752 0.013343307429392593 0 -0.0081827907244881436 0.012649748919551611 0 -0.0076505564673563153 0.011978256718405793 0 -0.007264415263846317 0.013003837608138126 0 -0.0081827907244881436 0.012649748919551611 0 -0.007264415263846317 0.013003837608138126 0 -0.0077225893795329764 0.013526981515057735 0 -0.0048829009306137535 0.012423370549297021 0 -0.0058253179542959825 0.012505834916589119 0 -0.0060581418348437752 0.013343307429392593 0 -0.005934463699990785 0.011808450053893462 0 -0.0066338860110328277 0.012194406517311953 0 -0.0058253179542959825 0.012505834916589119 0 -0.0066338860110328277 0.012194406517311953 0 -0.0058253179542959825 0.012505834916589119 0 -0.0060581418348437752 0.013343307429392593 0 -0.0053168793705713931 0.012237159562100121 0 -0.005934463699990785 0.011808450053893462 0 -0.0058253179542959825 0.012505834916589119 0 -0.0065697436169845002 0.017560371886842611 0 -0.006582288205342202 0.017756411580127144 0 -0.006361164291134991 0.017582958967269909 0 -0.0065697436169845002 0.017560371886842611 0 -0.006582288205342202 0.017756411580127144 0 -0.0067219469292646595 0.017529122993253383 0 -0.007264415263846317 0.013003837608138126 0 -0.0060581418348437752 0.013343307429392593 0 -0.0073630058795046789 0.014335832291781023 0 -0.007264415263846317 0.013003837608138126 0 -0.0077225893795329764 0.013526981515057735 0 -0.0073630058795046789 0.014335832291781023 0 -0.0062497851118461971 0.015525125504106724 0 -0.0072139439468446335 0.015765981482962769 0 -0.0077225893795329764 0.013526981515057735 0 -0.0075079700287496894 0.014209041284014521 0 -0.0073630058795046789 0.014335832291781023 0 -0.0073710130230787213 0.015545596089938756 0 -0.0072139439468446335 0.015765981482962769 0 -0.0072139439468446335 0.015765981482962769 0 -0.0074520900935873165 0.015206767813902873 0 -0.0075079700287496894 0.014209041284014521 0 -0.0073429028356268352 0.014356317404325858 0 -0.0079387701779822899 0.014770029880714035 0 -0.007598587531924942 0.014631322612318731 0 -0.0074522730364555995 0.01541634046382249 0 -0.0068765158926536131 0.015690883947451318 0 -0.0072139439468446335 0.015765981482962769 0 -0.0067138565922628011 0.016590437073285648 0 -0.007598587531924942 0.014631322612318731 0 -0.0077341569258277927 0.015035829828321108 0 -0.0079387701779822899 0.014770029880714035 0 -0.007598587531924942 0.014631322612318731 0 -0.0077341569258277927 0.015035829828321108 0 -0.0074522730364555995 0.01541634046382249 0 -0.0077341569258277927 0.015035829828321108 0 -0.0074522730364555995 0.01541634046382249 0 -0.0079627750377422434 0.015319742728435103 0 -0.0074522730364555995 0.01541634046382249 0 -0.0079627750377422434 0.015319742728435103 0 -0.0078412348709179878 0.016028176530097287 0 -0.0065697436169845002 0.017560371886842611 0 -0.006361164291134991 0.017582958967269909 0 -0.0066166765461315273 0.017375638042246958 0 -0.0065697436169845002 0.017560371886842611 0 -0.0066166765461315273 0.017375638042246958 0 -0.0067219469292646595 0.017529122993253383 0 -0.010027841671033632 0.012622881109508544 0 -0.0098393031931357389 0.014244281420908974 0 -0.0085019740975310152 0.013491853062391755 0 -0.0079263131581197212 0.011438573899586781 0 -0.0069488423494594737 0.012118373492109943 0 -0.0095079074848859087 0.014308945821101086 0 -0.0085019740975310152 0.013491853062391755 0 -0.0087360667586773803 0.014645372577506127 0 -0.0069488423494594737 0.012118373492109943 0 -0.0096593151734520252 0.014247967425402139 0 -0.0058566301137410841 0.0087719335026059091 0 -0.0069488423494594737 0.012118373492109943 0 -0.0085019740975310152 0.013491853062391755 0 -0.0081589006735058242 0.01420050428543718 0 -0.0087360667586773803 0.014645372577506127 0 -0.0077225893795329764 0.013526981515057735 0 -0.0075079700287496894 0.014209041284014521 0 -0.0081589006735058242 0.01420050428543718 0 -0.0077225893795329764 0.013526981515057735 0 -0.0085019740975310152 0.013491853062391755 0 -0.0081589006735058242 0.01420050428543718 0 -0.0075079700287496894 0.014209041284014521 0 -0.0081589006735058242 0.01420050428543718 0 -0.0079387701779822899 0.014770029880714035 0 -0.0082860438632600484 0.014949253823566773 0 -0.0079387701779822899 0.014770029880714035 0 -0.0079627750377422434 0.015319742728435103 0 -0.0077341569258277927 0.015035829828321108 0 -0.0079387701779822899 0.014770029880714035 0 -0.0079627750377422434 0.015319742728435103 0 -0.0081589006735058242 0.01420050428543718 0 -0.0082860438632600484 0.014949253823566773 0 -0.0079387701779822899 0.014770029880714035 0 -0.0082860438632600484 0.014949253823566773 0 -0.0079627750377422434 0.015319742728435103 0 -0.0085088381950141484 0.015455300668582455 0 -0.0082860438632600484 0.014949253823566773 0 -0.0085088381950141484 0.015455300668582455 0 -0.0087360667586773803 0.014645372577506127 0 -0.0081589006735058242 0.01420050428543718 0 -0.0082860438632600484 0.014949253823566773 0 -0.0087360667586773803 0.014645372577506127 0 -0.0095079074848859087 0.014308945821101086 0 -0.0087360667586773803 0.014645372577506127 0 -0.0093123566433214785 0.01518854096679908 0 -0.0085088381950141484 0.015455300668582455 0 -0.0087360667586773803 0.014645372577506127 0 -0.0093123566433214785 0.01518854096679908 0 -0.0048489208792281135 0.013606557489558815 0 -0.0047076060258660953 0.013310858830759465 0 -0.0046647721602320743 0.013596991644034927 0 -0.0069488423494594737 0.012118373492109943 0 -0.0061312210079260193 0.014293733162679713 0 -0.0085088381950141484 0.015455300668582455 0 -0.0093123566433214785 0.01518854096679908 0 -0.0089080168869365983 0.016231154008225817 0 -0.0046647721602320743 0.013596991644034927 0 -0.0047260143850877193 0.013901283880276357 0 -0.0046217140688687899 0.014056773283850632 0 -0.0061312210079260193 0.014293733162679713 0 -0.0068157366982323766 0.015135703555433122 0 -0.0061312210079260193 0.014293733162679713 0 -0.004451238704491196 0.01382320364239803 0 -0.0047655262502906684 0.013781085981907517 0 -0.0046004501428535396 0.014034502892632222 0 -0.0046217140688687899 0.014056773283850632 0 -0.004789552363253448 0.013964121698688945 0 -0.0047260143850877193 0.013901283880276357 0 -0.0047456405530313366 0.014067113657204425 0 -0.0047260143850877193 0.013901283880276357 0 -0.0046217140688687899 0.014056773283850632 0 -0.0047456405530313366 0.014067113657204425 0 -0.0048150828182650296 0.013815210866887574 0 -0.0046647721602320743 0.013596991644034927 0 -0.0047260143850877193 0.013901283880276357 0 -0.0085088381950141484 0.015455300668582455 0 -0.0089080168869365983 0.016231154008225817 0 -0.0078412348709179878 0.016028176530097287 0 -0.0079627750377422434 0.015319742728435103 0 -0.0085088381950141484 0.015455300668582455 0 -0.0078412348709179878 0.016028176530097287 0 -0.0089080168869365983 0.016231154008225817 0 -0.0078868298161180583 0.016794321151003863 0 -0.0086290065733232741 0.017071333230329166 0 -0.0089080168869365983 0.016231154008225817 0 -0.0078868298161180583 0.016794321151003863 0 -0.0078412348709179878 0.016028176530097287 0 -0.0046004501428535396 0.014034502892632222 0 -0.0046217140688687899 0.014056773283850632 0 -0.0045051648707966447 0.014436267302846041 0 -0.0068157366982323766 0.015135703555433122 0 -0.0065870660148702239 0.015770328192062061 0 -0.0047260315471760435 0.014226692699577305 0 -0.0046217140688687899 0.014056773283850632 0 -0.0045051648707966447 0.014436267302846041 0 -0.0047882312397001811 0.014435403190465433 0 -0.0047260315471760435 0.014226692699577305 0 -0.0045051648707966447 0.014436267302846041 0 -0.0048187123023286527 0.014143172080592134 0 -0.0047260315471760435 0.014226692699577305 0 -0.0047456405530313366 0.014067113657204425 0 -0.0047260315471760435 0.014226692699577305 0 -0.0046217140688687899 0.014056773283850632 0 -0.0047456405530313366 0.014067113657204425 0 -0.0074522730364555995 0.01541634046382249 0 -0.0068765158926536131 0.015690883947451318 0 -0.0070763150087751183 0.016366180638833293 0 -0.0068765158926536131 0.015690883947451318 0 -0.0070763150087751183 0.016366180638833293 0 -0.0066140012694114883 0.016624544450463383 0 -0.0074522730364555995 0.01541634046382249 0 -0.0070763150087751183 0.016366180638833293 0 -0.0078412348709179878 0.016028176530097287 0 -0.0078868298161180583 0.016794321151003863 0 -0.0070763150087751183 0.016366180638833293 0 -0.0068399968578959731 0.017004213678108629 0 -0.0078868298161180583 0.016794321151003863 0 -0.0070763150087751183 0.016366180638833293 0 -0.0078412348709179878 0.016028176530097287 0 -0.0070763150087751183 0.016366180638833293 0 -0.0066140012694114883 0.016624544450463383 0 -0.0068399968578959731 0.017004213678108629 0 -0.0066140012694114883 0.016624544450463383 0 -0.0067900024298894711 0.016948899714780176 0 -0.0068399968578959731 0.017004213678108629 0 -0.0066140012694114883 0.016624544450463383 0 -0.0070206527561492227 0.017012896532251048 0 -0.0067900024298894711 0.016948899714780176 0 -0.006875414739274094 0.017181009058155672 0 -0.0071370056647025743 0.017266239815933188 0 -0.0070206527561492227 0.017012896532251048 0 -0.006790912266011446 0.016864864405239287 0 -0.0069936648679297725 0.016968905700862548 0 -0.006875414739274094 0.017181009058155672 0 -0.0070414989433943819 0.017392675538029256 0 -0.0071370056647025743 0.017266239815933188 0 -0.006875414739274094 0.017181009058155672 0 -0.0068545475624946488 0.017441783781878696 0 -0.0070414989433943819 0.017392675538029256 0 -0.0066166765461315273 0.017375638042246958 0 -0.006875414739274094 0.017181009058155672 0 -0.0068545475624946488 0.017441783781878696 0 -0.0067138565922628011 0.016590437073285648 0 -0.006790912266011446 0.016864864405239287 0 -0.0066166765461315273 0.017375638042246958 0 -0.0067219469292646595 0.017529122993253383 0 -0.0068545475624946488 0.017441783781878696 0 -0.0067219469292646595 0.017529122993253383 0 -0.0068545475624946488 0.017441783781878696 0 -0.0068434706616112683 0.017655019693605115 0 -0.0068545475624946488 0.017441783781878696 0 -0.0070342676133481755 0.017549594380952081 0 -0.0068434706616112683 0.017655019693605115 0 -0.0070414989433943819 0.017392675538029256 0 -0.0071765132415321543 0.017463895298905401 0 -0.0071370056647025743 0.017266239815933188 0 -0.0070342676133481755 0.017549594380952081 0 -0.0071896354488458275 0.017645051541833497 0 -0.0071765132415321543 0.017463895298905401 0 -0.0070414989433943819 0.017392675538029256 0 -0.0070342676133481755 0.017549594380952081 0 -0.0071765132415321543 0.017463895298905401 0 -0.0068545475624946488 0.017441783781878696 0 -0.0070414989433943819 0.017392675538029256 0 -0.0070342676133481755 0.017549594380952081 0 -0.0070342676133481755 0.017549594380952081 0 -0.0070423624445502342 0.017707036518227227 0 -0.0068434706616112683 0.017655019693605115 0 -0.0070342676133481755 0.017549594380952081 0 -0.0070423624445502342 0.017707036518227227 0 -0.0071896354488458275 0.017645051541833497 0 -0.007140961450509669 0.017824475208347398 0 -0.0070423624445502342 0.017707036518227227 0 -0.0071896354488458275 0.017645051541833497 0 -0.0069289287698387457 0.017823676812301549 0 -0.0070423624445502342 0.017707036518227227 0 -0.0068434706616112683 0.017655019693605115 0 -0.0069289287698387457 0.017823676812301549 0 -0.007140961450509669 0.017824475208347398 0 -0.0070423624445502342 0.017707036518227227 0 -0.0067891352267664285 0.017799357618199074 0 -0.0069289287698387457 0.017823676812301549 0 -0.0068434706616112683 0.017655019693605115 0 -0.006582288205342202 0.017756411580127144 0 -0.0067219469292646595 0.017529122993253383 0 -0.0068434706616112683 0.017655019693605115 0 -0.0067891352267664285 0.017799357618199074 0 -0.006582288205342202 0.017756411580127144 0 -0.0068434706616112683 0.017655019693605115 0 -0.0078565456342564888 0.017804221284582363 0 -0.0077870610258944928 0.017373355949116258 0 -0.0076304594153120166 0.017732981888816637 0 -0.0073524516307322723 0.017574782756445254 0 -0.0074298081933102519 0.017523319370086131 0 -0.0080696547629213345 0.017809515828022572 0 -0.008230516126521108 0.017522908974262539 0 -0.0083347623436401015 0.017718757351374827 0 -0.0080696547629213345 0.017809515828022572 0 -0.0083347623436401015 0.017718757351374827 0 -0.0082775292639563972 0.018032910727370507 0 -0.0076304594153120166 0.017732981888816637 0 -0.0073548275345421427 0.017765971170278155 0 -0.0073524516307322723 0.017574782756445254 0 -0.007140961450509669 0.017824475208347398 0 -0.0073548275345421427 0.017765971170278155 0 -0.0071896354488458275 0.017645051541833497 0 -0.0073548275345421427 0.017765971170278155 0 -0.0071896354488458275 0.017645051541833497 0 -0.0073524516307322723 0.017574782756445254 0 -0.0071896354488458275 0.017645051541833497 0 -0.0073524516307322723 0.017574782756445254 0 -0.0071765132415321543 0.017463895298905401 0 -0.0071765132415321543 0.017463895298905401 0 -0.0072983398618449115 0.017402560270866761 0 -0.0071370056647025743 0.017266239815933188 0 -0.0073524516307322723 0.017574782756445254 0 -0.0071765132415321543 0.017463895298905401 0 -0.0072983398618449115 0.017402560270866761 0 -0.0073524516307322723 0.017574782756445254 0 -0.0072983398618449115 0.017402560270866761 0 -0.0074298081933102519 0.017523319370086131 0 -0.0080696547629213345 0.017809515828022572 0 -0.008230516126521108 0.017522908974262539 0 -0.0081312314951317109 0.017335950949639106 0 -0.0076304594153120166 0.017732981888816637 0 -0.0074298081933102519 0.017523319370086131 0 -0.0074583809799041324 0.017398580382108265 0 -0.0072983398618449115 0.017402560270866761 0 -0.0074298081933102519 0.017523319370086131 0 -0.0074583809799041324 0.017398580382108265 0 -0.008230516126521108 0.017522908974262539 0 -0.0081312314951317109 0.017335950949639106 0 -0.0082506649289861948 0.017338041406191475 0 -0.0081312314951317109 0.017335950949639106 0 -0.0082506649289861948 0.017338041406191475 0 -0.0080912622842411117 0.017330046456580425 0 -0.0077870610258944928 0.017373355949116258 0 -0.0076582540935599356 0.017186045763685931 0 -0.0072983398618449115 0.017402560270866761 0 -0.0074583809799041324 0.017398580382108265 0 -0.0074203302793312848 0.017135421522719716 0 -0.0081312314951317109 0.017335950949639106 0 -0.0078967343208841533 0.017288067223702134 0 -0.0080912622842411117 0.017330046456580425 0 -0.0072983398618449115 0.017402560270866761 0 -0.0071370056647025743 0.017266239815933188 0 -0.0074203302793312848 0.017135421522719716 0 -0.0071370056647025743 0.017266239815933188 0 -0.0074203302793312848 0.017135421522719716 0 -0.0070206527561492227 0.017012896532251048 0 -0.0078967343208841533 0.017288067223702134 0 -0.0075364109054182286 0.016932711400333977 0 -0.0080332239910775576 0.017197370568911931 0 -0.0074203302793312848 0.017135421522719716 0 -0.0075364109054182286 0.016932711400333977 0 -0.0070206527561492227 0.017012896532251048 0 -0.0076582540935599356 0.017186045763685931 0 -0.0075590766228550293 0.016925787043582344 0 -0.0070813250911237339 0.016872696671772318 0 -0.0068745327495138564 0.016769352467965744 0 -0.0072986309453725879 0.016651774809628549 0 -0.0075364109054182286 0.016932711400333977 0 -0.0070813250911237339 0.016872696671772318 0 -0.0072986309453725879 0.016651774809628549 0 -0.0075364109054182286 0.016932711400333977 0 -0.0070813250911237339 0.016872696671772318 0 -0.0070206527561492227 0.017012896532251048 0 -0.0070813250911237339 0.016872696671772318 0 -0.0070206527561492227 0.017012896532251048 0 -0.0067900024298894711 0.016948899714780176 0 -0.0067900024298894711 0.016948899714780176 0 -0.0067042272913240769 0.016886007203811476 0 -0.0068399968578959731 0.017004213678108629 0 -0.0067900024298894711 0.016948899714780176 0 -0.0067042272913240769 0.016886007203811476 0 -0.0068745327495138564 0.016769352467965744 0 -0.0070813250911237339 0.016872696671772318 0 -0.0067900024298894711 0.016948899714780176 0 -0.0068745327495138564 0.016769352467965744 0 -0.0068745327495138564 0.016769352467965744 0 -0.0070667301674857625 0.016532485609356801 0 -0.0072986309453725879 0.016651774809628549 0 -0.0068745327495138564 0.016769352467965744 0 -0.0067836408134303175 0.016477561328534163 0 -0.0070667301674857625 0.016532485609356801 0 -0.0067042272913240769 0.016886007203811476 0 -0.0068745327495138564 0.016769352467965744 0 -0.0066085157044791804 0.016744106421521143 0 -0.0068745327495138564 0.016769352467965744 0 -0.0066085157044791804 0.016744106421521143 0 -0.0067836408134303175 0.016477561328534163 0 -0.0066085157044791804 0.016744106421521143 0 -0.0067836408134303175 0.016477561328534163 0 -0.0063814859493718217 0.016466838670665042 0 -0.0067836408134303175 0.016477561328534163 0 -0.0070667301674857625 0.016532485609356801 0 -0.0071587387036158006 0.016243002472028749 0 -0.0072626271139387393 0.016475196342214775 0 -0.0075066644039533462 0.016459468569412848 0 -0.0071587387036158006 0.016243002472028749 0 -0.0070667301674857625 0.016532485609356801 0 -0.0072626271139387393 0.016475196342214775 0 -0.0071587387036158006 0.016243002472028749 0 -0.0074602202234872982 0.016457677430642404 0 -0.0069372470445324139 0.016280870783837859 0 -0.0072626271139387393 0.016475196342214775 0 -0.0075066644039533462 0.016459468569412848 0 -0.0072986309453725879 0.016651774809628549 0 -0.0075066644039533462 0.016459468569412848 0 -0.0075336369326465275 0.016167063346787781 0 -0.0076675542709294534 0.016431129915220194 0 -0.0075066644039533462 0.016459468569412848 0 -0.0072986309453725879 0.016651774809628549 0 -0.0076874178917145097 0.016615485561339814 0 -0.0075364109054182286 0.016932711400333977 0 -0.0072986309453725879 0.016651774809628549 0 -0.0076874178917145097 0.016615485561339814 0 -0.0070667301674857625 0.016532485609356801 0 -0.0072626271139387393 0.016475196342214775 0 -0.0072986309453725879 0.016651774809628549 0 -0.0049086420134344718 0.015124916204999913 0 -0.0047231798852382647 0.014717857575936896 0 -0.0044244535969473605 0.014866616376242394 0 -0.0042819489933300457 0.016161239634143915 0 -0.0060850635623487396 0.016234011337576053 0 -0.0047231798852382647 0.014717857575936896 0 -0.0045051648707966447 0.014436267302846041 0 -0.0044244535969473605 0.014866616376242394 0 -0.0065870660148702239 0.015770328192062061 0 -0.0060850635623487396 0.016234011337576053 0 -0.0047882312397001811 0.014435403190465433 0 -0.0047231798852382647 0.014717857575936896 0 -0.0045051648707966447 0.014436267302846041 0 -0.0086290065733232741 0.017071333230329166 0 -0.0084283479182492155 0.017909365236684863 0 -0.0076639134141992865 0.017517109110791271 0 -0.0078868298161180583 0.016794321151003863 0 -0.0086290065733232741 0.017071333230329166 0 -0.0076639134141992865 0.017517109110791271 0 -0.0063328720879798914 0.016876982223341021 0 -0.00641551094671156 0.016835394527361248 0 -0.0064672781174092758 0.016945453835026082 0 -0.0060850635623487396 0.016234011337576053 0 -0.0073591882290559591 0.017391303538934016 0 -0.00641551094671156 0.016835394527361248 0 -0.006488567621123092 0.016824249412776722 0 -0.0064672781174092758 0.016945453835026082 0 -0.006488567621123092 0.016824249412776722 0 -0.0064672781174092758 0.016945453835026082 0 -0.0068399968578959731 0.017004213678108629 0 -0.0073591882290559591 0.017391303538934016 0 -0.0067365928086951269 0.016979161454798428 0 -0.0078868298161180583 0.016794321151003863 0 -0.0076639134141992865 0.017517109110791271 0 -0.0068399968578959731 0.017004213678108629 0 -0.0067042272913240769 0.016886007203811476 0 -0.006488567621123092 0.016824249412776722 0 -0.0068399968578959731 0.017004213678108629 0 -0.0066085157044791804 0.016744106421521143 0 -0.006488567621123092 0.016824249412776722 0 -0.0063197144716794496 0.016776684848420407 0 -0.0067042272913240769 0.016886007203811476 0 -0.0066085157044791804 0.016744106421521143 0 -0.006488567621123092 0.016824249412776722 0 -0.0063814859493718217 0.016466838670665042 0 -0.0058382626315103721 0.016540867515211371 0 -0.0058310264503490129 0.016109533019018015 0 -0.0066085157044791804 0.016744106421521143 0 -0.0063197144716794496 0.016776684848420407 0 -0.0063814859493718217 0.016466838670665042 0 -0.0063197144716794496 0.016776684848420407 0 -0.0063814859493718217 0.016466838670665042 0 -0.0058382626315103721 0.016540867515211371 0 -0.0063197144716794496 0.016776684848420407 0 -0.0058382626315103721 0.016540867515211371 0 -0.0055804576176962774 0.017033570344395815 0 -0.0058382626315103721 0.016540867515211371 0 -0.0055804576176962774 0.017033570344395815 0 -0.005098175083549969 0.016438284196826927 0 -0.006488567621123092 0.016824249412776722 0 -0.0063197144716794496 0.016776684848420407 0 -0.0064208986343138961 0.016785523707354106 0 -0.0062565575522459628 0.016815764432236726 0 -0.006037252365730386 0.016879960852900822 0 -0.00641551094671156 0.016835394527361248 0 -0.006488567621123092 0.016824249412776722 0 -0.0064208986343138961 0.016785523707354106 0 -0.0060850635623487396 0.016234011337576053 0 -0.0054008989183862415 0.01680382923915236 0 -0.0063328720879798914 0.016876982223341021 0 -0.00641551094671156 0.016835394527361248 0 -0.0063566965705442232 0.016785898420986625 0 -0.00641551094671156 0.016835394527361248 0 -0.0064208986343138961 0.016785523707354106 0 -0.0063566965705442232 0.016785898420986625 0 -0.006037252365730386 0.016879960852900822 0 -0.0054008989183862415 0.01680382923915236 0 -0.0054008989183862415 0.01680382923915236 0 -0.0050339128883382274 0.016617142774067492 0 -0.0055804576176962774 0.017033570344395815 0 -0.0050034099670492995 0.017140660887990478 0 -0.005098175083549969 0.016438284196826927 0 -0.0049603334308703749 0.017049703411633716 0 -0.005098175083549969 0.016438284196826927 0 -0.0046534081683835661 0.016684755198439063 0 -0.0041243575229233942 0.017190924361529435 0 -0.0042791838961545991 0.01651238003737843 0 -0.0046534081683835661 0.016684755198439063 0 -0.005098175083549969 0.016438284196826927 0 -0.0046534081683835661 0.016684755198439063 0 -0.0046483585484979849 0.01623375936662359 0 -0.0042791838961545991 0.01651238003737843 0 -0.0046534081683835661 0.016684755198439063 0 -0.0046483585484979849 0.01623375936662359 0 -0.0042819489933300457 0.016161239634143915 0 -0.0054008989183862415 0.01680382923915236 0 -0.0046693264856096581 0.016314386359945608 0 -0.0054320976284884968 0.016708398484711413 0 -0.0055367321358129806 0.016156785074636124 0 -0.0041243575229233942 0.017190924361529435 0 -0.0049603334308703749 0.017049703411633716 0 -0.0046534081683835661 0.016684755198439063 0 -0.0034193066893578802 0.016062507303540641 0 -0.0038021561597044351 0.016198420811421609 0 -0.0039656277002350195 0.015624843689544501 0 -0.0041121609382189766 0.015984269387872761 0 -0.0041870332876964627 0.015483492447998902 0 -0.0043984382902015895 0.01586910849494692 0 -0.00467231720239949 0.015596221732274125 0 -0.0044325335728704453 0.015361475659392975 0 -0.0043984382902015895 0.01586910849494692 0 -0.0050181718031054954 0.015818241116885096 0 -0.00467231720239949 0.015596221732274125 0 -0.0038973507971159053 0.016865498208375809 0 -0.0041121609382189766 0.015984269387872761 0 -0.0043984382902015895 0.01586910849494692 0 -0.0046483585484979849 0.01623375936662359 0 -0.0050181718031054954 0.015818241116885096 0 -0.0042791838961545991 0.01651238003737843 0 -0.0043984382902015895 0.01586910849494692 0 -0.0046483585484979849 0.01623375936662359 0 -0.005098175083549969 0.016438284196826927 0 -0.0046483585484979849 0.01623375936662359 0 -0.0050181718031054954 0.015818241116885096 0 -0.0050181718031054954 0.015818241116885096 0 -0.0058152487280699605 0.015502969608836103 0 -0.0046622598485905609 0.015346755045126738 0 -0.0050181718031054954 0.015818241116885096 0 -0.00467231720239949 0.015596221732274125 0 -0.0046622598485905609 0.015346755045126738 0 -0.0050181718031054954 0.015818241116885096 0 -0.0058152487280699605 0.015502969608836103 0 -0.0058310264503490129 0.016109533019018015 0 -0.0058382626315103721 0.016540867515211371 0 -0.005098175083549969 0.016438284196826927 0 -0.0058310264503490129 0.016109533019018015 0 -0.005098175083549969 0.016438284196826927 0 -0.0050181718031054954 0.015818241116885096 0 -0.0058310264503490129 0.016109533019018015 0 -0.0063814859493718217 0.016466838670665042 0 -0.0058310264503490129 0.016109533019018015 0 -0.0066833523561966191 0.015925668150281333 0 -0.0052086931068436506 0.015784154307769385 0 -0.0059447371451373972 0.016095813920250293 0 -0.0057154676093251183 0.015486187780736056 0 -0.0058152487280699605 0.015502969608836103 0 -0.0058310264503490129 0.016109533019018015 0 -0.0066833523561966191 0.015925668150281333 0 -0.0055092617783988242 0.015652944393693583 0 -0.0063039808249109076 0.016005737615876328 0 -0.0052086931068436506 0.015784154307769385 0 -0.005003423116499121 0.015372391256490333 0 -0.0057154676093251183 0.015486187780736056 0 -0.0050474102218457618 0.014999910821297181 0 -0.0057154676093251183 0.015486187780736056 0 -0.0059354208304282924 0.014999784121941613 0 -0.0050474102218457618 0.014999910821297181 0 -0.005003423116499121 0.015372391256490333 0 -0.0057154676093251183 0.015486187780736056 0 -0.0050474102218457618 0.014999910821297181 0 -0.005003423116499121 0.015372391256490333 0 -0.0041604169560278534 0.014999914959563061 0 -0.0052086931068436506 0.015784154307769385 0 -0.005003423116499121 0.015372391256490333 0 -0.0046622598485905609 0.015346755045126738 0 -0.0055092617783988242 0.015652944393693583 0 -0.0047379293862241326 0.015360740794171546 0 -0.005003423116499121 0.015372391256490333 0 -0.0046622598485905609 0.015346755045126738 0 -0.0041604169560278534 0.014999914959563061 0 -0.0036122612309460967 0.015366051133870214 0 -0.00415940984429019 0.014999990448366151 0 -0.0039656277002350195 0.015624843689544501 0 -0.0046622598485905609 0.015346755045126738 0 -0.0041604169560278534 0.014999914959563061 0 -0.0044325335728704453 0.015361475659392975 0 -0.0041595648387745942 0.015000027971442289 0 -0.0041870332876964627 0.015483492447998902 0 -0.00467231720239949 0.015596221732274125 0 -0.0046622598485905609 0.015346755045126738 0 -0.0044325335728704453 0.015361475659392975 0 -0.0069830451248296659 0.015780927022466463 0 -0.0067194346129883968 0.016339691737924034 0 -0.0064281945799203894 0.015830391126127406 0 -0.0070263662690734753 0.015890325813188284 0 -0.007575801150105933 0.016281132461236632 0 -0.0070655321446132947 0.016002308353931644 0 -0.0076277131112736487 0.0164050721231171 0 -0.0077613216127683871 0.016116771789121947 0 -0.0070655321446132947 0.016002308353931644 0 -0.0077003975135266113 0.015715659905819402 0 -0.0077613216127683871 0.016116771789121947 0 -0.0075066644039533462 0.016459468569412848 0 -0.0075336369326465275 0.016167063346787781 0 -0.0067194346129883968 0.016339691737924034 0 -0.0069830451248296659 0.015780927022466463 0 -0.0075336369326465275 0.016167063346787781 0 -0.0067194346129883968 0.016339691737924034 0 -0.0067836408134303175 0.016477561328534163 0 -0.0071587387036158006 0.016243002472028749 0 -0.0066833523561966191 0.015925668150281333 0 -0.0069372470445324139 0.016280870783837859 0 -0.0063039808249109076 0.016005737615876328 0 -0.0067194346129883968 0.016339691737924034 0 -0.0059447371451373972 0.016095813920250293 0 -0.0064281945799203894 0.015830391126127406 0 -0.0067836408134303175 0.016477561328534163 0 -0.0063814859493718217 0.016466838670665042 0 -0.0066833523561966191 0.015925668150281333 0 -0.0059447371451373972 0.016095813920250293 0 -0.0064281945799203894 0.015830391126127406 0 -0.0057154676093251183 0.015486187780736056 0 -0.0064281945799203894 0.015830391126127406 0 -0.0064304999911419178 0.015367725688927789 0 -0.0057154676093251183 0.015486187780736056 0 -0.0064304999911419178 0.015367725688927789 0 -0.0057154676093251183 0.015486187780736056 0 -0.0059354208304282924 0.014999784121941613 0 -0.0064879017110870468 0.015524333696074338 0 -0.0059354568693292843 0.015000009466053723 0 -0.0067406202624452774 0.014999950977913127 0 -0.0064636715948258854 0.015446980428337065 0 -0.0059355589252458284 0.01500008460654597 0 -0.0064879017110870468 0.015524333696074338 0 -0.0067406202624452774 0.014999950977913127 0 -0.0071023785933799696 0.015469084265893052 0 -0.0069830451248296659 0.015780927022466463 0 -0.0064281945799203894 0.015830391126127406 0 -0.0064304999911419178 0.015367725688927789 0 -0.0070263662690734753 0.015890325813188284 0 -0.0064636715948258854 0.015446980428337065 0 -0.0070655321446132947 0.016002308353931644 0 -0.0064879017110870468 0.015524333696074338 0 -0.0071023785933799696 0.015469084265893052 0 -0.0070655321446132947 0.016002308353931644 0 -0.0071023785933799696 0.015469084265893052 0 -0.0077003975135266113 0.015715659905819402 0 -0.0067406202624452774 0.014999950977913127 0 -0.0071023785933799696 0.015469084265893052 0 -0.0075457212354007926 0.014999977072059544 0 -0.0071023785933799696 0.015469084265893052 0 -0.0075457212354007926 0.014999977072059544 0 -0.0077003975135266113 0.015715659905819402 0 -0.0075457212354007926 0.014999977072059544 0 -0.0083507592547906323 0.014999951763120955 0 -0.0082650558476794686 0.015546109498517572 0 -0.0082650558476794686 0.015546109498517572 0 -0.0077003975135266113 0.015715659905819402 0 -0.0082926897239046209 0.016055960994547366 0 -0.0075457212354007926 0.014999977072059544 0 -0.0082650558476794686 0.015546109498517572 0 -0.0077003975135266113 0.015715659905819402 0 -0.0077003975135266113 0.015715659905819402 0 -0.0077613216127683871 0.016116771789121947 0 -0.0082926897239046209 0.016055960994547366 0 -0.0077613216127683871 0.016116771789121947 0 -0.0082926897239046209 0.016055960994547366 0 -0.0080528458282801696 0.016374217991463432 0 -0.0082926897239046209 0.016055960994547366 0 -0.0080528458282801696 0.016374217991463432 0 -0.0083863131445832944 0.016514979757370069 0 -0.0076277131112736487 0.0164050721231171 0 -0.0077613216127683871 0.016116771789121947 0 -0.0080528458282801696 0.016374217991463432 0 -0.0076277131112736487 0.0164050721231171 0 -0.0080528458282801696 0.016374217991463432 0 -0.008100214172671559 0.016660271319900173 0 -0.0088934720466907324 0.016149362467473546 0 -0.0095869286220530581 0.016338971475205681 0 -0.0088616798094347509 0.016632471437338866 0 -0.0088934720466907324 0.016149362467473546 0 -0.0083863131445832944 0.016514979757370069 0 -0.0088616798094347509 0.016632471437338866 0 -0.0082926897239046209 0.016055960994547366 0 -0.0088934720466907324 0.016149362467473546 0 -0.0083863131445832944 0.016514979757370069 0 -0.0082926897239046209 0.016055960994547366 0 -0.0088934720466907324 0.016149362467473546 0 -0.0087610699915312458 0.015714414377033262 0 -0.0088934720466907324 0.016149362467473546 0 -0.0087610699915312458 0.015714414377033262 0 -0.0092866056998103259 0.015757060441812069 0 -0.0090779555445168643 0.015424973389654539 0 -0.0095061934788588012 0.015313783496592152 0 -0.0092866056998103259 0.015757060441812069 0 -0.0090779555445168643 0.015424973389654539 0 -0.0087610699915312458 0.015714414377033262 0 -0.0092866056998103259 0.015757060441812069 0 -0.0082650558476794686 0.015546109498517572 0 -0.0087610699915312458 0.015714414377033262 0 -0.008719799457463432 0.015344068085337311 0 -0.0082650558476794686 0.015546109498517572 0 -0.0082926897239046209 0.016055960994547366 0 -0.0087610699915312458 0.015714414377033262 0 -0.0090779555445168643 0.015424973389654539 0 -0.0087610699915312458 0.015714414377033262 0 -0.008719799457463432 0.015344068085337311 0 -0.0083507592547906323 0.014999951763120955 0 -0.0082650558476794686 0.015546109498517572 0 -0.008719799457463432 0.015344068085337311 0 -0.0083507592547906323 0.014999951763120955 0 -0.008719799457463432 0.015344068085337311 0 -0.0091557645177220686 0.014999985223561073 0 -0.0090779555445168643 0.015424973389654539 0 -0.008719799457463432 0.015344068085337311 0 -0.0091557645177220686 0.014999985223561073 0 -0.0090779555445168643 0.015424973389654539 0 -0.0091557645177220686 0.014999985223561073 0 -0.0095061934788588012 0.015313783496592152 0 -0.0091557645177220686 0.014999985223561073 0 -0.0095061934788588012 0.015313783496592152 0 -0.0099609148099201721 0.014999966316920679 0 -0.0095061934788588012 0.015313783496592152 0 -0.0099609148099201721 0.014999966316920679 0 -0.010266188810246549 0.015375936459281109 0 -0.0095061934788588012 0.015313783496592152 0 -0.010266188810246549 0.015375936459281109 0 -0.010051846324885582 0.015776782782415767 0 -0.010266188810246549 0.015375936459281109 0 -0.010051846324885582 0.015776782782415767 0 -0.010510855804606738 0.01579331923166211 0 -0.0095061934788588012 0.015313783496592152 0 -0.0098305424864260794 0.015654479028046911 0 -0.0092866056998103259 0.015757060441812069 0 -0.0095218571577152643 0.015329907953295342 0 -0.0099605883800043087 0.015751708691533674 0 -0.010766107476702319 0.015000007432218361 0 -0.011118095819384841 0.015487875367878604 0 -0.011571197876468174 0.014999995783040985 0 -0.010766107476702319 0.015000007432218361 0 -0.010725974602776368 0.01553648679651814 0 -0.011118095819384841 0.015487875367878604 0 -0.0099609148099201721 0.014999966316920679 0 -0.010266188810246549 0.015375936459281109 0 -0.010766107476702319 0.015000007432218361 0 -0.010266188810246549 0.015375936459281109 0 -0.010766107476702319 0.015000007432218361 0 -0.010725974602776368 0.01553648679651814 0 -0.010051846324885582 0.015776782782415767 0 -0.010510855804606738 0.01579331923166211 0 -0.01056448574521297 0.016207303759326705 0 -0.010266188810246549 0.015375936459281109 0 -0.010510855804606738 0.01579331923166211 0 -0.010725974602776368 0.01553648679651814 0 -0.010510855804606738 0.01579331923166211 0 -0.010742681032252958 0.015840910825725002 0 -0.010725974602776368 0.01553648679651814 0 -0.010510855804606738 0.01579331923166211 0 -0.010742681032252958 0.015840910825725002 0 -0.01067831249838809 0.015987941290112648 0 -0.010742681032252958 0.015840910825725002 0 -0.010806208156611711 0.015952177240588707 0 -0.01067831249838809 0.015987941290112648 0 -0.011100660103674879 0.015862526953714071 0 -0.010848323964057799 0.016056624522674992 0 -0.011657092539923945 0.0157901186909012 0 -0.010725974602776368 0.01553648679651814 0 -0.01094795969037367 0.015751257068906163 0 -0.011118095819384841 0.015487875367878604 0 -0.010742681032252958 0.015840910825725002 0 -0.010725974602776368 0.01553648679651814 0 -0.01094795969037367 0.015751257068906163 0 -0.010742681032252958 0.015840910825725002 0 -0.01087719508863067 0.015892982834690688 0 -0.01094795969037367 0.015751257068906163 0 -0.010742681032252958 0.015840910825725002 0 -0.01087719508863067 0.015892982834690688 0 -0.010806208156611711 0.015952177240588707 0 -0.01087719508863067 0.015892982834690688 0 -0.011100660103674879 0.015862526953714071 0 -0.010884485618012415 0.01598241477897443 0 -0.01087719508863067 0.015892982834690688 0 -0.01094795969037367 0.015751257068906163 0 -0.011100660103674879 0.015862526953714071 0 -0.01094795969037367 0.015751257068906163 0 -0.011120345310768873 0.015714339120427051 0 -0.011100660103674879 0.015862526953714071 0 -0.011120345310768873 0.015714339120427051 0 -0.011100660103674879 0.015862526953714071 0 -0.011314703027273828 0.01575575111201024 0 -0.01094795969037367 0.015751257068906163 0 -0.011120345310768873 0.015714339120427051 0 -0.011118095819384841 0.015487875367878604 0 -0.011120345310768873 0.015714339120427051 0 -0.011118095819384841 0.015487875367878604 0 -0.011314703027273828 0.01575575111201024 0 -0.010454897761874362 0.015246109483364641 0 -0.010895540888072111 0.015292166487243273 0 -0.011117543499557462 0.014905403263757798 0 -0.010463719060685656 0.015419975035601665 0 -0.011165907230340376 0.015204818976790227 0 -0.010715533230607071 0.015456723407697241 0 -0.010704907206952382 0.015592929490274115 0 -0.011211987073635162 0.015487267752353696 0 -0.010704907206952382 0.015592929490274115 0 -0.010612046237969118 0.015787900732748657 0 -0.011211987073635162 0.015487267752353696 0 -0.011100660103674879 0.015862526953714071 0 -0.010884485618012415 0.01598241477897443 0 -0.010848323964057799 0.016056624522674992 0 -0.01087719508863067 0.015892982834690688 0 -0.010806208156611711 0.015952177240588707 0 -0.010884485618012415 0.01598241477897443 0 -0.010806208156611711 0.015952177240588707 0 -0.010884485618012415 0.01598241477897443 0 -0.010848323964057799 0.016056624522674992 0 -0.0099605883800043087 0.015751708691533674 0 -0.010379195419446112 0.015786152952295251 0 -0.010704907206952382 0.015592929490274115 0 -0.010612046237969118 0.015787900732748657 0 -0.010413777407416497 0.015616016497170902 0 -0.010394564489505169 0.015357901596012519 0 -0.010206589427924365 0.01519492065580088 0 -0.010167840000966211 0.015471421719978035 0 -0.010463719060685656 0.015419975035601665 0 -0.010379195419446112 0.015786152952295251 0 -0.010715533230607071 0.015456723407697241 0 -0.010704907206952382 0.015592929490274115 0 -0.010413777407416497 0.015616016497170902 0 -0.010787494180785402 0.015746191319804134 0 -0.010379195419446112 0.015786152952295251 0 -0.010848323964057799 0.016056624522674992 0 -0.01056448574521297 0.016207303759326705 0 -0.01067831249838809 0.015987941290112648 0 -0.010510855804606738 0.01579331923166211 0 -0.01056448574521297 0.016207303759326705 0 -0.01067831249838809 0.015987941290112648 0 -0.010806208156611711 0.015952177240588707 0 -0.010848323964057799 0.016056624522674992 0 -0.01067831249838809 0.015987941290112648 0 -0.010167840000966211 0.015471421719978035 0 -0.010461390782249346 0.015740199695549115 0 -0.0099443186944334194 0.015926820194111707 0 -0.010396852586268955 0.015342141130194716 0 -0.010167840000966211 0.015471421719978035 0 -0.010461390782249346 0.015740199695549115 0 -0.010463719060685656 0.015419975035601665 0 -0.010269769576765637 0.015469701201825144 0 -0.010396852586268955 0.015342141130194716 0 -0.010461390782249346 0.015740199695549115 0 -0.010903754720637218 0.015719630965245496 0 -0.010463719060685656 0.015419975035601665 0 -0.010952870439812383 0.015714488766915925 0 -0.010454897761874362 0.015246109483364641 0 -0.011005742914169879 0.015720060341330881 0 -0.010895540888072111 0.015292166487243273 0 -0.011005742914169879 0.015720060341330881 0 -0.010895540888072111 0.015292166487243273 0 -0.011231636541607675 0.015345181773001985 0 -0.0088934720466907324 0.016149362467473546 0 -0.0092866056998103259 0.015757060441812069 0 -0.0095869286220530581 0.016338971475205681 0 -0.0098305424864260794 0.015654479028046911 0 -0.0092866056998103259 0.015757060441812069 0 -0.0095869286220530581 0.016338971475205681 0 -0.0098305424864260794 0.015654479028046911 0 -0.0102367163014446 0.016008900436903169 0 -0.0095869286220530581 0.016338971475205681 0 -0.010206589427924365 0.01519492065580088 0 -0.010167840000966211 0.015471421719978035 0 -0.0094461932038337193 0.015645457655951166 0 -0.010379195419446112 0.015786152952295251 0 -0.0094939879689111707 0.015965899011700677 0 -0.010167840000966211 0.015471421719978035 0 -0.0094461932038337193 0.015645457655951166 0 -0.0099443186944334194 0.015926820194111707 0 -0.0094939879689111707 0.015965899011700677 0 -0.0088238376641750077 0.016369519201195705 0 -0.0094461932038337193 0.015645457655951166 0 -0.0094354317986196853 0.016359034537437908 0 -0.0087571934528235754 0.016111619087546891 0 -0.0094461932038337193 0.015645457655951166 0 -0.0099443186944334194 0.015926820194111707 0 -0.0094354317986196853 0.016359034537437908 0 -0.0099443186944334194 0.015926820194111707 0 -0.0094354317986196853 0.016359034537437908 0 -0.010184539720888843 0.016343701168910107 0 -0.0094354317986196853 0.016359034537437908 0 -0.010184539720888843 0.016343701168910107 0 -0.0098311491701758864 0.016816467023762029 0 -0.0094354317986196853 0.016359034537437908 0 -0.0090835502382403312 0.016875282459545192 0 -0.0098311491701758864 0.016816467023762029 0 -0.0094354317986196853 0.016359034537437908 0 -0.0090835502382403312 0.016875282459545192 0 -0.0087489657840527923 0.016560289670645583 0 -0.010461390782249346 0.015740199695549115 0 -0.010768656829082837 0.016253663814366444 0 -0.010184539720888843 0.016343701168910107 0 -0.010461390782249346 0.015740199695549115 0 -0.010903754720637218 0.015719630965245496 0 -0.010768656829082837 0.016253663814366444 0 -0.010461390782249346 0.015740199695549115 0 -0.0099443186944334194 0.015926820194111707 0 -0.010184539720888843 0.016343701168910107 0 -0.010184539720888843 0.016343701168910107 0 -0.010426954229144999 0.016678736108664462 0 -0.0098311491701758864 0.016816467023762029 0 -0.010768656829082837 0.016253663814366444 0 -0.010426954229144999 0.016678736108664462 0 -0.011125346294002379 0.01681679243929661 0 -0.010768656829082837 0.016253663814366444 0 -0.010184539720888843 0.016343701168910107 0 -0.010426954229144999 0.016678736108664462 0 -0.011441674123041291 0.016121096599125851 0 -0.012216769011423347 0.015830363178664528 0 -0.010426954229144999 0.016678736108664462 0 -0.010300824706369328 0.017137438379472878 0 -0.011125346294002379 0.01681679243929661 0 -0.012581294167612573 0.015104855048529525 0 -0.013082571665841885 0.015364748390116194 0 -0.013311736688115089 0.014844529013111729 0 -0.010426954229144999 0.016678736108664462 0 -0.010300824706369328 0.017137438379472878 0 -0.0098311491701758864 0.016816467023762029 0 -0.010300824706369328 0.017137438379472878 0 -0.0098311491701758864 0.016816467023762029 0 -0.0095931447584924178 0.017358737235431979 0 -0.012581294167612573 0.015104855048529525 0 -0.011719033587057859 0.015472282140409801 0 -0.012351763531118042 0.015787308513749789 0 -0.011441674123041291 0.016121096599125851 0 -0.010658206025581188 0.016412054623955098 0 -0.012581294167612573 0.015104855048529525 0 -0.012846748765725245 0.015778659178056025 0 -0.012351763531118042 0.015787308513749789 0 -0.012581294167612573 0.015104855048529525 0 -0.013082571665841885 0.015364748390116194 0 -0.012846748765725245 0.015778659178056025 0 -0.013082571665841885 0.015364748390116194 0 -0.013215496562892165 0.015654180258664645 0 -0.012846748765725245 0.015778659178056025 0 -0.0090835502382403312 0.016875282459545192 0 -0.0098311491701758864 0.016816467023762029 0 -0.0095931447584924178 0.017358737235431979 0 -0.0090835502382403312 0.016875282459545192 0 -0.0095931447584924178 0.017358737235431979 0 -0.0091281648442994544 0.017213308232929183 0 -0.0090835502382403312 0.016875282459545192 0 -0.0091281648442994544 0.017213308232929183 0 -0.0088576305617819144 0.017178060625490155 0 -0.0090661347469094804 0.016884540972228981 0 -0.0086961508816104996 0.017189017225785586 0 -0.0085142233895975552 0.017236064287044228 0 -0.0082026975639311259 0.017013351565350374 0 -0.0083712728795867757 0.016761237339193283 0 -0.0090835502382403312 0.016875282459545192 0 -0.0085142233895975552 0.017236064287044228 0 -0.0083712728795867757 0.016761237339193283 0 -0.0085142233895975552 0.017236064287044228 0 -0.0080332239910775576 0.017197370568911931 0 -0.0082026975639311259 0.017013351565350374 0 -0.0075364109054182286 0.016932711400333977 0 -0.0080332239910775576 0.017197370568911931 0 -0.0079487673898216704 0.01682859280762879 0 -0.0075364109054182286 0.016932711400333977 0 -0.0079487673898216704 0.01682859280762879 0 -0.0076874178917145097 0.016615485561339814 0 -0.0080332239910775576 0.017197370568911931 0 -0.0079487673898216704 0.01682859280762879 0 -0.0082026975639311259 0.017013351565350374 0 -0.0079487673898216704 0.01682859280762879 0 -0.0082026975639311259 0.017013351565350374 0 -0.0083712728795867757 0.016761237339193283 0 -0.0079487673898216704 0.01682859280762879 0 -0.0079443680420671937 0.016450767754257339 0 -0.0083712728795867757 0.016761237339193283 0 -0.0082235830774793368 0.016682699272423881 0 -0.008100214172671559 0.016660271319900173 0 -0.0083712728795867757 0.016761237339193283 0 -0.0080223998151273245 0.016555523113416151 0 -0.0083392652798307595 0.016759141409940111 0 -0.0079487673898216704 0.01682859280762879 0 -0.0076874178917145097 0.016615485561339814 0 -0.0079443680420671937 0.016450767754257339 0 -0.0075336369326465275 0.016167063346787781 0 -0.0076675542709294534 0.016431129915220194 0 -0.0079443680420671937 0.016450767754257339 0 -0.007575801150105933 0.016281132461236632 0 -0.0080223998151273245 0.016555523113416151 0 -0.0075066644039533462 0.016459468569412848 0 -0.0076874178917145097 0.016615485561339814 0 -0.0076675542709294534 0.016431129915220194 0 -0.0076874178917145097 0.016615485561339814 0 -0.0076675542709294534 0.016431129915220194 0 -0.0079443680420671937 0.016450767754257339 0 -0.0082235830774793368 0.016682699272423881 0 -0.0083863131445832944 0.016514979757370069 0 -0.008100214172671559 0.016660271319900173 0 -0.0080528458282801696 0.016374217991463432 0 -0.0083863131445832944 0.016514979757370069 0 -0.008100214172671559 0.016660271319900173 0 -0.0082235830774793368 0.016682699272423881 0 -0.0087571934528235754 0.016111619087546891 0 -0.0087489657840527923 0.016560289670645583 0 -0.0082235830774793368 0.016682699272423881 0 -0.0083863131445832944 0.016514979757370069 0 -0.0088616798094347509 0.016632471437338866 0 -0.0082702209304936717 0.016656471804735704 0 -0.0088238376641750077 0.016369519201195705 0 -0.0094354317986196853 0.016359034537437908 0 -0.0087571934528235754 0.016111619087546891 0 -0.0087489657840527923 0.016560289670645583 0 -0.0090835502382403312 0.016875282459545192 0 -0.0087489657840527923 0.016560289670645583 0 -0.0083712728795867757 0.016761237339193283 0 -0.0082235830774793368 0.016682699272423881 0 -0.0087489657840527923 0.016560289670645583 0 -0.0083712728795867757 0.016761237339193283 0 -0.014999389242928176 0.014999889485887798 0 -0.013815081366581274 0.014972254488982725 0 -0.01305979990782203 0.01499922545410697 0 -0.014999389242928176 0.014999889485887798 0 -0.014976566673965503 0.014428771555989534 0 -0.014999109495007939 0.012478652389213186 0 -0.015536104712393662 0.013467759042900084 0 -0.014976566673965503 0.014428771555989534 0 -0.014999109495007939 0.012478652389213186 0 -0.014499208338186843 0.014946755863072432 0 -0.014454525390993109 0.014782349425827587 0 -0.014976566673965503 0.014428771555989534 0 -0.014499208338186843 0.014946755863072432 0 -0.014454525390993109 0.014782349425827587 0 -0.014416753552393038 0.01486581973343833 0 -0.015017449573505997 0.014199598834673711 0 -0.014981952152337536 0.01440058071566329 0 -0.014454525390993109 0.014782349425827587 0 -0.014999389242928176 0.014999889485887798 0 -0.014976566673965503 0.014428771555989534 0 -0.014454525390993109 0.014782349425827587 0 -0.014999389242928176 0.014999889485887798 0 -0.013815081366581274 0.014972254488982725 0 -0.013815081366581274 0.014972254488982725 0 -0.01323462096804945 0.015057129811254203 0 -0.01305979990782203 0.01499922545410697 0 -0.013815081366581274 0.014972254488982725 0 -0.013426045581725384 0.015068115195397832 0 -0.01323462096804945 0.015057129811254203 0 -0.013815081366581274 0.014972254488982725 0 -0.013426045581725384 0.015068115195397832 0 -0.013423890050223959 0.015222622105421356 0 -0.013815081366581274 0.014972254488982725 0 -0.013423890050223959 0.015222622105421356 0 -0.013692626228003086 0.015458059999934066 0 -0.013423890050223959 0.015222622105421356 0 -0.013692626228003086 0.015458059999934066 0 -0.01319908187507465 0.015488148415823234 0 -0.014454525390993109 0.014782349425827587 0 -0.013815081366581274 0.014972254488982725 0 -0.013692626228003086 0.015458059999934066 0 -0.014454525390993109 0.014782349425827587 0 -0.014416753552393038 0.01486581973343833 0 -0.01434977691497605 0.014829325801024314 0 -0.014429072874523217 0.014815762354043544 0 -0.014018657116566389 0.015128933061565476 0 -0.014416753552393038 0.01486581973343833 0 -0.01434977691497605 0.014829325801024314 0 -0.014384684357023459 0.014878946145492837 0 -0.014499208338186843 0.014946755863072432 0 -0.014416753552393038 0.01486581973343833 0 -0.014384684357023459 0.014878946145492837 0 -0.014329467891340092 0.014825962786801004 0 -0.01434977691497605 0.014829325801024314 0 -0.014227989401989298 0.014743426245316788 0 -0.014329467891340092 0.014825962786801004 0 -0.01434977691497605 0.014829325801024314 0 -0.014384684357023459 0.014878946145492837 0 -0.014018657116566389 0.015128933061565476 0 -0.013601334317995747 0.01531008753857948 0 -0.013692626228003086 0.015458059999934066 0 -0.01319908187507465 0.015488148415823234 0 -0.013002256482801587 0.015868642911093633 0 -0.01319908187507465 0.015488148415823234 0 -0.013002256482801587 0.015868642911093633 0 -0.012638523510682138 0.01547717988721654 0 -0.013002256482801587 0.015868642911093633 0 -0.012331261333159598 0.015797923937845414 0 -0.012638523510682138 0.01547717988721654 0 -0.012331261333159598 0.015797923937845414 0 -0.012638523510682138 0.01547717988721654 0 -0.012057865163460586 0.015431063178939476 0 -0.012638523510682138 0.01547717988721654 0 -0.0123749560192409 0.015106109436536492 0 -0.012057865163460586 0.015431063178939476 0 -0.012638523510682138 0.01547717988721654 0 -0.0123749560192409 0.015106109436536492 0 -0.012927777143543599 0.014778492318687135 0 -0.0123749560192409 0.015106109436536492 0 -0.012359646308999528 0.014732153675517589 0 -0.01199825758422173 0.014917555538949294 0 -0.0123749560192409 0.015106109436536492 0 -0.012359646308999528 0.014732153675517589 0 -0.012927777143543599 0.014778492318687135 0 -0.013203281726294185 0.015458661815864515 0 -0.013049169862002545 0.014943098325094818 0 -0.01319908187507465 0.015488148415823234 0 -0.012638523510682138 0.01547717988721654 0 -0.012927777143543599 0.014778492318687135 0 -0.013423890050223959 0.015222622105421356 0 -0.01319908187507465 0.015488148415823234 0 -0.013193359932604133 0.015208409865167841 0 -0.013426045581725384 0.015068115195397832 0 -0.013423890050223959 0.015222622105421356 0 -0.013276497869917138 0.015081909742595013 0 -0.013193359932604133 0.015208409865167841 0 -0.013276497869917138 0.015081909742595013 0 -0.013194532730664094 0.015046130372578329 0 -0.013423890050223959 0.015222622105421356 0 -0.013193359932604133 0.015208409865167841 0 -0.013276497869917138 0.015081909742595013 0 -0.013426045581725384 0.015068115195397832 0 -0.013276497869917138 0.015081909742595013 0 -0.01323462096804945 0.015057129811254203 0 -0.013276497869917138 0.015081909742595013 0 -0.01323462096804945 0.015057129811254203 0 -0.013194532730664094 0.015046130372578329 0 -0.01323462096804945 0.015057129811254203 0 -0.012959739851690241 0.015153151006854918 0 -0.012456406205177829 0.015584303102416569 0 -0.013225869543189654 0.015117116021487227 0 -0.012640097238467421 0.015097609117222983 0 -0.012959739851690241 0.015153151006854918 0 -0.01305979990782203 0.01499922545410697 0 -0.012375991579040107 0.01500023997258087 0 -0.012826258483615949 0.015210905779236492 0 -0.012640097238467421 0.015097609117222983 0 -0.01323462096804945 0.015057129811254203 0 -0.012959739851690241 0.015153151006854918 0 -0.01305979990782203 0.01499922545410697 0 -0.012959739851690241 0.015153151006854918 0 -0.012375991579040107 0.01500023997258087 0 -0.012584570587892283 0.015375036349228915 0 -0.012376303854362036 0.014999996460506662 0 -0.012286756511414252 0.015301033342918048 0 -0.011967438976499389 0.015330897517832802 0 -0.012376455511920421 0.015000304674796431 0 -0.012640097238467421 0.015097609117222983 0 -0.012548718976554426 0.01545533785612423 0 -0.012286756511414252 0.015301033342918048 0 -0.012433163449656151 0.015514041096850778 0 -0.012286756511414252 0.015301033342918048 0 -0.012433163449656151 0.015514041096850778 0 -0.011967438976499389 0.015330897517832802 0 -0.012376303854362036 0.014999996460506662 0 -0.012548718976554426 0.01545533785612423 0 -0.012286756511414252 0.015301033342918048 0 -0.012518363536838632 0.014191861344203357 0 -0.012386904866568292 0.014487896613405417 0 -0.012157984116422155 0.014573438524447891 0 -0.013049169862002545 0.014943098325094818 0 -0.012640097238467421 0.015097609117222983 0 -0.012518363536838632 0.014191861344203357 0 -0.012569589018662232 0.014456564231824521 0 -0.012386904866568292 0.014487896613405417 0 -0.012927777143543599 0.014778492318687135 0 -0.012666295284025603 0.014117890875713968 0 -0.012569589018662232 0.014456564231824521 0 -0.012666295284025603 0.014117890875713968 0 -0.012518363536838632 0.014191861344203357 0 -0.012569589018662232 0.014456564231824521 0 -0.012640097238467421 0.015097609117222983 0 -0.012456111587173267 0.014970688153733008 0 -0.012359646308999528 0.014732153675517589 0 -0.012927777143543599 0.014778492318687135 0 -0.012569589018662232 0.014456564231824521 0 -0.012359646308999528 0.014732153675517589 0 -0.012569589018662232 0.014456564231824521 0 -0.012386904866568292 0.014487896613405417 0 -0.012359646308999528 0.014732153675517589 0 -0.012386904866568292 0.014487896613405417 0 -0.012157984116422155 0.014573438524447891 0 -0.012456111587173267 0.014970688153733008 0 -0.01160298997789868 0.015515240486589416 0 -0.012433163449656151 0.015514041096850778 0 -0.011967438976499389 0.015330897517832802 0 -0.011657092539923945 0.0157901186909012 0 -0.012518363536838632 0.014191861344203357 0 -0.012157984116422155 0.014573438524447891 0 -0.011804517533963665 0.01454915559274012 0 -0.012414865368389807 0.014887589223902072 0 -0.011813046655529702 0.015186979676049572 0 -0.011580083048675799 0.01517727120318693 0 -0.012157984116422155 0.014573438524447891 0 -0.011804517533963665 0.01454915559274012 0 -0.01199825758422173 0.014917555538949294 0 -0.012456111587173267 0.014970688153733008 0 -0.011834919718653939 0.014830237848640378 0 -0.012376303854362036 0.014999996460506662 0 -0.011967438976499389 0.015330897517832802 0 -0.011571197876468174 0.014999995783040985 0 -0.011967438976499389 0.015330897517832802 0 -0.011571197876468174 0.014999995783040985 0 -0.011525800498726814 0.015472860368472072 0 -0.011118095819384841 0.015487875367878604 0 -0.011571197876468174 0.014999995783040985 0 -0.011525800498726814 0.015472860368472072 0 -0.011118095819384841 0.015487875367878604 0 -0.011525800498726814 0.015472860368472072 0 -0.011314703027273828 0.01575575111201024 0 -0.010787494180785402 0.015746191319804134 0 -0.01160298997789868 0.015515240486589416 0 -0.011100660103674879 0.015862526953714071 0 -0.011657092539923945 0.0157901186909012 0 -0.011314703027273828 0.01575575111201024 0 -0.011813046655529702 0.015186979676049572 0 -0.011580083048675799 0.01517727120318693 0 -0.011211987073635162 0.015487267752353696 0 -0.011525800498726814 0.015472860368472072 0 -0.011657092539923945 0.0157901186909012 0 -0.011314703027273828 0.01575575111201024 0 -0.011967438976499389 0.015330897517832802 0 -0.011525800498726814 0.015472860368472072 0 -0.011657092539923945 0.0157901186909012 0 -0.011804517533963665 0.01454915559274012 0 -0.011117543499557462 0.014905403263757798 0 -0.011631219932946709 0.014884277531310251 0 -0.011834919718653939 0.014830237848640378 0 -0.011165907230340376 0.015204818976790227 0 -0.010715533230607071 0.015456723407697241 0 -0.011580083048675799 0.01517727120318693 0 -0.011211987073635162 0.015487267752353696 0 -0.010895540888072111 0.015292166487243273 0 -0.011117543499557462 0.014905403263757798 0 -0.011231636541607675 0.015345181773001985 0 -0.011117543499557462 0.014905403263757798 0 -0.011612219016725057 0.015166337852443762 0 -0.011231636541607675 0.015345181773001985 0 -0.011117543499557462 0.014905403263757798 0 -0.011631219932946709 0.014884277531310251 0 -0.011612219016725057 0.015166337852443762 0 -0.011631219932946709 0.014884277531310251 0 -0.01199825758422173 0.014917555538949294 0 -0.011612219016725057 0.015166337852443762 0 -0.011804517533963665 0.01454915559274012 0 -0.011631219932946709 0.014884277531310251 0 -0.01199825758422173 0.014917555538949294 0 -0.012359646308999528 0.014732153675517589 0 -0.012157984116422155 0.014573438524447891 0 -0.01199825758422173 0.014917555538949294 0 -0.0123749560192409 0.015106109436536492 0 -0.01199825758422173 0.014917555538949294 0 -0.012057865163460586 0.015431063178939476 0 -0.01199825758422173 0.014917555538949294 0 -0.011612219016725057 0.015166337852443762 0 -0.012057865163460586 0.015431063178939476 0 -0.011612219016725057 0.015166337852443762 0 -0.012057865163460586 0.015431063178939476 0 -0.011531241834100146 0.015630461595450552 0 -0.012331261333159598 0.015797923937845414 0 -0.012057865163460586 0.015431063178939476 0 -0.011892018660908192 0.015882541890996305 0 -0.012057865163460586 0.015431063178939476 0 -0.011531241834100146 0.015630461595450552 0 -0.011892018660908192 0.015882541890996305 0 -0.011005742914169879 0.015720060341330881 0 -0.011531241834100146 0.015630461595450552 0 -0.011231636541607675 0.015345181773001985 0 -0.011612219016725057 0.015166337852443762 0 -0.011531241834100146 0.015630461595450552 0 -0.011231636541607675 0.015345181773001985 0 -0.010903754720637218 0.015719630965245496 0 -0.010768656829082837 0.016253663814366444 0 -0.01150820899772512 0.016178108310141649 0 -0.011005742914169879 0.015720060341330881 0 -0.011531241834100146 0.015630461595450552 0 -0.01150820899772512 0.016178108310141649 0 -0.010952870439812383 0.015714488766915925 0 -0.011466037214610855 0.016147985215059439 0 -0.011531241834100146 0.015630461595450552 0 -0.01150820899772512 0.016178108310141649 0 -0.011892018660908192 0.015882541890996305 0 -0.012331261333159598 0.015797923937845414 0 -0.011892018660908192 0.015882541890996305 0 -0.012048386541722246 0.016385058318340872 0 -0.01150820899772512 0.016178108310141649 0 -0.011892018660908192 0.015882541890996305 0 -0.012048386541722246 0.016385058318340872 0 -0.01150820899772512 0.016178108310141649 0 -0.012048386541722246 0.016385058318340872 0 -0.011125346294002379 0.01681679243929661 0 -0.013871930638918372 0.014707470681014415 0 -0.013311736688115089 0.014844529013111729 0 -0.013952103111698285 0.014960073330138535 0 -0.012956008925733054 0.015548745214837493 0 -0.012216769011423347 0.015830363178664528 0 -0.010768656829082837 0.016253663814366444 0 -0.01150820899772512 0.016178108310141649 0 -0.011125346294002379 0.01681679243929661 0 -0.013082571665841885 0.015364748390116194 0 -0.013311736688115089 0.014844529013111729 0 -0.013439387076874356 0.015384748785775502 0 -0.013311736688115089 0.014844529013111729 0 -0.013439387076874356 0.015384748785775502 0 -0.013673419313371151 0.015170771105341435 0 -0.013439387076874356 0.015384748785775502 0 -0.013633120037424692 0.015655949176221855 0 -0.013215496562892165 0.015654180258664645 0 -0.013082571665841885 0.015364748390116194 0 -0.013439387076874356 0.015384748785775502 0 -0.013215496562892165 0.015654180258664645 0 -0.013439387076874356 0.015384748785775502 0 -0.013673419313371151 0.015170771105341435 0 -0.013633120037424692 0.015655949176221855 0 -0.014399487461665743 0.01500667326976836 0 -0.014337452790335622 0.015068995379710598 0 -0.013673419313371151 0.015170771105341435 0 -0.014089730694687169 0.015285085023776063 0 -0.013633120037424692 0.015655949176221855 0 -0.014716034083885794 0.01474278253735762 0 -0.014940821667660507 0.014333932515363886 0 -0.015099312238886253 0.014440936214855558 0 -0.013311736688115089 0.014844529013111729 0 -0.013673419313371151 0.015170771105341435 0 -0.013952103111698285 0.014960073330138535 0 -0.013952103111698285 0.014960073330138535 0 -0.014089730694687169 0.015285085023776063 0 -0.014201882431667335 0.014957963654622422 0 -0.013673419313371151 0.015170771105341435 0 -0.013952103111698285 0.014960073330138535 0 -0.014089730694687169 0.015285085023776063 0 -0.014716034083885794 0.01474278253735762 0 -0.014510570083003922 0.01461799971095065 0 -0.014940821667660507 0.014333932515363886 0 -0.014716034083885794 0.01474278253735762 0 -0.014510570083003922 0.01461799971095065 0 -0.014378013047777959 0.014939517048084192 0 -0.014089730694687169 0.015285085023776063 0 -0.014201882431667335 0.014957963654622422 0 -0.014378013047777959 0.014939517048084192 0 -0.014399487461665743 0.01500667326976836 0 -0.014378604105258005 0.014957452767655597 0 -0.014201882431667335 0.014957963654622422 0 -0.014317899340326509 0.01489105561149647 0 -0.014378013047777959 0.014939517048084192 0 -0.014317899340326509 0.01489105561149647 0 -0.014186376658681077 0.014838799331747273 0 -0.014336643077944409 0.01485606251476679 0 -0.014201882431667335 0.014957963654622422 0 -0.014317899340326509 0.01489105561149647 0 -0.014186376658681077 0.014838799331747273 0 -0.013871930638918372 0.014707470681014415 0 -0.013952103111698285 0.014960073330138535 0 -0.014186376658681077 0.014838799331747273 0 -0.013952103111698285 0.014960073330138535 0 -0.014201882431667335 0.014957963654622422 0 -0.014186376658681077 0.014838799331747273 0 -0.014227989401989298 0.014743426245316788 0 -0.013871930638918372 0.014707470681014415 0 -0.014186376658681077 0.014838799331747273 0 -0.013002256482801587 0.015868642911093633 0 -0.012331261333159598 0.015797923937845414 0 -0.012048386541722246 0.016385058318340872 0 -0.013601334317995747 0.01531008753857948 0 -0.012956008925733054 0.015548745214837493 0 -0.014227989401989298 0.014743426245316788 0 -0.014186376658681077 0.014838799331747273 0 -0.014336643077944409 0.01485606251476679 0 -0.014329467891340092 0.014825962786801004 0 -0.014227989401989298 0.014743426245316788 0 -0.014336643077944409 0.01485606251476679 0 -0.014329467891340092 0.014825962786801004 0 -0.014336643077944409 0.01485606251476679 0 -0.014384684357023459 0.014878946145492837 0 -0.014336643077944409 0.01485606251476679 0 -0.014384684357023459 0.014878946145492837 0 -0.014383774119960682 0.014898898173526664 0 -0.014499208338186843 0.014946755863072432 0 -0.014384684357023459 0.014878946145492837 0 -0.014383774119960682 0.014898898173526664 0 -0.014336643077944409 0.01485606251476679 0 -0.014383774119960682 0.014898898173526664 0 -0.014348189528722131 0.014900822609166023 0 -0.014317899340326509 0.01489105561149647 0 -0.014336643077944409 0.01485606251476679 0 -0.014348189528722131 0.014900822609166023 0 -0.014317899340326509 0.01489105561149647 0 -0.014348189528722131 0.014900822609166023 0 -0.014378013047777959 0.014939517048084192 0 -0.014348189528722131 0.014900822609166023 0 -0.014331587654322986 0.014899103137431662 0 -0.014295479095958625 0.014843795216326268 0 -0.014510570083003922 0.01461799971095065 0 -0.014378013047777959 0.014939517048084192 0 -0.014331587654322986 0.014899103137431662 0 -0.014348189528722131 0.014900822609166023 0 -0.014378013047777959 0.014939517048084192 0 -0.014331587654322986 0.014899103137431662 0 -0.014510570083003922 0.01461799971095065 0 -0.014331587654322986 0.014899103137431662 0 -0.014295479095958625 0.014843795216326268 0 -0.015588517606297344 0.012686255518092987 0 -0.015043706548697673 0.013201704455414603 0 -0.016598270184806724 0.010762863553339894 0 -0.016350036099388073 0.010854790870012608 0 -0.016149877746366764 0.011395718941467197 0 -0.016350036099388073 0.010854790870012608 0 -0.016151174632007107 0.011225856717461215 0 -0.016149877746366764 0.011395718941467197 0 -0.016350036099388073 0.010854790870012608 0 -0.016120871051330442 0.011045288913501202 0 -0.016151174632007107 0.011225856717461215 0 -0.016350036099388073 0.010854790870012608 0 -0.016120871051330442 0.011045288913501202 0 -0.016072783733873358 0.010799423712738824 0 -0.015771418606876454 0.010982877130130077 0 -0.015972948890283313 0.011037391445619677 0 -0.015899805281811109 0.011258763536990343 0 -0.015771418606876454 0.010982877130130077 0 -0.015972948890283313 0.011037391445619677 0 -0.015915751962884365 0.010855828717402141 0 -0.015972948890283313 0.011037391445619677 0 -0.016072783733873358 0.010799423712738824 0 -0.015915751962884365 0.010855828717402141 0 -0.016120871051330442 0.011045288913501202 0 -0.015972948890283313 0.011037391445619677 0 -0.016072783733873358 0.010799423712738824 0 -0.016120871051330442 0.011045288913501202 0 -0.015972948890283313 0.011037391445619677 0 -0.016037823531123367 0.01123260732849727 0 -0.016037823531123367 0.01123260732849727 0 -0.016079883684751189 0.011348297713830627 0 -0.015965766499982326 0.011546476314186383 0 -0.015972948890283313 0.011037391445619677 0 -0.016037823531123367 0.01123260732849727 0 -0.015899805281811109 0.011258763536990343 0 -0.016120871051330442 0.011045288913501202 0 -0.016037823531123367 0.01123260732849727 0 -0.016151174632007107 0.011225856717461215 0 -0.016151174632007107 0.011225856717461215 0 -0.016079883684751189 0.011348297713830627 0 -0.016149877746366764 0.011395718941467197 0 -0.016037823531123367 0.01123260732849727 0 -0.016151174632007107 0.011225856717461215 0 -0.016079883684751189 0.011348297713830627 0 -0.016037823531123367 0.01123260732849727 0 -0.015899805281811109 0.011258763536990343 0 -0.015965766499982326 0.011546476314186383 0 -0.015771418606876454 0.010982877130130077 0 -0.015899805281811109 0.011258763536990343 0 -0.015698085696174782 0.011566436861455349 0 -0.01591405803141302 0.012498863421672618 0 -0.015965766499982326 0.011546476314186383 0 -0.015698085696174782 0.011566436861455349 0 -0.015173484071406991 0.013676005765094274 0 -0.015043706548697673 0.013201704455414603 0 -0.015899805281811109 0.011258763536990343 0 -0.015965766499982326 0.011546476314186383 0 -0.015698085696174782 0.011566436861455349 0 -0.01591405803141302 0.012498863421672618 0 -0.015965766499982326 0.011546476314186383 0 -0.016149877746366764 0.011395718941467197 0 -0.014383774119960682 0.014898898173526664 0 -0.014348189528722131 0.014900822609166023 0 -0.014295479095958625 0.014843795216326268 0 -0.016079883684751189 0.011348297713830627 0 -0.015965766499982326 0.011546476314186383 0 -0.016149877746366764 0.011395718941467197 0 -0.015771418606876454 0.010982877130130077 0 -0.015698085696174782 0.011566436861455349 0 -0.015384979508463202 0.01087012891132411 0 -0.015677192656826617 0.011518303006800758 0 -0.015445584348817633 0.011041323843894226 0 -0.015698085696174782 0.011566436861455349 0 -0.015123376390458932 0.011590892444636328 0 -0.015478401385820607 0.01118081325898033 0 -0.015163334180485773 0.011655806646458995 0 -0.015327090020318603 0.011010667690899912 0 -0.015123376390458932 0.011590892444636328 0 -0.015341582049086849 0.010964093751315579 0 -0.015478401385820607 0.01118081325898033 0 -0.014999997094733207 0.011706295920355681 0 -0.015188932131342798 0.011731698314320818 0 -0.015341582049086849 0.010964093751315579 0 -0.015698085696174782 0.011566436861455349 0 -0.015123376390458932 0.011590892444636328 0 -0.014999109495007939 0.012478652389213186 0 -0.014999997094733207 0.011706295920355681 0 -0.015188932131342798 0.011731698314320818 0 -0.01500000002430011 0.01247777128310874 0 -0.015163334180485773 0.011655806646458995 0 -0.01500002063642787 0.012477590623061245 0 -0.015536104712393662 0.013467759042900084 0 -0.01591405803141302 0.012498863421672618 0 -0.014999109495007939 0.012478652389213186 0 -0.01591405803141302 0.012498863421672618 0 -0.015698085696174782 0.011566436861455349 0 -0.014999109495007939 0.012478652389213186 0 -0.015017449573505997 0.014199598834673711 0 -0.015173484071406991 0.013676005765094274 0 -0.015312814958736919 0.0097532777560447818 0 -0.015488486782054918 0.0094792572869342936 0 -0.014999932150719522 0.0092855040338120209 0 -0.015312814958736919 0.0097532777560447818 0 -0.015000077567081337 0.010163050251984678 0 -0.014999932150719522 0.0092855040338120209 0 -0.015488486782054918 0.0094792572869342936 0 -0.015746630648361553 0.0096113558166172827 0 -0.0155486691997036 0.0097628317099747123 0 -0.015582359960929514 0.0094837860931035311 0 -0.015704082360672056 0.009390600996903687 0 -0.015746630648361553 0.0096113558166172827 0 -0.0155486691997036 0.0097628317099747123 0 -0.01569558187709855 0.0099262588190667956 0 -0.015312814958736919 0.0097532777560447818 0 -0.015488486782054918 0.0094792572869342936 0 -0.0155486691997036 0.0097628317099747123 0 -0.0155486691997036 0.0097628317099747123 0 -0.01569558187709855 0.0099262588190667956 0 -0.015471142275990326 0.010030533472953171 0 -0.015312814958736919 0.0097532777560447818 0 -0.0155486691997036 0.0097628317099747123 0 -0.015471142275990326 0.010030533472953171 0 -0.01569558187709855 0.0099262588190667956 0 -0.015692343378184207 0.010149079112824951 0 -0.015471142275990326 0.010030533472953171 0 -0.015692343378184207 0.010149079112824951 0 -0.015471142275990326 0.010030533472953171 0 -0.015452600587323366 0.010292071121178241 0 -0.015471142275990326 0.010030533472953171 0 -0.015000077567081337 0.010163050251984678 0 -0.015452600587323366 0.010292071121178241 0 -0.015312814958736919 0.0097532777560447818 0 -0.015471142275990326 0.010030533472953171 0 -0.015000077567081337 0.010163050251984678 0 -0.015000007791820322 0.010163445495338827 0 -0.015275291747588408 0.010716855054685876 0 -0.014999970358298918 0.010934848430451725 0 -0.015000077567081337 0.010163050251984678 0 -0.015238710636128541 0.010453342908688049 0 -0.015452600587323366 0.010292071121178241 0 -0.015000064531195539 0.010163500296594965 0 -0.015243771426457477 0.010583679744550463 0 -0.015275291747588408 0.010716855054685876 0 -0.015341582049086849 0.010964093751315579 0 -0.015478401385820607 0.01118081325898033 0 -0.014999997094733207 0.011706295920355681 0 -0.014999970358298918 0.010934848430451725 0 -0.015341582049086849 0.010964093751315579 0 -0.015275291747588408 0.010716855054685876 0 -0.014999970358298918 0.010934848430451725 0 -0.015341582049086849 0.010964093751315579 0 -0.015243771426457477 0.010583679744550463 0 -0.015445584348817633 0.011041323843894226 0 -0.015238710636128541 0.010453342908688049 0 -0.015384979508463202 0.01087012891132411 0 -0.015491466264988365 0.010551241166821521 0 -0.015771418606876454 0.010982877130130077 0 -0.015616445474193929 0.010742068043412814 0 -0.015384979508463202 0.01087012891132411 0 -0.015616445474193929 0.010742068043412814 0 -0.015384979508463202 0.01087012891132411 0 -0.015491466264988365 0.010551241166821521 0 -0.015616445474193929 0.010742068043412814 0 -0.015491466264988365 0.010551241166821521 0 -0.015766249752104205 0.01039491201382583 0 -0.015491466264988365 0.010551241166821521 0 -0.015452600587323366 0.010292071121178241 0 -0.015766249752104205 0.01039491201382583 0 -0.015238710636128541 0.010453342908688049 0 -0.015491466264988365 0.010551241166821521 0 -0.015452600587323366 0.010292071121178241 0 -0.015692343378184207 0.010149079112824951 0 -0.015452600587323366 0.010292071121178241 0 -0.015766249752104205 0.01039491201382583 0 -0.015766249752104205 0.01039491201382583 0 -0.016190033727796638 0.010338256452969987 0 -0.015959404253031936 0.010044026740128265 0 -0.015692343378184207 0.010149079112824951 0 -0.015766249752104205 0.01039491201382583 0 -0.015959404253031936 0.010044026740128265 0 -0.015616445474193929 0.010742068043412814 0 -0.015766249752104205 0.01039491201382583 0 -0.015856000859626514 0.01065627207735024 0 -0.016072783733873358 0.010799423712738824 0 -0.015856000859626514 0.01065627207735024 0 -0.016190033727796638 0.010338256452969987 0 -0.015766249752104205 0.01039491201382583 0 -0.015856000859626514 0.01065627207735024 0 -0.016190033727796638 0.010338256452969987 0 -0.016072783733873358 0.010799423712738824 0 -0.015915751962884365 0.010855828717402141 0 -0.015856000859626514 0.01065627207735024 0 -0.015771418606876454 0.010982877130130077 0 -0.015616445474193929 0.010742068043412814 0 -0.015856000859626514 0.01065627207735024 0 -0.015771418606876454 0.010982877130130077 0 -0.015915751962884365 0.010855828717402141 0 -0.015856000859626514 0.01065627207735024 0 -0.016350036099388073 0.010854790870012608 0 -0.016190033727796638 0.010338256452969987 0 -0.016462877734071908 0.010471021059722302 0 -0.016350036099388073 0.010854790870012608 0 -0.016072783733873358 0.010799423712738824 0 -0.016190033727796638 0.010338256452969987 0 -0.016190033727796638 0.010338256452969987 0 -0.016291450714320099 0.0098563187116508261 0 -0.015857148350829246 0.0097826303548053245 0 -0.016190033727796638 0.010338256452969987 0 -0.016291450714320099 0.0098563187116508261 0 -0.016613881609993941 0.010107364592940987 0 -0.016166213417216822 0.01030939759051956 0 -0.01591554058851926 0.0099253676182535014 0 -0.016109445409329726 0.0093250791177058468 0 -0.016585861645261324 0.0094911339896949533 0 -0.016291450714320099 0.0098563187116508261 0 -0.016112422842236674 0.0094672905270963142 0 -0.016600960723992534 0.0096143923265789282 0 -0.016291450714320099 0.0098563187116508261 0 -0.015857148350829246 0.0097826303548053245 0 -0.016112422842236674 0.0094672905270963142 0 -0.015746630648361553 0.0096113558166172827 0 -0.01569558187709855 0.0099262588190667956 0 -0.015959404253031936 0.010044026740128265 0 -0.015704082360672056 0.009390600996903687 0 -0.01591554058851926 0.0099253676182535014 0 -0.01569558187709855 0.0099262588190667956 0 -0.015692343378184207 0.010149079112824951 0 -0.015959404253031936 0.010044026740128265 0 -0.015704082360672056 0.009390600996903687 0 -0.016109445409329726 0.0093250791177058468 0 -0.015574448139103244 0.0092996036512474987 0 -0.015857148350829246 0.0097826303548053245 0 -0.016112422842236674 0.0094672905270963142 0 -0.01572508834370567 0.0090950690007266417 0 -0.016148166151461803 0.0092196498386032093 0 -0.016003342883868253 0.0089323785217639978 0 -0.016282169807549818 0.0089591064783283766 0 -0.016148166151461803 0.0092196498386032093 0 -0.016537588364870945 0.0093662395637864396 0 -0.016282169807549818 0.0089591064783283766 0 -0.016148166151461803 0.0092196498386032093 0 -0.016003342883868253 0.0089323785217639978 0 -0.016282169807549818 0.0089591064783283766 0 -0.016537588364870945 0.0093662395637864396 0 -0.01655966197861267 0.0089088700835998017 0 -0.016860603834039378 0.0090043850023799714 0 -0.016537588364870945 0.0093662395637864396 0 -0.01655966197861267 0.0089088700835998017 0 -0.016600960723992534 0.0096143923265789282 0 -0.016863315181803139 0.0099345101373582989 0 -0.016964537944514094 0.009582578833755493 0 -0.016860603834039378 0.0090043850023799714 0 -0.016537588364870945 0.0093662395637864396 0 -0.016964537944514094 0.009582578833755493 0 -0.016585861645261324 0.0094911339896949533 0 -0.01694564512431548 0.0095845611154275704 0 -0.016291450714320099 0.0098563187116508261 0 -0.016600960723992534 0.0096143923265789282 0 -0.016613881609993941 0.010107364592940987 0 -0.016190033727796638 0.010338256452969987 0 -0.016613881609993941 0.010107364592940987 0 -0.016462877734071908 0.010471021059722302 0 -0.016613881609993941 0.010107364592940987 0 -0.016462877734071908 0.010471021059722302 0 -0.016717657695481385 0.010304908195188518 0 -0.016598270184806724 0.010762863553339894 0 -0.016462877734071908 0.010471021059722302 0 -0.016717657695481385 0.010304908195188518 0 -0.016598270184806724 0.010762863553339894 0 -0.016350036099388073 0.010854790870012608 0 -0.016462877734071908 0.010471021059722302 0 -0.016717657695481385 0.010304908195188518 0 -0.016863315181803139 0.0099345101373582989 0 -0.017031626566255998 0.010255220986321076 0 -0.016598270184806724 0.010762863553339894 0 -0.016717657695481385 0.010304908195188518 0 -0.017031626566255998 0.010255220986321076 0 -0.015588517606297344 0.012686255518092987 0 -0.015990404143731481 0.012289346497176321 0 -0.016600960723992534 0.0096143923265789282 0 -0.016613881609993941 0.010107364592940987 0 -0.016863315181803139 0.0099345101373582989 0 -0.016613881609993941 0.010107364592940987 0 -0.016717657695481385 0.010304908195188518 0 -0.016863315181803139 0.0099345101373582989 0 -0.016863315181803139 0.0099345101373582989 0 -0.017162238199926325 0.0098511295154162862 0 -0.016964537944514094 0.009582578833755493 0 -0.016863315181803139 0.0099345101373582989 0 -0.017162238199926325 0.0098511295154162862 0 -0.017031626566255998 0.010255220986321076 0 -0.017162238199926325 0.0098511295154162862 0 -0.017031626566255998 0.010255220986321076 0 -0.017417955769048046 0.0097585327819335252 0 -0.015990404143731481 0.012289346497176321 0 -0.016263525908252301 0.012007179495331756 0 -0.014940821667660507 0.014333932515363886 0 -0.015099312238886253 0.014440936214855558 0 -0.015330880296476569 0.014107607023735638 0 -0.014337452790335622 0.015068995379710598 0 -0.014309451118012618 0.015068291555882327 0 -0.013633120037424692 0.015655949176221855 0 -0.013215496562892165 0.015654180258664645 0 -0.013040075223328449 0.01611963014648542 0 -0.015099312238886253 0.014440936214855558 0 -0.015330880296476569 0.014107607023735638 0 -0.015405153115231426 0.014161482069490519 0 -0.017162238199926325 0.0098511295154162862 0 -0.017417955769048046 0.0097585327819335252 0 -0.017313158489256911 0.0096604025118479132 0 -0.017162238199926325 0.0098511295154162862 0 -0.017313158489256911 0.0096604025118479132 0 -0.017279301735389031 0.0094698914833254051 0 -0.017417955769048046 0.0097585327819335252 0 -0.017313158489256911 0.0096604025118479132 0 -0.017383656272643298 0.0095416764911190506 0 -0.017417955769048046 0.0097585327819335252 0 -0.017383656272643298 0.0095416764911190506 0 -0.017478251159971689 0.0094422589242006815 0 -0.017383656272643298 0.0095416764911190506 0 -0.01741875285939053 0.0093654162354645677 0 -0.017279301735389031 0.0094698914833254051 0 -0.017383656272643298 0.0095416764911190506 0 -0.01741875285939053 0.0093654162354645677 0 -0.017478251159971689 0.0094422589242006815 0 -0.01741875285939053 0.0093654162354645677 0 -0.017279301735389031 0.0094698914833254051 0 -0.017403635306722468 0.0091599410786563883 0 -0.017279301735389031 0.0094698914833254051 0 -0.017196813534357182 0.0092001068428834744 0 -0.017403635306722468 0.0091599410786563883 0 -0.017313158489256911 0.0096604025118479132 0 -0.017383656272643298 0.0095416764911190506 0 -0.017279301735389031 0.0094698914833254051 0 -0.017279301735389031 0.0094698914833254051 0 -0.016964537944514094 0.009582578833755493 0 -0.017196813534357182 0.0092001068428834744 0 -0.017162238199926325 0.0098511295154162862 0 -0.017279301735389031 0.0094698914833254051 0 -0.016964537944514094 0.009582578833755493 0 -0.016860603834039378 0.0090043850023799714 0 -0.017196813534357182 0.0092001068428834744 0 -0.017156700144776542 0.008897015511594485 0 -0.016860603834039378 0.0090043850023799714 0 -0.016964537944514094 0.009582578833755493 0 -0.017196813534357182 0.0092001068428834744 0 -0.017196813534357182 0.0092001068428834744 0 -0.017346348825871091 0.0089406927009159937 0 -0.017156700144776542 0.008897015511594485 0 -0.017196813534357182 0.0092001068428834744 0 -0.017346348825871091 0.0089406927009159937 0 -0.017403635306722468 0.0091599410786563883 0 -0.017264109230993266 0.008742982142542384 0 -0.017056798521929959 0.0086544696849751631 0 -0.017278855059141326 0.0084885322877897747 0 -0.017264109230993266 0.008742982142542384 0 -0.017278855059141326 0.0084885322877897747 0 -0.017449233867264349 0.0087376893665809321 0 -0.017346348825871091 0.0089406927009159937 0 -0.017264109230993266 0.008742982142542384 0 -0.017449233867264349 0.0087376893665809321 0 -0.017346348825871091 0.0089406927009159937 0 -0.017264109230993266 0.008742982142542384 0 -0.017156700144776542 0.008897015511594485 0 -0.017264109230993266 0.008742982142542384 0 -0.017156700144776542 0.008897015511594485 0 -0.017056798521929959 0.0086544696849751631 0 -0.016860603834039378 0.0090043850023799714 0 -0.017156700144776542 0.008897015511594485 0 -0.017056798521929959 0.0086544696849751631 0 -0.017056798521929959 0.0086544696849751631 0 -0.017278855059141326 0.0084885322877897747 0 -0.016951813035640324 0.0082641521385781892 0 -0.017278855059141326 0.0084885322877897747 0 -0.017396596293143832 0.0082230234470975789 0 -0.017482870769600135 0.0084418252617356904 0 -0.017278855059141326 0.0084885322877897747 0 -0.017259222533192505 0.0080404542594732058 0 -0.017396596293143832 0.0082230234470975789 0 -0.017259222533192505 0.0080404542594732058 0 -0.017396596293143832 0.0082230234470975789 0 -0.017476182415686079 0.0079458299500468361 0 -0.017259222533192505 0.0080404542594732058 0 -0.017476182415686079 0.0079458299500468361 0 -0.017376161244272464 0.0077301103589337101 0 -0.017259222533192505 0.0080404542594732058 0 -0.016995514444507399 0.007760643487304447 0 -0.017376161244272464 0.0077301103589337101 0 -0.017278855059141326 0.0084885322877897747 0 -0.017259222533192505 0.0080404542594732058 0 -0.016951813035640324 0.0082641521385781892 0 -0.017259222533192505 0.0080404542594732058 0 -0.016951813035640324 0.0082641521385781892 0 -0.016995514444507399 0.007760643487304447 0 -0.016951813035640324 0.0082641521385781892 0 -0.016619567443058855 0.0079365747855774087 0 -0.016623792578403004 0.0082854281842927174 0 -0.016951813035640324 0.0082641521385781892 0 -0.016995514444507399 0.007760643487304447 0 -0.016619567443058855 0.0079365747855774087 0 -0.016995514444507399 0.007760643487304447 0 -0.016619567443058855 0.0079365747855774087 0 -0.016559052650178409 0.0075767023801571248 0 -0.016619567443058855 0.0079365747855774087 0 -0.016282893070670004 0.0078960672577142611 0 -0.016559052650178409 0.0075767023801571248 0 -0.016619567443058855 0.0079365747855774087 0 -0.016623792578403004 0.0082854281842927174 0 -0.016360414274127041 0.0082727276109039651 0 -0.016623792578403004 0.0082854281842927174 0 -0.016438208642980151 0.0086222703654200428 0 -0.016752833011043609 0.0086223990705386767 0 -0.016623792578403004 0.0082854281842927174 0 -0.016438208642980151 0.0086222703654200428 0 -0.016360414274127041 0.0082727276109039651 0 -0.016951813035640324 0.0082641521385781892 0 -0.016623792578403004 0.0082854281842927174 0 -0.016752833011043609 0.0086223990705386767 0 -0.017056798521929959 0.0086544696849751631 0 -0.016951813035640324 0.0082641521385781892 0 -0.016752833011043609 0.0086223990705386767 0 -0.016860603834039378 0.0090043850023799714 0 -0.016752833011043609 0.0086223990705386767 0 -0.01655966197861267 0.0089088700835998017 0 -0.016860603834039378 0.0090043850023799714 0 -0.017056798521929959 0.0086544696849751631 0 -0.016752833011043609 0.0086223990705386767 0 -0.016282169807549818 0.0089591064783283766 0 -0.016438208642980151 0.0086222703654200428 0 -0.01655966197861267 0.0089088700835998017 0 -0.016438208642980151 0.0086222703654200428 0 -0.016752833011043609 0.0086223990705386767 0 -0.01655966197861267 0.0089088700835998017 0 -0.016282169807549818 0.0089591064783283766 0 -0.016438208642980151 0.0086222703654200428 0 -0.016144399867898691 0.0085454448488415553 0 -0.016282169807549818 0.0089591064783283766 0 -0.016003342883868253 0.0089323785217639978 0 -0.016144399867898691 0.0085454448488415553 0 -0.015792321686860393 0.0087640548725834901 0 -0.016003342883868253 0.0089323785217639978 0 -0.016144399867898691 0.0085454448488415553 0 -0.01572508834370567 0.0090950690007266417 0 -0.015792321686860393 0.0087640548725834901 0 -0.016003342883868253 0.0089323785217639978 0 -0.015920505359917698 0.0083277173256578567 0 -0.016144399867898691 0.0085454448488415553 0 -0.01611957769957709 0.0081707412270266046 0 -0.015746022277803536 0.0085038137949935907 0 -0.015920505359917698 0.0083277173256578567 0 -0.016144399867898691 0.0085454448488415553 0 -0.015792321686860393 0.0087640548725834901 0 -0.015746022277803536 0.0085038137949935907 0 -0.016144399867898691 0.0085454448488415553 0 -0.015746022277803536 0.0085038137949935907 0 -0.015920505359917698 0.0083277173256578567 0 -0.015716040373803274 0.0081649798941821096 0 -0.016144399867898691 0.0085454448488415553 0 -0.016360414274127041 0.0082727276109039651 0 -0.01611957769957709 0.0081707412270266046 0 -0.016438208642980151 0.0086222703654200428 0 -0.016144399867898691 0.0085454448488415553 0 -0.016360414274127041 0.0082727276109039651 0 -0.016360414274127041 0.0082727276109039651 0 -0.01611957769957709 0.0081707412270266046 0 -0.016282893070670004 0.0078960672577142611 0 -0.016619567443058855 0.0079365747855774087 0 -0.016360414274127041 0.0082727276109039651 0 -0.016282893070670004 0.0078960672577142611 0 -0.01611957769957709 0.0081707412270266046 0 -0.016282893070670004 0.0078960672577142611 0 -0.015919701920194537 0.0078212535622692002 0 -0.016282893070670004 0.0078960672577142611 0 -0.015919701920194537 0.0078212535622692002 0 -0.016139453350007871 0.0075319716744523275 0 -0.016282893070670004 0.0078960672577142611 0 -0.016139453350007871 0.0075319716744523275 0 -0.016559052650178409 0.0075767023801571248 0 -0.015919701920194537 0.0078212535622692002 0 -0.015758920120957969 0.0073177103829022167 0 -0.016139453350007871 0.0075319716744523275 0 -0.01611957769957709 0.0081707412270266046 0 -0.015919701920194537 0.0078212535622692002 0 -0.015716040373803274 0.0081649798941821096 0 -0.015920505359917698 0.0083277173256578567 0 -0.01611957769957709 0.0081707412270266046 0 -0.015716040373803274 0.0081649798941821096 0 -0.015716040373803274 0.0081649798941821096 0 -0.015417754727510374 0.0081295592776356659 0 -0.015480687930884827 0.0083375409240899513 0 -0.015716040373803274 0.0081649798941821096 0 -0.015417754727510374 0.0081295592776356659 0 -0.015426876127480163 0.0078086848950380226 0 -0.015919701920194537 0.0078212535622692002 0 -0.015716040373803274 0.0081649798941821096 0 -0.015426876127480163 0.0078086848950380226 0 -0.015919701920194537 0.0078212535622692002 0 -0.015426876127480163 0.0078086848950380226 0 -0.015758920120957969 0.0073177103829022167 0 -0.015426876127480163 0.0078086848950380226 0 -0.014999937597756337 0.0075292375277308671 0 -0.015119998010541841 0.0082395912789094521 0 -0.014999937597756337 0.0075292375277308671 0 -0.014999997487282202 0.0084071552647639811 0 -0.015119998010541841 0.0082395912789094521 0 -0.015417754727510374 0.0081295592776356659 0 -0.015426876127480163 0.0078086848950380226 0 -0.015119998010541841 0.0082395912789094521 0 -0.015417754727510374 0.0081295592776356659 0 -0.015119998010541841 0.0082395912789094521 0 -0.015480687930884827 0.0083375409240899513 0 -0.015119998010541841 0.0082395912789094521 0 -0.015480687930884827 0.0083375409240899513 0 -0.015445889265484194 0.0086562806814457008 0 -0.014999997487282202 0.0084071552647639811 0 -0.015119998010541841 0.0082395912789094521 0 -0.015490967578854705 0.0089279465300343055 0 -0.014999997487282202 0.0084071552647639811 0 -0.015490967578854705 0.0089279465300343055 0 -0.014999932150719522 0.0092855040338120209 0 -0.015137892656391219 0.008267158757863503 0 -0.015470140544963946 0.008778255368105092 0 -0.015792321686860393 0.0087640548725834901 0 -0.015746022277803536 0.0085038137949935907 0 -0.015445889265484194 0.0086562806814457008 0 -0.015746022277803536 0.0085038137949935907 0 -0.015716040373803274 0.0081649798941821096 0 -0.015480687930884827 0.0083375409240899513 0 -0.015746022277803536 0.0085038137949935907 0 -0.015480687930884827 0.0083375409240899513 0 -0.015445889265484194 0.0086562806814457008 0 -0.015704082360672056 0.009390600996903687 0 -0.015470140544963946 0.008778255368105092 0 -0.015488486782054918 0.0094792572869342936 0 -0.015856155193380749 0.0095958421019922985 0 -0.015490967578854705 0.0089279465300343055 0 -0.01572508834370567 0.0090950690007266417 0 -0.015792321686860393 0.0087640548725834901 0 -0.015445889265484194 0.0086562806814457008 0 -0.015488486782054918 0.0094792572869342936 0 -0.015490967578854705 0.0089279465300343055 0 -0.014999932150719522 0.0092855040338120209 0 -0.010133684689282958 0.017213981317022453 0 -0.0094876024637542238 0.017525962077265259 0 -0.0096358310911148371 0.016562747765227131 0 -0.010463319500488889 0.016735351100780334 0 -0.010133684689282958 0.017213981317022453 0 -0.0096358310911148371 0.016562747765227131 0 -0.010463319500488889 0.016735351100780334 0 -0.010133684689282958 0.017213981317022453 0 -0.010747510002407295 0.017227822929619996 0 -0.010133684689282958 0.017213981317022453 0 -0.01048026682456624 0.017812969691526129 0 -0.0094876024637542238 0.017525962077265259 0 -0.010133684689282958 0.017213981317022453 0 -0.01048026682456624 0.017812969691526129 0 -0.010747510002407295 0.017227822929619996 0 -0.01048026682456624 0.017812969691526129 0 -0.0094876024637542238 0.017525962077265259 0 -0.009540481560786988 0.018237690073665852 0 -0.0094876024637542238 0.017525962077265259 0 -0.0088687600141854409 0.017717635463279147 0 -0.0085796455674759069 0.017391919761185402 0 -0.0094876024637542238 0.017525962077265259 0 -0.0088687600141854409 0.017717635463279147 0 -0.0090209918821390674 0.018072609668776177 0 -0.0088687600141854409 0.017717635463279147 0 -0.0085754319449996789 0.017947986230827585 0 -0.0090209918821390674 0.018072609668776177 0 -0.0088687600141854409 0.017717635463279147 0 -0.0085466303908882674 0.017646231551791201 0 -0.0085796455674759069 0.017391919761185402 0 -0.0088687600141854409 0.017717635463279147 0 -0.0085466303908882674 0.017646231551791201 0 -0.0085754319449996789 0.017947986230827585 0 -0.0083347623436401015 0.017718757351374827 0 -0.0085466303908882674 0.017646231551791201 0 -0.0085754319449996789 0.017947986230827585 0 -0.008230516126521108 0.017522908974262539 0 -0.0083347623436401015 0.017718757351374827 0 -0.008365280613895236 0.017472308464232495 0 -0.0083347623436401015 0.017718757351374827 0 -0.0085466303908882674 0.017646231551791201 0 -0.008365280613895236 0.017472308464232495 0 -0.008230516126521108 0.017522908974262539 0 -0.008365280613895236 0.017472308464232495 0 -0.0082506649289861948 0.017338041406191475 0 -0.008365280613895236 0.017472308464232495 0 -0.0085796455674759069 0.017391919761185402 0 -0.0082506649289861948 0.017338041406191475 0 -0.0085466303908882674 0.017646231551791201 0 -0.008365280613895236 0.017472308464232495 0 -0.0085796455674759069 0.017391919761185402 0 -0.0086216472496174201 0.017361210346421563 0 -0.0092209378732873402 0.016981742720551841 0 -0.0094876024637542238 0.017525962077265259 0 -0.0085796455674759069 0.017391919761185402 0 -0.0096358310911148371 0.016562747765227131 0 -0.0085796455674759069 0.017391919761185402 0 -0.0086718576697502048 0.017251590852750413 0 -0.0088002970556909487 0.017379853379387952 0 -0.0082506649289861948 0.017338041406191475 0 -0.0080912622842411117 0.017330046456580425 0 -0.0081460962271268401 0.017365011324056222 0 -0.0085796455674759069 0.017391919761185402 0 -0.0082506649289861948 0.017338041406191475 0 -0.0086718576697502048 0.017251590852750413 0 -0.0082533180733401108 0.017354944533614233 0 -0.0084061342160062277 0.017313265498831647 0 -0.0080332239910775576 0.017197370568911931 0 -0.0080912622842411117 0.017330046456580425 0 -0.0081460962271268401 0.017365011324056222 0 -0.0078967343208841533 0.017288067223702134 0 -0.0080332239910775576 0.017197370568911931 0 -0.0080912622842411117 0.017330046456580425 0 -0.0085142233895975552 0.017236064287044228 0 -0.0080332239910775576 0.017197370568911931 0 -0.0081460962271268401 0.017365011324056222 0 -0.0086961508816104996 0.017189017225785586 0 -0.0084061342160062277 0.017313265498831647 0 -0.0088576305617819144 0.017178060625490155 0 -0.0086718576697502048 0.017251590852750413 0 -0.0088353918734713072 0.017296422918904677 0 -0.0088353918734713072 0.017296422918904677 0 -0.0088002970556909487 0.017379853379387952 0 -0.0090792154520339171 0.017402255139819706 0 -0.0086718576697502048 0.017251590852750413 0 -0.0088353918734713072 0.017296422918904677 0 -0.0088002970556909487 0.017379853379387952 0 -0.010463319500488889 0.016735351100780334 0 -0.0096358310911148371 0.016562747765227131 0 -0.010719579445570109 0.015949038589215876 0 -0.0092209378732873402 0.016981742720551841 0 -0.0099077727507708626 0.016675881849307812 0 -0.0091281648442994544 0.017213308232929183 0 -0.0088576305617819144 0.017178060625490155 0 -0.0090792154520339171 0.017402255139819706 0 -0.0088576305617819144 0.017178060625490155 0 -0.0088353918734713072 0.017296422918904677 0 -0.0090792154520339171 0.017402255139819706 0 -0.011719033587057859 0.015472282140409801 0 -0.010719579445570109 0.015949038589215876 0 -0.011510278658217812 0.016216178763131785 0 -0.0095931447584924178 0.017358737235431979 0 -0.0091281648442994544 0.017213308232929183 0 -0.0090792154520339171 0.017402255139819706 0 -0.010658206025581188 0.016412054623955098 0 -0.0099077727507708626 0.016675881849307812 0 -0.011719033587057859 0.015472282140409801 0 -0.011950008358115041 0.016017132909594129 0 -0.011510278658217812 0.016216178763131785 0 -0.011719033587057859 0.015472282140409801 0 -0.011950008358115041 0.016017132909594129 0 -0.012351763531118042 0.015787308513749789 0 -0.011950008358115041 0.016017132909594129 0 -0.011913722185283571 0.016426165013743239 0 -0.012238514780587706 0.01620321231499073 0 -0.011950008358115041 0.016017132909594129 0 -0.011510278658217812 0.016216178763131785 0 -0.011913722185283571 0.016426165013743239 0 -0.011913722185283571 0.016426165013743239 0 -0.011574798676333263 0.016644640174904649 0 -0.011819461170667281 0.016730822601261998 0 -0.011913722185283571 0.016426165013743239 0 -0.012299400774841675 0.016658973177117099 0 -0.011819461170667281 0.016730822601261998 0 -0.011510278658217812 0.016216178763131785 0 -0.011913722185283571 0.016426165013743239 0 -0.011574798676333263 0.016644640174904649 0 -0.011510278658217812 0.016216178763131785 0 -0.011574798676333263 0.016644640174904649 0 -0.011096321292725083 0.016689796378765526 0 -0.010463319500488889 0.016735351100780334 0 -0.010719579445570109 0.015949038589215876 0 -0.011096321292725083 0.016689796378765526 0 -0.010719579445570109 0.015949038589215876 0 -0.011510278658217812 0.016216178763131785 0 -0.011096321292725083 0.016689796378765526 0 -0.013215496562892165 0.015654180258664645 0 -0.012846748765725245 0.015778659178056025 0 -0.013040075223328449 0.01611963014648542 0 -0.012846748765725245 0.015778659178056025 0 -0.012558760578275287 0.016102350136237883 0 -0.013040075223328449 0.01611963014648542 0 -0.012846748765725245 0.015778659178056025 0 -0.012558760578275287 0.016102350136237883 0 -0.012351763531118042 0.015787308513749789 0 -0.012558760578275287 0.016102350136237883 0 -0.012351763531118042 0.015787308513749789 0 -0.012238514780587706 0.01620321231499073 0 -0.011950008358115041 0.016017132909594129 0 -0.012351763531118042 0.015787308513749789 0 -0.012238514780587706 0.01620321231499073 0 -0.015589109595069017 0.013960306464109772 0 -0.015405153115231426 0.014161482069490519 0 -0.015569526065738448 0.013945219199084261 0 -0.011913722185283571 0.016426165013743239 0 -0.012238514780587706 0.01620321231499073 0 -0.012299400774841675 0.016658973177117099 0 -0.012558760578275287 0.016102350136237883 0 -0.012238514780587706 0.01620321231499073 0 -0.012299400774841675 0.016658973177117099 0 -0.017417955769048046 0.0097585327819335252 0 -0.017554419169431894 0.0093886174963031394 0 -0.017675977157034495 0.0093236844907384417 0 -0.013537080117820574 0.015701417261884256 0 -0.014309451118012618 0.015068291555882327 0 -0.016263525908252301 0.012007179495331756 0 -0.017027367087437021 0.011280027962742118 0 -0.012558760578275287 0.016102350136237883 0 -0.012299400774841675 0.016658973177117099 0 -0.013040075223328449 0.01611963014648542 0 -0.015330880296476569 0.014107607023735638 0 -0.015405153115231426 0.014161482069490519 0 -0.015569526065738448 0.013945219199084261 0 -0.017417955769048046 0.0097585327819335252 0 -0.017478251159971689 0.0094422589242006815 0 -0.017554419169431894 0.0093886174963031394 0 -0.017403635306722468 0.0091599410786563883 0 -0.017511867561296721 0.0092851134286871286 0 -0.017572132683591094 0.0091310490890652938 0 -0.01741875285939053 0.0093654162354645677 0 -0.017403635306722468 0.0091599410786563883 0 -0.017511867561296721 0.0092851134286871286 0 -0.01741875285939053 0.0093654162354645677 0 -0.017511867561296721 0.0092851134286871286 0 -0.017478251159971689 0.0094422589242006815 0 -0.017511867561296721 0.0092851134286871286 0 -0.017478251159971689 0.0094422589242006815 0 -0.017554419169431894 0.0093886174963031394 0 -0.017511867561296721 0.0092851134286871286 0 -0.017554419169431894 0.0093886174963031394 0 -0.017603446188445879 0.0092471224441598426 0 -0.017554419169431894 0.0093886174963031394 0 -0.017603446188445879 0.0092471224441598426 0 -0.017629360866570878 0.0092991144192759029 0 -0.017511867561296721 0.0092851134286871286 0 -0.017603446188445879 0.0092471224441598426 0 -0.017572132683591094 0.0091310490890652938 0 -0.017644993126988532 0.00916319951825963 0 -0.017603446188445879 0.0092471224441598426 0 -0.017572132683591094 0.0091310490890652938 0 -0.017644993126988532 0.00916319951825963 0 -0.017658150046815081 0.0092438169876976825 0 -0.01767990044395349 0.0091909107406092511 0 -0.017644993126988532 0.00916319951825963 0 -0.017603446188445879 0.0092471224441598426 0 -0.017658150046815081 0.0092438169876976825 0 -0.017554419169431894 0.0093886174963031394 0 -0.017629360866570878 0.0092991144192759029 0 -0.017675977157034495 0.0093236844907384417 0 -0.017603446188445879 0.0092471224441598426 0 -0.017629360866570878 0.0092991144192759029 0 -0.017658150046815081 0.0092438169876976825 0 -0.017629360866570878 0.0092991144192759029 0 -0.017675977157034495 0.0093236844907384417 0 -0.017658150046815081 0.0092438169876976825 0 -0.017675977157034495 0.0093236844907384417 0 -0.017658150046815081 0.0092438169876976825 0 -0.017695347444164723 0.0092246491359137869 0 -0.017658150046815081 0.0092438169876976825 0 -0.017695347444164723 0.0092246491359137869 0 -0.01767990044395349 0.0091909107406092511 0 -0.017675977157034495 0.0093236844907384417 0 -0.017695347444164723 0.0092246491359137869 0 -0.017752328011553114 0.0091228325182061906 0 -0.017695347444164723 0.0092246491359137869 0 -0.017709375409971501 0.0091673297518427947 0 -0.017752328011553114 0.0091228325182061906 0 -0.017644993126988532 0.00916319951825963 0 -0.017691218977345765 0.0091167280127694601 0 -0.017648835841579103 0.0090128619171917952 0 -0.017695347444164723 0.0092246491359137869 0 -0.017709375409971501 0.0091673297518427947 0 -0.01767990044395349 0.0091909107406092511 0 -0.017709375409971501 0.0091673297518427947 0 -0.01767990044395349 0.0091909107406092511 0 -0.017691218977345765 0.0091167280127694601 0 -0.017644993126988532 0.00916319951825963 0 -0.01767990044395349 0.0091909107406092511 0 -0.017691218977345765 0.0091167280127694601 0 -0.017691218977345765 0.0091167280127694601 0 -0.017724636187785511 0.0091031560594978262 0 -0.017718668358384926 0.0090578263356973013 0 -0.017709375409971501 0.0091673297518427947 0 -0.017691218977345765 0.0091167280127694601 0 -0.017724636187785511 0.0091031560594978262 0 -0.017696882781986722 0.009015189154447727 0 -0.017648835841579103 0.0090128619171917952 0 -0.017708600772004174 0.0089188276384987945 0 -0.017691218977345765 0.0091167280127694601 0 -0.017696882781986722 0.009015189154447727 0 -0.017718668358384926 0.0090578263356973013 0 -0.017691218977345765 0.0091167280127694601 0 -0.017696882781986722 0.009015189154447727 0 -0.017648835841579103 0.0090128619171917952 0 -0.017637010090889374 0.0088504765193553811 0 -0.017648835841579103 0.0090128619171917952 0 -0.017708600772004174 0.0089188276384987945 0 -0.017637010090889374 0.0088504765193553811 0 -0.017708600772004174 0.0089188276384987945 0 -0.017696694807434809 0.0087492677052665186 0 -0.017637010090889374 0.0088504765193553811 0 -0.017648835841579103 0.0090128619171917952 0 -0.0175264062473213 0.0089445771463494625 0 -0.017637010090889374 0.0088504765193553811 0 -0.0175264062473213 0.0089445771463494625 0 -0.017551745246548345 0.0087917078889980481 0 -0.017644993126988532 0.00916319951825963 0 -0.017648835841579103 0.0090128619171917952 0 -0.017572132683591094 0.0091310490890652938 0 -0.017648835841579103 0.0090128619171917952 0 -0.017572132683591094 0.0091310490890652938 0 -0.0175264062473213 0.0089445771463494625 0 -0.017346348825871091 0.0089406927009159937 0 -0.017403635306722468 0.0091599410786563883 0 -0.0175264062473213 0.0089445771463494625 0 -0.017403635306722468 0.0091599410786563883 0 -0.017572132683591094 0.0091310490890652938 0 -0.0175264062473213 0.0089445771463494625 0 -0.011246842205223892 0.017085133436185777 0 -0.011330060471186341 0.017322819931690988 0 -0.010747510002407295 0.017227822929619996 0 -0.011246842205223892 0.017085133436185777 0 -0.011425131431585188 0.017259009773282877 0 -0.011444334499627409 0.017067351807703066 0 -0.011246842205223892 0.017085133436185777 0 -0.011425131431585188 0.017259009773282877 0 -0.011330060471186341 0.017322819931690988 0 -0.015114609402953267 0.013428311320880612 0 -0.014831595236118197 0.013386095358664567 0 -0.010463319500488889 0.016735351100780334 0 -0.011096321292725083 0.016689796378765526 0 -0.010747510002407295 0.017227822929619996 0 -0.011096321292725083 0.016689796378765526 0 -0.011246842205223892 0.017085133436185777 0 -0.010747510002407295 0.017227822929619996 0 -0.011574798676333263 0.016644640174904649 0 -0.011096321292725083 0.016689796378765526 0 -0.011443250051311643 0.01689929906286072 0 -0.011096321292725083 0.016689796378765526 0 -0.011246842205223892 0.017085133436185777 0 -0.011443250051311643 0.01689929906286072 0 -0.011246842205223892 0.017085133436185777 0 -0.011443250051311643 0.01689929906286072 0 -0.011444334499627409 0.017067351807703066 0 -0.017027367087437021 0.011280027962742118 0 -0.015114609402953267 0.013428311320880612 0 -0.012299400774841675 0.016658973177117099 0 -0.011425131431585188 0.017259009773282877 0 -0.011677373290527383 0.016912743222190788 0 -0.017675977157034495 0.0093236844907384417 0 -0.017816358423031767 0.0090200648685827035 0 -0.017752328011553114 0.0091228325182061906 0 -0.013537080117820574 0.015701417261884256 0 -0.015114609402953267 0.013428311320880612 0 -0.015589109595069017 0.013960306464109772 0 -0.015569526065738448 0.013945219199084261 0 -0.015675091493520303 0.013817472479526801 0 -0.012299400774841675 0.016658973177117099 0 -0.011677373290527383 0.016912743222190788 0 -0.011819461170667281 0.016730822601261998 0 -0.011574798676333263 0.016644640174904649 0 -0.011629346822214051 0.016796641043525955 0 -0.011443250051311643 0.01689929906286072 0 -0.011574798676333263 0.016644640174904649 0 -0.011629346822214051 0.016796641043525955 0 -0.011819461170667281 0.016730822601261998 0 -0.011629346822214051 0.016796641043525955 0 -0.011677373290527383 0.016912743222190788 0 -0.011819461170667281 0.016730822601261998 0 -0.011629346822214051 0.016796641043525955 0 -0.011677373290527383 0.016912743222190788 0 -0.011443250051311643 0.01689929906286072 0 -0.011677373290527383 0.016912743222190788 0 -0.011443250051311643 0.01689929906286072 0 -0.011444334499627409 0.017067351807703066 0 -0.017709375409971501 0.0091673297518427947 0 -0.017752328011553114 0.0091228325182061906 0 -0.017724636187785511 0.0091031560594978262 0 -0.017752328011553114 0.0091228325182061906 0 -0.017749228433562258 0.0090502368268016511 0 -0.017775135716727983 0.0090518854341467645 0 -0.017749228433562258 0.0090502368268016511 0 -0.017724636187785511 0.0091031560594978262 0 -0.017718668358384926 0.0090578263356973013 0 -0.017752328011553114 0.0091228325182061906 0 -0.017749228433562258 0.0090502368268016511 0 -0.017724636187785511 0.0091031560594978262 0 -0.011425131431585188 0.017259009773282877 0 -0.011677373290527383 0.016912743222190788 0 -0.011444334499627409 0.017067351807703066 0 -0.017816358423031767 0.0090200648685827035 0 -0.017752328011553114 0.0091228325182061906 0 -0.017775135716727983 0.0090518854341467645 0 -0.017816358423031767 0.0090200648685827035 0 -0.017775135716727983 0.0090518854341467645 0 -0.017781039001635555 0.0090131164692747647 0 -0.017749228433562258 0.0090502368268016511 0 -0.017775135716727983 0.0090518854341467645 0 -0.017781039001635555 0.0090131164692747647 0 -0.017765059073119416 0.0089695415868687057 0 -0.017797359497502406 0.0089545532353216706 0 -0.017770597176914611 0.0088477252312403505 0 -0.017816358423031767 0.0090200648685827035 0 -0.017781039001635555 0.0090131164692747647 0 -0.017797359497502406 0.0089545532353216706 0 -0.017781039001635555 0.0090131164692747647 0 -0.017765059073119416 0.0089695415868687057 0 -0.017797359497502406 0.0089545532353216706 0 -0.017696882781986722 0.009015189154447727 0 -0.01772699359818378 0.0089998156531597914 0 -0.017718668358384926 0.0090578263356973013 0 -0.017749228433562258 0.0090502368268016511 0 -0.01772699359818378 0.0089998156531597914 0 -0.017718668358384926 0.0090578263356973013 0 -0.017749228433562258 0.0090502368268016511 0 -0.017765059073119416 0.0089695415868687057 0 -0.01772699359818378 0.0089998156531597914 0 -0.017749228433562258 0.0090502368268016511 0 -0.017781039001635555 0.0090131164692747647 0 -0.017765059073119416 0.0089695415868687057 0 -0.017696882781986722 0.009015189154447727 0 -0.01772699359818378 0.0089998156531597914 0 -0.017708600772004174 0.0089188276384987945 0 -0.017765059073119416 0.0089695415868687057 0 -0.01772699359818378 0.0089998156531597914 0 -0.017708600772004174 0.0089188276384987945 0 -0.017708600772004174 0.0089188276384987945 0 -0.017770597176914611 0.0088477252312403505 0 -0.017696694807434809 0.0087492677052665186 0 -0.017765059073119416 0.0089695415868687057 0 -0.017708600772004174 0.0089188276384987945 0 -0.017770597176914611 0.0088477252312403505 0 -0.017797359497502406 0.0089545532353216706 0 -0.017770597176914611 0.0088477252312403505 0 -0.017822604200320544 0.0088768471293721 0 -0.017770597176914611 0.0088477252312403505 0 -0.017822604200320544 0.0088768471293721 0 -0.017815281201085154 0.0087516888266026046 0 -0.014150022861701871 0.013306140258273959 0 -0.014831595236118197 0.013386095358664567 0 -0.017902624464851483 0.0088010103668058944 0 -0.017822604200320544 0.0088768471293721 0 -0.017815281201085154 0.0087516888266026046 0 -0.01048026682456624 0.017812969691526129 0 -0.011330060471186341 0.017322819931690988 0 -0.010747510002407295 0.017227822929619996 0 -0.017902624464851483 0.0088010103668058944 0 -0.017824850360889297 0.0089963117638653112 0 -0.017822604200320544 0.0088768471293721 0 -0.017816358423031767 0.0090200648685827035 0 -0.017824850360889297 0.0089963117638653112 0 -0.017822604200320544 0.0088768471293721 0 -0.017816358423031767 0.0090200648685827035 0 -0.017797359497502406 0.0089545532353216706 0 -0.017822604200320544 0.0088768471293721 0 -0.017902624464851483 0.0088010103668058944 0 -0.017837405747597811 0.0086145117044451047 0 -0.017815281201085154 0.0087516888266026046 0 -0.017837405747597811 0.0086145117044451047 0 -0.017815281201085154 0.0087516888266026046 0 -0.017762243012831781 0.0086566283235712544 0 -0.017770597176914611 0.0088477252312403505 0 -0.017815281201085154 0.0087516888266026046 0 -0.017762243012831781 0.0086566283235712544 0 -0.017770597176914611 0.0088477252312403505 0 -0.017696694807434809 0.0087492677052665186 0 -0.017762243012831781 0.0086566283235712544 0 -0.017696694807434809 0.0087492677052665186 0 -0.017762243012831781 0.0086566283235712544 0 -0.017689214619316138 0.0085669655943020478 0 -0.017747176116618957 0.0084172300923699584 0 -0.017689214619316138 0.0085669655943020478 0 -0.017624386735075822 0.0083529725388934786 0 -0.017762243012831781 0.0086566283235712544 0 -0.017747176116618957 0.0084172300923699584 0 -0.017689214619316138 0.0085669655943020478 0 -0.017837405747597811 0.0086145117044451047 0 -0.017762243012831781 0.0086566283235712544 0 -0.017747176116618957 0.0084172300923699584 0 -0.017837405747597811 0.0086145117044451047 0 -0.017747176116618957 0.0084172300923699584 0 -0.017847312242206113 0.0083966962738242223 0 -0.017449233867264349 0.0087376893665809321 0 -0.017586817138930066 0.0086344388337748004 0 -0.017482870769600135 0.0084418252617356904 0 -0.017346348825871091 0.0089406927009159937 0 -0.0175264062473213 0.0089445771463494625 0 -0.017449233867264349 0.0087376893665809321 0 -0.0175264062473213 0.0089445771463494625 0 -0.017449233867264349 0.0087376893665809321 0 -0.017551745246548345 0.0087917078889980481 0 -0.017449233867264349 0.0087376893665809321 0 -0.017551745246548345 0.0087917078889980481 0 -0.017586817138930066 0.0086344388337748004 0 -0.017637010090889374 0.0088504765193553811 0 -0.017551745246548345 0.0087917078889980481 0 -0.017586817138930066 0.0086344388337748004 0 -0.017637010090889374 0.0088504765193553811 0 -0.017696694807434809 0.0087492677052665186 0 -0.017586817138930066 0.0086344388337748004 0 -0.017696694807434809 0.0087492677052665186 0 -0.017689214619316138 0.0085669655943020478 0 -0.017586817138930066 0.0086344388337748004 0 -0.017689214619316138 0.0085669655943020478 0 -0.017586817138930066 0.0086344388337748004 0 -0.017624386735075822 0.0083529725388934786 0 -0.017586817138930066 0.0086344388337748004 0 -0.017482870769600135 0.0084418252617356904 0 -0.017624386735075822 0.0083529725388934786 0 -0.017278855059141326 0.0084885322877897747 0 -0.017449233867264349 0.0087376893665809321 0 -0.017482870769600135 0.0084418252617356904 0 -0.017482870769600135 0.0084418252617356904 0 -0.017518485917823182 0.008213685028652256 0 -0.017624386735075822 0.0083529725388934786 0 -0.017396596293143832 0.0082230234470975789 0 -0.017518485917823182 0.008213685028652256 0 -0.017476182415686079 0.0079458299500468361 0 -0.017396596293143832 0.0082230234470975789 0 -0.017482870769600135 0.0084418252617356904 0 -0.017518485917823182 0.008213685028652256 0 -0.017624386735075822 0.0083529725388934786 0 -0.017592819733556139 0.0081149737462178802 0 -0.01767810661975764 0.0081459020256037015 0 -0.017518485917823182 0.008213685028652256 0 -0.017624386735075822 0.0083529725388934786 0 -0.017592819733556139 0.0081149737462178802 0 -0.017592819733556139 0.0081149737462178802 0 -0.01767810661975764 0.0081459020256037015 0 -0.017583335789202754 0.0078918321355956073 0 -0.017592819733556139 0.0081149737462178802 0 -0.017476182415686079 0.0079458299500468361 0 -0.017583335789202754 0.0078918321355956073 0 -0.017518485917823182 0.008213685028652256 0 -0.017592819733556139 0.0081149737462178802 0 -0.017476182415686079 0.0079458299500468361 0 -0.017747176116618957 0.0084172300923699584 0 -0.017764346972902474 0.0081490697515631937 0 -0.017847312242206113 0.0083966962738242223 0 -0.017747176116618957 0.0084172300923699584 0 -0.01767810661975764 0.0081459020256037015 0 -0.017764346972902474 0.0081490697515631937 0 -0.017747176116618957 0.0084172300923699584 0 -0.017624386735075822 0.0083529725388934786 0 -0.01767810661975764 0.0081459020256037015 0 -0.01767810661975764 0.0081459020256037015 0 -0.017764346972902474 0.0081490697515631937 0 -0.017667517988525401 0.0079311074728408634 0 -0.01767810661975764 0.0081459020256037015 0 -0.017667517988525401 0.0079311074728408634 0 -0.017583335789202754 0.0078918321355956073 0 -0.017764346972902474 0.0081490697515631937 0 -0.017875747464847262 0.0081166656046171813 0 -0.017746919723194435 0.0079620822315221197 0 -0.017764346972902474 0.0081490697515631937 0 -0.017746919723194435 0.0079620822315221197 0 -0.017667517988525401 0.0079311074728408634 0 -0.017875747464847262 0.0081166656046171813 0 -0.018090524377205701 0.008156784260033358 0 -0.018031042640354954 0.0079419470621804166 0 -0.018186916221191479 0.0084102447816683384 0 -0.017407807217315309 0.0073454270808628735 0 -0.017875747464847262 0.0081166656046171813 0 -0.017970841690513686 0.0084049609261995159 0 -0.017928990254499282 0.0084363598028694507 0 -0.017875747464847262 0.0081166656046171813 0 -0.017970841690513686 0.0084049609261995159 0 -0.018029025133925146 0.00835811304558229 0 -0.017764346972902474 0.0081490697515631937 0 -0.017875747464847262 0.0081166656046171813 0 -0.017847312242206113 0.0083966962738242223 0 -0.017875747464847262 0.0081166656046171813 0 -0.017847312242206113 0.0083966962738242223 0 -0.017928990254499282 0.0084363598028694507 0 -0.017837405747597811 0.0086145117044451047 0 -0.017847312242206113 0.0083966962738242223 0 -0.017914917864299808 0.0085741387059068714 0 -0.017847312242206113 0.0083966962738242223 0 -0.017914917864299808 0.0085741387059068714 0 -0.017928990254499282 0.0084363598028694507 0 -0.017914917864299808 0.0085741387059068714 0 -0.017969379983034318 0.0085056039393842237 0 -0.017963968578154691 0.0086083570280048646 0 -0.017970841690513686 0.0084049609261995159 0 -0.017928990254499282 0.0084363598028694507 0 -0.017969379983034318 0.0085056039393842237 0 -0.017914917864299808 0.0085741387059068714 0 -0.017928990254499282 0.0084363598028694507 0 -0.017969379983034318 0.0085056039393842237 0 -0.017970841690513686 0.0084049609261995159 0 -0.017969379983034318 0.0085056039393842237 0 -0.017966362832849053 0.008511553493046527 0 -0.0094876024637542238 0.017525962077265259 0 -0.009540481560786988 0.018237690073665852 0 -0.0090209918821390674 0.018072609668776177 0 -0.014150022861701871 0.013306140258273959 0 -0.013802753971072196 0.013358898635066009 0 -0.017902624464851483 0.0088010103668058944 0 -0.017837405747597811 0.0086145117044451047 0 -0.017914917864299808 0.0085741387059068714 0 -0.017902624464851483 0.0088010103668058944 0 -0.017914917864299808 0.0085741387059068714 0 -0.017963968578154691 0.0086083570280048646 0 -0.0087027108643821949 0.018196589593595575 0 -0.008427820715234716 0.01826471934799417 0 -0.0085754319449996789 0.017947986230827585 0 -0.008427820715234716 0.01826471934799417 0 -0.0082775292639563972 0.018032910727370507 0 -0.0085754319449996789 0.017947986230827585 0 -0.0083347623436401015 0.017718757351374827 0 -0.0082775292639563972 0.018032910727370507 0 -0.0085754319449996789 0.017947986230827585 0 -0.0087027108643821949 0.018196589593595575 0 -0.0090209918821390674 0.018072609668776177 0 -0.0087818216726679461 0.018481851514412204 0 -0.0087027108643821949 0.018196589593595575 0 -0.0085754319449996789 0.017947986230827585 0 -0.0090209918821390674 0.018072609668776177 0 -0.009540481560786988 0.018237690073665852 0 -0.0090209918821390674 0.018072609668776177 0 -0.0087818216726679461 0.018481851514412204 0 -0.013802753971072196 0.013358898635066009 0 -0.013210082151715517 0.013862642804332278 0 -0.017969379983034318 0.0085056039393842237 0 -0.017899658033206253 0.0084626863801838623 0 -0.017966362832849053 0.008511553493046527 0 -0.017969379983034318 0.0085056039393842237 0 -0.017963968578154691 0.0086083570280048646 0 -0.017899658033206253 0.0084626863801838623 0 -0.017899658033206253 0.0084626863801838623 0 -0.017782834617446105 0.0085620570716857629 0 -0.017966362832849053 0.008511553493046527 0 -0.0081419621550463464 0.018753798937370149 0 -0.0087818216726679461 0.018481851514412204 0 -0.0083266135995595444 0.01849124351522554 0 -0.017476711405350849 0.0085906310602520217 0 -0.017899658033206253 0.0084626863801838623 0 -0.017782834617446105 0.0085620570716857629 0 -0.012632034939366564 0.01067294684757346 0 -0.013210082151715517 0.013862642804332278 0 -0.008427820715234716 0.01826471934799417 0 -0.0087818216726679461 0.018481851514412204 0 -0.0083266135995595444 0.01849124351522554 0 -0.0087027108643821949 0.018196589593595575 0 -0.008427820715234716 0.01826471934799417 0 -0.0087818216726679461 0.018481851514412204 0 -0.007943305450331329 0.018460767307464227 0 -0.008427820715234716 0.01826471934799417 0 -0.0083266135995595444 0.01849124351522554 0 -0.012632034939366564 0.01067294684757346 0 -0.01690104818569016 0.0069118309494083921 0 -0.017476711405350849 0.0085906310602520217 0 -0.017782834617446105 0.0085620570716857629 0 -0.017767548856200799 0.008684640128989252 0 -0.015702053695990578 0.0046333547965681249 0 -0.015884992351599844 0.0048711776947850133 0 -0.015434078664736863 0.0049108349418417125 0 -0.015197576354304163 0.0044843369158140385 0 -0.015702053695990578 0.0046333547965681249 0 -0.015434078664736863 0.0049108349418417125 0 -0.017970841690513686 0.0084049609261995159 0 -0.017966362832849053 0.008511553493046527 0 -0.018029025133925146 0.00835811304558229 0 -0.01804911769702169 0.0088394414196919183 0 -0.017407807217315309 0.0073454270808628735 0 -0.017782834617446105 0.0085620570716857629 0 -0.017767548856200799 0.008684640128989252 0 -0.017966362832849053 0.008511553493046527 0 -0.01690104818569016 0.0069118309494083921 0 -0.017407807217315309 0.0073454270808628735 0 -0.017767548856200799 0.008684640128989252 0 -0.017966362832849053 0.008511553493046527 0 -0.018037657972676268 0.0087567209464560463 0 -0.015702053695990578 0.0046333547965681249 0 -0.016208356065630786 0.0047708009520466364 0 -0.015884992351599844 0.0048711776947850133 0 -0.016208356065630786 0.0047708009520466364 0 -0.015889880843083987 0.0051728986942522854 0 -0.016531056766161966 0.0055703101890451261 0 -0.017407807217315309 0.0073454270808628735 0 -0.017224325259043816 0.0065728911230099165 0 -0.016208356065630786 0.0047708009520466364 0 -0.015884992351599844 0.0048711776947850133 0 -0.015889880843083987 0.0051728986942522854 0 -0.015821095589943355 0.0051349180365058804 0 -0.015313556503234644 0.0048481929997025745 0 -0.015884992351599844 0.0048711776947850133 0 -0.015889880843083987 0.0051728986942522854 0 -0.015434078664736863 0.0049108349418417125 0 -0.015889880843083987 0.0051728986942522854 0 -0.01523777449533633 0.0047428679256590516 0 -0.015203211455957398 0.0053266800748639764 0 -0.014992582454947662 0.0050168879240420419 0 -0.01523777449533633 0.0047428679256590516 0 -0.015203211455957398 0.0053266800748639764 0 -0.015203211455957398 0.0053266800748639764 0 -0.015549620163463711 0.0057400170149261697 0 -0.014980292827875446 0.005850174050454137 0 -0.015889880843083987 0.0051728986942522854 0 -0.015203211455957398 0.0053266800748639764 0 -0.015549620163463711 0.0057400170149261697 0 -0.015549620163463711 0.0057400170149261697 0 -0.015332459841105581 0.0061557483072594956 0 -0.014980292827875446 0.005850174050454137 0 -0.015889880843083987 0.0051728986942522854 0 -0.016053180680779489 0.0057498094237486731 0 -0.016531056766161966 0.0055703101890451261 0 -0.015889880843083987 0.0051728986942522854 0 -0.015549620163463711 0.0057400170149261697 0 -0.016053180680779489 0.0057498094237486731 0 -0.015549620163463711 0.0057400170149261697 0 -0.016053180680779489 0.0057498094237486731 0 -0.015790586467151316 0.0061867484218433438 0 -0.016053180680779489 0.0057498094237486731 0 -0.016269877068237661 0.006147774037556045 0 -0.016531056766161966 0.0055703101890451261 0 -0.016269877068237661 0.006147774037556045 0 -0.01609995029858596 0.0067441293713190551 0 -0.016922643139395503 0.0064835107933957081 0 -0.016053180680779489 0.0057498094237486731 0 -0.016269877068237661 0.006147774037556045 0 -0.015790586467151316 0.0061867484218433438 0 -0.016269877068237661 0.006147774037556045 0 -0.015790586467151316 0.0061867484218433438 0 -0.01609995029858596 0.0067441293713190551 0 -0.015549620163463711 0.0057400170149261697 0 -0.015332459841105581 0.0061557483072594956 0 -0.015790586467151316 0.0061867484218433438 0 -0.015332459841105581 0.0061557483072594956 0 -0.015790586467151316 0.0061867484218433438 0 -0.015462422251489059 0.0065803606081789 0 -0.015790586467151316 0.0061867484218433438 0 -0.015462422251489059 0.0065803606081789 0 -0.01609995029858596 0.0067441293713190551 0 -0.015332459841105581 0.0061557483072594956 0 -0.015462422251489059 0.0065803606081789 0 -0.014902761190170774 0.0063922554727373262 0 -0.015462422251489059 0.0065803606081789 0 -0.015526278200510396 0.0070713794215419819 0 -0.015125327132990843 0.0069569402426316014 0 -0.015462422251489059 0.0065803606081789 0 -0.014902761190170774 0.0063922554727373262 0 -0.015125327132990843 0.0069569402426316014 0 -0.015526278200510396 0.0070713794215419819 0 -0.015125327132990843 0.0069569402426316014 0 -0.015145842413661426 0.0075305153305926242 0 -0.015526278200510396 0.0070713794215419819 0 -0.015933276248351311 0.0071872346549095249 0 -0.01571393991879089 0.0074056081340035402 0 -0.015462422251489059 0.0065803606081789 0 -0.015526278200510396 0.0070713794215419819 0 -0.01609995029858596 0.0067441293713190551 0 -0.01609995029858596 0.0067441293713190551 0 -0.016242955585880552 0.0072581174511825337 0 -0.016679156928002911 0.0070677189110761292 0 -0.015526278200510396 0.0070713794215419819 0 -0.01609995029858596 0.0067441293713190551 0 -0.015933276248351311 0.0071872346549095249 0 -0.01609995029858596 0.0067441293713190551 0 -0.016242955585880552 0.0072581174511825337 0 -0.015933276248351311 0.0071872346549095249 0 -0.015933276248351311 0.0071872346549095249 0 -0.016082649068772964 0.0074931100419095911 0 -0.01571393991879089 0.0074056081340035402 0 -0.016242955585880552 0.0072581174511825337 0 -0.016358492030203672 0.0076802146462724196 0 -0.016679156928002911 0.0070677189110761292 0 -0.016242955585880552 0.0072581174511825337 0 -0.015933276248351311 0.0071872346549095249 0 -0.016082649068772964 0.0074931100419095911 0 -0.016242955585880552 0.0072581174511825337 0 -0.016082649068772964 0.0074931100419095911 0 -0.016358492030203672 0.0076802146462724196 0 -0.016082649068772964 0.0074931100419095911 0 -0.016358492030203672 0.0076802146462724196 0 -0.016158613520807632 0.0077553174692700259 0 -0.016082649068772964 0.0074931100419095911 0 -0.01584917971365387 0.0077221564992895229 0 -0.01571393991879089 0.0074056081340035402 0 -0.016082649068772964 0.0074931100419095911 0 -0.01584917971365387 0.0077221564992895229 0 -0.016158613520807632 0.0077553174692700259 0 -0.016053346808620132 0.0078468099710451746 0 -0.014606630319004056 0.0064523365549411515 0 -0.01584917971365387 0.0077221564992895229 0 -0.01571393991879089 0.0074056081340035402 0 -0.015145842413661426 0.0075305153305926242 0 -0.01584917971365387 0.0077221564992895229 0 -0.015606599224240963 0.0078120101474707547 0 -0.015237467515817612 0.007392790946730482 0 -0.01345607360859191 0.0023953928887969086 0 -0.014606630319004056 0.0064523365549411515 0 -0.015526278200510396 0.0070713794215419819 0 -0.01571393991879089 0.0074056081340035402 0 -0.015145842413661426 0.0075305153305926242 0 -0.017548811317965443 0.007612315500227505 0 -0.017635308499773784 0.0075450682181163967 0 -0.01756395451084336 0.0076626136704038622 0 -0.01749482821529301 0.0074550535762405593 0 -0.017548811317965443 0.007612315500227505 0 -0.017635308499773784 0.0075450682181163967 0 -0.01749482821529301 0.0074550535762405593 0 -0.017548811317965443 0.007612315500227505 0 -0.017430600955860361 0.0077517984680610871 0 -0.016358492030203672 0.0076802146462724196 0 -0.016679156928002911 0.0070677189110761292 0 -0.016668682338485161 0.0078265451646034063 0 -0.016585129966216694 0.0067695892739271625 0 -0.017353136002431626 0.0084610530412715657 0 -0.01749482821529301 0.0074550535762405593 0 -0.016679156928002911 0.0070677189110761292 0 -0.017430600955860361 0.0077517984680610871 0 -0.017496481595284465 0.0074424776830002374 0 -0.01741455175435731 0.0071379731355306472 0 -0.01609995029858596 0.0067441293713190551 0 -0.016679156928002911 0.0070677189110761292 0 -0.016922643139395503 0.0064835107933957081 0 -0.01749482821529301 0.0074550535762405593 0 -0.016679156928002911 0.0070677189110761292 0 -0.016922643139395503 0.0064835107933957081 0 -0.01749482821529301 0.0074550535762405593 0 -0.017659902706674654 0.0075768244213019675 0 -0.017635308499773784 0.0075450682181163967 0 -0.01749482821529301 0.0074550535762405593 0 -0.017659902706674654 0.0075768244213019675 0 -0.017874206285147451 0.0076544607739381654 0 -0.017763141586182356 0.0077044886233991932 0 -0.017765545308282418 0.007830223167480721 0 -0.017662066487026153 0.0076548929568083729 0 -0.017659902706674654 0.0075768244213019675 0 -0.017763141586182356 0.0077044886233991932 0 -0.017662066487026153 0.0076548929568083729 0 -0.017659902706674654 0.0075768244213019675 0 -0.017763141586182356 0.0077044886233991932 0 -0.017874206285147451 0.0076544607739381654 0 -0.017763141586182356 0.0077044886233991932 0 -0.017879970102216394 0.007829980943961163 0 -0.017765545308282418 0.007830223167480721 0 -0.016269877068237661 0.006147774037556045 0 -0.016922643139395503 0.0064835107933957081 0 -0.016531056766161966 0.0055703101890451261 0 -0.017874206285147451 0.0076544607739381654 0 -0.017879970102216394 0.007829980943961163 0 -0.018031042640354954 0.0079419470621804166 0 -0.01741455175435731 0.0071379731355306472 0 -0.017224325259043816 0.0065728911230099165 0 -0.017763141586182356 0.0077044886233991932 0 -0.017874206285147451 0.0076544607739381654 0 -0.017879970102216394 0.007829980943961163 0 -0.017875747464847262 0.0081166656046171813 0 -0.017879970102216394 0.007829980943961163 0 -0.018031042640354954 0.0079419470621804166 0 -0.017875747464847262 0.0081166656046171813 0 -0.017765545308282418 0.007830223167480721 0 -0.017746919723194435 0.0079620822315221197 0 -0.017875747464847262 0.0081166656046171813 0 -0.017879970102216394 0.007829980943961163 0 -0.017765545308282418 0.007830223167480721 0 -0.017765545308282418 0.007830223167480721 0 -0.017746919723194435 0.0079620822315221197 0 -0.017680748673532375 0.0078013032370538235 0 -0.017746919723194435 0.0079620822315221197 0 -0.017680748673532375 0.0078013032370538235 0 -0.017667517988525401 0.0079311074728408634 0 -0.017667517988525401 0.0079311074728408634 0 -0.01759115658355128 0.007699379780177807 0 -0.017583335789202754 0.0078918321355956073 0 -0.017680748673532375 0.0078013032370538235 0 -0.017667517988525401 0.0079311074728408634 0 -0.01759115658355128 0.007699379780177807 0 -0.017680748673532375 0.0078013032370538235 0 -0.01759115658355128 0.007699379780177807 0 -0.017662066487026153 0.0076548929568083729 0 -0.017765545308282418 0.007830223167480721 0 -0.017680748673532375 0.0078013032370538235 0 -0.017662066487026153 0.0076548929568083729 0 -0.017476182415686079 0.0079458299500468361 0 -0.017509020221915278 0.0076515296510188593 0 -0.017376161244272464 0.0077301103589337101 0 -0.017476182415686079 0.0079458299500468361 0 -0.017583335789202754 0.0078918321355956073 0 -0.017509020221915278 0.0076515296510188593 0 -0.01759115658355128 0.007699379780177807 0 -0.017583335789202754 0.0078918321355956073 0 -0.017509020221915278 0.0076515296510188593 0 -0.01759115658355128 0.007699379780177807 0 -0.017509020221915278 0.0076515296510188593 0 -0.017485157322100594 0.0075895496726102844 0 -0.017509383893481494 0.0076413199302618924 0 -0.017511472059469107 0.007487995045940359 0 -0.017509020221915278 0.0076515296510188593 0 -0.017545761749189998 0.0073877896629909318 0 -0.017362223411720463 0.0073998046548767833 0 -0.01759115658355128 0.007699379780177807 0 -0.017485157322100594 0.0075895496726102844 0 -0.017616113707929235 0.0075887639126434106 0 -0.017511472059469107 0.007487995045940359 0 -0.01748491086374734 0.0072681716476642377 0 -0.017485157322100594 0.0075895496726102844 0 -0.017567139278957256 0.007510706835684609 0 -0.017433656434687927 0.007372369896979902 0 -0.017485157322100594 0.0075895496726102844 0 -0.017567139278957256 0.007510706835684609 0 -0.017616113707929235 0.0075887639126434106 0 -0.017545761749189998 0.0073877896629909318 0 -0.017362223411720463 0.0073998046548767833 0 -0.017405590957801968 0.0072068571839891951 0 -0.017659902706674654 0.0075768244213019675 0 -0.017662066487026153 0.0076548929568083729 0 -0.017635308499773784 0.0075450682181163967 0 -0.017662066487026153 0.0076548929568083729 0 -0.017616113707929235 0.0075887639126434106 0 -0.017635308499773784 0.0075450682181163967 0 -0.01759115658355128 0.007699379780177807 0 -0.017662066487026153 0.0076548929568083729 0 -0.017616113707929235 0.0075887639126434106 0 -0.017567139278957256 0.007510706835684609 0 -0.017616113707929235 0.0075887639126434106 0 -0.017667309095080127 0.0075481371612515728 0 -0.017667309095080127 0.0075481371612515728 0 -0.017635308499773784 0.0075450682181163967 0 -0.01756395451084336 0.0076626136704038622 0 -0.017616113707929235 0.0075887639126434106 0 -0.017667309095080127 0.0075481371612515728 0 -0.017635308499773784 0.0075450682181163967 0 -0.017667309095080127 0.0075481371612515728 0 -0.017612022049235052 0.0076844463669724214 0 -0.01756395451084336 0.0076626136704038622 0 -0.017676805536277471 0.0074055376435852782 0 -0.017742476863652233 0.0078087968903882525 0 -0.017667309095080127 0.0075481371612515728 0 -0.017604640827056928 0.0073759906706172343 0 -0.017778422060216126 0.0072591617152674079 0 -0.017567139278957256 0.007510706835684609 0 -0.017667309095080127 0.0075481371612515728 0 -0.017604640827056928 0.0073759906706172343 0 -0.017603144631480692 0.0071394974715635719 0 -0.017778422060216126 0.0072591617152674079 0 -0.017685341317168302 0.0070330391400514588 0 -0.017604640827056928 0.0073759906706172343 0 -0.017603144631480692 0.0071394974715635719 0 -0.017778422060216126 0.0072591617152674079 0 -0.017742476863652233 0.0078087968903882525 0 -0.01643031927022328 0.0055684532712517816 0 -0.017569298193868786 0.0076915735105229921 0 -0.017581878306573512 0.0077064755055859776 0 -0.017516309590231888 0.0077017521106849569 0 -0.017569298193868786 0.0076915735105229921 0 -0.017612022049235052 0.0076844463669724214 0 -0.017581878306573512 0.0077064755055859776 0 -0.017569298193868786 0.0076915735105229921 0 -0.017612022049235052 0.0076844463669724214 0 -0.01756395451084336 0.0076626136704038622 0 -0.017545761749189998 0.0073877896629909318 0 -0.017529582149786657 0.0071740156053375376 0 -0.017405590957801968 0.0072068571839891951 0 -0.017567139278957256 0.007510706835684609 0 -0.017604640827056928 0.0073759906706172343 0 -0.017433656434687927 0.007372369896979902 0 -0.017529582149786657 0.0071740156053375376 0 -0.017426071544398045 0.0070210602070603714 0 -0.017488636178117321 0.006973094654659037 0 -0.017603144631480692 0.0071394974715635719 0 -0.017433656434687927 0.007372369896979902 0 -0.017488636178117321 0.006973094654659037 0 -0.01748491086374734 0.0072681716476642377 0 -0.017489664315883398 0.0069946958261254627 0 -0.017604640827056928 0.0073759906706172343 0 -0.017603144631480692 0.0071394974715635719 0 -0.017433656434687927 0.007372369896979902 0 -0.017529582149786657 0.0071740156053375376 0 -0.017426071544398045 0.0070210602070603714 0 -0.017405590957801968 0.0072068571839891951 0 -0.018103534488261228 0.0060651579814865134 0 -0.017903595344158064 0.0063329206619735347 0 -0.018744417288620484 0.0047102067546994824 0 -0.019086720529091179 0.0038743995253603752 0 -0.018602027980716883 0.0041651643420921721 0 -0.018103534488261228 0.0060651579814865134 0 -0.017914663619438803 0.0043106643311678064 0 -0.018744417288620484 0.0047102067546994824 0 -0.018602027980716883 0.0041651643420921721 0 -0.018327694378764473 0.0045597024171871395 0 -0.017426071544398045 0.0070210602070603714 0 -0.017488636178117321 0.006973094654659037 0 -0.017469892634700706 0.0067805308877467519 0 -0.017603144631480692 0.0071394974715635719 0 -0.017488636178117321 0.006973094654659037 0 -0.017601874915381475 0.0070072938799371981 0 -0.017488636178117321 0.006973094654659037 0 -0.017633874974930217 0.0068911263009806892 0 -0.017634927613813359 0.0068706225091603856 0 -0.017488636178117321 0.006973094654659037 0 -0.017601874915381475 0.0070072938799371981 0 -0.017633874974930217 0.0068911263009806892 0 -0.017488636178117321 0.006973094654659037 0 -0.017469892634700706 0.0067805308877467519 0 -0.017634927613813359 0.0068706225091603856 0 -0.017914663619438803 0.0043106643311678064 0 -0.016795265571764133 0.0047747776899116365 0 -0.019086720529091179 0.0038743995253603752 0 -0.018602027980716883 0.0041651643420921721 0 -0.018329363162721955 0.0034034148872206459 0 -0.01643031927022328 0.0055684532712517816 0 -0.015334797105876498 0.0049726245744661701 0 -0.017778422060216126 0.0072591617152674079 0 -0.017811476259775649 0.006964922485510225 0 -0.017685341317168302 0.0070330391400514588 0 -0.017603144631480692 0.0071394974715635719 0 -0.017685341317168302 0.0070330391400514588 0 -0.017601874915381475 0.0070072938799371981 0 -0.017685341317168302 0.0070330391400514588 0 -0.017601874915381475 0.0070072938799371981 0 -0.017633874974930217 0.0068911263009806892 0 -0.017811476259775649 0.006964922485510225 0 -0.017633874974930217 0.0068911263009806892 0 -0.01763555833510037 0.0068652716318675826 0 -0.01643031927022328 0.0055684532712517816 0 -0.016795265571764133 0.0047747776899116365 0 -0.017811476259775649 0.006964922485510225 0 -0.017685341317168302 0.0070330391400514588 0 -0.017633874974930217 0.0068911263009806892 0 -0.016795265571764133 0.0047747776899116365 0 -0.015001543564359916 0.0010653377388391196 0 -0.016076121289232678 0.0043730738683401974 0 -0.014698962043992953 0.0035586943796970835 0 -0.016242647591148907 0.0024614674709786915 0 -0.014698962043992953 0.0035586943796970835 0 -0.016242647591148907 0.0024614674709786915 0 -0.014908996548607875 0.0014148191680458269 0 -0.016449100138284586 0.0032945687690749906 0 -0.017148967155606428 0.0037118867675664663 0 -0.017239044752590738 0.002788295426649092 0 -0.016805444337507858 0.0050472683067978811 0 -0.016795265571764133 0.0047747776899116365 0 -0.01643031927022328 0.0055684532712517816 0 -0.013641372830920061 0.00072264527883504582 0 -0.013794337500309072 0.0031203392527631062 0 -0.013917742382843245 0.0016838730366707678 0 -0.015051779877121906 0.0025779471145201262 0 -0.013641372830920061 0.00072264527883504582 0 -0.012744032604420053 -9.375845728508536e-05 0 -0.012325520785236039 -0.00069114779762739309 0 -0.012187559305343843 -0.00070596052005237817 0 -0.012246572238634523 -0.00062587053863305455 0 -0.012325520785236039 -0.00069114779762739309 0 -0.012187559305343843 -0.00070596052005237817 0 -0.012151131520522378 -0.00080600277408669481 0 -0.012187559305343843 -0.00070596052005237817 0 -0.012103709714666587 -0.00070917879271415276 0 -0.012119571220134951 -0.00060948330292188578 0 -0.012103709714666587 -0.00070917879271415276 0 -0.012110431685965007 -0.00071317520512821392 0 -0.012067732807668406 -0.000681169696623066 0 -0.012103709714666587 -0.00070917879271415276 0 -0.012067732807668406 -0.000681169696623066 0 -0.012119571220134951 -0.00060948330292188578 0 -0.012103709714666587 -0.00070917879271415276 0 -0.012040391085484043 -0.0007725738316422076 0 -0.012110431685965007 -0.00071317520512821392 0 -0.012247872034835468 -0.00085293282040915742 0 -0.012744032604420053 -9.375845728508536e-05 0 -0.012187559305343843 -0.00070596052005237817 0 -0.012103709714666587 -0.00070917879271415276 0 -0.012040391085484043 -0.0007725738316422076 0 -0.012744032604420053 -9.375845728508536e-05 0 -0.011980783750795669 -0.00069557124341330749 0 -0.013794337500309072 0.0031203392527631062 0 -0.015051779877121906 0.0025779471145201262 0 -0.015600541516073528 0.0041908102973686476 0 -0.012744032604420053 -9.375845728508536e-05 0 -0.015334797105876498 0.0049726245744661701 0 -0.011985271016247048 -0.00061869983311144247 0 -0.012068334764410368 -0.00031291622938519649 0 -0.012297791802148959 -0.00043374780198253518 0 -0.012040391085484043 -0.0007725738316422076 0 -0.012184726110735861 -0.00064183338615169349 0 -0.012110431685965007 -0.00071317520512821392 0 -0.012040391085484043 -0.0007725738316422076 0 -0.012184726110735861 -0.00064183338615169349 0 -0.012297791802148959 -0.00043374780198253518 0 -0.012184726110735861 -0.00064183338615169349 0 -0.011974076393181153 -0.00075894581038066981 0 -0.011929256762306285 -0.00094931358886117263 0 -0.012184726110735861 -0.00064183338615169349 0 -0.012037091214510957 -0.00068884944393854115 0 -0.012110431685965007 -0.00071317520512821392 0 -0.012184726110735861 -0.00064183338615169349 0 -0.012037091214510957 -0.00068884944393854115 0 -0.011974076393181153 -0.00075894581038066981 0 -0.012037091214510957 -0.00068884944393854115 0 -0.012110431685965007 -0.00071317520512821392 0 -0.012067732807668406 -0.000681169696623066 0 -0.012037091214510957 -0.00068884944393854115 0 -0.012067732807668406 -0.000681169696623066 0 -0.011965068290840609 -0.00064630020363196713 0 -0.011846907285502221 -0.00073338783672147136 0 -0.011764519210529737 -0.00062813487087348902 0 -0.011965068290840609 -0.00064630020363196713 0 -0.012037091214510957 -0.00068884944393854115 0 -0.011846907285502221 -0.00073338783672147136 0 -0.011965068290840609 -0.00064630020363196713 0 -0.011846907285502221 -0.00073338783672147136 0 -0.011764519210529737 -0.00062813487087348902 0 -0.011659007445754967 -0.00073788744340101946 0 -0.0117790016248056 -0.0008351131180364135 0 -0.011620334473967573 -0.00083486041798133518 0 -0.011659007445754967 -0.00073788744340101946 0 -0.0117790016248056 -0.0008351131180364135 0 -0.011846907285502221 -0.00073338783672147136 0 -0.011659007445754967 -0.00073788744340101946 0 -0.012037091214510957 -0.00068884944393854115 0 -0.011846907285502221 -0.00073338783672147136 0 -0.011974076393181153 -0.00075894581038066981 0 -0.0117790016248056 -0.0008351131180364135 0 -0.011846907285502221 -0.00073338783672147136 0 -0.011876970979831421 -0.0008340635905888259 0 -0.011846907285502221 -0.00073338783672147136 0 -0.011974076393181153 -0.00075894581038066981 0 -0.011876970979831421 -0.0008340635905888259 0 -0.012564472010378563 -0.00017303267718325556 0 -0.012450532758102619 4.0436036619734233e-05 0 -0.012297791802148959 -0.00043374780198253518 0 -0.011974076393181153 -0.00075894581038066981 0 -0.011876970979831421 -0.0008340635905888259 0 -0.011929256762306285 -0.00094931358886117263 0 -0.011876970979831421 -0.0008340635905888259 0 -0.011929256762306285 -0.00094931358886117263 0 -0.011814601638089315 -0.00089677265061447538 0 -0.011929256762306285 -0.00094931358886117263 0 -0.011814601638089315 -0.00089677265061447538 0 -0.011792620305320047 -0.00096476284861470431 0 -0.0117790016248056 -0.0008351131180364135 0 -0.011712274933481003 -0.00090145810256125794 0 -0.011620334473967573 -0.00083486041798133518 0 -0.011792620305320047 -0.00096476284861470431 0 -0.011712274933481003 -0.00090145810256125794 0 -0.011616567199189539 -0.00097414445387956504 0 -0.0117790016248056 -0.0008351131180364135 0 -0.011814601638089315 -0.00089677265061447538 0 -0.011712274933481003 -0.00090145810256125794 0 -0.0117790016248056 -0.0008351131180364135 0 -0.011876970979831421 -0.0008340635905888259 0 -0.011814601638089315 -0.00089677265061447538 0 -0.011814601638089315 -0.00089677265061447538 0 -0.011792620305320047 -0.00096476284861470431 0 -0.011712274933481003 -0.00090145810256125794 0 -0.011929256762306285 -0.00094931358886117263 0 -0.011792620305320047 -0.00096476284861470431 0 -0.011760183201196987 -0.0010580884653856838 0 -0.011792620305320047 -0.00096476284861470431 0 -0.011760183201196987 -0.0010580884653856838 0 -0.011616567199189539 -0.00097414445387956504 0 -0.011936700728032223 -0.0010807895674318751 0 -0.01345607360859191 0.0023953928887969086 0 -0.016358492030203672 0.0076802146462724196 0 -0.016341663388005596 0.0080920862772177974 0 -0.016158613520807632 0.0077553174692700259 0 -0.012564472010378563 -0.00017303267718325556 0 -0.013204708642448616 0.00055367496047743173 0 -0.012450532758102619 4.0436036619734233e-05 0 -0.01584917971365387 0.0077221564992895229 0 -0.015606599224240963 0.0078120101474707547 0 -0.016341663388005596 0.0080920862772177974 0 -0.01345607360859191 0.0023953928887969086 0 -0.014441210096549962 0.0041706823595953043 0 -0.01584917971365387 0.0077221564992895229 0 -0.016341663388005596 0.0080920862772177974 0 -0.016158613520807632 0.0077553174692700259 0 -0.016341663388005596 0.0080920862772177974 0 -0.016477423736365224 0.0079208003373544486 0 -0.01678805077144627 0.008283361257978605 0 -0.017353136002431626 0.0084610530412715657 0 -0.015334797105876498 0.0049726245744661701 0 -0.016477423736365224 0.0079208003373544486 0 -0.016668682338485161 0.0078265451646034063 0 -0.01678805077144627 0.008283361257978605 0 -0.016358492030203672 0.0076802146462724196 0 -0.016477423736365224 0.0079208003373544486 0 -0.016668682338485161 0.0078265451646034063 0 -0.016358492030203672 0.0076802146462724196 0 -0.016341663388005596 0.0080920862772177974 0 -0.016477423736365224 0.0079208003373544486 0 -0.017548811317965443 0.007612315500227505 0 -0.017430600955860361 0.0077517984680610871 0 -0.01756395451084336 0.0076626136704038622 0 -0.017430600955860361 0.0077517984680610871 0 -0.01756395451084336 0.0076626136704038622 0 -0.017516309590231888 0.0077017521106849569 0 -0.017569298193868786 0.0076915735105229921 0 -0.01756395451084336 0.0076626136704038622 0 -0.017516309590231888 0.0077017521106849569 0 -0.014441210096549962 0.0041706823595953043 0 -0.015334797105876498 0.0049726245744661701 0 -0.012184726110735861 -0.00064183338615169349 0 -0.012564472010378563 -0.00017303267718325556 0 -0.012297791802148959 -0.00043374780198253518 0 -0.012450532758102619 4.0436036619734233e-05 0 -0.012068334764410368 -0.00031291622938519649 0 -0.012297791802148959 -0.00043374780198253518 0 -0.012332274531257209 -0.00043680292486145898 0 -0.011936700728032223 -0.0010807895674318751 0 -0.015502032037930836 0.0059046478852770668 0 -0.015696726042142829 0.0065789874444461939 0 -0.015962962833350313 0.0060016558815583435 0 -0.015502032037930836 0.0059046478852770668 0 -0.015696726042142829 0.0065789874444461939 0 -0.01499992000253738 0.0066512265276354792 0 -0.014999902381915139 0.0057731547665593203 0 -0.015502032037930836 0.0059046478852770668 0 -0.01499992000253738 0.0066512265276354792 0 -0.015696726042142829 0.0065789874444461939 0 -0.01499992000253738 0.0066512265276354792 0 -0.015340382115923394 0.0071473338490461447 0 -0.014999937597756337 0.0075292375277308671 0 -0.01499992000253738 0.0066512265276354792 0 -0.015340382115923394 0.0071473338490461447 0 -0.015426876127480163 0.0078086848950380226 0 -0.014999937597756337 0.0075292375277308671 0 -0.015340382115923394 0.0071473338490461447 0 -0.015426876127480163 0.0078086848950380226 0 -0.015340382115923394 0.0071473338490461447 0 -0.015758920120957969 0.0073177103829022167 0 -0.015696726042142829 0.0065789874444461939 0 -0.015340382115923394 0.0071473338490461447 0 -0.015758920120957969 0.0073177103829022167 0 -0.015696726042142829 0.0065789874444461939 0 -0.015758920120957969 0.0073177103829022167 0 -0.016163921290964396 0.0070238235587966177 0 -0.015758920120957969 0.0073177103829022167 0 -0.016139453350007871 0.0075319716744523275 0 -0.016163921290964396 0.0070238235587966177 0 -0.016139453350007871 0.0075319716744523275 0 -0.016163921290964396 0.0070238235587966177 0 -0.016559052650178409 0.0075767023801571248 0 -0.016163921290964396 0.0070238235587966177 0 -0.016360829906606818 0.0064099579096262398 0 -0.016730420846428323 0.0071585231951560111 0 -0.015696726042142829 0.0065789874444461939 0 -0.016360829906606818 0.0064099579096262398 0 -0.015962962833350313 0.0060016558815583435 0 -0.015696726042142829 0.0065789874444461939 0 -0.016163921290964396 0.0070238235587966177 0 -0.016360829906606818 0.0064099579096262398 0 -0.015502032037930836 0.0059046478852770668 0 -0.015962962833350313 0.0060016558815583435 0 -0.015879723076897358 0.0054655160982114504 0 -0.016360829906606818 0.0064099579096262398 0 -0.015962962833350313 0.0060016558815583435 0 -0.016440459768392979 0.0055739700051606351 0 -0.016360829906606818 0.0064099579096262398 0 -0.016722214220658865 0.006056491904696714 0 -0.016440459768392979 0.0055739700051606351 0 -0.016722214220658865 0.006056491904696714 0 -0.017073731149960747 0.0057216329193741314 0 -0.016440459768392979 0.0055739700051606351 0 -0.016722214220658865 0.006056491904696714 0 -0.017030350917139149 0.0065031114701223532 0 -0.017073731149960747 0.0057216329193741314 0 -0.017030350917139149 0.0065031114701223532 0 -0.017445798497458326 0.0060245009067200518 0 -0.017073731149960747 0.0057216329193741314 0 -0.016360829906606818 0.0064099579096262398 0 -0.016722214220658865 0.006056491904696714 0 -0.017030350917139149 0.0065031114701223532 0 -0.016360829906606818 0.0064099579096262398 0 -0.017030350917139149 0.0065031114701223532 0 -0.016730420846428323 0.0071585231951560111 0 -0.016163921290964396 0.0070238235587966177 0 -0.016730420846428323 0.0071585231951560111 0 -0.016559052650178409 0.0075767023801571248 0 -0.016995514444507399 0.007760643487304447 0 -0.016730420846428323 0.0071585231951560111 0 -0.016559052650178409 0.0075767023801571248 0 -0.016995514444507399 0.007760643487304447 0 -0.016730420846428323 0.0071585231951560111 0 -0.017368593766227892 0.0074052777155478424 0 -0.017030350917139149 0.0065031114701223532 0 -0.016730420846428323 0.0071585231951560111 0 -0.017368593766227892 0.0074052777155478424 0 -0.017509020221915278 0.0076515296510188593 0 -0.017368593766227892 0.0074052777155478424 0 -0.017362223411720463 0.0073998046548767833 0 -0.017509020221915278 0.0076515296510188593 0 -0.017368593766227892 0.0074052777155478424 0 -0.017376161244272464 0.0077301103589337101 0 -0.016995514444507399 0.007760643487304447 0 -0.017368593766227892 0.0074052777155478424 0 -0.017376161244272464 0.0077301103589337101 0 -0.017030350917139149 0.0065031114701223532 0 -0.017368593766227892 0.0074052777155478424 0 -0.017984140835478484 0.0064214618168611541 0 -0.017401050859992825 0.0073712428360917775 0 -0.017662382265660095 0.0069167870142183537 0 -0.017030350917139149 0.0065031114701223532 0 -0.017984140835478484 0.0064214618168611541 0 -0.017445798497458326 0.0060245009067200518 0 -0.017984140835478484 0.0064214618168611541 0 -0.017445798497458326 0.0060245009067200518 0 -0.017701105871846451 0.0054716168851802732 0 -0.017984140835478484 0.0064214618168611541 0 -0.018392618647916161 0.0055497686554819778 0 -0.017701105871846451 0.0054716168851802732 0 -0.017662382265660095 0.0069167870142183537 0 -0.017903595344158064 0.0063329206619735347 0 -0.018392618647916161 0.0055497686554819778 0 -0.017701105871846451 0.0054716168851802732 0 -0.018181231508390596 0.0049768840420246138 0 -0.017701105871846451 0.0054716168851802732 0 -0.017750719693133032 0.0046908815806386631 0 -0.017098739286184061 0.0050611967060012093 0 -0.017701105871846451 0.0054716168851802732 0 -0.018181231508390596 0.0049768840420246138 0 -0.017750719693133032 0.0046908815806386631 0 -0.018744417288620484 0.0047102067546994824 0 -0.018392618647916161 0.0055497686554819778 0 -0.018181231508390596 0.0049768840420246138 0 -0.018181231508390596 0.0049768840420246138 0 -0.018327694378764473 0.0045597024171871395 0 -0.017750719693133032 0.0046908815806386631 0 -0.018744417288620484 0.0047102067546994824 0 -0.018181231508390596 0.0049768840420246138 0 -0.018327694378764473 0.0045597024171871395 0 -0.018327694378764473 0.0045597024171871395 0 -0.018103328924721215 0.0041394921330316003 0 -0.017750719693133032 0.0046908815806386631 0 -0.018602027980716883 0.0041651643420921721 0 -0.018327694378764473 0.0045597024171871395 0 -0.018103328924721215 0.0041394921330316003 0 -0.018602027980716883 0.0041651643420921721 0 -0.018103328924721215 0.0041394921330316003 0 -0.018329363162721955 0.0034034148872206459 0 -0.018103328924721215 0.0041394921330316003 0 -0.017747557974991016 0.0036921769702260893 0 -0.018329363162721955 0.0034034148872206459 0 -0.018103328924721215 0.0041394921330316003 0 -0.017577086836774891 0.0041474057433553346 0 -0.017747557974991016 0.0036921769702260893 0 -0.017577086836774891 0.0041474057433553346 0 -0.017168752632311771 0.0037772662990399075 0 -0.017747557974991016 0.0036921769702260893 0 -0.017577086836774891 0.0041474057433553346 0 -0.017750719693133032 0.0046908815806386631 0 -0.017134454834541655 0.0044364312012802835 0 -0.018103328924721215 0.0041394921330316003 0 -0.017577086836774891 0.0041474057433553346 0 -0.017750719693133032 0.0046908815806386631 0 -0.017750719693133032 0.0046908815806386631 0 -0.017134454834541655 0.0044364312012802835 0 -0.017098739286184061 0.0050611967060012093 0 -0.017577086836774891 0.0041474057433553346 0 -0.017134454834541655 0.0044364312012802835 0 -0.017168752632311771 0.0037772662990399075 0 -0.017134454834541655 0.0044364312012802835 0 -0.017168752632311771 0.0037772662990399075 0 -0.016487387731414518 0.0040871104881654002 0 -0.017168752632311771 0.0037772662990399075 0 -0.016487387731414518 0.0040871104881654002 0 -0.01674737188588267 0.0033970585961549294 0 -0.017134454834541655 0.0044364312012802835 0 -0.016610013283240521 0.0047357325067681555 0 -0.016487387731414518 0.0040871104881654002 0 -0.017134454834541655 0.0044364312012802835 0 -0.016610013283240521 0.0047357325067681555 0 -0.017098739286184061 0.0050611967060012093 0 -0.016610013283240521 0.0047357325067681555 0 -0.017098739286184061 0.0050611967060012093 0 -0.016440459768392979 0.0055739700051606351 0 -0.017445798497458326 0.0060245009067200518 0 -0.017701105871846451 0.0054716168851802732 0 -0.017073731149960747 0.0057216329193741314 0 -0.017701105871846451 0.0054716168851802732 0 -0.017098739286184061 0.0050611967060012093 0 -0.017073731149960747 0.0057216329193741314 0 -0.017098739286184061 0.0050611967060012093 0 -0.017073731149960747 0.0057216329193741314 0 -0.016440459768392979 0.0055739700051606351 0 -0.016440459768392979 0.0055739700051606351 0 -0.015879723076897358 0.0054655160982114504 0 -0.016088533366440939 0.0048627284191590653 0 -0.015962962833350313 0.0060016558815583435 0 -0.016440459768392979 0.0055739700051606351 0 -0.015879723076897358 0.0054655160982114504 0 -0.015879723076897358 0.0054655160982114504 0 -0.016088533366440939 0.0048627284191590653 0 -0.015486053313434259 0.0049355598823625823 0 -0.016610013283240521 0.0047357325067681555 0 -0.016440459768392979 0.0055739700051606351 0 -0.016088533366440939 0.0048627284191590653 0 -0.016610013283240521 0.0047357325067681555 0 -0.016088533366440939 0.0048627284191590653 0 -0.016487387731414518 0.0040871104881654002 0 -0.016487387731414518 0.0040871104881654002 0 -0.015789963757474844 0.0042355129204510646 0 -0.016155277565600194 0.0033714572121454458 0 -0.015789963757474844 0.0042355129204510646 0 -0.015546249008653304 0.0036356945800512276 0 -0.016155277565600194 0.0033714572121454458 0 -0.016088533366440939 0.0048627284191590653 0 -0.016487387731414518 0.0040871104881654002 0 -0.015789963757474844 0.0042355129204510646 0 -0.016088533366440939 0.0048627284191590653 0 -0.015789963757474844 0.0042355129204510646 0 -0.015486053313434259 0.0049355598823625823 0 -0.015789963757474844 0.0042355129204510646 0 -0.014999911251075497 0.0040169571026472568 0 -0.015486053313434259 0.0049355598823625823 0 -0.015789963757474844 0.0042355129204510646 0 -0.014999911251075497 0.0040169571026472568 0 -0.015546249008653304 0.0036356945800512276 0 -0.014999911251075497 0.0040169571026472568 0 -0.014999918065710905 0.004895056435049441 0 -0.015486053313434259 0.0049355598823625823 0 -0.014999902381915139 0.0057731547665593203 0 -0.015502032037930836 0.0059046478852770668 0 -0.015486053313434259 0.0049355598823625823 0 -0.015502032037930836 0.0059046478852770668 0 -0.015879723076897358 0.0054655160982114504 0 -0.015486053313434259 0.0049355598823625823 0 -0.014999902381915139 0.0057731547665593203 0 -0.014999918065710905 0.004895056435049441 0 -0.015486053313434259 0.0049355598823625823 0 -0.014999949428395266 0.0022608141539808627 0 -0.015527384360598931 0.0024216568110808061 0 -0.01545816708600376 0.0017607893674492379 0 -0.015527384360598931 0.0024216568110808061 0 -0.015834541999582175 0.00196835386958324 0 -0.01545816708600376 0.0017607893674492379 0 -0.015527384360598931 0.0024216568110808061 0 -0.015698970877945844 0.0030336952029923099 0 -0.016105622596881791 0.0025028460021828763 0 -0.014999949428395266 0.0022608141539808627 0 -0.015527384360598931 0.0024216568110808061 0 -0.014999932099916511 0.0031388828547081766 0 -0.014999911251075497 0.0040169571026472568 0 -0.014999932099916511 0.0031388828547081766 0 -0.015546249008653304 0.0036356945800512276 0 -0.014999932099916511 0.0031388828547081766 0 -0.015546249008653304 0.0036356945800512276 0 -0.015698970877945844 0.0030336952029923099 0 -0.015527384360598931 0.0024216568110808061 0 -0.014999932099916511 0.0031388828547081766 0 -0.015698970877945844 0.0030336952029923099 0 -0.015698970877945844 0.0030336952029923099 0 -0.016155277565600194 0.0033714572121454458 0 -0.016105622596881791 0.0025028460021828763 0 -0.015546249008653304 0.0036356945800512276 0 -0.015698970877945844 0.0030336952029923099 0 -0.016155277565600194 0.0033714572121454458 0 -0.016487387731414518 0.0040871104881654002 0 -0.016155277565600194 0.0033714572121454458 0 -0.01674737188588267 0.0033970585961549294 0 -0.016155277565600194 0.0033714572121454458 0 -0.01665704791462597 0.0027718764708672128 0 -0.01674737188588267 0.0033970585961549294 0 -0.016155277565600194 0.0033714572121454458 0 -0.016105622596881791 0.0025028460021828763 0 -0.01665704791462597 0.0027718764708672128 0 -0.016105622596881791 0.0025028460021828763 0 -0.016576248228434808 0.0021061605640966779 0 -0.01665704791462597 0.0027718764708672128 0 -0.016105622596881791 0.0025028460021828763 0 -0.015834541999582175 0.00196835386958324 0 -0.016231164276012823 0.0018096957111448375 0 -0.015527384360598931 0.0024216568110808061 0 -0.016105622596881791 0.0025028460021828763 0 -0.015834541999582175 0.00196835386958324 0 -0.016105622596881791 0.0025028460021828763 0 -0.016576248228434808 0.0021061605640966779 0 -0.016231164276012823 0.0018096957111448375 0 -0.017009564670120037 0.0022732026863802289 0 -0.01665704791462597 0.0027718764708672128 0 -0.017488974777665006 0.0029048621574607114 0 -0.016576248228434808 0.0021061605640966779 0 -0.017009564670120037 0.0022732026863802289 0 -0.01683984848685394 0.0017238312386559573 0 -0.017009564670120037 0.0022732026863802289 0 -0.017524006322410864 0.0023357106505848451 0 -0.01726353339819028 0.0018406165213071062 0 -0.017009564670120037 0.0022732026863802289 0 -0.01726353339819028 0.0018406165213071062 0 -0.01683984848685394 0.0017238312386559573 0 -0.017009564670120037 0.0022732026863802289 0 -0.017488974777665006 0.0029048621574607114 0 -0.017524006322410864 0.0023357106505848451 0 -0.016576248228434808 0.0021061605640966779 0 -0.017009564670120037 0.0022732026863802289 0 -0.01665704791462597 0.0027718764708672128 0 -0.01665704791462597 0.0027718764708672128 0 -0.01674737188588267 0.0033970585961549294 0 -0.017488974777665006 0.0029048621574607114 0 -0.017168752632311771 0.0037772662990399075 0 -0.01674737188588267 0.0033970585961549294 0 -0.017488974777665006 0.0029048621574607114 0 -0.017488974777665006 0.0029048621574607114 0 -0.017923990699727749 0.0027773232078492065 0 -0.017524006322410864 0.0023357106505848451 0 -0.017468727441277417 0.0029262602976561271 0 -0.018298106040432281 0.0032098258221444128 0 -0.017168752632311771 0.0037772662990399075 0 -0.017488974777665006 0.0029048621574607114 0 -0.017747557974991016 0.0036921769702260893 0 -0.017488974777665006 0.0029048621574607114 0 -0.017747557974991016 0.0036921769702260893 0 -0.018329363162721955 0.0034034148872206459 0 -0.017488974777665006 0.0029048621574607114 0 -0.017979853892735782 0.0031422912985271303 0 -0.017923990699727749 0.0027773232078492065 0 -0.017923990699727749 0.0027773232078492065 0 -0.017896218807711813 0.0023405583240487522 0 -0.018319583753428112 0.0027159262114079641 0 -0.017923990699727749 0.0027773232078492065 0 -0.017896218807711813 0.0023405583240487522 0 -0.017524006322410864 0.0023357106505848451 0 -0.017524006322410864 0.0023357106505848451 0 -0.017804113533269796 0.0018968871192964745 0 -0.01726353339819028 0.0018406165213071062 0 -0.017896218807711813 0.0023405583240487522 0 -0.017804113533269796 0.0018968871192964745 0 -0.018243885206222651 0.0021900062686235661 0 -0.017896218807711813 0.0023405583240487522 0 -0.017524006322410864 0.0023357106505848451 0 -0.017804113533269796 0.0018968871192964745 0 -0.017804113533269796 0.0018968871192964745 0 -0.017423508948933294 0.0014929885066221535 0 -0.017931430330193888 0.0013472571218306499 0 -0.017423508948933294 0.0014929885066221535 0 -0.017038552811925026 0.0012934010222580791 0 -0.01726353339819028 0.0018406165213071062 0 -0.017804113533269796 0.0018968871192964745 0 -0.017423508948933294 0.0014929885066221535 0 -0.01726353339819028 0.0018406165213071062 0 -0.017423508948933294 0.0014929885066221535 0 -0.017931430330193888 0.0013472571218306499 0 -0.017113447396491937 0.00084556364358102779 0 -0.017423508948933294 0.0014929885066221535 0 -0.017113447396491937 0.00084556364358102779 0 -0.017038552811925026 0.0012934010222580791 0 -0.016851532058987009 0.00056222445438652824 0 -0.017142563416003211 0.00082900484480247585 0 -0.015973461410665322 -0.00017058748321228996 0 -0.01635033732653873 0.00072394523448363448 0 -0.017113447396491937 0.00084556364358102779 0 -0.01635033732653873 0.00072394523448363448 0 -0.016554596724676955 0.0013021508002418272 0 -0.015717064279830311 0.00080132671594111411 0 -0.015973461410665322 -0.00017058748321228996 0 -0.01635033732653873 0.00072394523448363448 0 -0.015717064279830311 0.00080132671594111411 0 -0.01614475466057291 0.0019229438395809146 0 -0.016792101764481603 0.0019975645467584725 0 -0.016554596724676955 0.0013021508002418272 0 -0.01614475466057291 0.0019229438395809146 0 -0.016554596724676955 0.0013021508002418272 0 -0.015717584043759714 0.0016572811192881508 0 -0.016554596724676955 0.0013021508002418272 0 -0.015717064279830311 0.00080132671594111411 0 -0.015717584043759714 0.0016572811192881508 0 -0.016792101764481603 0.0019975645467584725 0 -0.016554596724676955 0.0013021508002418272 0 -0.017089041168892174 0.0015588243809596775 0 -0.016554596724676955 0.0013021508002418272 0 -0.017089041168892174 0.0015588243809596775 0 -0.017436543761792076 0.0012825113107517629 0 -0.016575563218179178 0.0020407753649218001 0 -0.01729642601101529 0.0016950861963268553 0 -0.016792101764481603 0.0019975645467584725 0 -0.017089041168892174 0.0015588243809596775 0 -0.017548649201343004 0.0015548801739842229 0 -0.016585214624003534 0.0012753314334735557 0 -0.017257114798614411 0.0011299913087401362 0 -0.016554596724676955 0.0013021508002418272 0 -0.017113447396491937 0.00084556364358102779 0 -0.017133638446613624 0.00096853792164177939 0 -0.01635033732653873 0.00072394523448363448 0 -0.016554596724676955 0.0013021508002418272 0 -0.017113447396491937 0.00084556364358102779 0 -0.017051800111412128 0.00097027470712480037 0 -0.016981758827821006 0.00097017407051041486 0 -0.016879139872498523 0.0010765080881060235 0 -0.016981758827821006 0.00097017407051041486 0 -0.017133638446613624 0.00096853792164177939 0 -0.016853219843335623 0.0009387820367037044 0 -0.017051800111412128 0.00097027470712480037 0 -0.016981758827821006 0.00097017407051041486 0 -0.017133638446613624 0.00096853792164177939 0 -0.017113447396491937 0.00084556364358102779 0 -0.017051800111412128 0.00097027470712480037 0 -0.017133638446613624 0.00096853792164177939 0 -0.017089041168892174 0.0015588243809596775 0 -0.017436543761792076 0.0012825113107517629 0 -0.017548649201343004 0.0015548801739842229 0 -0.017436543761792076 0.0012825113107517629 0 -0.017548649201343004 0.0015548801739842229 0 -0.018177417155280866 0.0012221420995032768 0 -0.016706556323399173 0.0021708765379558365 0 -0.016925560690122503 0.0017930844537501099 0 -0.017261468951731352 0.0017968661594217979 0 -0.017257114798614411 0.0011299913087401362 0 -0.017333624812675155 0.0010231723305808888 0 -0.016925560690122503 0.0017930844537501099 0 -0.017261468951731352 0.0017968661594217979 0 -0.017349219195823624 0.001558640676346424 0 -0.01729642601101529 0.0016950861963268553 0 -0.017333624812675155 0.0010231723305808888 0 -0.017133638446613624 0.00096853792164177939 0 -0.016664112108369895 0.00079130445055074314 0 -0.016853219843335623 0.0009387820367037044 0 -0.016664112108369895 0.00079130445055074314 0 -0.016853219843335623 0.0009387820367037044 0 -0.016611141718932763 0.0010402050553010563 0 -0.016853219843335623 0.0009387820367037044 0 -0.016879139872498523 0.0010765080881060235 0 -0.016611141718932763 0.0010402050553010563 0 -0.016981758827821006 0.00097017407051041486 0 -0.016853219843335623 0.0009387820367037044 0 -0.016879139872498523 0.0010765080881060235 0 -0.016879139872498523 0.0010765080881060235 0 -0.016672455103638358 0.0013092979885651903 0 -0.016611141718932763 0.0010402050553010563 0 -0.016879139872498523 0.0010765080881060235 0 -0.016672455103638358 0.0013092979885651903 0 -0.017038552811925026 0.0012934010222580791 0 -0.017051800111412128 0.00097027470712480037 0 -0.016879139872498523 0.0010765080881060235 0 -0.017038552811925026 0.0012934010222580791 0 -0.017113447396491937 0.00084556364358102779 0 -0.017051800111412128 0.00097027470712480037 0 -0.017038552811925026 0.0012934010222580791 0 -0.017038552811925026 0.0012934010222580791 0 -0.01726353339819028 0.0018406165213071062 0 -0.01683984848685394 0.0017238312386559573 0 -0.016672455103638358 0.0013092979885651903 0 -0.01683984848685394 0.0017238312386559573 0 -0.016530530053177377 0.0016595348080634227 0 -0.016672455103638358 0.0013092979885651903 0 -0.017038552811925026 0.0012934010222580791 0 -0.01683984848685394 0.0017238312386559573 0 -0.016576248228434808 0.0021061605640966779 0 -0.01683984848685394 0.0017238312386559573 0 -0.016530530053177377 0.0016595348080634227 0 -0.016530530053177377 0.0016595348080634227 0 -0.016231164276012823 0.0018096957111448375 0 -0.016313353881228912 0.0013714108540361786 0 -0.016576248228434808 0.0021061605640966779 0 -0.016530530053177377 0.0016595348080634227 0 -0.016231164276012823 0.0018096957111448375 0 -0.016231164276012823 0.0018096957111448375 0 -0.015938417292923772 0.0014188627516145934 0 -0.016313353881228912 0.0013714108540361786 0 -0.015834541999582175 0.00196835386958324 0 -0.016231164276012823 0.0018096957111448375 0 -0.015938417292923772 0.0014188627516145934 0 -0.015938417292923772 0.0014188627516145934 0 -0.016186976750033433 0.0011364366422764712 0 -0.016313353881228912 0.0013714108540361786 0 -0.015938417292923772 0.0014188627516145934 0 -0.015942662015706308 0.00097570760414937042 0 -0.016186976750033433 0.0011364366422764712 0 -0.016672455103638358 0.0013092979885651903 0 -0.016530530053177377 0.0016595348080634227 0 -0.016313353881228912 0.0013714108540361786 0 -0.016186976750033433 0.0011364366422764712 0 -0.016406259896051403 0.0011185104845026555 0 -0.016313353881228912 0.0013714108540361786 0 -0.016672455103638358 0.0013092979885651903 0 -0.016406259896051403 0.0011185104845026555 0 -0.016313353881228912 0.0013714108540361786 0 -0.016672455103638358 0.0013092979885651903 0 -0.016406259896051403 0.0011185104845026555 0 -0.016611141718932763 0.0010402050553010563 0 -0.017333624812675155 0.0010231723305808888 0 -0.016612929105372615 0.00072276891877565326 0 -0.017126336437603633 0.00040023249967526323 0 -0.016536899608078408 0.0006856432555749502 0 -0.016340285391890769 0.00045815690466035968 0 -0.016406259896051403 0.0011185104845026555 0 -0.016611141718932763 0.0010402050553010563 0 -0.016306670859059499 0.00090727832078840763 0 -0.016186976750033433 0.0011364366422764712 0 -0.016406259896051403 0.0011185104845026555 0 -0.016306670859059499 0.00090727832078840763 0 -0.017333624812675155 0.0010231723305808888 0 -0.016375770683511919 0.00081728074548763222 0 -0.016664112108369895 0.00079130445055074314 0 -0.016611141718932763 0.0010402050553010563 0 -0.016306670859059499 0.00090727832078840763 0 -0.017261468951731352 0.0017968661594217979 0 -0.017349219195823624 0.001558640676346424 0 -0.017723641608158848 0.0014998722556374543 0 -0.016338676323785783 -0.00060649164949677853 0 -0.016084979740030071 -0.00022554466158128186 0 -0.016016027380162751 8.8641119220522039e-05 0 -0.016814463407544316 0.00060681362898131386 0 -0.016612929105372615 0.00072276891877565326 0 -0.016189661602425239 -0.00055218945761074077 0 -0.016338676323785783 -0.00060649164949677853 0 -0.016126110774464308 -0.00039942770638324925 0 -0.016338676323785783 -0.00060649164949677853 0 -0.016084979740030071 -0.00022554466158128186 0 -0.016126110774464308 -0.00039942770638324925 0 -0.016084979740030071 -0.00022554466158128186 0 -0.016126110774464308 -0.00039942770638324925 0 -0.015952932622859 -0.00020814660565903056 0 -0.01606340319627355 -0.00053565525366674083 0 -0.016126110774464308 -0.00039942770638324925 0 -0.015952932622859 -0.00020814660565903056 0 -0.015952932622859 -0.00020814660565903056 0 -0.015835002092099235 4.1237538769846308e-05 0 -0.01568153536664528 -0.0001231343288899365 0 -0.015830073877110624 -0.00044678145039128638 0 -0.015952932622859 -0.00020814660565903056 0 -0.01568153536664528 -0.0001231343288899365 0 -0.015976332598241664 -7.6724745146220137e-05 0 -0.015835002092099235 4.1237538769846308e-05 0 -0.016016027380162751 8.8641119220522039e-05 0 -0.016084979740030071 -0.00022554466158128186 0 -0.015952932622859 -0.00020814660565903056 0 -0.015976332598241664 -7.6724745146220137e-05 0 -0.016084979740030071 -0.00022554466158128186 0 -0.015976332598241664 -7.6724745146220137e-05 0 -0.016016027380162751 8.8641119220522039e-05 0 -0.015952932622859 -0.00020814660565903056 0 -0.015976332598241664 -7.6724745146220137e-05 0 -0.015835002092099235 4.1237538769846308e-05 0 -0.015942662015706308 0.00097570760414937042 0 -0.016198292150334255 0.00052987664456398875 0 -0.015543630622121805 0.00048407872454997322 0 -0.016612929105372615 0.00072276891877565326 0 -0.015388665820357977 0.00038851646067583195 0 -0.016327308660494373 0.00047193320152146397 0 -0.016198292150334255 0.00052987664456398875 0 -0.015543630622121805 0.00048407872454997322 0 -0.015835002092099235 4.1237538769846308e-05 0 -0.016016027380162751 8.8641119220522039e-05 0 -0.015543630622121805 0.00048407872454997322 0 -0.016536899608078408 0.0006856432555749502 0 -0.016340285391890769 0.00045815690466035968 0 -0.016198292150334255 0.00052987664456398875 0 -0.016612929105372615 0.00072276891877565326 0 -0.016492533918786228 0.00072278398742903465 0 -0.015942662015706308 0.00097570760414937042 0 -0.016536899608078408 0.0006856432555749502 0 -0.016198292150334255 0.00052987664456398875 0 -0.015942662015706308 0.00097570760414937042 0 -0.016186976750033433 0.0011364366422764712 0 -0.016306670859059499 0.00090727832078840763 0 -0.016008892156092438 0.00096308542469456231 0 -0.016375770683511919 0.00081728074548763222 0 -0.015942662015706308 0.00097570760414937042 0 -0.015543630622121805 0.00048407872454997322 0 -0.015448350312995233 0.00108561777926666 0 -0.015835002092099235 4.1237538769846308e-05 0 -0.015543630622121805 0.00048407872454997322 0 -0.01568153536664528 -0.0001231343288899365 0 -0.015543630622121805 0.00048407872454997322 0 -0.01568153536664528 -0.0001231343288899365 0 -0.015350843224874648 -2.0601509132096276e-05 0 -0.01499994932383078 -0.00037357208167824985 0 -0.015350843224874648 -2.0601509132096276e-05 0 -0.014999874847904274 0.00050449171779971575 0 -0.015543630622121805 0.00048407872454997322 0 -0.015350843224874648 -2.0601509132096276e-05 0 -0.014999874847904274 0.00050449171779971575 0 -0.015543630622121805 0.00048407872454997322 0 -0.014999874847904274 0.00050449171779971575 0 -0.015448350312995233 0.00108561777926666 0 -0.014999874847904274 0.00050449171779971575 0 -0.014999960772508328 0.0013828176890389012 0 -0.015448350312995233 0.00108561777926666 0 -0.015938417292923772 0.0014188627516145934 0 -0.015942662015706308 0.00097570760414937042 0 -0.015448350312995233 0.00108561777926666 0 -0.015834541999582175 0.00196835386958324 0 -0.015938417292923772 0.0014188627516145934 0 -0.01545816708600376 0.0017607893674492379 0 -0.015938417292923772 0.0014188627516145934 0 -0.015448350312995233 0.00108561777926666 0 -0.01545816708600376 0.0017607893674492379 0 -0.014999949428395266 0.0022608141539808627 0 -0.014999960772508328 0.0013828176890389012 0 -0.01545816708600376 0.0017607893674492379 0 -0.014999960772508328 0.0013828176890389012 0 -0.015448350312995233 0.00108561777926666 0 -0.01545816708600376 0.0017607893674492379 0 -0.01242992103400121 -0.00052523672252146464 0 -0.01200417580526587 -0.00037064626593694112 0 -0.011974584851342642 -0.00056148325987263393 0 -0.01242992103400121 -0.00052523672252146464 0 -0.012345841519078426 -0.00020844748637363151 0 -0.012612487816348047 -0.00024071087045873536 0 -0.012345841519078426 -0.00020844748637363151 0 -0.012612487816348047 -0.00024071087045873536 0 -0.012654537252266078 -8.6480753992517495e-05 0 -0.012345841519078426 -0.00020844748637363151 0 -0.01200417580526587 -0.00037064626593694112 0 -0.012103010012564062 -7.4568117460872038e-05 0 -0.01242992103400121 -0.00052523672252146464 0 -0.012345841519078426 -0.00020844748637363151 0 -0.01200417580526587 -0.00037064626593694112 0 -0.011605875125983371 -0.00033290509692235961 0 -0.01200417580526587 -0.00037064626593694112 0 -0.011741933967306698 -0.00015667619490123894 0 -0.01200417580526587 -0.00037064626593694112 0 -0.012103010012564062 -7.4568117460872038e-05 0 -0.011741933967306698 -0.00015667619490123894 0 -0.011605875125983371 -0.00033290509692235961 0 -0.011741933967306698 -0.00015667619490123894 0 -0.011400789018626121 -0.00015503677435351596 0 -0.011605875125983371 -0.00033290509692235961 0 -0.011767382496917186 -0.0004775172961178021 0 -0.011524994710786758 -0.00044714375450690818 0 -0.011605875125983371 -0.00033290509692235961 0 -0.01200417580526587 -0.00037064626593694112 0 -0.011767382496917186 -0.0004775172961178021 0 -0.01200417580526587 -0.00037064626593694112 0 -0.011974584851342642 -0.00056148325987263393 0 -0.011767382496917186 -0.0004775172961178021 0 -0.011974584851342642 -0.00056148325987263393 0 -0.011767382496917186 -0.0004775172961178021 0 -0.011764519210529737 -0.00062813487087348902 0 -0.011767382496917186 -0.0004775172961178021 0 -0.011764519210529737 -0.00062813487087348902 0 -0.011524994710786758 -0.00044714375450690818 0 -0.011974584851342642 -0.00056148325987263393 0 -0.011764519210529737 -0.00062813487087348902 0 -0.011965068290840609 -0.00064630020363196713 0 -0.012067732807668406 -0.000681169696623066 0 -0.011965068290840609 -0.00064630020363196713 0 -0.012119571220134951 -0.00060948330292188578 0 -0.011974584851342642 -0.00056148325987263393 0 -0.011965068290840609 -0.00064630020363196713 0 -0.012119571220134951 -0.00060948330292188578 0 -0.011946734213891731 -0.00052156192087888945 0 -0.01215524663616147 -0.00049542822232913862 0 -0.012183060174137901 -0.00032847856431710096 0 -0.011974584851342642 -0.00056148325987263393 0 -0.012119571220134951 -0.00060948330292188578 0 -0.012183060174137901 -0.00032847856431710096 0 -0.012119571220134951 -0.00060948330292188578 0 -0.012341069570946136 -0.00051900598591626379 0 -0.012187559305343843 -0.00070596052005237817 0 -0.012119571220134951 -0.00060948330292188578 0 -0.012246572238634523 -0.00062587053863305455 0 -0.012325520785236039 -0.00069114779762739309 0 -0.012246572238634523 -0.00062587053863305455 0 -0.012341069570946136 -0.00051900598591626379 0 -0.012384051098545623 -0.00066326541366720955 0 -0.012341069570946136 -0.00051900598591626379 0 -0.012501986578742606 -0.00058166381639727016 0 -0.013641372830920061 0.00072264527883504582 0 -0.012315399356521544 -0.00098504498394109291 0 -0.012119571220134951 -0.00060948330292188578 0 -0.012246572238634523 -0.00062587053863305455 0 -0.012341069570946136 -0.00051900598591626379 0 -0.013641372830920061 0.00072264527883504582 0 -0.015001543564359916 0.0010653377388391196 0 -0.015001543564359916 0.0010653377388391196 0 -0.017589082422158585 0.0023342929942782504 0 -0.015634070797799663 0.0010985532255635357 0 -0.015513373192781703 0.0012466845407845526 0 -0.015581190927725469 0.0010566011785941413 0 -0.015613364111549091 0.0013269495489398923 0 -0.015634070797799663 0.0010985532255635357 0 -0.015513373192781703 0.0012466845407845526 0 -0.015001543564359916 0.0010653377388391196 0 -0.013948020098860274 0.00021732026029361873 0 -0.017589082422158585 0.0023342929942782504 0 -0.017171318791617748 0.0017324622956753791 0 -0.012341069570946136 -0.00051900598591626379 0 -0.012501986578742606 -0.00058166381639727016 0 -0.01248832240537096 -0.00037917896702749864 0 -0.012183060174137901 -0.00032847856431710096 0 -0.012341069570946136 -0.00051900598591626379 0 -0.01235939007560864 -0.00028343149777495044 0 -0.012341069570946136 -0.00051900598591626379 0 -0.01248832240537096 -0.00037917896702749864 0 -0.01235939007560864 -0.00028343149777495044 0 -0.018503226483674022 0.0034560225554195784 0 -0.017979853892735782 0.0031422912985271303 0 -0.018343697834555021 0.0031285153863782507 0 -0.017979853892735782 0.0031422912985271303 0 -0.017923990699727749 0.0027773232078492065 0 -0.018343697834555021 0.0031285153863782507 0 -0.017914663619438803 0.0043106643311678064 0 -0.018298106040432281 0.0032098258221444128 0 -0.018503226483674022 0.0034560225554195784 0 -0.018343697834555021 0.0031285153863782507 0 -0.018681704969956362 0.0030141568303458754 0 -0.016449100138284586 0.0032945687690749906 0 -0.017239044752590738 0.002788295426649092 0 -0.016797797235930074 0.0024400600288651086 0 -0.017914663619438803 0.0043106643311678064 0 -0.017589082422158585 0.0023342929942782504 0 -0.018343697834555021 0.0031285153863782507 0 -0.018681704969956362 0.0030141568303458754 0 -0.018319583753428112 0.0027159262114079641 0 -0.018486706495718291 0.0027121846621920658 0 -0.018204869777271489 0.0025028189584240836 0 -0.018617219128841581 0.0024073747935591718 0 -0.017589082422158585 0.0023342929942782504 0 -0.018444922832329239 0.0027370195774041191 0 -0.017923990699727749 0.0027773232078492065 0 -0.018343697834555021 0.0031285153863782507 0 -0.018319583753428112 0.0027159262114079641 0 -0.017848615127776621 0.0023013863419936958 0 -0.018444922832329239 0.0027370195774041191 0 -0.017896218807711813 0.0023405583240487522 0 -0.018204869777271489 0.0025028189584240836 0 -0.018243885206222651 0.0021900062686235661 0 -0.018543382615100443 0.0021036059384655303 0 -0.018243885206222651 0.0021900062686235661 0 -0.018617219128841581 0.0024073747935591718 0 -0.018204869777271489 0.0025028189584240836 0 -0.018243885206222651 0.0021900062686235661 0 -0.018617219128841581 0.0024073747935591718 0 -0.018543382615100443 0.0021036059384655303 0 -0.018741483974583122 0.0020552791670244742 0 -0.018388402254383446 0.0017550280979256399 0 -0.018543382615100443 0.0021036059384655303 0 -0.018243885206222651 0.0021900062686235661 0 -0.018388402254383446 0.0017550280979256399 0 -0.017804113533269796 0.0018968871192964745 0 -0.018243885206222651 0.0021900062686235661 0 -0.018388402254383446 0.0017550280979256399 0 -0.011946734213891731 -0.00052156192087888945 0 -0.014334770366578523 -3.4382283624357368e-05 0 -0.012183060174137901 -0.00032847856431710096 0 -0.01235939007560864 -0.00028343149777495044 0 -0.01248194564340256 -0.00011870500285550584 0 -0.01248832240537096 -0.00037917896702749864 0 -0.01235939007560864 -0.00028343149777495044 0 -0.012483766180041064 -0.00013984030462838034 0 -0.015634070797799663 0.0010985532255635357 0 -0.015581190927725469 0.0010566011785941413 0 -0.015644753055812477 0.00086201261452722988 0 -0.013948020098860274 0.00021732026029361873 0 -0.01477893247841521 0.0005146988183266474 0 -0.018543382615100443 0.0021036059384655303 0 -0.018617219128841581 0.0024073747935591718 0 -0.018739222289154738 0.0020847627129817635 0 -0.017171318791617748 0.0017324622956753791 0 -0.01477893247841521 0.0005146988183266474 0 -0.014334770366578523 -3.4382283624357368e-05 0 -0.016974609388081544 0.0005611811844894026 0 -0.01235939007560864 -0.00028343149777495044 0 -0.012483766180041064 -0.00013984030462838034 0 -0.01248194564340256 -0.00011870500285550584 0 -0.01477893247841521 0.0005146988183266474 0 -0.014334770366578523 -3.4382283624357368e-05 0 -0.018543382615100443 0.0021036059384655303 0 -0.018739222289154738 0.0020847627129817635 0 -0.018741483974583122 0.0020552791670244742 0 -0.012927941042027939 -0.00030887182890162508 0 -0.012782882981994417 -0.00016616585763792578 0 -0.012612487816348047 -0.00024071087045873536 0 -0.01242992103400121 -0.00052523672252146464 0 -0.012927941042027939 -0.00030887182890162508 0 -0.012612487816348047 -0.00024071087045873536 0 -0.012782882981994417 -0.00016616585763792578 0 -0.012612487816348047 -0.00024071087045873536 0 -0.012718018152197754 -0.00012286619605092209 0 -0.014334770366578523 -3.4382283624357368e-05 0 -0.013011027228344216 -0.00037358452003030153 0 -0.012927941042027939 -0.00030887182890162508 0 -0.012782882981994417 -0.00016616585763792578 0 -0.012813162106903772 -3.7119615543751177e-06 0 -0.012718018152197754 -0.00012286619605092209 0 -0.012654537252266078 -8.6480753992517495e-05 0 -0.012813162106903772 -3.7119615543751177e-06 0 -0.013700758563215296 -0.0013608428535609165 0 -0.01332553744046517 -0.00058151313970847523 0 -0.013608568781182728 -0.00048133912404405471 0 -0.012612487816348047 -0.00024071087045873536 0 -0.012718018152197754 -0.00012286619605092209 0 -0.012654537252266078 -8.6480753992517495e-05 0 -0.012654537252266078 -8.6480753992517495e-05 0 -0.012813162106903772 -3.7119615543751177e-06 0 -0.012684389253673597 8.1935443141433752e-05 0 -0.012782882981994417 -0.00016616585763792578 0 -0.012718018152197754 -0.00012286619605092209 0 -0.012813162106903772 -3.7119615543751177e-06 0 -0.013726548630264426 -0.0015327246425662988 0 -0.013608568781182728 -0.00048133912404405471 0 -0.014108596381077065 -0.00077144823556663683 0 -0.013608568781182728 -0.00048133912404405471 0 -0.014108596381077065 -0.00077144823556663683 0 -0.014317159039449466 -0.00018201566809686174 0 -0.014334770366578523 -3.4382283624357368e-05 0 -0.01353861150360477 -0.001094690220187622 0 -0.013726548630264426 -0.0015327246425662988 0 -0.014108596381077065 -0.00077144823556663683 0 -0.014787258080071428 -0.00088836149992958335 0 -0.013608568781182728 -0.00048133912404405471 0 -0.014317159039449466 -0.00018201566809686174 0 -0.013755875148589433 0.00034902862977730938 0 -0.014317159039449466 -0.00018201566809686174 0 -0.014602572192445285 0.00054310609949182679 0 -0.013755875148589433 0.00034902862977730938 0 -0.013608568781182728 -0.00048133912404405471 0 -0.012916179390440855 0.00034222703630327551 0 -0.013755875148589433 0.00034902862977730938 0 -0.01332553744046517 -0.00058151313970847523 0 -0.013608568781182728 -0.00048133912404405471 0 -0.012916179390440855 0.00034222703630327551 0 -0.013011027228344216 -0.00037358452003030153 0 -0.012908829008252218 0.00033516344017657415 0 -0.012813162106903772 -3.7119615543751177e-06 0 -0.012916179390440855 0.00034222703630327551 0 -0.012684389253673597 8.1935443141433752e-05 0 -0.017804113533269796 0.0018968871192964745 0 -0.017931430330193888 0.0013472571218306499 0 -0.018388402254383446 0.0017550280979256399 0 -0.016851532058987009 0.00056222445438652824 0 -0.016974609388081544 0.0005611811844894026 0 -0.014108596381077065 -0.00077144823556663683 0 -0.014787258080071428 -0.00088836149992958335 0 -0.014317159039449466 -0.00018201566809686174 0 -0.014317159039449466 -0.00018201566809686174 0 -0.015065398831167644 8.5306247311071168e-06 0 -0.014602572192445285 0.00054310609949182679 0 -0.014787258080071428 -0.00088836149992958335 0 -0.014317159039449466 -0.00018201566809686174 0 -0.015065398831167644 8.5306247311071168e-06 0 -0.015973461410665322 -0.00017058748321228996 0 -0.014787258080071428 -0.00088836149992958335 0 -0.015065398831167644 8.5306247311071168e-06 0 -0.015973461410665322 -0.00017058748321228996 0 -0.015065398831167644 8.5306247311071168e-06 0 -0.015717064279830311 0.00080132671594111411 0 -0.015065398831167644 8.5306247311071168e-06 0 -0.015717064279830311 0.00080132671594111411 0 -0.014602572192445285 0.00054310609949182679 0 -0.015717064279830311 0.00080132671594111411 0 -0.014602572192445285 0.00054310609949182679 0 -0.014808494993451646 0.0015819910330259312 0 -0.014598931490680431 0.00062548593835578929 0 -0.014623453988694428 0.0012657705659336867 0 -0.014602572192445285 0.00054310609949182679 0 -0.014436663872413916 0.0011783385153418245 0 -0.013880071751918379 0.00096946496822052693 0 -0.015339985614623491 0.0020518284978313537 0 -0.014808494993451646 0.0015819910330259312 0 -0.015717584043759714 0.0016572811192881508 0 -0.015717064279830311 0.00080132671594111411 0 -0.014808494993451646 0.0015819910330259312 0 -0.015717584043759714 0.0016572811192881508 0 -0.012916179390440855 0.00034222703630327551 0 -0.013755875148589433 0.00034902862977730938 0 -0.013247211437223421 0.00083728354812297157 0 -0.013755875148589433 0.00034902862977730938 0 -0.013880071751918379 0.00096946496822052693 0 -0.013247211437223421 0.00083728354812297157 0 -0.014602572192445285 0.00054310609949182679 0 -0.013755875148589433 0.00034902862977730938 0 -0.013880071751918379 0.00096946496822052693 0 -0.013308477496433189 0.0013369169337979995 0 -0.013940622189284914 0.0015392315073621823 0 -0.013880071751918379 0.00096946496822052693 0 -0.013940622189284914 0.0015392315073621823 0 -0.014436663872413916 0.0011783385153418245 0 -0.013880071751918379 0.00096946496822052693 0 -0.013308477496433189 0.0013369169337979995 0 -0.013880071751918379 0.00096946496822052693 0 -0.013247211437223421 0.00083728354812297157 0 -0.013308477496433189 0.0013369169337979995 0 -0.013247211437223421 0.00083728354812297157 0 -0.012637880888817832 0.00092949699175075252 0 -0.012160112527719754 0.0013182705995796887 0 -0.012637880888817832 0.00092949699175075252 0 -0.012015704577108474 0.00070178015304124932 0 -0.012381646336350907 0.00026410486705566823 0 -0.011846298103033536 0.00019037273531507956 0 -0.012015704577108474 0.00070178015304124932 0 -0.012637880888817832 0.00092949699175075252 0 -0.012381646336350907 0.00026410486705566823 0 -0.012015704577108474 0.00070178015304124932 0 -0.012916179390440855 0.00034222703630327551 0 -0.013247211437223421 0.00083728354812297157 0 -0.012637880888817832 0.00092949699175075252 0 -0.012916179390440855 0.00034222703630327551 0 -0.012637880888817832 0.00092949699175075252 0 -0.012381646336350907 0.00026410486705566823 0 -0.012916179390440855 0.00034222703630327551 0 -0.012684389253673597 8.1935443141433752e-05 0 -0.012381646336350907 0.00026410486705566823 0 -0.012684389253673597 8.1935443141433752e-05 0 -0.012381646336350907 0.00026410486705566823 0 -0.012439076976804403 -5.4470024984917899e-06 0 -0.012381646336350907 0.00026410486705566823 0 -0.012103010012564062 -7.4568117460872038e-05 0 -0.011846298103033536 0.00019037273531507956 0 -0.012381646336350907 0.00026410486705566823 0 -0.012103010012564062 -7.4568117460872038e-05 0 -0.012439076976804403 -5.4470024984917899e-06 0 -0.012345841519078426 -0.00020844748637363151 0 -0.012103010012564062 -7.4568117460872038e-05 0 -0.012439076976804403 -5.4470024984917899e-06 0 -0.012345841519078426 -0.00020844748637363151 0 -0.012654537252266078 -8.6480753992517495e-05 0 -0.012439076976804403 -5.4470024984917899e-06 0 -0.012654537252266078 -8.6480753992517495e-05 0 -0.012684389253673597 8.1935443141433752e-05 0 -0.012439076976804403 -5.4470024984917899e-06 0 -0.011741933967306698 -0.00015667619490123894 0 -0.011478164684278267 4.1968424391208071e-05 0 -0.011400789018626121 -0.00015503677435351596 0 -0.011741933967306698 -0.00015667619490123894 0 -0.011846298103033536 0.00019037273531507956 0 -0.011478164684278267 4.1968424391208071e-05 0 -0.012103010012564062 -7.4568117460872038e-05 0 -0.011741933967306698 -0.00015667619490123894 0 -0.011846298103033536 0.00019037273531507956 0 -0.011846298103033536 0.00019037273531507956 0 -0.011478164684278267 4.1968424391208071e-05 0 -0.011468600181642507 0.00037880062486800298 0 -0.011478164684278267 4.1968424391208071e-05 0 -0.011468600181642507 0.00037880062486800298 0 -0.011176275105049255 0.00018231294288959825 0 -0.011846298103033536 0.00019037273531507956 0 -0.011468600181642507 0.00037880062486800298 0 -0.012015704577108474 0.00070178015304124932 0 -0.012160112527719754 0.0013182705995796887 0 -0.012015704577108474 0.00070178015304124932 0 -0.011378118200743826 0.0010897018904624961 0 -0.011468600181642507 0.00037880062486800298 0 -0.011378118200743826 0.0010897018904624961 0 -0.010970023392187542 0.0003095169553756985 0 -0.011468600181642507 0.00037880062486800298 0 -0.012015704577108474 0.00070178015304124932 0 -0.011378118200743826 0.0010897018904624961 0 -0.011378118200743826 0.0010897018904624961 0 -0.010197853541910018 0.00072713308510177917 0 -0.010970023392187542 0.0003095169553756985 0 -0.010197853541910018 0.00072713308510177917 0 -0.010970023392187542 0.0003095169553756985 0 -0.0094612109783488857 -6.4495617846515064e-05 0 -0.0094116166387630852 0.0010561431739366911 0 -0.010197853541910018 0.00072713308510177917 0 -0.0094612109783488857 -6.4495617846515064e-05 0 -0.010948807312973059 0.00021209826413232604 0 -0.010542753229687901 -0.00039432050015218337 0 -0.010970023392187542 0.0003095169553756985 0 -0.0094612109783488857 -6.4495617846515064e-05 0 -0.010057553084240058 -0.0010739809132593022 0 -0.010970023392187542 0.0003095169553756985 0 -0.011176275105049255 0.00018231294288959825 0 -0.011023646873300876 0.00018964254498004418 0 -0.011468600181642507 0.00037880062486800298 0 -0.010970023392187542 0.0003095169553756985 0 -0.011176275105049255 0.00018231294288959825 0 -0.0084263461028109589 0.0010901906828536759 0 -0.0084218972098965006 0.00024793962181840474 0 -0.0071925033391651979 0.00085977073553762261 0 -0.0084218972098965006 0.00024793962181840474 0 -0.0078266618865347731 -0.00024228796095885591 0 -0.0071925033391651979 0.00085977073553762261 0 -0.0094116166387630852 0.0010561431739366911 0 -0.0084218972098965006 0.00024793962181840474 0 -0.0094612109783488857 -6.4495617846515064e-05 0 -0.0094116166387630852 0.0010561431739366911 0 -0.0084263461028109589 0.0010901906828536759 0 -0.0084218972098965006 0.00024793962181840474 0 -0.0084218972098965006 0.00024793962181840474 0 -0.0094612109783488857 -6.4495617846515064e-05 0 -0.0085790495633064102 -0.00054826166719076897 0 -0.0094612109783488857 -6.4495617846515064e-05 0 -0.0091323964050375461 -0.0012641096707796153 0 -0.010057553084240058 -0.0010739809132593022 0 -0.0094612109783488857 -6.4495617846515064e-05 0 -0.0085790495633064102 -0.00054826166719076897 0 -0.0091323964050375461 -0.0012641096707796153 0 -0.0084218972098965006 0.00024793962181840474 0 -0.0085790495633064102 -0.00054826166719076897 0 -0.0078266618865347731 -0.00024228796095885591 0 -0.0085790495633064102 -0.00054826166719076897 0 -0.0078266618865347731 -0.00024228796095885591 0 -0.0079461216189778625 -0.0012806413484963543 0 -0.0078266618865347731 -0.00024228796095885591 0 -0.0079461216189778625 -0.0012806413484963543 0 -0.0070902871868410858 -0.00067670130994777972 0 -0.0079461216189778625 -0.0012806413484963543 0 -0.0091323964050375461 -0.0012641096707796153 0 -0.0074107030957897618 -0.0025542333725675033 0 -0.0091323964050375461 -0.0012641096707796153 0 -0.0091746144474449953 -0.0019864831701294481 0 -0.0082166004261524147 -0.0019012338554918449 0 -0.0090794403873583028 -0.0013202214199205331 0 -0.0077537658688604976 -0.0022781948534471783 0 -0.0079461216189778625 -0.0012806413484963543 0 -0.0074107030957897618 -0.0025542333725675033 0 -0.0070902871868410858 -0.00067670130994777972 0 -0.0085790495633064102 -0.00054826166719076897 0 -0.0079461216189778625 -0.0012806413484963543 0 -0.0091323964050375461 -0.0012641096707796153 0 -0.0099222818362417978 -0.0011024831691856894 0 -0.010542753229687901 -0.00039432050015218337 0 -0.0091323964050375461 -0.0012641096707796153 0 -0.0091746144474449953 -0.0019864831701294481 0 -0.010057553084240058 -0.0010739809132593022 0 -0.0099222818362417978 -0.0011024831691856894 0 -0.0097494024264707293 -0.00088489621076497365 0 -0.0091746144474449953 -0.0019864831701294481 0 -0.0082166004261524147 -0.0019012338554918449 0 -0.0084827757317234003 -0.0026875152970405377 0 -0.011478164684278267 4.1968424391208071e-05 0 -0.011176275105049255 0.00018231294288959825 0 -0.01112593946705333 -1.8818499363920967e-05 0 -0.010803076168308045 -1.3932599846844452e-05 0 -0.011023646873300876 0.00018964254498004418 0 -0.01112593946705333 -1.8818499363920967e-05 0 -0.011176275105049255 0.00018231294288959825 0 -0.011023646873300876 0.00018964254498004418 0 -0.01112593946705333 -1.8818499363920967e-05 0 -0.01112593946705333 -1.8818499363920967e-05 0 -0.011400789018626121 -0.00015503677435351596 0 -0.011029105975765461 -0.00034383634858912331 0 -0.010803076168308045 -1.3932599846844452e-05 0 -0.01112593946705333 -1.8818499363920967e-05 0 -0.011029105975765461 -0.00034383634858912331 0 -0.011478164684278267 4.1968424391208071e-05 0 -0.01112593946705333 -1.8818499363920967e-05 0 -0.011400789018626121 -0.00015503677435351596 0 -0.011481991713302005 -0.00034762252058099456 0 -0.011387716645190005 -0.00015026420001327238 0 -0.011605875125983371 -0.00033290509692235961 0 -0.011400789018626121 -0.00015503677435351596 0 -0.011029105975765461 -0.00034383634858912331 0 -0.011605875125983371 -0.00033290509692235961 0 -0.011310612592116498 -0.00014724033628855728 0 -0.011524994710786758 -0.00044714375450690818 0 -0.011310612592116498 -0.00014724033628855728 0 -0.011193120743430079 -0.00040015165261833401 0 -0.011524994710786758 -0.00044714375450690818 0 -0.010803076168308045 -1.3932599846844452e-05 0 -0.011029105975765461 -0.00034383634858912331 0 -0.010550730186949096 -0.00027575462116136867 0 -0.011387716645190005 -0.00015026420001327238 0 -0.0097494024264707293 -0.00088489621076497365 0 -0.011310612592116498 -0.00014724033628855728 0 -0.010889561150340185 -2.5725649618747574e-05 0 -0.011023432636961174 -0.00025587045423300624 0 -0.010889561150340185 -2.5725649618747574e-05 0 -0.011023432636961174 -0.00025587045423300624 0 -0.01066683867930625 -0.00023618491342322352 0 -0.0097494024264707293 -0.00088489621076497365 0 -0.0096678265890962553 -0.00073669002487933494 0 -0.011023432636961174 -0.00025587045423300624 0 -0.010838466207524249 -0.00046241623711588807 0 -0.01066683867930625 -0.00023618491342322352 0 -0.011023432636961174 -0.00025587045423300624 0 -0.011193120743430079 -0.00040015165261833401 0 -0.010838466207524249 -0.00046241623711588807 0 -0.011310612592116498 -0.00014724033628855728 0 -0.011023432636961174 -0.00025587045423300624 0 -0.011193120743430079 -0.00040015165261833401 0 -0.011193120743430079 -0.00040015165261833401 0 -0.010761158279486004 -0.00069957485006439822 0 -0.011095947221086325 -0.00094713989474406166 0 -0.011069087572744154 -0.00040178919454000628 0 -0.010953922079280745 -0.00035173846596984088 0 -0.011193120743430079 -0.00040015165261833401 0 -0.01065192674086592 -0.00029670625850907725 0 -0.010761158279486004 -0.00069957485006439822 0 -0.011193120743430079 -0.00040015165261833401 0 -0.011545750318278725 -0.00068147768883251717 0 -0.011095947221086325 -0.00094713989474406166 0 -0.011764519210529737 -0.00062813487087348902 0 -0.011545750318278725 -0.00068147768883251717 0 -0.011524994710786758 -0.00044714375450690818 0 -0.011193120743430079 -0.00040015165261833401 0 -0.011545750318278725 -0.00068147768883251717 0 -0.011524994710786758 -0.00044714375450690818 0 -0.0077216796905838058 -0.00087200841545052074 0 -0.0071596238153903329 -0.00017866253036684197 0 -0.0067556790942641422 -0.00098719301002322675 0 -0.0068105680084502868 -0.001356145855774875 0 -0.0054637630025555686 -0.00072706476760577455 0 -0.0064350522487691408 -0.0022107118367298267 0 -0.006163889021138339 -0.0022141810750448978 0 -0.0063026063128723145 -0.0020417493376266513 0 -0.0068105680084502868 -0.001356145855774875 0 -0.0052942402427412372 -0.0017656735452981343 0 -0.0041765118462826038 -0.00045508750645464614 0 -0.0041665237598343726 -0.00047326474555781214 0 -0.0041380640415606953 -0.00048009600907058354 0 -0.0041765118462826038 -0.00045508750645464614 0 -0.0041665237598343726 -0.00047326474555781214 0 -0.0041783978888091993 -0.00047724719144846161 0 -0.0052942402427412372 -0.0017656735452981343 0 -0.0054637630025555686 -0.00072706476760577455 0 -0.0058565290488062811 -0.0012922783467584817 0 -0.0058208873348205856 -0.0012935443299363371 0 -0.0058372731670309885 -0.0013212851996643046 0 -0.0041765118462826038 -0.00045508750645464614 0 -0.0041783978888091993 -0.00047724719144846161 0 -0.0041907108893370053 -0.00047982384808137844 0 -0.0041783978888091993 -0.00047724719144846161 0 -0.0041907108893370053 -0.00047982384808137844 0 -0.0041880931302805558 -0.00048280541424704768 0 -0.0054637630025555686 -0.00072706476760577455 0 -0.0053789547521378937 -0.00075568009436869775 0 -0.0041665237598343726 -0.00047326474555781214 0 -0.0041783978888091993 -0.00047724719144846161 0 -0.0041752437326649031 -0.00048350837049483832 0 -0.0041783978888091993 -0.00047724719144846161 0 -0.0041880931302805558 -0.00048280541424704768 0 -0.0041752437326649031 -0.00048350837049483832 0 -0.0041880931302805558 -0.00048280541424704768 0 -0.0041752437326649031 -0.00048350837049483832 0 -0.0041812081166896541 -0.00049322609617770668 0 -0.0041665237598343726 -0.00047326474555781214 0 -0.0041752437326649031 -0.00048350837049483832 0 -0.0041614687611909373 -0.00049106180995762549 0 -0.0041665237598343726 -0.00047326474555781214 0 -0.0041614687611909373 -0.00049106180995762549 0 -0.0041380640415606953 -0.00048009600907058354 0 -0.0041880931302805558 -0.00048280541424704768 0 -0.0041812081166896541 -0.00049322609617770668 0 -0.0041988804256858255 -0.00049453996598008173 0 -0.0041614687611909373 -0.00049106180995762549 0 -0.0041812081166896541 -0.00049322609617770668 0 -0.0041788858465248617 -0.00050682898028664371 0 -0.0041812081166896541 -0.00049322609617770668 0 -0.0041988804256858255 -0.00049453996598008173 0 -0.0041788858465248617 -0.00050682898028664371 0 -0.0041752437326649031 -0.00048350837049483832 0 -0.0041614687611909373 -0.00049106180995762549 0 -0.0041812081166896541 -0.00049322609617770668 0 -0.0054637630025555686 -0.00072706476760577455 0 -0.0061201749632929913 -0.00070693401743737283 0 -0.0041910502468782895 -0.00047963443074481243 0 -0.0041880931302805558 -0.00048280541424704768 0 -0.0041988804256858255 -0.00049453996598008173 0 -0.0077216796905838058 -0.00087200841545052074 0 -0.0067556790942641422 -0.00098719301002322675 0 -0.0070569511170670163 -0.0015638175464537209 0 -0.0097679706250074008 -0.00051652755611448717 0 -0.009489584368149017 -0.00078565018294748197 0 -0.0098480667872033103 -0.00084899865610050802 0 -0.0088414680785973525 -0.00050417071302168127 0 -0.0061201749632929913 -0.00070693401743737283 0 -0.0097679706250074008 -0.00051652755611448717 0 -0.0098480667872033103 -0.00084899865610050802 0 -0.010242476845397383 -0.00070570062218624227 0 -0.0098480667872033103 -0.00084899865610050802 0 -0.010242476845397383 -0.00070570062218624227 0 -0.010024298904225109 -0.0010649600911292294 0 -0.01065192674086592 -0.00029670625850907725 0 -0.010761158279486004 -0.00069957485006439822 0 -0.010242476845397383 -0.00070570062218624227 0 -0.010761158279486004 -0.00069957485006439822 0 -0.010242476845397383 -0.00070570062218624227 0 -0.010515526395246473 -0.001217552887357505 0 -0.010953922079280745 -0.00035173846596984088 0 -0.0092974615755651267 -0.00064406980333815136 0 -0.01065192674086592 -0.00029670625850907725 0 -0.010242476845397383 -0.00070570062218624227 0 -0.010038591072264879 -0.00025732203732641858 0 -0.0068105680084502868 -0.001356145855774875 0 -0.0092974615755651267 -0.00064406980333815136 0 -0.0097679706250074008 -0.00051652755611448717 0 -0.010242476845397383 -0.00070570062218624227 0 -0.010038591072264879 -0.00025732203732641858 0 -0.0077216796905838058 -0.00087200841545052074 0 -0.0071596238153903329 -0.00017866253036684197 0 -0.0083888087497335714 -0.00017491535162951447 0 -0.0088414680785973525 -0.00050417071302168127 0 -0.0092974615755651267 -0.00064406980333815136 0 -0.0082782222900965857 -0.0016171337779842714 0 -0.0086146604751895142 -0.0012676478171831556 0 -0.008275479898631059 -0.0011697212760942383 0 -0.0082782222900965857 -0.0016171337779842714 0 -0.008275479898631059 -0.0011697212760942383 0 -0.0079925293918458699 -0.0012594409687082264 0 -0.010838466207524249 -0.00046241623711588807 0 -0.010422172838033011 -0.00047999240053895372 0 -0.01066683867930625 -0.00023618491342322352 0 -0.0092974615755651267 -0.00064406980333815136 0 -0.0096678265890962553 -0.00073669002487933494 0 -0.0097494024264707293 -0.00088489621076497365 0 -0.0071588881408056835 -0.0023311326916259315 0 -0.0089563313170797666 -0.00091240260773147201 0 -0.0086146604751895142 -0.0012676478171831556 0 -0.0083238533564835501 -0.00080186405367049286 0 -0.0086146604751895142 -0.0012676478171831556 0 -0.008275479898631059 -0.0011697212760942383 0 -0.0083238533564835501 -0.00080186405367049286 0 -0.008275479898631059 -0.0011697212760942383 0 -0.008169348976729154 -0.0009010276473690015 0 -0.0083238533564835501 -0.00080186405367049286 0 -0.008275479898631059 -0.0011697212760942383 0 -0.008169348976729154 -0.0009010276473690015 0 -0.0079925293918458699 -0.0012594409687082264 0 -0.0070411691991689538 -0.0019183663834121895 0 -0.0073233492869096721 -0.0015172959738608621 0 -0.0070411691991689538 -0.0019183663834121895 0 -0.0071588881408056835 -0.0023311326916259315 0 -0.0069340658999501679 -0.0022092454018568883 0 -0.0068140003839767035 -0.0022885549455350087 0 -0.0068892093504440274 -0.0023023322969298512 0 -0.0070411691991689538 -0.0019183663834121895 0 -0.0066738350094880765 -0.0026465234749910456 0 -0.0067503017996166778 -0.0015946455073823265 0 -0.0064062003134799997 -0.0018063213236070928 0 -0.0065920996761068161 -0.0019018741765885919 0 -0.0070411691991689538 -0.0019183663834121895 0 -0.0061987857201838813 -0.0024691605996250855 0 -0.0064025446488834717 -0.0029071950567501103 0 -0.0061604551625624232 -0.0028900597252519752 0 -0.0061481550191804903 -0.0030492475287200735 0 -0.0064025446488834717 -0.0029071950567501103 0 -0.0061604551625624232 -0.0028900597252519752 0 -0.0063076556239099789 -0.0028210904920820193 0 -0.0061604551625624232 -0.0028900597252519752 0 -0.0061481550191804903 -0.0030492475287200735 0 -0.0059631693941991325 -0.002975433157977876 0 -0.007809424990532895 -0.0016197396428313734 0 -0.0082782222900965857 -0.0016171337779842714 0 -0.0079925293918458699 -0.0012594409687082264 0 -0.0064062003134799997 -0.0018063213236070928 0 -0.0065920996761068161 -0.0019018741765885919 0 -0.0064340655137263784 -0.001990347996777591 0 -0.0064062003134799997 -0.0018063213236070928 0 -0.0064340655137263784 -0.001990347996777591 0 -0.0063026063128723145 -0.0020417493376266513 0 -0.0064350522487691408 -0.0022107118367298267 0 -0.0064340655137263784 -0.001990347996777591 0 -0.0063026063128723145 -0.0020417493376266513 0 -0.0064350522487691408 -0.0022107118367298267 0 -0.0065920996761068161 -0.0019018741765885919 0 -0.0064340655137263784 -0.001990347996777591 0 -0.0068105680084502868 -0.001356145855774875 0 -0.0073233492869096721 -0.0015172959738608621 0 -0.0061481550191804903 -0.0030492475287200735 0 -0.0058628237409876919 -0.0032157631106974993 0 -0.0059631693941991325 -0.002975433157977876 0 -0.0064062003134799997 -0.0018063213236070928 0 -0.006062767438979281 -0.0020228388999196656 0 -0.0063026063128723145 -0.0020417493376266513 0 -0.0061987857201838813 -0.0024691605996250855 0 -0.0059956684275476319 -0.0028452250713064424 0 -0.006011243372906855 -0.0034671064368424387 0 -0.0058911612732349796 -0.0032487106822279357 0 -0.0057850407042789988 -0.0033198206484914305 0 -0.0052942402427412372 -0.0017656735452981343 0 -0.0059956684275476319 -0.0028452250713064424 0 -0.0059956684275476319 -0.0028452250713064424 0 -0.0058181141637430444 -0.0030401957712243724 0 -0.006163889021138339 -0.0022141810750448978 0 -0.006062767438979281 -0.0020228388999196656 0 -0.0063026063128723145 -0.0020417493376266513 0 -0.0058628237409876919 -0.0032157631106974993 0 -0.0059631693941991325 -0.002975433157977876 0 -0.0057800030575204699 -0.003066514409829925 0 -0.0059956684275476319 -0.0028452250713064424 0 -0.0059263520113212583 -0.0030756367083764995 0 -0.0059631693941991325 -0.002975433157977876 0 -0.0057800030575204699 -0.003066514409829925 0 -0.0057921760209881093 -0.0028893778763276795 0 -0.0061604551625624232 -0.0028900597252519752 0 -0.0059631693941991325 -0.002975433157977876 0 -0.005962224923807497 -0.0028105230066875955 0 -0.0059631693941991325 -0.002975433157977876 0 -0.005962224923807497 -0.0028105230066875955 0 -0.0057921760209881093 -0.0028893778763276795 0 -0.005962224923807497 -0.0028105230066875955 0 -0.0060734280975932014 -0.0026196015354647746 0 -0.0058220512566939083 -0.0027096178001057023 0 -0.005962224923807497 -0.0028105230066875955 0 -0.0058220512566939083 -0.0027096178001057023 0 -0.0057921760209881093 -0.0028893778763276795 0 -0.005962224923807497 -0.0028105230066875955 0 -0.006149114184195734 -0.002774792106158371 0 -0.0060734280975932014 -0.0026196015354647746 0 -0.0061604551625624232 -0.0028900597252519752 0 -0.005962224923807497 -0.0028105230066875955 0 -0.006149114184195734 -0.002774792106158371 0 -0.006149114184195734 -0.002774792106158371 0 -0.0063076556239099789 -0.0028210904920820193 0 -0.0062787296195550672 -0.0026810934638339008 0 -0.0061604551625624232 -0.0028900597252519752 0 -0.006149114184195734 -0.002774792106158371 0 -0.0063076556239099789 -0.0028210904920820193 0 -0.0063076556239099789 -0.0028210904920820193 0 -0.0062787296195550672 -0.0026810934638339008 0 -0.0063670752329744468 -0.0027478662644234808 0 -0.006149114184195734 -0.002774792106158371 0 -0.0062787296195550672 -0.0026810934638339008 0 -0.0060734280975932014 -0.0026196015354647746 0 -0.0062787296195550672 -0.0026810934638339008 0 -0.0063301632901188098 -0.0025182425894219726 0 -0.0060734280975932014 -0.0026196015354647746 0 -0.0063301632901188098 -0.0025182425894219726 0 -0.0060734280975932014 -0.0026196015354647746 0 -0.0062144367186655943 -0.0024469150245051718 0 -0.0060734280975932014 -0.0026196015354647746 0 -0.0062144367186655943 -0.0024469150245051718 0 -0.0058501521040856454 -0.0025627707542282144 0 -0.0060734280975932014 -0.0026196015354647746 0 -0.0058220512566939083 -0.0027096178001057023 0 -0.0058501521040856454 -0.0025627707542282144 0 -0.0074107030957897618 -0.0025542333725675033 0 -0.0071105907515486688 -0.0026687337889829093 0 -0.0063939659900789916 -0.0031675932201755937 0 -0.0082166004261524147 -0.0019012338554918449 0 -0.0084827757317234003 -0.0026875152970405377 0 -0.0073271911234659565 -0.0024670595394035728 0 -0.0071105907515486688 -0.0026687337889829093 0 -0.0063939659900789916 -0.0031675932201755937 0 -0.0066907456619445154 -0.0024536071743575189 0 -0.0077537658688604976 -0.0022781948534471783 0 -0.0071588881408056835 -0.0023311326916259315 0 -0.0063939659900789916 -0.0031675932201755937 0 -0.0062684218565101394 -0.0031431370290045195 0 -0.0066907456619445154 -0.0024536071743575189 0 -0.0066738350094880765 -0.0026465234749910456 0 -0.0065563426977491403 -0.0026463448352937388 0 -0.0064606391596497698 -0.0028761867612254076 0 -0.00643599991615686 -0.0026161724376469195 0 -0.0066907456619445154 -0.0024536071743575189 0 -0.0071588881408056835 -0.0023311326916259315 0 -0.0066738350094880765 -0.0026465234749910456 0 -0.0064025446488834717 -0.0029071950567501103 0 -0.0063076556239099789 -0.0028210904920820193 0 -0.0064366088716502016 -0.0028397389177175496 0 -0.0063076556239099789 -0.0028210904920820193 0 -0.0064606391596497698 -0.0028761867612254076 0 -0.0063670752329744468 -0.0027478662644234808 0 -0.0063661995681858945 -0.0027243682859700536 0 -0.0066738350094880765 -0.0026465234749910456 0 -0.0062787296195550672 -0.0026810934638339008 0 -0.0063670752329744468 -0.0027478662644234808 0 -0.00643599991615686 -0.0026161724376469195 0 -0.0064606391596497698 -0.0028761867612254076 0 -0.0063670752329744468 -0.0027478662644234808 0 -0.00643599991615686 -0.0026161724376469195 0 -0.0062787296195550672 -0.0026810934638339008 0 -0.0063301632901188098 -0.0025182425894219726 0 -0.00643599991615686 -0.0026161724376469195 0 -0.0063301632901188098 -0.0025182425894219726 0 -0.00643599991615686 -0.0026161724376469195 0 -0.0064709218650455015 -0.0024684594648246884 0 -0.0063301632901188098 -0.0025182425894219726 0 -0.0064709218650455015 -0.0024684594648246884 0 -0.0064126122106777216 -0.0024275123237682589 0 -0.0064709218650455015 -0.0024684594648246884 0 -0.0066907456619445154 -0.0024536071743575189 0 -0.0065333215655706597 -0.0024021446569968208 0 -0.00643599991615686 -0.0026161724376469195 0 -0.0064709218650455015 -0.0024684594648246884 0 -0.0066907456619445154 -0.0024536071743575189 0 -0.0071105907515486688 -0.0026687337889829093 0 -0.0066907456619445154 -0.0024536071743575189 0 -0.0065816059821305496 -0.0023518642311095221 0 -0.0074107030957897618 -0.0025542333725675033 0 -0.0071105907515486688 -0.0026687337889829093 0 -0.0070902871868410858 -0.00067670130994777972 0 -0.0070702371423190819 -0.0026073353286891845 0 -0.0068754353269572244 -0.0016262220791403287 0 -0.0078266618865347731 -0.00024228796095885591 0 -0.0070902871868410858 -0.00067670130994777972 0 -0.0071925033391651979 0.00085977073553762261 0 -0.0066907456619445154 -0.0024536071743575189 0 -0.0065816059821305496 -0.0023518642311095221 0 -0.0065333215655706597 -0.0024021446569968208 0 -0.0065816059821305496 -0.0023518642311095221 0 -0.0065333215655706597 -0.0024021446569968208 0 -0.0064793509075401498 -0.0024156645473310638 0 -0.0065333215655706597 -0.0024021446569968208 0 -0.0064126122106777216 -0.0024275123237682589 0 -0.0064793509075401498 -0.0024156645473310638 0 -0.0064709218650455015 -0.0024684594648246884 0 -0.0065333215655706597 -0.0024021446569968208 0 -0.0064126122106777216 -0.0024275123237682589 0 -0.0064126122106777216 -0.0024275123237682589 0 -0.0064793509075401498 -0.0024156645473310638 0 -0.0064393744619500063 -0.0025115433845229449 0 -0.0064793509075401498 -0.0024156645473310638 0 -0.0064460140830093953 -0.0024592661824645316 0 -0.0064393744619500063 -0.0025115433845229449 0 -0.0068754353269572244 -0.0016262220791403287 0 -0.0067628271347804601 -0.00056673343308107907 0 -0.0065816059821305496 -0.0023518642311095221 0 -0.0064793509075401498 -0.0024156645473310638 0 -0.0064460140830093953 -0.0024592661824645316 0 -0.0060234056786222755 -0.0023396196482121353 0 -0.0062144367186655943 -0.0024469150245051718 0 -0.0058501521040856454 -0.0025627707542282144 0 -0.0063301632901188098 -0.0025182425894219726 0 -0.0064126122106777216 -0.0024275123237682589 0 -0.0062144367186655943 -0.0024469150245051718 0 -0.0064126122106777216 -0.0024275123237682589 0 -0.0062144367186655943 -0.0024469150245051718 0 -0.0064393744619500063 -0.0025115433845229449 0 -0.0060551662429579167 -0.0026726558783057683 0 -0.0063943686035303838 -0.0025286148169926118 0 -0.0060234056786222755 -0.0023396196482121353 0 -0.0062144367186655943 -0.0024469150245051718 0 -0.0064393744619500063 -0.0025115433845229449 0 -0.0062415429593709855 -0.0026378190872886008 0 -0.006111012124355897 -0.002990947774564566 0 -0.0064393744619500063 -0.0025115433845229449 0 -0.0058667109115999655 -0.002686073295638873 0 -0.0062415429593709855 -0.0026378190872886008 0 -0.006111012124355897 -0.002990947774564566 0 -0.0058667109115999655 -0.002686073295638873 0 -0.006111012124355897 -0.002990947774564566 0 -0.0056845276709360593 -0.0029570410679607521 0 -0.006111012124355897 -0.002990947774564566 0 -0.0056845276709360593 -0.0029570410679607521 0 -0.0055726551500847234 -0.0032585885222012204 0 -0.0060234056786222755 -0.0023396196482121353 0 -0.0058501521040856454 -0.0025627707542282144 0 -0.0055481709813407776 -0.0025570489455644203 0 -0.0060551662429579167 -0.0026726558783057683 0 -0.0055732114506661552 -0.0029107810258085188 0 -0.0056845276709360593 -0.0029570410679607521 0 -0.005380296984358793 -0.0030337383690548659 0 -0.0055726551500847234 -0.0032585885222012204 0 -0.0058667109115999655 -0.002686073295638873 0 -0.0055042961874852275 -0.0028383094679913408 0 -0.0056845276709360593 -0.0029570410679607521 0 -0.0055042961874852275 -0.0028383094679913408 0 -0.0056845276709360593 -0.0029570410679607521 0 -0.005380296984358793 -0.0030337383690548659 0 -0.0055042961874852275 -0.0028383094679913408 0 -0.0052113588403118393 -0.002879860384497797 0 -0.005380296984358793 -0.0030337383690548659 0 -0.0052113588403118393 -0.002879860384497797 0 -0.0051342412850937033 -0.0030722966495070679 0 -0.005380296984358793 -0.0030337383690548659 0 -0.0052113588403118393 -0.002879860384497797 0 -0.0051342412850937033 -0.0030722966495070679 0 -0.0048353930471839134 -0.0030084722540784157 0 -0.0049861598263102784 -0.0027294161819191062 0 -0.0052113588403118393 -0.002879860384497797 0 -0.0048353930471839134 -0.0030084722540784157 0 -0.0049621178879342307 -0.0031874925416284492 0 -0.0051342412850937033 -0.0030722966495070679 0 -0.0052317562004446025 -0.0031680679439556191 0 -0.0049621178879342307 -0.0031874925416284492 0 -0.0051342412850937033 -0.0030722966495070679 0 -0.0048353930471839134 -0.0030084722540784157 0 -0.005380296984358793 -0.0030337383690548659 0 -0.0052317562004446025 -0.0031680679439556191 0 -0.0055726551500847234 -0.0032585885222012204 0 -0.0051342412850937033 -0.0030722966495070679 0 -0.005380296984358793 -0.0030337383690548659 0 -0.0052317562004446025 -0.0031680679439556191 0 -0.0052317562004446025 -0.0031680679439556191 0 -0.005116034865057119 -0.0032271018423443479 0 -0.0055726551500847234 -0.0032585885222012204 0 -0.005116034865057119 -0.0032271018423443479 0 -0.0054167306021242288 -0.0029156131745718293 0 -0.0055481709813407776 -0.0025570489455644203 0 -0.0051595292706322756 -0.0031893614921884488 0 -0.0055732114506661552 -0.0029107810258085188 0 -0.0049621178879342307 -0.0031874925416284492 0 -0.0052317562004446025 -0.0031680679439556191 0 -0.005116034865057119 -0.0032271018423443479 0 -0.0049621178879342307 -0.0031874925416284492 0 -0.005116034865057119 -0.0032271018423443479 0 -0.0048202727113011287 -0.0033409138529401166 0 -0.005116034865057119 -0.0032271018423443479 0 -0.0052647997870778566 -0.003284169607178985 0 -0.004879591322281082 -0.0035964731014738759 0 -0.005116034865057119 -0.0032271018423443479 0 -0.0048202727113011287 -0.0033409138529401166 0 -0.004879591322281082 -0.0035964731014738759 0 -0.0049491961972520744 -0.00279653319335427 0 -0.0044841547362139316 -0.0029269000871104283 0 -0.005116034865057119 -0.0032271018423443479 0 -0.0052647997870778566 -0.003284169607178985 0 -0.0054167306021242288 -0.0029156131745718293 0 -0.0052647997870778566 -0.003284169607178985 0 -0.0056258387242619935 -0.0027070215781374728 0 -0.0054167306021242288 -0.0029156131745718293 0 -0.0049491961972520744 -0.00279653319335427 0 -0.0055222057743707842 -0.002713380537835164 0 -0.0046732943728074027 -0.0022728720063118135 0 -0.0056258387242619935 -0.0027070215781374728 0 -0.0052958201579232193 -0.0026957675399001029 0 -0.0056258387242619935 -0.0027070215781374728 0 -0.005582988776946891 -0.0027794681810074801 0 -0.0052958201579232193 -0.0026957675399001029 0 -0.0058220512566939083 -0.0027096178001057023 0 -0.0057921760209881093 -0.0028893778763276795 0 -0.005582988776946891 -0.0027794681810074801 0 -0.0058220512566939083 -0.0027096178001057023 0 -0.0056258387242619935 -0.0027070215781374728 0 -0.005582988776946891 -0.0027794681810074801 0 -0.0058220512566939083 -0.0027096178001057023 0 -0.0056258387242619935 -0.0027070215781374728 0 -0.0058501521040856454 -0.0025627707542282144 0 -0.0056258387242619935 -0.0027070215781374728 0 -0.0058501521040856454 -0.0025627707542282144 0 -0.0055481709813407776 -0.0025570489455644203 0 -0.0056258387242619935 -0.0027070215781374728 0 -0.0054167306021242288 -0.0029156131745718293 0 -0.0055481709813407776 -0.0025570489455644203 0 -0.0043161887385115231 -0.0028163203242626183 0 -0.0037025860135497545 -0.0028834762385463644 0 -0.004274822036052177 -0.0030742004878487913 0 -0.003718595583970169 -0.0030823977239374566 0 -0.0040028221812675978 -0.0032661924863571687 0 -0.004274822036052177 -0.0030742004878487913 0 -0.0040028221812675978 -0.0032661924863571687 0 -0.004274822036052177 -0.0030742004878487913 0 -0.0045409844283044584 -0.0032165525579829399 0 -0.0037025860135497545 -0.0028834762385463644 0 -0.003718595583970169 -0.0030823977239374566 0 -0.004274822036052177 -0.0030742004878487913 0 -0.004274822036052177 -0.0030742004878487913 0 -0.0045409844283044584 -0.0032165525579829399 0 -0.0048353930471839134 -0.0030084722540784157 0 -0.004638054309920276 -0.0028279425720384079 0 -0.004274822036052177 -0.0030742004878487913 0 -0.0048353930471839134 -0.0030084722540784157 0 -0.0043161887385115231 -0.0028163203242626183 0 -0.004638054309920276 -0.0028279425720384079 0 -0.004274822036052177 -0.0030742004878487913 0 -0.0049621178879342307 -0.0031874925416284492 0 -0.0045409844283044584 -0.0032165525579829399 0 -0.0048353930471839134 -0.0030084722540784157 0 -0.0045409844283044584 -0.0032165525579829399 0 -0.0048202727113011287 -0.0033409138529401166 0 -0.0045487230662256337 -0.0034811930403920426 0 -0.0049621178879342307 -0.0031874925416284492 0 -0.0045409844283044584 -0.0032165525579829399 0 -0.0048202727113011287 -0.0033409138529401166 0 -0.004879591322281082 -0.0035964731014738759 0 -0.0045487230662256337 -0.0034811930403920426 0 -0.0044574504148595434 -0.0037829485869238732 0 -0.0048202727113011287 -0.0033409138529401166 0 -0.004879591322281082 -0.0035964731014738759 0 -0.0045487230662256337 -0.0034811930403920426 0 -0.0045487230662256337 -0.0034811930403920426 0 -0.0041608661281882691 -0.0035394500296207694 0 -0.0044574504148595434 -0.0037829485869238732 0 -0.0045409844283044584 -0.0032165525579829399 0 -0.0045487230662256337 -0.0034811930403920426 0 -0.0041608661281882691 -0.0035394500296207694 0 -0.0040028221812675978 -0.0032661924863571687 0 -0.0045409844283044584 -0.0032165525579829399 0 -0.0041608661281882691 -0.0035394500296207694 0 -0.0038331601302202603 -0.0037563015133502435 0 -0.0041608661281882691 -0.0035394500296207694 0 -0.00404387921940741 -0.0038943439348534956 0 -0.0037772832966925223 -0.0035136754264573646 0 -0.0038331601302202603 -0.0037563015133502435 0 -0.0041608661281882691 -0.0035394500296207694 0 -0.0037772832966925223 -0.0035136754264573646 0 -0.0040028221812675978 -0.0032661924863571687 0 -0.0041608661281882691 -0.0035394500296207694 0 -0.0043430611798763322 -0.0018089093709164222 0 -0.0042892162639100347 -0.0017952718814949621 0 -0.0042510080610111073 -0.0019508383800875362 0 -0.0042892162639100347 -0.0017952718814949621 0 -0.0042510080610111073 -0.0019508383800875362 0 -0.0042288605854979185 -0.0018328345749060531 0 -0.0041608661281882691 -0.0035394500296207694 0 -0.00404387921940741 -0.0038943439348534956 0 -0.0044574504148595434 -0.0037829485869238732 0 -0.0042510080610111073 -0.0019508383800875362 0 -0.004156743384404353 -0.0019388029949451398 0 -0.0041561971588032487 -0.002107738586420012 0 -0.0041083653034490238 -0.0029930346489507641 0 -0.0043045373808421588 -0.0029371253640758667 0 -0.0042510080610111073 -0.0019508383800875362 0 -0.0042288605854979185 -0.0018328345749060531 0 -0.004156743384404353 -0.0019388029949451398 0 -0.004156743384404353 -0.0019388029949451398 0 -0.0041561971588032487 -0.002107738586420012 0 -0.0041153298814386209 -0.002137212640086894 0 -0.0041057026337479987 -0.0022701426466089679 0 -0.0041153298814386209 -0.002137212640086894 0 -0.004138712758690672 -0.0022317185726765144 0 -0.0044841547362139316 -0.0029269000871104283 0 -0.0043045373808421588 -0.0029371253640758667 0 -0.0041057026337479987 -0.0022701426466089679 0 -0.0041561971588032487 -0.002107738586420012 0 -0.0041153298814386209 -0.002137212640086894 0 -0.004156743384404353 -0.0019388029949451398 0 -0.0041153298814386209 -0.002137212640086894 0 -0.0040761185082261861 -0.0019661875258934905 0 -0.0041153298814386209 -0.002137212640086894 0 -0.0040761185082261861 -0.0019661875258934905 0 -0.004138712758690672 -0.0022317185726765144 0 -0.0040761185082261861 -0.0019661875258934905 0 -0.0040831113184367348 -0.0017379687220310989 0 -0.0039369733036987127 -0.0017214987563831303 0 -0.0039428560361627948 -0.0015949552388394204 0 -0.0040831113184367348 -0.0017379687220310989 0 -0.0039369733036987127 -0.0017214987563831303 0 -0.0039428560361627948 -0.0015949552388394204 0 -0.0040831113184367348 -0.0017379687220310989 0 -0.0040309967727498461 -0.0014796416450525332 0 -0.0040831113184367348 -0.0017379687220310989 0 -0.0041855844311901556 -0.0017478371214233528 0 -0.004136236853281741 -0.0016203601868123171 0 -0.0040831113184367348 -0.0017379687220310989 0 -0.004136236853281741 -0.0016203601868123171 0 -0.0040309967727498461 -0.0014796416450525332 0 -0.004156743384404353 -0.0019388029949451398 0 -0.0040761185082261861 -0.0019661875258934905 0 -0.0040831113184367348 -0.0017379687220310989 0 -0.004156743384404353 -0.0019388029949451398 0 -0.0040831113184367348 -0.0017379687220310989 0 -0.0041855844311901556 -0.0017478371214233528 0 -0.0042288605854979185 -0.0018328345749060531 0 -0.0041855844311901556 -0.0017478371214233528 0 -0.0042577560551405507 -0.0017089706308212544 0 -0.0042288605854979185 -0.0018328345749060531 0 -0.004156743384404353 -0.0019388029949451398 0 -0.0041855844311901556 -0.0017478371214233528 0 -0.004136236853281741 -0.0016203601868123171 0 -0.0042112296090577308 -0.0015992128545474465 0 -0.0041482047368480435 -0.0014718621297364286 0 -0.0041855844311901556 -0.0017478371214233528 0 -0.004136236853281741 -0.0016203601868123171 0 -0.0042112296090577308 -0.0015992128545474465 0 -0.0042112296090577308 -0.0015992128545474465 0 -0.0042378331605515476 -0.0014461666252935214 0 -0.0041482047368480435 -0.0014718621297364286 0 -0.0042875916378724149 -0.0015803278612523623 0 -0.0042112296090577308 -0.0015992128545474465 0 -0.0042577560551405507 -0.0017089706308212544 0 -0.0042875916378724149 -0.0015803278612523623 0 -0.0042112296090577308 -0.0015992128545474465 0 -0.0042378331605515476 -0.0014461666252935214 0 -0.0041855844311901556 -0.0017478371214233528 0 -0.0042112296090577308 -0.0015992128545474465 0 -0.0042577560551405507 -0.0017089706308212544 0 -0.0043324427316991437 -0.0016760855050909605 0 -0.0042892162639100347 -0.0017952718814949621 0 -0.0042577560551405507 -0.0017089706308212544 0 -0.0042892162639100347 -0.0017952718814949621 0 -0.0042288605854979185 -0.0018328345749060531 0 -0.0042577560551405507 -0.0017089706308212544 0 -0.004962796165595783 -0.003269950466178579 0 -0.0054659707578969116 -0.00319989860816304 0 -0.0052592957323335113 -0.0028980983374694274 0 -0.004962796165595783 -0.003269950466178579 0 -0.0054659707578969116 -0.00319989860816304 0 -0.0053853004317211892 -0.0035178964573866754 0 -0.004962796165595783 -0.003269950466178579 0 -0.0052592957323335113 -0.0028980983374694274 0 -0.0047836920859749771 -0.0028830936837322169 0 -0.0057850407042789988 -0.0033198206484914305 0 -0.0054659707578969116 -0.00319989860816304 0 -0.0053853004317211892 -0.0035178964573866754 0 -0.0057850407042789988 -0.0033198206484914305 0 -0.0057042816005710428 -0.0031678184614654294 0 -0.0054659707578969116 -0.00319989860816304 0 -0.0058848445307686376 -0.0032515524883660295 0 -0.0057850407042789988 -0.0033198206484914305 0 -0.0057042816005710428 -0.0031678184614654294 0 -0.0058848445307686376 -0.0032515524883660295 0 -0.0057800030575204699 -0.003066514409829925 0 -0.0057042816005710428 -0.0031678184614654294 0 -0.0057800030575204699 -0.003066514409829925 0 -0.0057042816005710428 -0.0031678184614654294 0 -0.0055988101161734737 -0.0029997685093385127 0 -0.0057042816005710428 -0.0031678184614654294 0 -0.0054659707578969116 -0.00319989860816304 0 -0.0055988101161734737 -0.0029997685093385127 0 -0.0054659707578969116 -0.00319989860816304 0 -0.0055988101161734737 -0.0029997685093385127 0 -0.0052592957323335113 -0.0028980983374694274 0 -0.0055988101161734737 -0.0029997685093385127 0 -0.005582988776946891 -0.0027794681810074801 0 -0.0052592957323335113 -0.0028980983374694274 0 -0.0057800030575204699 -0.003066514409829925 0 -0.0055988101161734737 -0.0029997685093385127 0 -0.0057921760209881093 -0.0028893778763276795 0 -0.0055988101161734737 -0.0029997685093385127 0 -0.0057921760209881093 -0.0028893778763276795 0 -0.005582988776946891 -0.0027794681810074801 0 -0.0046732943728074027 -0.0022728720063118135 0 -0.0052958201579232193 -0.0026957675399001029 0 -0.0048830940968592959 -0.0026309849406005131 0 -0.005582988776946891 -0.0027794681810074801 0 -0.0052958201579232193 -0.0026957675399001029 0 -0.0052592957323335113 -0.0028980983374694274 0 -0.0052592957323335113 -0.0028980983374694274 0 -0.0048830940968592959 -0.0026309849406005131 0 -0.0047836920859749771 -0.0028830936837322169 0 -0.0052958201579232193 -0.0026957675399001029 0 -0.0052592957323335113 -0.0028980983374694274 0 -0.0048830940968592959 -0.0026309849406005131 0 -0.0046732943728074027 -0.0022728720063118135 0 -0.0048830940968592959 -0.0026309849406005131 0 -0.0042801454937197881 -0.002480603956489056 0 -0.0048830940968592959 -0.0026309849406005131 0 -0.0042801454937197881 -0.002480603956489056 0 -0.0047836920859749771 -0.0028830936837322169 0 -0.0046732943728074027 -0.0022728720063118135 0 -0.0041057026337479987 -0.0022701426466089679 0 -0.0042801454937197881 -0.002480603956489056 0 -0.0041057026337479987 -0.0022701426466089679 0 -0.0042801454937197881 -0.002480603956489056 0 -0.004138712758690672 -0.0022317185726765144 0 -0.0042801454937197881 -0.002480603956489056 0 -0.004138712758690672 -0.0022317185726765144 0 -0.0040350519611434474 -0.0021424797501887285 0 -0.0040761185082261861 -0.0019661875258934905 0 -0.004138712758690672 -0.0022317185726765144 0 -0.0040350519611434474 -0.0021424797501887285 0 -0.004962796165595783 -0.003269950466178579 0 -0.0047836920859749771 -0.0028830936837322169 0 -0.0044883196539252232 -0.0035998239588159618 0 -0.0042975981336085788 -0.002856951450920903 0 -0.0042532105173320265 -0.0019768642076643272 0 -0.0042801454937197881 -0.002480603956489056 0 -0.0047836920859749771 -0.0028830936837322169 0 -0.0044883196539252232 -0.0035998239588159618 0 -0.0038114926310221634 -0.0017189647977787542 0 -0.0037671899680137987 -0.0019009372845255861 0 -0.003757153536096838 -0.0014426988743295643 0 -0.0042532105173320265 -0.0019768642076643272 0 -0.0038608175724023858 -0.00080960426214507996 0 -0.0040505517578063319 -0.00047807676361461682 0 -0.0040497274141839366 -0.0005047773252797287 0 -0.0040717953868431534 -0.0004853300792208809 0 -0.0039350860217517809 -0.001986580665930849 0 -0.0042532105173320265 -0.0019768642076643272 0 -0.0038114926310221634 -0.0017189647977787542 0 -0.0037671899680137987 -0.0019009372845255861 0 -0.0039369733036987127 -0.0017214987563831303 0 -0.0040761185082261861 -0.0019661875258934905 0 -0.0037671899680137987 -0.0019009372845255861 0 -0.0039369733036987127 -0.0017214987563831303 0 -0.0038114926310221634 -0.0017189647977787542 0 -0.0039369733036987127 -0.0017214987563831303 0 -0.0038841024141643161 -0.0015879531834239072 0 -0.0038358857462449185 -0.0016916838329713187 0 -0.0040040815172601623 -0.0014496629867567226 0 -0.0039428560361627948 -0.0015949552388394204 0 -0.0039369733036987127 -0.0017214987563831303 0 -0.0038841024141643161 -0.0015879531834239072 0 -0.0038114926310221634 -0.0017189647977787542 0 -0.003757153536096838 -0.0014426988743295643 0 -0.0041361673125986003 -0.0012908429189044707 0 -0.0040497274141839366 -0.0005047773252797287 0 -0.0040656563943184468 -0.00050735922603096649 0 -0.0040717953868431534 -0.0004853300792208809 0 -0.0040656563943184468 -0.00050735922603096649 0 -0.0040965828233832163 -0.00049103861153606534 0 -0.0040811681980179038 -0.00051815004806513964 0 -0.0040656563943184468 -0.00050735922603096649 0 -0.0040965828233832163 -0.00049103861153606534 0 -0.0040717953868431534 -0.0004853300792208809 0 -0.0040505517578063319 -0.00047807676361461682 0 -0.0041023679771225851 -0.00046150087794252602 0 -0.0040717953868431534 -0.0004853300792208809 0 -0.004962796165595783 -0.003269950466178579 0 -0.0044883196539252232 -0.0035998239588159618 0 -0.0053853004317211892 -0.0035178964573866754 0 -0.0040965828233832163 -0.00049103861153606534 0 -0.0041023679771225851 -0.00046150087794252602 0 -0.0040717953868431534 -0.0004853300792208809 0 -0.0042532105173320265 -0.0019768642076643272 0 -0.0046981287148509391 -0.0020208429091648503 0 -0.0040965828233832163 -0.00049103861153606534 0 -0.0041023679771225851 -0.00046150087794252602 0 -0.0041380640415606953 -0.00048009600907058354 0 -0.006011243372906855 -0.0034671064368424387 0 -0.0057850407042789988 -0.0033198206484914305 0 -0.0053853004317211892 -0.0035178964573866754 0 -0.0041765118462826038 -0.00045508750645464614 0 -0.0041023679771225851 -0.00046150087794252602 0 -0.0041380640415606953 -0.00048009600907058354 0 -0.0052942402427412372 -0.0017656735452981343 0 -0.0046981287148509391 -0.0020208429091648503 0 -0.0040965828233832163 -0.00049103861153606534 0 -0.0041380640415606953 -0.00048009600907058354 0 -0.0041263130073851059 -0.00050223682863393901 0 -0.0040965828233832163 -0.00049103861153606534 0 -0.0041263130073851059 -0.00050223682863393901 0 -0.0040811681980179038 -0.00051815004806513964 0 -0.0041614687611909373 -0.00049106180995762549 0 -0.0041380640415606953 -0.00048009600907058354 0 -0.0041263130073851059 -0.00050223682863393901 0 -0.0041263130073851059 -0.00050223682863393901 0 -0.0041068176738788282 -0.00054407027021356627 0 -0.0041788858465248617 -0.00050682898028664371 0 -0.0041263130073851059 -0.00050223682863393901 0 -0.0041068176738788282 -0.00054407027021356627 0 -0.0040811681980179038 -0.00051815004806513964 0 -0.0041068176738788282 -0.00054407027021356627 0 -0.0040810962766917105 -0.00057224412970763913 0 -0.0042004353978982384 -0.00060968767255005659 0 -0.0041068176738788282 -0.00054407027021356627 0 -0.004055707911170753 -0.00055789664887266046 0 -0.0040811681980179038 -0.00051815004806513964 0 -0.0041068176738788282 -0.00054407027021356627 0 -0.004055707911170753 -0.00055789664887266046 0 -0.0040810962766917105 -0.00057224412970763913 0 -0.004055707911170753 -0.00055789664887266046 0 -0.0040274977348786975 -0.00054218978581062588 0 -0.003986344168294925 -0.00061736220959624844 0 -0.004055707911170753 -0.00055789664887266046 0 -0.0040811681980179038 -0.00051815004806513964 0 -0.0040274977348786975 -0.00054218978581062588 0 -0.0040656563943184468 -0.00050735922603096649 0 -0.0040811681980179038 -0.00051815004806513964 0 -0.0040274977348786975 -0.00054218978581062588 0 -0.0040497274141839366 -0.0005047773252797287 0 -0.0040656563943184468 -0.00050735922603096649 0 -0.0040274977348786975 -0.00054218978581062588 0 -0.003757153536096838 -0.0014426988743295643 0 -0.0040511300378330509 -0.0010421297477423547 0 -0.0038298440210925034 -0.00093606152608735073 0 -0.0038608175724023858 -0.00080960426214507996 0 -0.0039417802054772764 -0.00079121070711183988 0 -0.0040040815172601623 -0.0014496629867567226 0 -0.0040076977472973865 -0.0011366360173359561 0 -0.003757153536096838 -0.0014426988743295643 0 -0.0041361673125986003 -0.0012908429189044707 0 -0.0040511300378330509 -0.0010421297477423547 0 -0.0041361673125986003 -0.0012908429189044707 0 -0.0040511300378330509 -0.0010421297477423547 0 -0.0042862489854196021 -0.00091973191994745645 0 -0.0040609348559305812 -0.00079659978206694597 0 -0.0042862489854196021 -0.00091973191994745645 0 -0.0041803677680750037 -0.00067232347633067061 0 -0.0040511300378330509 -0.0010421297477423547 0 -0.0040609348559305812 -0.00079659978206694597 0 -0.0042862489854196021 -0.00091973191994745645 0 -0.0039417802054772764 -0.00079121070711183988 0 -0.0039698687731610834 -0.00062574020488433786 0 -0.0040609348559305812 -0.00079659978206694597 0 -0.0038298440210925034 -0.00093606152608735073 0 -0.003986344168294925 -0.00061736220959624844 0 -0.0040511300378330509 -0.0010421297477423547 0 -0.0040609348559305812 -0.00079659978206694597 0 -0.0038298440210925034 -0.00093606152608735073 0 -0.0040609348559305812 -0.00079659978206694597 0 -0.003986344168294925 -0.00061736220959624844 0 -0.0040620440079502228 -0.00064078533119695837 0 -0.0040609348559305812 -0.00079659978206694597 0 -0.0040620440079502228 -0.00064078533119695837 0 -0.0041803677680750037 -0.00067232347633067061 0 -0.0040529599550341256 -0.00066607634791889512 0 -0.0041003911551950279 -0.0006865358214712021 0 -0.0040620440079502228 -0.00064078533119695837 0 -0.0040861154107656224 -0.00058030027227997576 0 -0.0040309434919176138 -0.00059163637055549545 0 -0.0040620440079502228 -0.00064078533119695837 0 -0.0040861154107656224 -0.00058030027227997576 0 -0.0041803677680750037 -0.00067232347633067061 0 -0.003986344168294925 -0.00061736220959624844 0 -0.0040620440079502228 -0.00064078533119695837 0 -0.0040309434919176138 -0.00059163637055549545 0 -0.003986344168294925 -0.00061736220959624844 0 -0.0040309434919176138 -0.00059163637055549545 0 -0.0040398262521806347 -0.00057948066896530031 0 -0.0040309434919176138 -0.00059163637055549545 0 -0.0040398262521806347 -0.00057948066896530031 0 -0.0040293111712948627 -0.00057153012987307161 0 -0.0040398262521806347 -0.00057948066896530031 0 -0.0040883003062250553 -0.00055071180149068768 0 -0.0041095333494520795 -0.00054391845936436806 0 -0.0040398262521806347 -0.00057948066896530031 0 -0.0040810962766917105 -0.00057224412970763913 0 -0.0041095333494520795 -0.00054391845936436806 0 -0.004055707911170753 -0.00055789664887266046 0 -0.003986344168294925 -0.00061736220959624844 0 -0.0040810962766917105 -0.00057224412970763913 0 -0.003986344168294925 -0.00061736220959624844 0 -0.0040398262521806347 -0.00057948066896530031 0 -0.0040810962766917105 -0.00057224412970763913 0 -0.0042734321422540616 -0.0012397437635668673 0 -0.0041536031105154757 -0.0011109080425210243 0 -0.0042340747904557234 -0.0010586559782206212 0 -0.0042734321422540616 -0.0012397437635668673 0 -0.004171109047428229 -0.001311483359081266 0 -0.0041536031105154757 -0.0011109080425210243 0 -0.0042734321422540616 -0.0012397437635668673 0 -0.0042378331605515476 -0.0014461666252935214 0 -0.004171109047428229 -0.001311483359081266 0 -0.0042378331605515476 -0.0014461666252935214 0 -0.0041482047368480435 -0.0014718621297364286 0 -0.004171109047428229 -0.001311483359081266 0 -0.0041482047368480435 -0.0014718621297364286 0 -0.004171109047428229 -0.001311483359081266 0 -0.0040733494647535355 -0.0013445365808577188 0 -0.004171109047428229 -0.001311483359081266 0 -0.0040539055865463159 -0.0011615571875799315 0 -0.0041536031105154757 -0.0011109080425210243 0 -0.004171109047428229 -0.001311483359081266 0 -0.0040539055865463159 -0.0011615571875799315 0 -0.0040733494647535355 -0.0013445365808577188 0 -0.0040539055865463159 -0.0011615571875799315 0 -0.0039768605885208428 -0.0012715776030444411 0 -0.0040733494647535355 -0.0013445365808577188 0 -0.0041482047368480435 -0.0014718621297364286 0 -0.0040733494647535355 -0.0013445365808577188 0 -0.0040309967727498461 -0.0014796416450525332 0 -0.0039768605885208428 -0.0012715776030444411 0 -0.0040733494647535355 -0.0013445365808577188 0 -0.0040309967727498461 -0.0014796416450525332 0 -0.004136236853281741 -0.0016203601868123171 0 -0.0041482047368480435 -0.0014718621297364286 0 -0.0040309967727498461 -0.0014796416450525332 0 -0.0039428560361627948 -0.0015949552388394204 0 -0.0040309967727498461 -0.0014796416450525332 0 -0.003818506706143848 -0.0013181993067105807 0 -0.0039212847672034073 -0.0016733580721422564 0 -0.0040076977472973865 -0.0011366360173359561 0 -0.0039428560361627948 -0.0015949552388394204 0 -0.0038841024141643161 -0.0015879531834239072 0 -0.003932663216499389 -0.0014969139841339348 0 -0.0040076977472973865 -0.0011366360173359561 0 -0.0039694191875570195 -0.0009054510493061034 0 -0.0040076977472973865 -0.0011366360173359561 0 -0.0041003911551950279 -0.0006865358214712021 0 -0.0039768605885208428 -0.0012715776030444411 0 -0.0040309967727498461 -0.0014796416450525332 0 -0.003818506706143848 -0.0013181993067105807 0 -0.0039768605885208428 -0.0012715776030444411 0 -0.003818506706143848 -0.0013181993067105807 0 -0.0038990716598230829 -0.0010565708074747843 0 -0.0040199447563655294 -0.0008302789274262616 0 -0.0040143556596255433 -0.00077842618254998254 0 -0.0040462111976505106 -0.00077408526442299542 0 -0.0040143556596255433 -0.00077842618254998254 0 -0.0040414057218474712 -0.00075045639038906172 0 -0.0040462111976505106 -0.00077408526442299542 0 -0.0040073495021460586 -0.00072408097186731969 0 -0.0040143556596255433 -0.00077842618254998254 0 -0.0040414057218474712 -0.00075045639038906172 0 -0.0040470498694882015 -0.00078206468872099089 0 -0.0039694191875570195 -0.0009054510493061034 0 -0.0040504343222125287 -0.00077072734088607622 0 -0.0038990716598230829 -0.0010565708074747843 0 -0.0040596148455611294 -0.00099383113946087159 0 -0.0040414057218474712 -0.00075045639038906172 0 -0.0040504343222125287 -0.00077072734088607622 0 -0.0040462111976505106 -0.00077408526442299542 0 -0.0040539055865463159 -0.0011615571875799315 0 -0.0038990716598230829 -0.0010565708074747843 0 -0.0040596148455611294 -0.00099383113946087159 0 -0.0040539055865463159 -0.0011615571875799315 0 -0.0039768605885208428 -0.0012715776030444411 0 -0.0038990716598230829 -0.0010565708074747843 0 -0.0041536031105154757 -0.0011109080425210243 0 -0.0040596148455611294 -0.00099383113946087159 0 -0.0041402250418434931 -0.00092000757629106113 0 -0.0040539055865463159 -0.0011615571875799315 0 -0.0041536031105154757 -0.0011109080425210243 0 -0.0040596148455611294 -0.00099383113946087159 0 -0.0040504343222125287 -0.00077072734088607622 0 -0.0041402250418434931 -0.00092000757629106113 0 -0.004133118868962892 -0.00074697168893158076 0 -0.0040504343222125287 -0.00077072734088607622 0 -0.0040596148455611294 -0.00099383113946087159 0 -0.0041402250418434931 -0.00092000757629106113 0 -0.0041402250418434931 -0.00092000757629106113 0 -0.0042156708270117797 -0.0008752736272825076 0 -0.0042340747904557234 -0.0010586559782206212 0 -0.0041402250418434931 -0.00092000757629106113 0 -0.0042156708270117797 -0.0008752736272825076 0 -0.004133118868962892 -0.00074697168893158076 0 -0.0041536031105154757 -0.0011109080425210243 0 -0.0041402250418434931 -0.00092000757629106113 0 -0.0042340747904557234 -0.0010586559782206212 0 -0.0041813266045462975 -0.00067859428581924298 0 -0.004072534436811946 -0.000537188052137635 0 -0.0041446164123481117 -0.00051027064719689856 0 -0.0041813266045462975 -0.00067859428581924298 0 -0.004133118868962892 -0.00074697168893158076 0 -0.0041310497194127268 -0.00063514572777539381 0 -0.0041804696497588058 -0.00066822276202751498 0 -0.004107372378385544 -0.00058828650620077741 0 -0.0041813266045462975 -0.00067859428581924298 0 -0.0042156708270117797 -0.0008752736272825076 0 -0.004133118868962892 -0.00074697168893158076 0 -0.0040504343222125287 -0.00077072734088607622 0 -0.004133118868962892 -0.00074697168893158076 0 -0.0040894324541670014 -0.00067955339431499781 0 -0.004133118868962892 -0.00074697168893158076 0 -0.0040894324541670014 -0.00067955339431499781 0 -0.0041310497194127268 -0.00063514572777539381 0 -0.0040894324541670014 -0.00067955339431499781 0 -0.0041310497194127268 -0.00063514572777539381 0 -0.0040973883505209157 -0.00057059130255201638 0 -0.0040894324541670014 -0.00067955339431499781 0 -0.0040568928783586153 -0.00065920673437089424 0 -0.0040973883505209157 -0.00057059130255201638 0 -0.0040414057218474712 -0.00075045639038906172 0 -0.0040504343222125287 -0.00077072734088607622 0 -0.0040568928783586153 -0.00065920673437089424 0 -0.0040504343222125287 -0.00077072734088607622 0 -0.0040894324541670014 -0.00067955339431499781 0 -0.0040568928783586153 -0.00065920673437089424 0 -0.0040073495021460586 -0.00072408097186731969 0 -0.0040414057218474712 -0.00075045639038906172 0 -0.0040568928783586153 -0.00065920673437089424 0 -0.0040073495021460586 -0.00072408097186731969 0 -0.0040568928783586153 -0.00065920673437089424 0 -0.0040355573413814166 -0.00060275972755773706 0 -0.0040568928783586153 -0.00065920673437089424 0 -0.0040623610104275681 -0.00055622862744596181 0 -0.0040355573413814166 -0.00060275972755773706 0 -0.0040568928783586153 -0.00065920673437089424 0 -0.0040623610104275681 -0.00055622862744596181 0 -0.0040973883505209157 -0.00057059130255201638 0 -0.0040623610104275681 -0.00055622862744596181 0 -0.0040911974610484741 -0.00049641087436274375 0 -0.004066034450673192 -0.0005091037119825955 0 -0.0040807433726447991 -0.00043848948805947318 0 -0.0040775582915418144 -0.0005085700144842548 0 -0.0040623610104275681 -0.00055622862744596181 0 -0.0040911974610484741 -0.00049641087436274375 0 -0.0040973883505209157 -0.00057059130255201638 0 -0.0040902673140058342 -0.00032231970559322355 0 -0.0040754437167513785 -0.00039075836462113868 0 -0.0040695678765242807 -0.00039545462675480111 0 -0.0040754437167513785 -0.00039075836462113868 0 -0.0040695678765242807 -0.00039545462675480111 0 -0.0040537856644334638 -0.00044478220435800649 0 -0.004123996903444436 -0.00032351142347306294 0 -0.0041170045276465676 -0.00032756569161475395 0 -0.0040695678765242807 -0.00039545462675480111 0 -0.0040537856644334638 -0.00044478220435800649 0 -0.0040796769269266916 -0.00041621143567818184 0 -0.004072534436811946 -0.000537188052137635 0 -0.0040537856644334638 -0.00044478220435800649 0 -0.004091599502261057 -0.00046415102748620217 0 -0.004107372378385544 -0.00058828650620077741 0 -0.0040775582915418144 -0.0005085700144842548 0 -0.0040537856644334638 -0.00044478220435800649 0 -0.004091599502261057 -0.00046415102748620217 0 -0.0040796769269266916 -0.00041621143567818184 0 -0.0041634202309416123 -0.00035103761852961631 0 -0.0041170045276465676 -0.00032756569161475395 0 -0.0041565939223725213 -0.00041291535197129675 0 -0.004091599502261057 -0.00046415102748620217 0 -0.0040796769269266916 -0.00041621143567818184 0 -0.0041551908593137231 -0.00028587613242000894 0 -0.004150092964944692 -0.00023789866253600973 0 -0.0041481120998423417 -0.00023599484641092445 0 -0.0041565939223725213 -0.00041291535197129675 0 -0.004091599502261057 -0.00046415102748620217 0 -0.0041446164123481117 -0.00051027064719689856 0 -0.004072534436811946 -0.000537188052137635 0 -0.004091599502261057 -0.00046415102748620217 0 -0.0041446164123481117 -0.00051027064719689856 0 -0.0040170706016132022 -0.00055276011321337369 0 -0.0040242398013704047 -0.00054759039698887833 0 -0.0039931649430671482 -0.00052727046109304161 0 -0.0040170706016132022 -0.00055276011321337369 0 -0.0040293111712948627 -0.00057153012987307161 0 -0.0040230499611845771 -0.00055794359116542464 0 -0.0040170706016132022 -0.00055276011321337369 0 -0.0040230499611845771 -0.00055794359116542464 0 -0.0039931649430671482 -0.00052727046109304161 0 -0.0040242398013704047 -0.00054759039698887833 0 -0.004042017065455406 -0.00055499146780660694 0 -0.0040959206194066304 -0.00053969899220155304 0 -0.0040170706016132022 -0.00055276011321337369 0 -0.0040242398013704047 -0.00054759039698887833 0 -0.004042017065455406 -0.00055499146780660694 0 -0.0040398262521806347 -0.00057948066896530031 0 -0.004042017065455406 -0.00055499146780660694 0 -0.0040883003062250553 -0.00055071180149068768 0 -0.004042017065455406 -0.00055499146780660694 0 -0.0040959206194066304 -0.00053969899220155304 0 -0.0040883003062250553 -0.00055071180149068768 0 -0.0040398262521806347 -0.00057948066896530031 0 -0.004042017065455406 -0.00055499146780660694 0 -0.0040293111712948627 -0.00057153012987307161 0 -0.0040170706016132022 -0.00055276011321337369 0 -0.004042017065455406 -0.00055499146780660694 0 -0.0040293111712948627 -0.00057153012987307161 0 -0.0040309434919176138 -0.00059163637055549545 0 -0.0040293111712948627 -0.00057153012987307161 0 -0.0040379470971206189 -0.00057844919431020766 0 -0.0040293111712948627 -0.00057153012987307161 0 -0.0040379470971206189 -0.00057844919431020766 0 -0.0040230499611845771 -0.00055794359116542464 0 -0.0040861154107656224 -0.00058030027227997576 0 -0.0040309434919176138 -0.00059163637055549545 0 -0.0040379470971206189 -0.00057844919431020766 0 -0.0040529599550341256 -0.00066607634791889512 0 -0.0040372253169068248 -0.00060951516316205053 0 -0.0040861154107656224 -0.00058030027227997576 0 -0.0040379470971206189 -0.00057844919431020766 0 -0.0040355573413814166 -0.00060275972755773706 0 -0.0040379470971206189 -0.00057844919431020766 0 -0.0040355573413814166 -0.00060275972755773706 0 -0.004035910869693589 -0.00056460816621494163 0 -0.0040623610104275681 -0.00055622862744596181 0 -0.0040355573413814166 -0.00060275972755773706 0 -0.004035910869693589 -0.00056460816621494163 0 -0.0040379470971206189 -0.00057844919431020766 0 -0.004035910869693589 -0.00056460816621494163 0 -0.0040230499611845771 -0.00055794359116542464 0 -0.004035910869693589 -0.00056460816621494163 0 -0.0040230499611845771 -0.00055794359116542464 0 -0.0040184050002405698 -0.00052813059997462426 0 -0.0040230499611845771 -0.00055794359116542464 0 -0.0040184050002405698 -0.00052813059997462426 0 -0.0039931649430671482 -0.00052727046109304161 0 -0.004035910869693589 -0.00056460816621494163 0 -0.0040184050002405698 -0.00052813059997462426 0 -0.0040412145479589226 -0.00051310762983723397 0 -0.0040239393252476437 -0.00047323496827005176 0 -0.0040412145479589226 -0.00051310762983723397 0 -0.0040585319551698822 -0.00045834604652983082 0 -0.0040184050002405698 -0.00052813059997462426 0 -0.0040239393252476437 -0.00047323496827005176 0 -0.0040412145479589226 -0.00051310762983723397 0 -0.0040184050002405698 -0.00052813059997462426 0 -0.0040239393252476437 -0.00047323496827005176 0 -0.0039850737621065892 -0.00047281563286382799 0 -0.0040623610104275681 -0.00055622862744596181 0 -0.0040412145479589226 -0.00051310762983723397 0 -0.004066034450673192 -0.0005091037119825955 0 -0.0040623610104275681 -0.00055622862744596181 0 -0.004035910869693589 -0.00056460816621494163 0 -0.0040412145479589226 -0.00051310762983723397 0 -0.0040412145479589226 -0.00051310762983723397 0 -0.004066034450673192 -0.0005091037119825955 0 -0.0040585319551698822 -0.00045834604652983082 0 -0.0040911974610484741 -0.00049641087436274375 0 -0.004066034450673192 -0.0005091037119825955 0 -0.0040585319551698822 -0.00045834604652983082 0 -0.0040599884952548073 -0.00036349476987630779 0 -0.0040807433726447991 -0.00043848948805947318 0 -0.0040690802766327168 -0.00034893873776665899 0 -0.0040902673140058342 -0.00032231970559322355 0 -0.0040754437167513785 -0.00039075836462113868 0 -0.0040690802766327168 -0.00034893873776665899 0 -0.0040911974610484741 -0.00049641087436274375 0 -0.0040585319551698822 -0.00045834604652983082 0 -0.0040690802766327168 -0.00034893873776665899 0 -0.0040585319551698822 -0.00045834604652983082 0 -0.0040379328369842841 -0.00040932986834114291 0 -0.0040239393252476437 -0.00047323496827005176 0 -0.0040013865922874934 -0.00042665046385353999 0 -0.0039850737621065892 -0.00047281563286382799 0 -0.0040013865922874934 -0.00042665046385353999 0 -0.0039671517552063197 -0.00042466475174409395 0 -0.0039850737621065892 -0.00047281563286382799 0 -0.0040239393252476437 -0.00047323496827005176 0 -0.0040585319551698822 -0.00045834604652983082 0 -0.0040379328369842841 -0.00040932986834114291 0 -0.0040239393252476437 -0.00047323496827005176 0 -0.0040013865922874934 -0.00042665046385353999 0 -0.0040379328369842841 -0.00040932986834114291 0 -0.0040690802766327168 -0.00034893873776665899 0 -0.0040379328369842841 -0.00040932986834114291 0 -0.0040442992087372778 -0.00035835307592294166 0 -0.0040379328369842841 -0.00040932986834114291 0 -0.0040442992087372778 -0.00035835307592294166 0 -0.0040163153594568049 -0.00037664198609135081 0 -0.0040013865922874934 -0.00042665046385353999 0 -0.0040379328369842841 -0.00040932986834114291 0 -0.0040163153594568049 -0.00037664198609135081 0 -0.0040013865922874934 -0.00042665046385353999 0 -0.0040163153594568049 -0.00037664198609135081 0 -0.0039743776234293423 -0.00038518522497399247 0 -0.0040013865922874934 -0.00042665046385353999 0 -0.0039743776234293423 -0.00038518522497399247 0 -0.0039671517552063197 -0.00042466475174409395 0 -0.0040009086341336294 -0.00032031433218241003 0 -0.0040163153594568049 -0.00037664198609135081 0 -0.0039743776234293423 -0.00038518522497399247 0 -0.0039327251620855791 -0.00033741445485098589 0 -0.0039743776234293423 -0.00038518522497399247 0 -0.0039307607637365473 -0.00038544556382330499 0 -0.0039743776234293423 -0.00038518522497399247 0 -0.0039307607637365473 -0.00038544556382330499 0 -0.0039671517552063197 -0.00042466475174409395 0 -0.0038810609966208193 -0.00032288502037908738 0 -0.0039307607637365473 -0.00038544556382330499 0 -0.0039074849908677925 -0.00039798554993466151 0 -0.0039307607637365473 -0.00038544556382330499 0 -0.0039074849908677925 -0.00039798554993466151 0 -0.0039456361712940846 -0.00043059569433133031 0 -0.0039074849908677925 -0.00039798554993466151 0 -0.0039456361712940846 -0.00043059569433133031 0 -0.0039545970666702282 -0.00046728438827635285 0 -0.0039456361712940846 -0.00043059569433133031 0 -0.0039850737621065892 -0.00047281563286382799 0 -0.0039545970666702282 -0.00046728438827635285 0 -0.0039307607637365473 -0.00038544556382330499 0 -0.0039456361712940846 -0.00043059569433133031 0 -0.0039671517552063197 -0.00042466475174409395 0 -0.0039456361712940846 -0.00043059569433133031 0 -0.0039671517552063197 -0.00042466475174409395 0 -0.0039850737621065892 -0.00047281563286382799 0 -0.0039850737621065892 -0.00047281563286382799 0 -0.0039545970666702282 -0.00046728438827635285 0 -0.0039931649430671482 -0.00052727046109304161 0 -0.0039545970666702282 -0.00046728438827635285 0 -0.0039931649430671482 -0.00052727046109304161 0 -0.0039637476703305551 -0.00049772091125422214 0 -0.0040184050002405698 -0.00052813059997462426 0 -0.0039850737621065892 -0.00047281563286382799 0 -0.0039931649430671482 -0.00052727046109304161 0 -0.0040242398013704047 -0.00054759039698887833 0 -0.0039931649430671482 -0.00052727046109304161 0 -0.0039637476703305551 -0.00049772091125422214 0 -0.0040025112046142598 -0.00045636049004245914 0 -0.0040007197563023764 -0.000726547191021033 0 -0.0040242398013704047 -0.00054759039698887833 0 -0.0039637476703305551 -0.00049772091125422214 0 -0.0038851549909718936 -0.00046626381375066838 0 -0.0040242398013704047 -0.00054759039698887833 0 -0.0040807735902679944 -0.00056557236105083362 0 -0.0041010528284169956 -0.00056352723622683646 0 -0.0039545970666702282 -0.00046728438827635285 0 -0.0039637476703305551 -0.00049772091125422214 0 -0.0039256915938040531 -0.00044879770936331767 0 -0.0039637476703305551 -0.00049772091125422214 0 -0.0038851549909718936 -0.00046626381375066838 0 -0.0039256915938040531 -0.00044879770936331767 0 -0.0040998439182378544 -0.00058098459229026706 0 -0.0040807735902679944 -0.00056557236105083362 0 -0.0041007507811592478 -0.00057256466042203641 0 -0.0040814519530868324 0.00039707747107144809 0 -0.003873569581496308 -0.00064604696562764311 0 -0.0038449667086469376 -0.00014772254839847261 0 -0.0038851549909718936 -0.00046626381375066838 0 -0.0039256915938040531 -0.00044879770936331767 0 -0.0038423918761663531 -0.00032853169973654433 0 -0.0039074849908677925 -0.00039798554993466151 0 -0.0039256915938040531 -0.00044879770936331767 0 -0.0040807735902679944 -0.00056557236105083362 0 -0.0041007507811592478 -0.00057256466042203641 0 -0.0041005729529966011 -0.00056871499790004049 0 -0.0040146905165398721 -7.0608025066399476e-05 0 -0.0038449667086469376 -0.00014772254839847261 0 -0.0039256915938040531 -0.00044879770936331767 0 -0.0054935327407074743 0.0010480212361885469 0 -0.0040007197563023764 -0.000726547191021033 0 -0.0039074849908677925 -0.00039798554993466151 0 -0.0039545970666702282 -0.00046728438827635285 0 -0.0039256915938040531 -0.00044879770936331767 0 -0.0040998439182378544 -0.00058098459229026706 0 -0.0041007507811592478 -0.00057256466042203641 0 -0.004116118196873823 -0.00057101262312336581 0 -0.0040998439182378544 -0.00058098459229026706 0 -0.004116118196873823 -0.00057101262312336581 0 -0.0041502498229696099 -0.00056977350816142839 0 -0.0085687644223662075 0.0023435455219163346 0 -0.0075192358172264896 0.0025081674768901801 0 -0.0068796076597639555 0.0016000968595493237 0 -0.0054935327407074743 0.0010480212361885469 0 -0.0056880363523447398 0.00052594018916028717 0 -0.004116118196873823 -0.00057101262312336581 0 -0.0041010528284169956 -0.00056352723622683646 0 -0.0041265855344521573 -0.0005603884263488669 0 -0.004116118196873823 -0.00057101262312336581 0 -0.0041502498229696099 -0.00056977350816142839 0 -0.0041265855344521573 -0.0005603884263488669 0 -0.0040807735902679944 -0.00056557236105083362 0 -0.0041005729529966011 -0.00056871499790004049 0 -0.0041010528284169956 -0.00056352723622683646 0 -0.0041005729529966011 -0.00056871499790004049 0 -0.004116118196873823 -0.00057101262312336581 0 -0.0041010528284169956 -0.00056352723622683646 0 -0.0041007507811592478 -0.00057256466042203641 0 -0.0041005729529966011 -0.00056871499790004049 0 -0.004116118196873823 -0.00057101262312336581 0 -0.0061535421873457914 0.002333255488581498 0 -0.0068362192558394305 0.0023057211979765537 0 -0.0064779339021660155 0.0020403836861844155 0 -0.0068362192558394305 0.0023057211979765537 0 -0.0064779339021660155 0.0020403836861844155 0 -0.0068796076597639555 0.0016000968595493237 0 -0.0064779339021660155 0.0020403836861844155 0 -0.0068796076597639555 0.0016000968595493237 0 -0.0060818048210309165 0.0018847448002740257 0 -0.0061535421873457914 0.002333255488581498 0 -0.0064779339021660155 0.0020403836861844155 0 -0.0060818048210309165 0.0018847448002740257 0 -0.0075192358172264896 0.0025081674768901801 0 -0.0068362192558394305 0.0023057211979765537 0 -0.0068796076597639555 0.0016000968595493237 0 -0.0041502498229696099 -0.00056977350816142839 0 -0.0041684450704354281 -0.00052303478107596998 0 -0.0041879548105974787 -0.00051141673321301515 0 -0.0041502498229696099 -0.00056977350816142839 0 -0.0041424292949219258 -0.00054122305300685289 0 -0.0041684450704354281 -0.00052303478107596998 0 -0.0041502498229696099 -0.00056977350816142839 0 -0.0041424292949219258 -0.00054122305300685289 0 -0.0041265855344521573 -0.0005603884263488669 0 -0.0041424292949219258 -0.00054122305300685289 0 -0.0041123196264231648 -0.00054660895486398603 0 -0.0041562462812658862 -0.00052747102042048394 0 -0.0041424292949219258 -0.00054122305300685289 0 -0.0041684450704354281 -0.00052303478107596998 0 -0.0041562462812658862 -0.00052747102042048394 0 -0.0040242398013704047 -0.00054759039698887833 0 -0.0041010528284169956 -0.00056352723622683646 0 -0.0041123196264231648 -0.00054660895486398603 0 -0.0041424292949219258 -0.00054122305300685289 0 -0.0041265855344521573 -0.0005603884263488669 0 -0.0041123196264231648 -0.00054660895486398603 0 -0.0041010528284169956 -0.00056352723622683646 0 -0.0041265855344521573 -0.0005603884263488669 0 -0.0041123196264231648 -0.00054660895486398603 0 -0.0041123196264231648 -0.00054660895486398603 0 -0.0040959206194066304 -0.00053969899220155304 0 -0.0041562462812658862 -0.00052747102042048394 0 -0.0040242398013704047 -0.00054759039698887833 0 -0.0041123196264231648 -0.00054660895486398603 0 -0.0040959206194066304 -0.00053969899220155304 0 -0.0040959206194066304 -0.00053969899220155304 0 -0.0041562462812658862 -0.00052747102042048394 0 -0.004139893354986956 -0.00053755585486242314 0 -0.0041684450704354281 -0.00052303478107596998 0 -0.0041562462812658862 -0.00052747102042048394 0 -0.0041980385032673023 -0.00049489594905770707 0 -0.004139893354986956 -0.00053755585486242314 0 -0.0041961202671683883 -0.00053173181853780548 0 -0.0041595798108244328 -0.0005344123950709014 0 -0.0041562462812658862 -0.00052747102042048394 0 -0.004139893354986956 -0.00053755585486242314 0 -0.0041961202671683883 -0.00053173181853780548 0 -0.0040959206194066304 -0.00053969899220155304 0 -0.004139893354986956 -0.00053755585486242314 0 -0.0040883003062250553 -0.00055071180149068768 0 -0.004223177694008047 -0.0005553819851521946 0 -0.0041961202671683883 -0.00053173181853780548 0 -0.0042156700453068298 -0.0004821893132483603 0 -0.004223177694008047 -0.0005553819851521946 0 -0.0041961202671683883 -0.00053173181853780548 0 -0.0042234743873081227 -0.00053158620919520729 0 -0.0041562462812658862 -0.00052747102042048394 0 -0.0041961202671683883 -0.00053173181853780548 0 -0.0041980385032673023 -0.00049489594905770707 0 -0.0041961202671683883 -0.00053173181853780548 0 -0.0041980385032673023 -0.00049489594905770707 0 -0.0042156700453068298 -0.0004821893132483603 0 -0.004223177694008047 -0.0005553819851521946 0 -0.0042156700453068298 -0.0004821893132483603 0 -0.0041267507525888118 -0.00030688755043900079 0 -0.0042156700453068298 -0.0004821893132483603 0 -0.0042040220571491786 -0.00045478674540672673 0 -0.0041267507525888118 -0.00030688755043900079 0 -0.0041980385032673023 -0.00049489594905770707 0 -0.0042156700453068298 -0.0004821893132483603 0 -0.0042040220571491786 -0.00045478674540672673 0 -0.0053988636532617228 0.0010925628067736681 0 -0.0053101318769321676 0.00097285510160393664 0 -0.0057735546768066708 0.0013886039519839899 0 -0.0057320148902133862 0.0074591524924381616 0 -0.0065417239167581374 0.0074639608852836254 0 -0.0047651288844073854 0.0063682027662318001 0 -0.004722662698474476 0.00013752769845715165 0 -0.0041284022412016279 -0.00027025035366967285 0 -0.0042040220571491786 -0.00045478674540672673 0 -0.0042164645388313047 -0.00049557293980434232 0 -0.0041267507525888118 -0.00030688755043900079 0 -0.0053435329329974612 0.00084365158052060864 0 -0.0052799980534584384 0.0010338940073488631 0 -0.0041267507525888118 -0.00030688755043900079 0 -0.0053988636532617228 0.0010925628067736681 0 -0.0052799980534584384 0.0010338940073488631 0 -0.0057735546768066708 0.0013886039519839899 0 -0.0055960378662188023 0.0032192608148180328 0 -0.0073107794877558504 0.002394055420971119 0 -0.0042395658060507165 0.00032512386264030015 0 -0.0073107794877558504 0.002394055420971119 0 -0.0053988636532617228 0.0010925628067736681 0 -0.0052799980534584384 0.0010338940073488631 0 -0.005233011866836711 0.0011575949386281449 0 -0.0049730608814565185 0.0019691667042836905 0 -0.0055960378662188023 0.0032192608148180328 0 -0.0041502498229696099 -0.00056977350816142839 0 -0.0042164645388313047 -0.00049557293980434232 0 -0.0041879548105974787 -0.00051141673321301515 0 -0.0041684450704354281 -0.00052303478107596998 0 -0.0041980385032673023 -0.00049489594905770707 0 -0.0041879548105974787 -0.00051141673321301515 0 -0.0041980385032673023 -0.00049489594905770707 0 -0.0042040220571491786 -0.00045478674540672673 0 -0.0042021061051920969 -0.00048738565275374224 0 -0.0042040220571491786 -0.00045478674540672673 0 -0.0042021061051920969 -0.00048738565275374224 0 -0.0042164645388313047 -0.00049557293980434232 0 -0.0041980385032673023 -0.00049489594905770707 0 -0.0042021061051920969 -0.00048738565275374224 0 -0.0041879548105974787 -0.00051141673321301515 0 -0.0053435329329974612 0.00084365158052060864 0 -0.0057096569534114423 0.0014131322902029397 0 -0.0054122986072683444 0.0011551788620990185 0 -0.0042021061051920969 -0.00048738565275374224 0 -0.0042164645388313047 -0.00049557293980434232 0 -0.0041879548105974787 -0.00051141673321301515 0 -0.0053435329329974612 0.00084365158052060864 0 -0.0052799980534584384 0.0010338940073488631 0 -0.0054122986072683444 0.0011551788620990185 0 -0.0070005175445506272 0.0056283818789398402 0 -0.0055960378662188023 0.0032192608148180328 0 -0.0061535421873457914 0.002333255488581498 0 -0.0060818048210309165 0.0018847448002740257 0 -0.005165766318089674 0.0013345344706987114 0 -0.0056880363523447398 0.00052594018916028717 0 -0.004722662698474476 0.00013752769845715165 0 -0.0077261087847166794 0.0086342441638975042 0 -0.0068715821190160932 0.0082274234554243313 0 -0.0065417239167581374 0.0074639608852836254 0 -0.0068796076597639555 0.0016000968595493237 0 -0.0057096569534114423 0.0014131322902029397 0 -0.0060818048210309165 0.0018847448002740257 0 -0.0068796076597639555 0.0016000968595493237 0 -0.0053435329329974612 0.00084365158052060864 0 -0.0057096569534114423 0.0014131322902029397 0 -0.0056272684106756822 0.0015709916164040375 0 -0.0055960378662188023 0.0032192608148180328 0 -0.0057096569534114423 0.0014131322902029397 0 -0.0054122986072683444 0.0011551788620990185 0 -0.005233011866836711 0.0011575949386281449 0 -0.0057096569534114423 0.0014131322902029397 0 -0.0060818048210309165 0.0018847448002740257 0 -0.005233011866836711 0.0011575949386281449 0 -0.0052799980534584384 0.0010338940073488631 0 -0.0054122986072683444 0.0011551788620990185 0 -0.005233011866836711 0.0011575949386281449 0 -0.0068715821190160932 0.0082274234554243313 0 -0.0065821051544730268 0.0079137392810608772 0 -0.0065645546287595785 0.0081303876433973885 0 -0.0066949758076517655 0.0085384591033963314 0 -0.0068715821190160932 0.0082274234554243313 0 -0.0065645546287595785 0.0081303876433973885 0 -0.0066949758076517655 0.0085384591033963314 0 -0.0071202272949128587 0.008684681257041825 0 -0.0068715821190160932 0.0082274234554243313 0 -0.0057320148902133862 0.0074591524924381616 0 -0.0062610756930233588 0.0078823664522512018 0 -0.0058689602896491591 0.0080614885990346035 0 -0.0057320148902133862 0.0074591524924381616 0 -0.0058689602896491591 0.0080614885990346035 0 -0.0051973813853580979 0.0075866959632601315 0 -0.0068715821190160932 0.0082274234554243313 0 -0.0065417239167581374 0.0074639608852836254 0 -0.0065821051544730268 0.0079137392810608772 0 -0.0057320148902133862 0.0074591524924381616 0 -0.0065417239167581374 0.0074639608852836254 0 -0.0062610756930233588 0.0078823664522512018 0 -0.0065417239167581374 0.0074639608852836254 0 -0.0065821051544730268 0.0079137392810608772 0 -0.0062610756930233588 0.0078823664522512018 0 -0.0062610756930233588 0.0078823664522512018 0 -0.0062525932392072485 0.0083921224810345509 0 -0.0058689602896491591 0.0080614885990346035 0 -0.0062610756930233588 0.0078823664522512018 0 -0.0065645546287595785 0.0081303876433973885 0 -0.0062525932392072485 0.0083921224810345509 0 -0.0065821051544730268 0.0079137392810608772 0 -0.0062610756930233588 0.0078823664522512018 0 -0.0065645546287595785 0.0081303876433973885 0 -0.0066949758076517655 0.0085384591033963314 0 -0.0065645546287595785 0.0081303876433973885 0 -0.0062525932392072485 0.0083921224810345509 0 -0.0057554708376778667 0.0087925851083527334 0 -0.0058689602896491591 0.0080614885990346035 0 -0.0051387711699374134 0.0082394732558604359 0 -0.0057554708376778667 0.0087925851083527334 0 -0.0062525932392072485 0.0083921224810345509 0 -0.0058689602896491591 0.0080614885990346035 0 -0.0051387711699374134 0.0082394732558604359 0 -0.0051973813853580979 0.0075866959632601315 0 -0.0040084432604510691 0.0078549974299737032 0 -0.0058689602896491591 0.0080614885990346035 0 -0.0051387711699374134 0.0082394732558604359 0 -0.0051973813853580979 0.0075866959632601315 0 -0.004859463983552934 0.0088998971988600781 0 -0.0051387711699374134 0.0082394732558604359 0 -0.0040084432604510691 0.0078549974299737032 0 -0.01368435439964627 0.0049093370395906621 0 -0.013263057003808632 0.0057027608377232921 0 -0.013954770584469728 0.0055698443842169309 0 -0.013263057003808632 0.0057027608377232921 0 -0.013954770584469728 0.0055698443842169309 0 -0.01377788404445926 0.0062332208150414469 0 -0.0085637769685543118 0.0074618544072881984 0 -0.0073107794877558504 0.002394055420971119 0 -0.013263057003808632 0.0057027608377232921 0 -0.013307666675131247 0.0062456093126004621 0 -0.012884128226319539 0.0064091160965081516 0 -0.013263057003808632 0.0057027608377232921 0 -0.013307666675131247 0.0062456093126004621 0 -0.01377788404445926 0.0062332208150414469 0 -0.013307666675131247 0.0062456093126004621 0 -0.01377788404445926 0.0062332208150414469 0 -0.013298254340776132 0.0066221027907893406 0 -0.013307666675131247 0.0062456093126004621 0 -0.012884128226319539 0.0064091160965081516 0 -0.013298254340776132 0.0066221027907893406 0 -0.0051973813853580979 0.0075866959632601315 0 -0.0040084432604510691 0.0078549974299737032 0 -0.0047651288844073854 0.0063682027662318001 0 -0.0057320148902133862 0.0074591524924381616 0 -0.0051973813853580979 0.0075866959632601315 0 -0.0047651288844073854 0.0063682027662318001 0 -0.0052799980534584384 0.0010338940073488631 0 -0.0040703880617868208 -0.00026442307401114271 0 -0.0041267507525888118 -0.00030688755043900079 0 -0.015203211455957398 0.0053266800748639764 0 -0.014980292827875446 0.005850174050454137 0 -0.014552665602233996 0.0054900309502594197 0 -0.014980292827875446 0.005850174050454137 0 -0.014552665602233996 0.0054900309502594197 0 -0.014386460412534639 0.005957875915026614 0 -0.014386460412534639 0.005957875915026614 0 -0.013954770584469728 0.0055698443842169309 0 -0.01377788404445926 0.0062332208150414469 0 -0.014552665602233996 0.0054900309502594197 0 -0.014386460412534639 0.005957875915026614 0 -0.013954770584469728 0.0055698443842169309 0 -0.01420987284460655 0.0051664775262377964 0 -0.014552665602233996 0.0054900309502594197 0 -0.013954770584469728 0.0055698443842169309 0 -0.013783024454311321 0.0062300606225071187 0 -0.014407002722640613 0.0069411317527945946 0 -0.01377788404445926 0.0062332208150414469 0 -0.01434268784623453 0.0064035871983427499 0 -0.014477928326959788 0.0069313444606513008 0 -0.014386460412534639 0.005957875915026614 0 -0.01377788404445926 0.0062332208150414469 0 -0.01434268784623453 0.0064035871983427499 0 -0.014386460412534639 0.005957875915026614 0 -0.01434268784623453 0.0064035871983427499 0 -0.014902761190170774 0.0063922554727373262 0 -0.01434268784623453 0.0064035871983427499 0 -0.014902761190170774 0.0063922554727373262 0 -0.014763683404944499 0.0067073045265139252 0 -0.014980292827875446 0.005850174050454137 0 -0.014386460412534639 0.005957875915026614 0 -0.014902761190170774 0.0063922554727373262 0 -0.015332459841105581 0.0061557483072594956 0 -0.014980292827875446 0.005850174050454137 0 -0.014902761190170774 0.0063922554727373262 0 -0.01417002312498411 0.0067092195357753509 0 -0.013985228897843899 0.0068871225093362345 0 -0.014556053100473207 0.0071233697694734659 0 -0.014407002722640613 0.0069411317527945946 0 -0.014606630319004056 0.0064523365549411515 0 -0.015125327132990843 0.0069569402426316014 0 -0.014477928326959788 0.0069313444606513008 0 -0.015145842413661426 0.0075305153305926242 0 -0.014902761190170774 0.0063922554727373262 0 -0.015125327132990843 0.0069569402426316014 0 -0.014763683404944499 0.0067073045265139252 0 -0.015125327132990843 0.0069569402426316014 0 -0.014763683404944499 0.0067073045265139252 0 -0.014477928326959788 0.0069313444606513008 0 -0.01434268784623453 0.0064035871983427499 0 -0.014763683404944499 0.0067073045265139252 0 -0.014477928326959788 0.0069313444606513008 0 -0.01189970822375072 0.00042181457371409035 0 -0.012439586126351706 0.0028640549334767985 0 -0.01377788404445926 0.0062332208150414469 0 -0.013985228897843899 0.0068871225093362345 0 -0.013298254340776132 0.0066221027907893406 0 -0.012915477016914794 0.0030114311294767854 0 -0.013036830372763293 0.0031330254258615802 0 -0.012390187634086159 0.0028008913525228523 0 -0.01377788404445926 0.0062332208150414469 0 -0.01417002312498411 0.0067092195357753509 0 -0.013985228897843899 0.0068871225093362345 0 -0.013437302398990948 0.0049969355731869641 0 -0.012439586126351706 0.0028640549334767985 0 -0.011523784574039539 -0.0011613355994497952 0 -0.011289686983729797 -0.001091258933428868 0 -0.011440732700470841 -0.0010097582490873524 0 -0.013437302398990948 0.0049969355731869641 0 -0.014606630319004056 0.0064523365549411515 0 -0.012915477016914794 0.0030114311294767854 0 -0.013036830372763293 0.0031330254258615802 0 -0.013440017401568501 0.0032261059863635273 0 -0.013682112072639568 0.0034679883744525145 0 -0.013036830372763293 0.0031330254258615802 0 -0.013440017401568501 0.0032261059863635273 0 -0.01345607360859191 0.0023953928887969086 0 -0.01189970822375072 0.00042181457371409035 0 -0.004223177694008047 -0.0005553819851521946 0 -0.0040703880617868208 -0.00026442307401114271 0 -0.0041267507525888118 -0.00030688755043900079 0 -0.011183985537006081 -0.0012767149719566072 0 -0.011197731206634944 -0.0011738671558596621 0 -0.011282518282922607 -0.0012477479430171641 0 -0.011078856071364855 -0.0011249220605405743 0 -0.011183985537006081 -0.0012767149719566072 0 -0.011197731206634944 -0.0011738671558596621 0 -0.0078190188804509765 -0.0015224271260038612 0 -0.0073107794877558504 0.002394055420971119 0 -0.0073107794877558504 0.002394055420971119 0 -0.012439586126351706 0.0028640549334767985 0 -0.011197731206634944 -0.0011738671558596621 0 -0.011282518282922607 -0.0012477479430171641 0 -0.011289686983729797 -0.001091258933428868 0 -0.011523784574039539 -0.0011613355994497952 0 -0.011282518282922607 -0.0012477479430171641 0 -0.011289686983729797 -0.001091258933428868 0 -0.011078856071364855 -0.0011249220605405743 0 -0.011197731206634944 -0.0011738671558596621 0 -0.011289686983729797 -0.001091258933428868 0 -0.011078856071364855 -0.0011249220605405743 0 -0.011289686983729797 -0.001091258933428868 0 -0.011154667626537072 -0.00098682499330242411 0 -0.011289686983729797 -0.001091258933428868 0 -0.011320483082673189 -0.0009119424195372385 0 -0.011440732700470841 -0.0010097582490873524 0 -0.011289686983729797 -0.001091258933428868 0 -0.011154667626537072 -0.00098682499330242411 0 -0.011320483082673189 -0.0009119424195372385 0 -0.011154667626537072 -0.00098682499330242411 0 -0.011320483082673189 -0.0009119424195372385 0 -0.011129057318390779 -0.00084172224493621491 0 -0.011320483082673189 -0.0009119424195372385 0 -0.011129057318390779 -0.00084172224493621491 0 -0.011280406928773667 -0.00076201648001649109 0 -0.011760183201196987 -0.0010580884653856838 0 -0.011523784574039539 -0.0011613355994497952 0 -0.011616567199189539 -0.00097414445387956504 0 -0.011523784574039539 -0.0011613355994497952 0 -0.011616567199189539 -0.00097414445387956504 0 -0.011440732700470841 -0.0010097582490873524 0 -0.011616567199189539 -0.00097414445387956504 0 -0.011440732700470841 -0.0010097582490873524 0 -0.011494929454384425 -0.0008978952356468162 0 -0.011320483082673189 -0.0009119424195372385 0 -0.011494929454384425 -0.0008978952356468162 0 -0.01147474364856067 -0.00076199329064646217 0 -0.011320483082673189 -0.0009119424195372385 0 -0.011440732700470841 -0.0010097582490873524 0 -0.011494929454384425 -0.0008978952356468162 0 -0.011616567199189539 -0.00097414445387956504 0 -0.011494929454384425 -0.0008978952356468162 0 -0.011620334473967573 -0.00083486041798133518 0 -0.011712274933481003 -0.00090145810256125794 0 -0.011616567199189539 -0.00097414445387956504 0 -0.011620334473967573 -0.00083486041798133518 0 -0.011620334473967573 -0.00083486041798133518 0 -0.01147474364856067 -0.00076199329064646217 0 -0.011659007445754967 -0.00073788744340101946 0 -0.011494929454384425 -0.0008978952356468162 0 -0.011620334473967573 -0.00083486041798133518 0 -0.01147474364856067 -0.00076199329064646217 0 -0.011579793560235531 -0.0006773133930668174 0 -0.011080441135545413 -0.00081926317094442288 0 -0.011545750318278725 -0.00068147768883251717 0 -0.01147474364856067 -0.00076199329064646217 0 -0.011357805550385796 -0.00064030234535411383 0 -0.011764519210529737 -0.00062813487087348902 0 -0.011545750318278725 -0.00068147768883251717 0 -0.011659007445754967 -0.00073788744340101946 0 -0.011545750318278725 -0.00068147768883251717 0 -0.01147474364856067 -0.00076199329064646217 0 -0.011659007445754967 -0.00073788744340101946 0 -0.011129057318390779 -0.00084172224493621491 0 -0.011280406928773667 -0.00076201648001649109 0 -0.011089494812362476 -0.00065278979616747144 0 -0.01147474364856067 -0.00076199329064646217 0 -0.011280406928773667 -0.00076201648001649109 0 -0.011357805550385796 -0.00064030234535411383 0 -0.011320483082673189 -0.0009119424195372385 0 -0.01147474364856067 -0.00076199329064646217 0 -0.011280406928773667 -0.00076201648001649109 0 -0.010761158279486004 -0.00069957485006439822 0 -0.011095947221086325 -0.00094713989474406166 0 -0.010515526395246473 -0.001217552887357505 0 -0.011080441135545413 -0.00081926317094442288 0 -0.011408074247707607 -0.00090350170577817681 0 -0.011280406928773667 -0.00076201648001649109 0 -0.011357805550385796 -0.00064030234535411383 0 -0.011089494812362476 -0.00065278979616747144 0 -0.010242476845397383 -0.00070570062218624227 0 -0.010515526395246473 -0.001217552887357505 0 -0.010024298904225109 -0.0010649600911292294 0 -0.011089494812362476 -0.00065278979616747144 0 -0.010987354311180239 -0.00079226615852106674 0 -0.0107823483997951 -0.00071892891558448537 0 -0.011129057318390779 -0.00084172224493621491 0 -0.011089494812362476 -0.00065278979616747144 0 -0.010987354311180239 -0.00079226615852106674 0 -0.011408074247707607 -0.00090350170577817681 0 -0.007440529103014553 -0.00072022757531194765 0 -0.010515526395246473 -0.001217552887357505 0 -0.0098403672405561245 -0.0014502106795368491 0 -0.010024298904225109 -0.0010649600911292294 0 -0.0098403672405561245 -0.0014502106795368491 0 -0.010024298904225109 -0.0010649600911292294 0 -0.009667500545692943 -0.0011144446036997597 0 -0.0098480667872033103 -0.00084899865610050802 0 -0.010024298904225109 -0.0010649600911292294 0 -0.009667500545692943 -0.0011144446036997597 0 -0.009489584368149017 -0.00078565018294748197 0 -0.0098480667872033103 -0.00084899865610050802 0 -0.009667500545692943 -0.0011144446036997597 0 -0.0061201749632929913 -0.00070693401743737283 0 -0.0070100904203824832 -0.00086314733775873795 0 -0.0043227484526524741 -0.0005041457359676204 0 -0.0041788858465248617 -0.00050682898028664371 0 -0.0042004353978982384 -0.00060968767255005659 0 -0.0042789726703946623 -0.00041206544273258674 0 -0.0043227484526524741 -0.0005041457359676204 0 -0.0041788858465248617 -0.00050682898028664371 0 -0.007440529103014553 -0.00072022757531194765 0 -0.0070100904203824832 -0.00086314733775873795 0 -0.0041614687611909373 -0.00049106180995762549 0 -0.0041263130073851059 -0.00050223682863393901 0 -0.0041788858465248617 -0.00050682898028664371 0 -0.0061201749632929913 -0.00070693401743737283 0 -0.0039284354737415964 -0.00076682488245735691 0 -0.0041068176738788282 -0.00054407027021356627 0 -0.0041788858465248617 -0.00050682898028664371 0 -0.0042004353978982384 -0.00060968767255005659 0 -0.0042144808526057426 -0.00048047067905771559 0 -0.0041312306444622367 -0.00050288752621534965 0 -0.0041749673109267712 -0.00051578078345105823 0 -0.007440529103014553 -0.00072022757531194765 0 -0.0035375622233583194 -0.00066191066362628558 0 -0.0043805170555099616 -0.00058825871658260644 0 -0.0043227484526524741 -0.0005041457359676204 0 -0.0042004353978982384 -0.00060968767255005659 0 -0.0041749673109267712 -0.00051578078345105823 0 -0.0041095333494520795 -0.00054391845936436806 0 -0.0041595798108244328 -0.0005344123950709014 0 -0.0040810962766917105 -0.00057224412970763913 0 -0.0041312306444622367 -0.00050288752621534965 0 -0.0041095333494520795 -0.00054391845936436806 0 -0.0041312306444622367 -0.00050288752621534965 0 -0.0041749673109267712 -0.00051578078345105823 0 -0.0041095333494520795 -0.00054391845936436806 0 -0.0043400084451214391 -0.00050656659419656756 0 -0.0035375622233583194 -0.00066191066362628558 0 -0.0040883003062250553 -0.00055071180149068768 0 -0.0041095333494520795 -0.00054391845936436806 0 -0.0041595798108244328 -0.0005344123950709014 0 -0.004139893354986956 -0.00053755585486242314 0 -0.0040883003062250553 -0.00055071180149068768 0 -0.0041595798108244328 -0.0005344123950709014 0 -0.0041961202671683883 -0.00053173181853780548 0 -0.0041595798108244328 -0.0005344123950709014 0 -0.0042234743873081227 -0.00053158620919520729 0 -0.011078856071364855 -0.0011249220605405743 0 -0.011154667626537072 -0.00098682499330242411 0 -0.010944304843190585 -0.00094970178698209891 0 -0.0078190188804509765 -0.0015224271260038612 0 -0.0075370890107979132 -0.00057527874228438883 0 -0.011129057318390779 -0.00084172224493621491 0 -0.010987354311180239 -0.00079226615852106674 0 -0.010944304843190585 -0.00094970178698209891 0 -0.011154667626537072 -0.00098682499330242411 0 -0.011129057318390779 -0.00084172224493621491 0 -0.010944304843190585 -0.00094970178698209891 0 -0.010987354311180239 -0.00079226615852106674 0 -0.0107823483997951 -0.00071892891558448537 0 -0.010944304843190585 -0.00094970178698209891 0 -0.0041749673109267712 -0.00051578078345105823 0 -0.0041595798108244328 -0.0005344123950709014 0 -0.0042234743873081227 -0.00053158620919520729 0 -0.007440529103014553 -0.00072022757531194765 0 -0.0075370890107979132 -0.00057527874228438883 0 -0.0042144808526057426 -0.00048047067905771559 0 -0.0041749673109267712 -0.00051578078345105823 0 -0.0042234743873081227 -0.00053158620919520729 0 
</DataArray>
</PointData>
<CellData Scalars="region_id,cross_section_updated," Vectors="" Tensors="stress,">
<DataArray type="Float64" Name="region_id" format="ascii">
5 5 5 6 5 5 5 6 5 5 5 5 5 5 5 5 5 5 5 5 5 5 5 5 5 5 5 5 5 5 6 5 5 5 5 5 6 5 5 5 5 5 5 5 5 5 5 5 5 6 5 5 5 5 5 6 5 5 5 5 5 5 5 5 5 5 5 5 5 5 6 5 5 5 5 5 6 5 5 5 5 5 5 5 6 5 5 6 5 5 5 5 5 6 5 5 6 5 5 5 5 6 5 5 5 5 6 5 5 6 6 5 5 5 5 6 5 5 5 5 5 5 5 5 5 5 5 5 5 5 5 5 5 5 5 5 5 5 5 5 5 5 5 5 5 5 6 5 5 5 5 5 6 5 5 5 5 5 5 5 5 5 5 5 5 6 5 5 6 5 6 6 5 5 5 5 5 5 5 5 5 5 5 6 5 5 5 5 5 5 5 5 5 5 5 5 6 6 5 5 5 5 6 5 5 5 6 6 5 5 5 5 5 5 6 5 5 5 5 5 5 5 5 6 5 5 5 6 5 5 5 5 5 5 5 5 5 5 5 5 5 5 5 5 5 5 5 5 5 5 5 5 6 5 5 5 5 5 5 5 5 5 5 5 6 5 5 5 6 5 5 5 5 5 5 5 5 5 6 5 5 5 5 5 5 5 5 5 5 6 5 5 5 5 5 5 5 5 5 6 5 5 5 5 6 5 5 5 5 5 5 6 5 5 5 6 5 5 5 5 5 5 5 5 5 6 5 6 5 5 6 6 5 5 5 5 6 5 5 6 5 5 5 5 5 6 5 6 5 5 5 6 6 5 5 5 5 5 5 5 5 5 5 5 5 5 5 5 5 5 5 5 5 5 5 5 5 5 5 5 5 5 5 6 5 5 5 5 5 5 5 5 5 5 5 5 5 5 5 5 5 5 5 5 5 5 5 5 5 5 5 5 5 5 5 5 5 5 5 5 5 5 6 5 5 5 5 5 5 5 5 5 5 5 5 5 5 5 5 5 5 6 5 5 5 5 6 5 5 5 5 5 5 5 5 5 5 5 5 5 6 5 5 5 6 5 5 5 5 5 5 5 5 5 5 5 5 5 5 5 5 5 5 5 5 5 5 5 5 6 5 5 5 5 5 6 5 5 5 6 5 5 5 6 5 5 5 5 5 5 5 6 5 6 6 5 5 6 5 5 6 5 5 6 5 5 6 6 5 5 5 6 5 5 5 6 5 5 5 5 5 6 6 5 5 6 6 6 5 6 5 5 5 5 5 6 5 6 6 5 6 5 5 6 5 5 5 5 5 5 5 5 6 5 5 5 5 5 5 5 6 5 5 5 6 5 5 5 5 6 5 5 5 6 5 5 5 5 5 5 6 5 5 5 5 6 5 5 5 6 6 5 5 5 5 5 5 5 5 5 6 5 5 5 5 5 5 5 5 5 5 6 5 5 5 5 5 5 5 5 6 5 5 5 5 5 5 5 5 5 5 6 5 5 5 5 6 5 5 5 5 5 5 5 5 5 5 5 5 5 6 5 5 5 6 5 5 6 5 5 6 5 5 6 5 5 5 5 5 5 5 6 5 5 5 5 5 5 5 5 6 5 6 6 5 5 5 6 5 5 6 5 6 5 5 6 5 5 5 5 5 5 5 5 5 5 5 5 5 5 5 5 6 5 5 5 5 6 5 6 5 5 5 5 5 5 5 5 5 5 5 5 5 5 5 5 5 5 5 5 5 5 5 5 5 6 5 5 5 5 5 6 5 5 5 5 5 5 5 5 6 5 5 5 5 5 5 5 5 5 5 5 5 5 5 5 5 5 5 5 5 5 5 5 5 5 5 5 5 5 5 5 5 5 5 5 5 5 5 5 5 6 5 5 5 5 5 5 5 5 5 5 5 5 5 5 5 5 5 5 5 5 5 5 5 5 5 5 5 5 5 6 5 5 5 5 5 5 5 5 5 5 5 5 5 5 5 5 5 5 5 5 5 5 5 5 5 5 5 6 5 5 5 5 5 6 5 5 5 5 6 5 5 5 5 5 5 5 5 5 6 5 5 5 5 5 5 6 5 5 5 6 5 5 5 5 5 5 5 5 5 6 5 5 6 5 5 5 6 6 6 5 5 5 5 5 5 5 5 5 5 6 5 5 5 5 5 5 5 5 5 5 6 5 5 5 5 5 5 5 5 5 6 5 5 6 5 5 6 5 5 5 5 5 5 5 5 5 6 5 5 5 5 5 5 5 6 6 5 5 5 5 5 5 5 5 5 5 5 6 5 5 5 5 5 5 5 5 5 5 5 5 6 5 5 5 5 5 5 5 5 5 5 5 5 5 5 5 5 5 5 5 5 5 5 5 5 5 5 5 5 5 5 5 5 5 5 5 5 5 5 5 5 5 5 5 5 5 5 5 6 5 5 5 5 5 5 5 5 5 5 5 5 6 5 5 5 5 5 5 6 5 5 5 5 5 6 5 5 5 5 5 5 6 5 5 5 5 5 5 6 5 5 6 5 5 5 5 5 6 5 5 5 6 5 5 6 5 5 5 5 5 6 5 6 5 5 5 6 5 5 6 5 5 5 5 5 5 5 6 5 5 5 5 6 5 5 5 6 5 5 5 5 5 5 5 5 5 5 5 5 5 5 5 5 5 5 5 5 5 5 6 5 5 5 5 5 5 6 5 5 5 5 5 5 5 5 5 5 5 5 5 5 6 5 5 5 5 5 5 5 5 5 5 5 5 5 5 5 5 6 5 5 5 6 5 5 6 5 5 5 5 5 6 5 5 5 5 5 5 5 5 5 6 5 5 5 5 5 5 5 5 5 5 5 5 6 5 5 5 5 5 5 5 5 5 6 5 5 6 5 5 6 5 5 5 5 6 5 5 5 5 5 5 5 5 5 5 5 5 5 5 5 5 6 5 5 5 5 5 5 5 5 5 5 5 5 5 5 6 5 5 5 5 5 5 5 5 5 5 6 6 5 5 5 6 5 5 5 5 5 5 5 5 5 5 5 5 5 5 6 5 5 6 5 5 5 5 5 5 5 5 5 6 5 5 5 5 5 5 5 5 5 5 5 6 5 5 5 5 5 5 5 5 5 5 6 6 5 5 5 5 6 5 5 5 5 6 5 5 6 6 5 5 5 5 6 5 5 6 5 5 5 6 6 5 5 5 5 5 5 5 5 5 5 5 5 5 5 5 5 5 5 5 6 5 5 5 5 5 5 5 5 5 5 5 5 5 5 5 5 6 6 5 5 6 6 5 5 5 5 5 5 5 5 5 5 6 5 5 5 5 5 6 5 5 5 5 5 5 5 6 5 5 6 5 5 5 5 5 6 5 5 5 5 5 6 5 5 5 6 6 5 6 5 5 5 5 5 5 5 5 5 5 5 6 5 6 5 5 5 5 5 5 6 6 5 5 5 5 5 5 5 5 5 5 5 5 5 5 5 5 5 5 6 5 5 6 5 5 5 5 5 5 5 6 5 6 5 6 5 6 5 5 5 6 6 5 5 5 6 5 5 5 5 5 5 5 5 5 5 5 6 5 5 6 5 5 5 6 5 5 6 5 5 6 5 6 5 5 5 5 5 5 5 5 5 5 5 5 5 5 5 5 5 5 6 5 5 6 5 5 5 5 6 5 5 5 5 5 6 5 5 5 5 5 5 5 5 5 5 5 5 5 5 5 5 5 5 5 5 5 5 5 5 5 5 5 5 5 5 5 6 5 5 5 5 5 5 5 5 5 6 5 5 5 5 5 5 5 5 5 5 6 5 5 5 5 6 6 5 5 5 5 5 5 5 5 5 5 5 5 5 5 5 5 5 5 5 6 5 5 5 5 5 5 5 5 5 5 5 5 5 5 5 5 5 5 5 5 5 6 5 5 5 5 5 5 5 5 5 5 6 5 5 5 5 6 5 5 5 6 5 5 5 5 5 5 5 5 5 6 5 6 5 6 5 6 5 5 5 6 5 5 5 5 5 5 5 5 5 5 6 5 6 5 5 5 6 5 5 5 6 5 5 5 6 5 6 6 5 6 5 5 5 6 6 5 5 6 5 5 5 5 5 6 6 5 5 6 5 5 6 6 5 5 6 5 6 5 5 5 6 6 5 5 5 5 5 5 5 6 5 5 5 5 5 5 5 5 5 6 5 5 6 6 5 5 5 5 5 5 6 5 5 6 5 6 5 5 6 5 6 5 5 5 5 5 5 5 5 5 5 5 5 5 5 5 5 5 5 5 5 5 5 6 5 6 5 5 5 5 5 5 5 5 6 5 5 5 5 5 5 5 5 5 5 5 6 5 5 5 5 5 6 5 5 5 6 5 5 5 6 5 5 5 5 5 5 5 5 5 5 5 5 5 5 5 5 5 5 5 5 5 5 5 5 5 5 5 5 5 5 5 5 5 5 6 5 5 5 5 5 5 5 5 5 5 5 5 5 5 5 5 6 5 5 5 5 5 6 5 5 6 5 5 5 5 5 6 6 5 5 5 5 5 5 5 5 5 5 5 5 5 5 5 5 5 5 5 5 5 5 5 5 5 5 5 5 5 5 5 5 5 5 5 5 6 6 5 5 6 5 5 5 6 6 5 6 6 5 5 5 6 5 5 5 6 5 5 5 6 5 5 5 5 5 5 5 5 5 6 5 5 5 5 5 5 5 6 5 5 5 6 5 6 5 5 5 5 5 5 5 5 5 5 5 5 5 5 6 5 5 5 5 6 6 5 5 6 5 5 5 6 5 5 5 5 5 5 6 5 5 6 6 5 5 5 5 5 5 6 6 5 5 5 5 5 5 5 5 5 5 6 5 5 6 5 5 5 5 6 5 6 5 6 5 5 6 5 5 5 5 5 6 5 5 5 5 5 5 5 5 5 6 5 5 5 5 5 5 5 5 5 5 6 5 5 5 5 5 6 5 6 5 6 5 5 5 5 5 5 5 5 5 5 5 5 5 6 5 5 5 5 5 5 5 5 5 5 5 5 5 5 5 5 5 6 5 5 5 5 5 5 5 5 5 5 5 5 5 5 5 5 5 5 6 5 5 6 5 5 5 5 5 5 5 5 5 5 5 5 5 5 5 5 5 5 5 5 6 5 5 5 5 5 5 5 5 5 5 5 5 5 5 5 5 5 5 5 5 5 5 5 5 5 5 5 5 5 6 5 5 5 6 5 5 5 5 5 5 5 5 5 5 5 6 5 5 6 5 5 5 5 5 5 5 5 5 5 5 5 5 5 5 5 5 5 5 5 5 5 5 5 6 5 5 5 5 5 5 5 5 5 5 5 5 5 5 5 5 6 5 5 5 5 5 5 5 5 5 5 5 5 5 5 5 5 5 5 5 5 5 5 5 5 5 5 5 5 5 5 6 5 5 5 5 5 5 5 5 5 6 5 5 5 5 5 5 5 5 6 5 5 6 5 5 6 5 5 6 5 5 5 5 5 5 5 5 5 5 6 5 5 5 5 5 5 5 6 5 6 5 5 5 5 5 5 5 5 6 5 5 6 6 5 5 6 5 5 5 6 6 5 5 5 5 5 5 5 5 5 5 5 5 5 5 5 5 5 5 5 5 5 5 6 5 5 5 5 5 5 5 5 5 5 5 5 5 5 5 5 5 5 5 6 6 5 5 5 6 6 6 5 5 5 5 5 5 5 5 5 5 5 5 5 5 5 6 5 5 5 5 5 5 6 5 5 6 5 5 5 5 6 5 5 5 6 5 5 5 5 5 5 5 5 6 5 5 5 6 6 5 5 5 5 6 6 5 6 5 5 5 5 5 5 6 5 5 5 5 5 6 6 5 5 5 5 5 5 5 5 6 6 5 6 5 5 6 5 5 6 5 5 5 6 6 6 5 5 5 5 5 5 6 5 5 5 6 5 5 5 5 6 5 5 6 5 6 6 5 5 5 5 5 6 5 6 6 5 5 6 5 5 5 6 5 5 5 5 5 6 6 5 5 5 5 6 6 6 5 6 5 5 6 5 5 5 6 5 6 5 5 5 6 5 5 5 6 5 6 5 5 6 5 5 5 6 6 5 5 6 5 5 6 5 5 5 5 6 6 5 5 5 5 5 5 6 5 5 5 5 5 5 5 5 5 6 5 5 5 5 6 5 5 5 5 5 5 5 5 5 5 5 5 6 5 5 5 6 5 5 5 5 5 5 5 5 5 5 5 6 5 5 5 6 6 5 5 6 5 5 5 5 5 5 5 5 5 5 5 6 5 5 5 5 5 5 6 6 5 5 5 5 6 6 5 5 5 5 6 5 5 5 5 5 5 5 5 5 5 6 5 5 5 5 6 5 5 5 5 5 5 5 5 5 5 5 5 5 5 5 5 5 5 5 5 5 5 5 5 5 5 5 5 5 5 6 5 5 5 5 5 5 6 5 6 5 6 5 5 5 5 5 5 5 6 5 5 5 5 5 5 5 5 6 5 5 5 5 5 5 6 5 5 5 6 5 5 5 5 5 5 5 5 5 5 6 6 5 5 5 5 5 5 5 5 5 5 5 5 5 5 5 5 5 6 5 5 6 5 5 5 5 5 5 5 5 5 5 5 6 5 5 5 5 5 5 6 5 5 5 5 5 5 5 5 5 5 5 6 5 5 5 5 6 5 5 5 6 5 5 5 5 5 5 5 5 6 5 5 5 5 5 5 5 5 6 5 5 6 5 5 5 5 5 5 5 5 5 5 5 5 5 6 5 5 5 5 6 5 5 5 5 5 5 5 5 6 5 6 6 5 5 5 5 5 5 5 5 5 5 5 5 5 5 6 6 5 5 5 5 6 6 5 6 5 5 6 5 6 6 5 5 6 5 5 6 5 5 6 6 5 6 5 5 5 5 5 6 5 6 5 5 5 5 5 5 6 5 6 5 5 6 5 5 5 6 6 5 5 6 5 6 5 6 5 5 5 5 6 5 5 6 5 5 5 5 5 5 5 5 5 5 5 6 6 5 5 5 5 6 5 5 5 5 5 6 5 5 5 5 5 5 6 5 5 5 6 5 5 5 5 5 5 5 5 5 5 5 5 5 5 5 6 5 5 6 5 5 5 6 5 5 5 5 6 5 5 6 5 6 5 5 5 5 6 5 5 5 5 5 6 5 5 5 5 5 6 5 5 5 5 5 5 5 5 5 5 5 5 5 5 5 5 5 6 5 5 5 5 6 5 5 6 5 5 6 5 5 6 5 5 6 5 5 5 5 5 5 5 5 5 5 5 5 6 5 5 5 6 5 5 5 5 5 5 5 5 5 5 5 6 6 5 5 5 5 5 6 5 5 5 5 6 5 5 6 5 5 5 5 5 5 5 5 5 5 5 5 5 5 5 5 5 5 6 5 5 5 5 6 5 5 5 5 5 5 5 5 6 6 5 5 5 5 5 5 5 5 5 5 5 5 5 5 6 5 5 5 6 5 5 6 5 5 5 5 5 5 5 5 5 5 5 5 5 5 5 5 5 5 5 5 5 5 5 5 5 6 5 5 5 5 5 5 5 5 5 5 5 5 5 5 5 5 5 5 5 5 5 6 5 5 5 5 5 6 5 5 5 6 6 5 5 5 6 5 5 5 5 5 5 5 5 5 5 5 5 5 6 5 5 5 5 5 5 5 5 5 6 5 5 5 5 5 5 5 5 5 5 5 6 5 5 5 5 5 5 5 5 5 5 6 5 5 5 6 5 5 5 5 5 5 5 5 5 5 5 6 5 5 5 5 6 5 6 5 5 5 5 6 5 5 6 6 5 5 6 5 5 5 6 5 5 5 5 5 6 5 5 5 5 6 5 5 5 5 5 5 5 5 5 5 5 5 5 5 5 5 5 6 5 5 5 5 5 5 5 5 5 5 5 5 5 5 5 5 6 5 5 5 5 5 5 6 6 5 5 5 5 5 5 5 6 5 5 5 5 5 5 6 5 5 6 5 5 5 5 6 5 6 5 5 5 5 6 5 5 5 5 5 5 5 5 6 5 5 5 5 6 5 5 6 5 6 5 5 5 5 5 5 5 5 5 5 5 5 5 5 6 5 5 6 5 6 5 6 5 6 5 6 5 5 5 5 5 5 5 5 5 5 5 5 6 5 5 6 5 6 5 5 6 5 5 5 6 5 5 6 5 5 5 5 5 5 5 5 5 5 5 6 6 5 5 5 5 5 5 6 5 5 5 5 6 5 5 5 5 5 5 5 5 5 6 5 5 5 6 5 5 5 5 5 5 5 5 5 5 5 5 6 5 5 5 5 6 5 5 5 5 5 5 5 5 5 5 5 5 5 6 6 5 5 5 6 5 5 5 5 5 5 5 5 5 5 5 5 5 5 5 5 5 5 5 6 5 5 6 5 5 5 5 5 5 5 5 5 5 5 5 5 5 5 5 5 5 5 5 5 5 5 5 5 5 5 5 5 5 5 5 5 5 5 5 5 5 5 5 5 5 5 5 5 5 6 5 6 5 5 5 5 5 5 5 5 5 5 5 5 5 5 5 5 5 5 5 5 5 5 5 5 5 5 5 5 5 5 5 5 5 5 5 5 5 5 6 5 5 5 5 5 5 5 6 5 5 5 6 5 5 5 5 6 5 5 5 5 5 5 5 5 5 5 5 5 5 5 5 5 5 5 5 5 5 5 5 5 5 5 5 5 5 5 5 5 5 5 6 6 5 5 6 5 5 6 5 5 5 6 5 5 5 5 5 6 5 5 5 6 5 5 5 5 5 5 5 5 5 5 5 5 5 6 5 5 5 5 5 6 5 5 5 5 5 5 5 6 5 5 5 6 5 6 5 5 6 5 5 5 6 6 5 6 6 5 6 5 5 5 6 5 6 5 5 6 5 5 5 5 5 5 5 6 5 5 5 5 5 5 5 6 5 5 5 5 5 5 5 5 5 5 5 6 5 5 5 5 5 5 5 5 5 6 5 5 5 5 6 5 5 5 5 5 5 5 5 5 6 5 5 5 5 5 5 5 5 5 6 5 5 6 5 5 6 5 5 5 5 5 6 5 5 5 5 5 5 5 5 5 5 5 5 5 5 5 5 5 5 5 5 5 5 5 5 6 5 5 5 5 5 5 5 5 5 5 5 5 5 5 5 6 5 5 5 5 5 5 5 6 5 5 5 6 5 5 5 5 5 5 5 5 5 5 5 5 5 5 5 5 5 5 6 6 5 5 5 5 5 5 5 6 5 5 5 5 5 5 5 5 5 6 5 5 6 5 5 5 5 5 5 5 5 6 5 5 5 5 5 5 5 5 5 6 5 5 5 5 5 5 5 6 6 5 6 5 5 5 5 5 5 5 5 5 6 5 5 5 5 5 5 5 5 5 5 6 5 5 5 5 5 5 6 5 5 5 5 5 5 6 5 5 5 5 5 6 5 5 6 5 5 6 5 6 5 5 6 5 5 5 5 5 5 5 6 5 5 5 5 5 5 5 5 6 6 5 5 5 5 5 5 5 5 5 5 5 5 5 5 5 5 5 6 6 5 5 5 5 5 5 5 5 5 5 6 5 6 6 5 5 5 5 5 6 5 6 5 5 5 6 5 5 5 5 5 5 6 5 5 5 5 5 5 5 6 5 5 6 5 5 5 5 5 5 5 6 5 5 5 5 5 5 5 5 5 5 5 5 5 5 5 5 5 5 5 5 5 5 5 5 5 5 5 5 5 6 6 5 5 5 6 5 5 5 5 6 5 5 5 5 5 6 6 5 5 5 5 6 5 5 6 5 5 5 5 5 5 5 5 5 5 5 5 5 5 5 5 5 5 5 5 6 5 5 5 6 5 5 5 5 5 5 5 5 5 5 5 5 5 6 5 5 5 5 5 5 5 5 5 6 5 5 6 5 5 5 5 5 6 5 6 5 5 5 5 5 5 5 5 5 6 5 5 5 5 5 6 5 5 6 6 5 5 5 5 6 5 5 5 5 5 5 5 5 5 5 5 5 5 5 5 5 5 5 5 5 5 5 5 5 5 5 5 5 5 5 5 6 5 5 5 5 5 5 5 5 5 5 5 5 6 5 5 5 5 5 5 5 5 5 6 5 5 5 5 5 5 5 5 5 5 5 5 5 6 5 5 5 5 5 5 5 5 5 5 5 5 5 6 5 5 6 6 5 5 5 5 5 5 5 5 5 5 5 5 5 6 5 5 5 6 5 5 5 6 6 6 5 5 5 5 5 6 5 5 6 5 6 6 5 5 5 5 5 5 5 5 5 5 5 5 5 5 5 5 5 5 5 5 5 5 6 5 5 6 5 5 5 6 5 5 5 5 5 5 5 5 5 5 5 5 5 5 5 5 5 5 5 5 5 5 5 5 5 5 5 5 5 5 5 5 5 5 5 5 5 5 5 5 5 5 5 5 5 5 5 5 5 5 5 5 6 5 6 5 5 6 5 5 5 6 6 5 5 5 5 5 5 5 5 5 5 6 5 5 5 6 6 5 5 5 5 5 5 5 6 5 5 5 5 5 5 5 5 5 6 5 5 5 5 5 5 5 5 5 5 5 5 5 5 5 5 5 5 5 5 5 5 5 5 5 5 5 5 5 5 5 5 5 5 5 5 5 5 5 5 5 5 5 5 5 5 5 5 5 5 5 5 5 5 5 5 5 6 5 5 5 5 5 5 5 5 5 5 5 5 6 5 5 5 5 5 5 5 5 5 5 5 5 5 5 5 5 5 5 5 5 5 5 5 5 5 5 5 5 5 5 5 5 5 5 5 5 5 5 5 5 5 5 5 5 5 5 5 5 5 5 5 5 5 5 5 5 5 5 5 5 5 5 5 5 5 6 5 5 5 5 5 5 5 5 5 5 5 5 5 5 5 5 5 5 5 5 5 5 5 5 5 5 5 5 6 5 5 5 5 5 5 5 5 5 5 5 5 6 5 5 5 5 5 5 5 5 5 5 6 5 5 5 5 5 5 6 5 5 5 5 5 5 5 5 5 5 5 5 5 5 5 6 5 6 5 5 6 5 5 5 5 5 5 6 5 5 5 5 5 5 5 5 5 5 6 5 5 5 5 5 5 5 5 5 5 5 6 5 5 5 5 5 5 5 5 5 5 5 5 5 6 5 5 5 6 5 5 5 5 5 5 5 5 5 5 5 5 5 5 5 5 5 5 5 5 5 5 5 5 5 5 5 5 6 6 5 5 5 6 5 5 6 5 5 5 5 6 5 5 6 5 5 6 5 5 5 5 5 6 5 5 5 5 5 5 5 5 5 5 5 5 5 5 5 5 5 5 5 5 5 5 5 5 6 6 5 5 5 5 5 5 5 5 6 5 5 5 5 5 5 5 6 5 5 5 5 6 5 6 5 6 5 5 5 5 5 5 5 6 5 5 5 6 5 5 5 5 5 5 5 6 5 5 5 6 5 5 5 6 5 5 5 6 6 5 5 5 5 5 5 6 6 5 6 5 5 5 6 5 6 5 6 5 5 5 5 5 5 6 5 5 5 5 5 5 5 6 5 5 5 5 5 6 5 5 5 5 6 6 5 6 5 5 5 5 5 5 5 5 5 5 5 5 5 5 6 5 5 5 6 5 5 5 5 5 5 5 5 5 5 5 5 5 5 6 5 5 5 5 5 5 6 5 5 5 6 5 5 5 5 5 5 5 5 5 5 5 5 5 5 5 5 5 6 5 6 5 5 5 5 5 5 5 5 5 6 5 5 5 6 5 5 5 5 6 5 5 5 6 5 5 5 5 6 5 5 5 5 5 5 5 5 5 5 5 5 6 5 5 5 5 5 5 5 5 5 5 5 5 5 5 5 5 5 6 5 5 5 6 5 5 5 5 5 5 5 6 5 5 5 5 6 6 5 5 6 6 5 5 5 5 5 6 5 5 5 5 5 6 5 5 5 5 6 6 5 5 6 6 5 6 5 5 6 6 5 6 5 5 6 5 5 5 5 5 6 5 6 5 5 5 5 6 5 5 6 5 5 6 6 6 6 5 5 6 5 5 6 5 5 5 5 5 5 6 5 5 6 5 6 6 6 5 6 5 5 5 5 6 5 5 5 5 6 5 6 5 5 6 5 5 6 5 5 6 5 5 5 5 5 5 6 5 5 5 5 6 5 5 5 5 5 5 5 5 5 5 5 5 5 6 6 5 5 6 5 5 5 5 5 5 5 6 5 5 5 5 5 6 5 5 5 5 6 5 5 5 5 5 5 5 5 5 5 5 5 5 5 5 5 5 5 5 5 5 5 5 5 5 5 5 5 5 5 5 5 5 5 5 5 5 5 5 5 5 5 5 5 5 5 5 5 5 5 5 5 5 5 6 5 5 5 5 5 5 5 5 6 5 5 5 5 5 5 5 5 5 5 5 5 5 6 5 6 5 5 6 5 5 5 5 6 5 5 5 5 5 5 5 5 5 5 5 5 5 5 5 6 5 5 5 5 5 6 5 5 5 5 5 5 5 5 5 5 5 5 5 5 5 5 5 5 5 5 5 5 5 5 5 5 5 5 5 5 5 5 5 5 5 5 5 5 5 5 5 5 5 5 5 5 5 6 5 5 5 6 5 5 6 5 6 5 5 5 5 5 5 5 5 6 5 5 5 6 5 5 5 5 5 5 5 5 5 5 5 6 5 5 5 6 5 5 5 5 5 6 5 5 6 5 5 5 5 5 5 5 5 5 5 5 5 5 5 5 5 5 5 5 5 5 5 5 5 5 6 5 5 5 5 5 5 5 5 5 6 5 5 5 5 5 6 5 5 5 5 5 5 6 5 5 5 5 5 5 5 5 5 5 5 5 5 5 6 5 5 5 6 5 5 5 5 5 6 5 5 6 5 5 5 5 5 5 5 5 6 5 5 6 5 6 6 5 5 5 5 5 5 5 5 5 5 5 5 5 5 5 5 5 5 5 5 5 6 5 5 6 5 5 6 5 5 5 5 5 5 5 5 6 5 5 5 5 5 5 5 5 5 5 5 5 5 5 5 5 5 5 5 5 5 5 5 5 5 5 5 5 5 5 5 6 5 5 6 5 5 5 5 6 5 5 5 5 5 5 5 5 5 5 5 5 5 5 5 5 5 5 5 5 5 5 5 5 5 5 5 5 5 5 5 6 5 5 5 5 5 5 5 5 5 5 6 5 5 5 5 5 5 6 5 5 5 5 5 5 6 5 5 5 5 5 5 5 5 5 5 5 5 6 5 5 5 5 5 5 5 5 5 5 5 5 5 5 5 5 5 5 5 5 5 5 5 5 5 5 5 5 5 5 5 5 5 5 5 5 5 5 5 6 5 5 6 5 5 6 5 5 6 5 5 5 5 5 5 5 5 5 5 5 5 5 5 5 5 5 5 5 5 5 5 5 5 5 5 5 5 5 5 5 6 5 5 6 5 5 6 5 5 5 6 5 5 5 5 5 5 5 6 6 5 5 5 5 5 5 6 5 6 5 5 5 5 5 6 5 5 5 5 5 5 5 5 5 5 5 5 5 5 5 5 5 5 6 5 6 5 5 5 5 5 5 5 5 5 5 5 6 5 5 5 5 5 5 5 5 5 5 5 5 5 5 5 5 5 5 5 5 5 5 5 5 5 5 5 5 5 5 5 5 5 5 5 5 5 5 5 5 5 5 5 5 5 5 5 5 5 5 5 5 5 5 5 5 5 5 5 5 5 5 6 5 5 5 6 5 5 5 6 5 5 6 5 5 5 5 6 5 5 5 5 5 5 6 6 5 5 6 5 5 5 5 5 5 5 5 5 5 5 5 5 5 5 5 5 5 5 5 5 5 5 5 5 5 5 5 5 5 5 5 5 5 5 6 5 5 5 5 5 6 6 6 5 6 5 5 6 5 5 5 6 5 5 5 5 5 6 5 5 5 5 5 5 5 5 5 5 5 5 5 5 5 5 5 5 5 5 5 5 5 5 5 5 5 5 5 5 5 5 5 5 5 5 5 5 5 5 6 5 5 5 6 5 5 6 5 6 6 5 5 5 5 5 5 5 5 5 5 5 5 5 6 5 5 5 6 5 5 5 6 5 6 5 6 6 5 5 5 5 5 5 5 5 5 5 5 5 5 5 5 5 5 5 5 5 5 5 5 5 5 5 5 6 5 6 5 5 5 5 5 6 5 5 5 5 5 5 6 5 5 5 5 5 5 6 5 5 5 5 5 5 5 6 5 5 5 5 6 5 5 5 5 5 5 5 5 5 5 5 6 5 6 5 5 5 5 6 5 5 5 5 5 5 5 6 5 5 5 6 5 5 5 5 5 5 5 5 5 5 5 5 5 5 5 5 5 5 5 5 5 5 5 5 5 5 5 5 5 5 5 5 5 5 5 5 5 5 5 5 5 5 5 5 5 5 5 5 5 5 5 5 5 5 5 5 5 5 5 6 5 5 5 5 5 5 5 5 5 5 5 6 5 5 5 5 5 5 6 5 5 6 6 5 5 6 6 5 5 5 5 6 6 5 5 6 5 6 5 5 5 6 5 6 5 6 5 6 5 5 5 6 6 6 5 5 5 5 5 5 6 5 6 6 5 5 5 5 6 5 5 5 5 5 5 5 5 5 6 5 5 5 5 6 5 5 5 5 5 5 5 5 5 5 5 6 5 5 6 5 5 5 5 5 5 5 5 5 5 5 5 5 5 5 5 5 5 5 5 5 5 5 5 5 5 5 5 5 5 5 5 5 5 5 5 5 5 5 5 5 5 5 5 5 5 5 5 5 5 5 5 5 5 5 5 5 5 5 6 5 5 5 6 5 5 5 5 5 5 5 6 5 6 5 5 5 5 5 5 5 5 5 6 5 6 5 5 5 5 5 6 6 5 5 5 6 5 5 5 5 5 6 5 5 5 5 5 5 5 5 6 5 6 5 6 5 5 5 5 6 5 5 5 5 5 6 6 5 5 5 6 5 5 5 5 5 6 5 6 5 5 5 5 5 5 5 5 5 5 5 5 5 5 5 5 5 5 5 5 5 5 5 5 6 5 5 5 5 5 5 5 6 5 6 5 5 5 5 6 5 5 5 5 5 5 5 5 6 5 5 5 6 5 5 5 5 5 6 5 5 5 5 5 5 5 5 6 5 5 5 5 5 5 5 5 5 6 5 6 5 5 5 5 5 5 5 5 5 5 5 5 5 5 5 6 5 5 5 6 5 5 5 5 6 5 5 5 5 5 5 5 6 5 5 5 5 5 5 5 5 5 5 5 5 5 5 5 5 5 5 5 5 5 5 5 5 5 5 5 5 5 5 6 5 6 5 5 6 5 5 5 5 5 5 5 5 5 6 5 5 5 5 5 5 5 5 6 5 5 5 5 5 5 5 6 5 5 5 5 5 5 5 5 6 6 5 6 6 5 5 5 6 5 5 5 6 5 5 6 5 5 5 5 5 5 6 5 6 5 5 6 5 5 5 6 6 5 5 5 5 5 5 5 5 5 5 5 5 6 6 5 5 5 5 5 5 5 5 5 5 5 5 5 5 6 5 5 5 5 5 5 5 5 5 5 5 5 5 6 5 5 5 5 5 5 5 5 5 5 5 5 5 5 5 5 5 5 5 6 5 5 5 5 5 5 5 5 5 5 5 5 5 5 5 5 5 5 5 5 5 5 5 5 5 6 5 5 5 5 5 5 5 5 5 6 5 5 5 6 5 5 5 6 5 5 5 5 5 5 5 5 5 5 5 5 5 5 5 5 5 6 5 5 5 5 6 6 5 5 5 5 5 5 5 5 5 5 5 5 5 5 6 5 5 5 5 5 5 5 5 5 5 6 5 5 5 6 5 5 5 5 5 5 5 6 5 5 6 6 5 5 6 5 5 6 6 5 5 5 5 6 5 5 5 5 5 5 6 5 5 5 5 6 5 5 5 5 5 5 6 5 6 5 5 6 5 5 6 5 6 5 5 5 6 6 5 6 5 5 5 5 5 5 5 5 5 5 5 6 5 5 6 6 5 5 6 5 5 5 5 5 5 5 5 5 6 5 5 5 5 5 5 6 5 5 6 5 5 5 5 5 5 5 5 5 5 6 5 5 5 5 5 5 5 5 5 6 5 5 5 5 5 5 5 5 5 5 5 5 5 5 5 5 6 5 6 5 5 5 5 5 5 5 5 5 5 5 5 6 5 5 5 5 6 5 5 5 5 5 5 5 5 6 5 5 5 6 5 5 5 5 5 5 5 5 5 6 5 5 5 5 6 5 5 5 5 5 5 6 5 5 5 5 5 5 6 5 6 6 5 6 5 5 5 5 5 5 5 5 5 5 5 5 5 5 5 5 5 5 5 5 5 5 5 5 5 5 5 5 5 5 5 5 5 5 5 5 6 5 5 5 5 5 5 5 5 5 5 5 6 5 5 5 5 5 5 5 5 5 5 5 5 5 5 5 5 5 5 5 5 5 5 5 5 5 5 5 5 5 5 5 5 5 5 5 5 5 5 5 5 5 5 5 6 5 5 5 5 5 6 5 5 5 5 6 5 6 5 5 5 6 5 6 5 5 5 6 5 5 5 6 6 5 5 5 5 6 5 5 5 5 5 5 5 5 5 5 5 5 5 5 5 5 5 5 5 5 5 5 5 5 5 5 5 5 5 5 6 6 6 5 5 5 5 5 5 6 5 5 5 5 5 5 5 5 5 5 5 5 5 6 5 5 5 5 5 5 5 5 5 5 5 5 5 5 5 5 5 5 5 5 5 5 5 5 5 5 6 5 5 6 5 5 5 5 6 5 5 5 6 5 6 5 6 5 5 5 5 5 5 5 5 5 5 6 5 6 5 5 5 5 5 5 5 5 5 5 5 5 5 5 5 5 5 5 5 5 5 5 5 5 5 5 5 5 5 5 5 5 5 5 5 5 5 5 5 5 5 5 5 5 5 5 5 5 5 5 5 5 5 5 5 5 5 5 5 5 5 5 5 5 5 5 5 5 5 5 5 5 5 5 5 5 5 5 5 5 5 5 6 5 5 5 5 6 5 6 5 5 5 5 5 5 5 5 5 5 5 5 5 5 5 5 6 5 6 5 5 6 5 5 5 6 5 6 6 5 5 6 5 6 5 6 5 5 5 5 5 5 5 5 5 5 5 5 5 6 5 6 5 5 6 5 5 5 5 6 6 5 6 5 5 5 5 5 5 6 6 5 5 6 5 5 5 5 5 5 5 5 5 5 6 5 5 5 5 5 5 5 5 5 5 5 5 6 5 6 5 5 5 5 5 6 5 5 5 5 6 5 5 6 5 5 6 6 5 5 5 5 6 5 5 5 5 6 5 5 5 5 5 6 5 5 5 5 5 5 6 5 5 6 5 5 5 5 5 5 6 5 5 6 5 5 6 6 5 6 5 5 5 5 5 5 6 5 6 5 5 6 5 5 6 6 5 5 6 5 6 6 5 5 5 5 5 5 6 6 5 5 6 5 6 6 5 5 5 5 6 5 5 6 5 5 5 5 5 5 5 6 5 5 6 5 5 5 5 6 6 5 5 5 5 5 6 5 5 5 5 5 5 5 5 5 5 5 5 5 5 5 5 5 5 5 5 5 5 5 5 5 6 6 5 5 5 5 5 5 5 5 5 6 6 5 5 5 6 5 5 5 6 6 5 5 5 6 5 5 6 5 6 5 5 5 5 6 6 5 5 6 5 6 5 5 5 6 6 6 5 6 5 5 6 5 5 5 5 5 5 6 5 5 5 5 5 5 5 6 5 6 5 5 5 5 5 5 5 5 5 6 5 5 5 5 5 5 6 5 5 5 5 5 5 5 5 5 5 5 5 6 5 5 5 5 5 5 5 5 6 5 5 5 5 5 6 6 5 5 5 5 5 5 5 5 5 5 5 5 5 5 5 5 5 5 5 5 6 5 5 5 6 5 6 5 5 5 5 5 5 5 5 5 5 5 5 5 5 5 5 5 5 5 5 5 5 6 5 5 5 5 5 5 5 5 5 5 5 5 5 5 5 5 5 5 5 6 6 6 6 5 6 5 5 5 5 5 5 6 5 5 5 5 5 5 5 5 5 5 5 5 5 5 5 5 5 5 5 5 5 5 6 5 5 5 5 6 6 5 5 6 5 6 6 5 6 5 5 6 5 5 6 5 5 5 6 5 5 5 5 6 5 6 5 5 6 5 5 5 5 6 6 5 5 5 5 5 5 5 5 5 5 5 5 5 5 5 6 5 5 6 5 5 5 5 5 6 5 6 5 5 5 6 5 5 5 5 5 5 6 5 6 5 5 6 5 5 6 5 5 5 6 6 5 5 5 5 5 6 5 5 5 5 6 5 6 5 5 5 5 5 5 5 6 6 6 5 5 5 5 5 5 5 5 6 5 5 5 5 5 5 6 5 5 5 5 5 6 5 5 5 5 6 5 6 5 6 6 5 5 5 5 5 5 5 6 5 5 5 5 5 5 5 5 5 5 5 5 5 5 5 5 5 5 5 5 6 5 5 5 5 5 5 5 5 5 6 5 5 5 5 5 5 5 5 5 5 5 5 5 6 5 5 5 5 5 6 6 5 5 5 5 6 5 5 5 5 5 5 6 5 5 6 5 5 5 5 5 6 5 5 6 5 5 6 6 5 5 5 5 5 5 5 6 5 5 5 5 5 5 5 5 6 5 5 6 5 6 6 5 6 5 5 5 5 6 5 5 5 5 5 5 5 6 5 5 6 5 5 5 5 5 6 5 5 5 5 5 5 5 5 5 5 5 5 5 5 5 5 6 5 5 5 5 5 5 5 5 5 5 5 5 5 6 5 5 5 5 5 5 5 5 5 5 5 5 5 5 5 5 5 5 5 5 5 6 5 6 5 6 6 5 5 6 6 5 5 5 6 5 6 6 5 5 5 5 5 6 5 6 5 5 5 5 5 6 5 5 5 5 5 5 5 5 5 5 5 5 6 5 5 5 6 5 5 5 5 5 6 6 6 6 5 5 5 5 6 5 6 6 5 5 5 5 6 5 6 5 5 5 5 5 5 5 5 5 5 5 5 6 5 5 5 5 5 5 5 5 5 5 5 5 5 5 5 5 5 5 5 5 5 5 5 5 5 5 5 5 5 5 5 5 5 5 5 5 5 5 5 5 5 5 6 5 5 6 5 5 6 5 5 5 5 5 5 5 5 5 5 5 5 5 5 5 5 5 5 5 5 5 5 5 5 5 5 5 5 5 5 5 6 5 6 6 5 5 6 5 5 5 5 5 5 5 6 5 6 6 5 5 5 5 5 5 5 5 5 5 5 5 5 6 5 5 6 6 5 5 5 5 5 5 5 5 5 6 5 5 5 5 5 5 5 5 5 5 5 5 5 6 5 5 5 6 5 5 5 5 5 5 5 5 5 5 5 5 5 5 5 6 5 5 5 5 5 5 5 5 5 5 5 5 5 5 5 6 5 5 5 5 5 5 6 5 5 5 5 5 5 5 5 5 5 5 5 5 5 5 6 5 5 5 5 5 5 6 5 6 5 5 5 5 6 5 5 6 5 5 5 5 5 5 5 5 5 5 6 5 6 5 5 6 6 5 5 5 5 5 6 5 5 5 6 5 5 6 5 5 5 5 5 5 5 5 5 5 5 6 5 5 5 5 5 6 5 5 5 6 5 5 6 5 5 5 5 5 6 5 5 5 5 5 5 6 5 5 6 5 5 5 5 5 5 5 5 5 5 5 5 5 5 5 5 5 5 5 5 5 5 5 5 5 5 5 5 5 5 5 6 5 5 5 5 5 5 5 5 5 5 5 5 5 5 5 5 5 5 5 5 5 6 5 5 5 5 5 6 5 5 6 5 6 5 5 5 5 5 6 5 6 5 5 5 5 5 5 6 5 6 5 5 5 5 5 5 5 5 5 5 5 5 6 5 5 5 5 5 6 5 5 5 5 5 5 6 5 5 5 5 5 5 5 5 5 6 5 5 6 5 5 5 5 5 5 6 5 5 5 5 5 5 5 5 6 5 5 5 5 5 5 5 5 5 6 5 5 5 5 6 5 5 5 5 5 5 5 5 6 5 5 5 5 5 5 5 5 6 5 6 5 5 5 6 5 5 5 5 6 5 5 5 6 5 5 5 6 5 5 5 5 6 5 5 5 5 6 5 5 5 5 5 6 5 5 5 5 5 5 5 5 5 5 5 5 5 5 5 5 6 5 5 5 5 5 6 5 5 5 5 5 5 6 5 5 5 5 5 5 5 5 6 5 5 5 5 5 5 5 6 5 5 5 5 5 5 5 5 5 5 5 5 6 5 5 5 5 5 5 5 5 5 5 5 5 5 5 5 5 5 6 5 5 5 5 5 6 5 6 5 5 5 5 6 5 5 6 5 5 5 6 5 5 5 5 5 5 5 5 5 5 6 5 5 5 6 5 5 5 5 5 5 5 5 5 5 5 5 5 5 5 5 5 5 5 6 6 5 5 5 6 5 6 5 5 5 5 5 5 5 5 6 5 5 5 5 5 5 5 6 5 5 5 5 5 6 5 6 5 5 5 5 5 5 5 5 5 5 5 5 5 5 5 5 5 5 5 5 5 5 5 5 5 5 5 5 5 5 5 5 5 5 5 5 5 5 5 5 5 5 5 5 5 5 5 5 5 5 5 5 5 5 5 5 5 5 5 5 5 5 5 5 5 5 5 5 5 5 5 5 5 6 5 5 5 6 5 5 5 5 5 5 5 5 5 5 5 5 5 5 5 5 5 5 5 5 6 5 5 5 5 6 5 5 5 6 5 5 5 5 6 5 5 5 5 6 5 5 5 5 5 5 5 5 5 5 5 5 5 5 5 5 5 5 5 6 6 5 5 5 5 5 5 5 5 5 5 5 5 5 5 5 5 5 5 5 5 5 5 5 5 5 5 5 5 5 5 5 5 5 5 5 5 5 5 5 5 6 5 5 5 5 5 6 5 5 6 5 5 5 5 5 5 5 5 5 5 5 5 5 5 5 5 5 5 5 5 5 5 5 5 5 5 5 5 6 5 5 5 5 5 5 5 5 5 5 5 5 5 5 5 5 5 5 5 5 5 5 5 5 5 5 5 5 5 5 5 5 5 5 5 5 5 5 5 5 6 5 5 5 5 5 5 5 5 5 5 5 6 5 5 5 5 5 5 5 5 6 5 5 5 5 5 6 5 5 5 6 5 5 5 5 6 5 6 5 5 5 6 5 6 5 5 5 5 5 5 5 5 5 5 5 5 5 5 5 5 5 5 5 5 5 5 5 5 5 5 5 5 5 5 5 5 6 5 5 6 5 5 5 5 5 6 5 6 5 5 5 5 5 5 5 5 5 5 6 5 5 5 5 5 5 5 5 5 5 5 5 5 5 6 5 5 6 5 5 5 5 5 5 5 5 5 5 6 5 5 5 5 6 5 5 5 5 5 5 5 6 5 5 6 5 6 5 5 5 5 5 5 6 5 6 5 5 5 5 6 5 6 5 5 5 6 6 5 6 5 5 5 5 5 5 6 5 6 5 6 5 5 5 5 5 5 5 5 5 5 5 5 5 5 5 5 5 5 5 5 5 5 5 5 5 5 5 6 5 5 5 6 5 5 6 5 5 5 5 5 5 6 5 5 6 5 5 5 5 5 5 5 5 5 5 5 5 5 5 5 5 5 5 5 5 5 5 5 5 5 5 5 5 5 5 6 5 5 5 6 5 5 5 5 5 5 5 5 5 5 5 5 5 5 5 5 5 5 5 5 5 5 5 5 5 5 5 5 5 5 5 5 5 5 5 5 5 5 5 5 5 5 5 5 5 5 5 5 5 5 5 5 5 5 5 5 5 5 5 5 5 5 5 5 6 5 5 5 5 5 5 5 5 5 5 5 5 5 6 5 5 5 5 5 5 5 5 6 5 6 5 5 5 5 5 5 5 5 5 6 5 6 5 5 5 5 5 5 5 5 5 5 5 5 5 5 5 5 5 5 5 5 5 5 6 5 5 5 6 5 5 5 6 5 5 5 5 5 5 5 5 5 5 5 6 5 5 5 6 5 5 6 5 5 5 5 5 5 5 5 5 5 5 5 5 5 5 5 5 5 5 5 5 5 5 5 5 5 5 5 6 5 5 5 5 5 6 5 6 6 5 5 6 6 5 5 5 5 5 6 5 5 6 5 5 6 5 6 5 5 5 5 5 5 6 5 5 5 6 5 6 6 5 6 5 5 5 5 6 5 5 5 5 5 5 5 5 6 5 5 5 5 5 6 5 5 6 5 5 5 5 5 5 5 6 5 5 5 5 5 5 5 5 5 5 5 5 5 5 5 5 5 5 5 5 5 5 5 5 5 5 5 5 5 5 5 5 5 5 6 5 5 5 5 5 5 5 5 5 5 5 5 5 5 5 6 5 5 6 5 6 5 5 5 5 5 5 5 6 5 5 5 5 6 5 5 6 5 5 5 5 6 5 5 5 5 5 6 5 6 5 5 6 5 5 5 6 5 5 5 5 5 5 5 5 5 6 5 5 5 6 5 5 5 5 6 5 6 5 5 6 5 5 5 6 6 5 5 5 5 6 6 5 6 5 6 5 5 5 5 5 5 5 5 6 5 5 6 5 6 6 5 5 6 5 5 5 5 5 5 5 5 5 5 5 5 5 5 5 5 5 5 6 5 6 5 6 5 5 6 5 5 5 5 5 5 5 5 5 6 5 5 5 5 5 5 5 6 5 5 5 5 6 5 5 5 5 5 5 6 5 5 5 5 5 5 5 5 5 5 5 5 5 6 5 5 5 5 6 5 5 6 5 5 5 5 5 5 5 5 5 5 5 5 5 5 5 5 5 5 5 5 5 5 5 5 5 5 5 5 5 6 5 5 5 6 5 5 5 5 5 5 5 5 5 5 5 5 5 5 5 5 5 5 5 5 5 5 5 5 5 5 5 5 5 5 5 5 5 5 5 5 5 5 5 5 5 5 5 5 6 5 5 6 5 6 5 5 5 6 5 5 5 5 5 5 5 5 6 5 5 5 6 5 5 5 5 5 5 5 5 5 5 5 5 5 6 6 5 5 5 5 6 5 5 5 5 6 5 5 5 5 5 5 5 5 5 5 5 5 5 5 5 5 5 5 5 5 5 6 5 6 6 5 5 5 5 5 6 5 5 5 5 5 5 5 5 5 5 5 5 5 6 5 5 5 5 5 5 5 5 5 5 5 5 6 5 5 5 6 5 5 6 5 6 5 5 5 5 5 5 5 5 5 5 5 5 5 5 5 5 6 5 5 5 5 5 5 5 5 5 5 5 5 5 5 6 5 5 5 5 5 5 5 5 5 5 5 5 5 5 5 5 5 5 5 5 5 5 5 5 5 6 5 5 5 5 5 6 5 5 5 5 6 5 5 5 5 6 5 5 5 5 5 5 5 5 5 5 5 5 5 5 5 5 5 5 5 5 5 5 5 5 5 5 5 5 5 5 5 5 5 5 6 5 5 5 6 6 5 6 5 5 5 5 5 5 5 5 6 5 6 5 5 5 6 5 5 5 5 5 5 5 5 5 5 5 5 5 5 5 5 5 5 5 5 5 5 6 5 5 5 5 5 5 5 5 5 5 5 5 6 5 5 5 5 5 5 5 6 5 5 5 5 6 5 5 5 6 5 6 5 5 6 5 5 5 6 6 5 5 5 5 5 5 5 5 5 5 5 5 5 5 5 5 5 6 5 5 5 5 5 5 5 6 5 5 5 5 6 5 5 5 5 6 5 5 6 5 6 5 5 6 5 5 5 5 6 5 5 5 5 6 5 5 5 5 6 5 
</DataArray>
<DataArray type="Float64" Name="stress" NumberOfComponents="9" format="ascii">
-875.26266367836433 796.59183810640388 0 796.59183810640388 -0.71387357521962258 0 0 0 0 -0.018607794496347196 1168.2875173666525 0 1168.2875173666525 -1054.1371258706968 0 0 0 0 -437.65511352432077 1075.2143670520418 0 1075.2143670520418 -791.51349072391167 0 0 0 0 -0.30109836944725998 3.0491331428904829 0 3.0491331428904829 0.356324788482695 0 0 0 0 -569.56472617840336 951.95295626788356 0 951.95295626788356 -777.77971814136254 0 0 0 0 -593.3273601578112 832.16283221267258 0 832.16283221267258 -533.33104753261068 0 0 0 0 -623.65040246711578 1108.3906555149915 0 1108.3906555149915 167.28664157463936 0 0 0 0 -0.045246265307511635 3.0295602008305025 0 3.0295602008305025 -0.037550632279305773 0 0 0 0 -416.27140334451542 1026.0493276635534 0 1026.0493276635534 -477.83874790937625 0 0 0 0 -1.528007307968889 1186.8138495327833 0 1186.8138495327833 -421.36178842980007 0 0 0 0 -358.1010939587577 991.33383537707778 0 991.33383537707778 -230.22157472708204 0 0 0 0 -679.85344785166671 1006.2189366400271 0 1006.2189366400271 -213.94858173044486 0 0 0 0 -792.71498750678438 1075.5694106416558 0 1075.5694106416558 -391.38585420698109 0 0 0 0 -393.674127445669 1072.5030104310481 0 1072.5030104310481 -414.56227845495596 0 0 0 0 0.039914897097332869 851.84806738764746 0 851.84806738764746 -605.86313481137404 0 0 0 0 -658.58939313806331 595.28451747172221 0 595.28451747172221 21.265349681274529 0 0 0 0 -435.6462257641906 262.48610840838592 0 262.48610840838592 158.0117580110018 0 0 0 0 -473.46964828316231 709.983165744693 0 709.983165744693 -68.248746874523931 0 0 0 0 -309.79254437904456 839.82933670908824 0 839.82933670908824 -99.285928851877543 0 0 0 0 -587.87138900991704 918.49387178121469 0 918.49387178121469 -115.7609007060164 0 0 0 0 -602.61186075762089 893.82111783367145 0 893.82111783367145 -492.77187839211547 0 0 0 0 -951.68363713694271 884.52218678653662 0 884.52218678653662 -109.265620726218 0 0 0 0 -774.80748961275094 577.68643985270683 0 577.68643985270683 -1.7273364012216916 0 0 0 0 -1039.7039033242618 496.88035469813985 0 496.88035469813985 80.765044659543491 0 0 0 0 -1577.6555531219992 982.82115774043041 0 982.82115774043041 -203.35077159661159 0 0 0 0 -812.62547547374561 1038.1334295882916 0 1038.1334295882916 -868.5453001484384 0 0 0 0 -760.5359485834415 895.89403780873909 0 895.89403780873909 -482.82305318315412 0 0 0 0 -928.77961110237811 1155.9868770612829 0 1155.9868770612829 -3.1948603081691545 0 0 0 0 -1724.7395314305577 841.90574269048557 0 841.90574269048557 2.6137230987369549 0 0 0 0 -1420.4420344591417 631.0159712315799 0 631.0159712315799 -523.79292848360274 0 0 0 0 -0.33329092270215455 0.87122234039963686 0 0.87122234039963686 -2.4269457259376281 0 0 0 0 -1281.9488504001129 1162.8513268745919 0 1162.8513268745919 -442.55467633002263 0 0 0 0 92.139080087670663 151.79002832231981 0 151.79002832231981 0.13065960107269348 0 0 0 0 12.678901233866782 131.86725225164264 0 131.86725225164264 50.170858802826842 0 0 0 0 -282.26699270020617 154.30728366546828 0 154.30728366546828 86.038044364846428 0 0 0 0 -226.29497285286197 162.06888135064946 0 162.06888135064946 46.677234982991649 0 0 0 0 -7.7992769314175376 6.9256077453873175 0 6.9256077453873175 -6.4853162878494572 0 0 0 0 -1365.8580839294445 118.46901323628026 0 118.46901323628026 84.469406194650219 0 0 0 0 330.14184272609418 -10.661921747981978 0 -10.661921747981978 -174.13284969815777 0 0 0 0 36.274090248703942 204.04081259071972 0 204.04081259071972 12.990026308687447 0 0 0 0 -1.9750045903997488 179.29525744476859 0 179.29525744476859 -0.088893144686153391 0 0 0 0 78.43611679955211 91.511608485856414 0 91.511608485856414 28.03349916602383 0 0 0 0 24.615398475834809 159.6924931042995 0 159.6924931042995 71.569894588730676 0 0 0 0 23.575755923189718 176.8908352128492 0 176.8908352128492 -14.104244991038286 0 0 0 0 171.52285732643395 146.29474983017099 0 146.29474983017099 -70.638218759624579 0 0 0 0 82.339180632287025 39.330787558638804 0 39.330787558638804 151.01132098821108 0 0 0 0 109.07608084773346 163.95591629881983 0 163.95591629881983 156.57191369029169 0 0 0 0 -465.79153874293843 -131.6090526672524 0 -131.6090526672524 141.19448318196191 0 0 0 0 236.73222583459574 35.895990992038605 0 35.895990992038605 -45.504978609431419 0 0 0 0 0.40277110288120355 0.42773358039634246 0 0.42773358039634246 -2.9713782115622678 0 0 0 0 331.81074468317081 56.656520956280247 0 56.656520956280247 210.90154354742845 0 0 0 0 -211.56683331592649 468.13233268800104 0 468.13233268800104 -27.154289105601492 0 0 0 0 -220.29277272367472 307.5556578454416 0 307.5556578454416 -42.461077138286782 0 0 0 0 207.33739169928594 222.76667182738674 0 222.76667182738674 6.1598558405021322 0 0 0 0 117.36380874103634 177.30814125873439 0 177.30814125873439 56.988089387835316 0 0 0 0 -18.635581183779152 18.570956891155848 0 18.570956891155848 -17.422584444503769 0 0 0 0 -160.589061356819 152.43338594889428 0 152.43338594889428 59.001155651567387 0 0 0 0 -370.11295154099935 234.85686971265386 0 234.85686971265386 38.795574906534966 0 0 0 0 -59.964996873401105 -3.4562574360825238 0 -3.4562574360825238 -0.2975999747577589 0 0 0 0 9.6584988554641882 102.48693645865976 0 102.48693645865976 98.201818056826596 0 0 0 0 -39.387796865550627 104.19558678394242 0 104.19558678394242 128.47220334224767 0 0 0 0 11.074972423963914 191.27743266977043 0 191.27743266977043 22.197797981687472 0 0 0 0 111.99484059062524 89.85022333800589 0 89.85022333800589 44.716129888188789 0 0 0 0 113.95255813004042 114.20106668522931 0 114.20106668522931 99.514512950287099 0 0 0 0 53.202517621313746 100.66477178866808 0 100.66477178866808 270.90943997582872 0 0 0 0 96.506407942408259 145.88929381505477 0 145.88929381505477 189.11530166814555 0 0 0 0 -1.894256389066868 47.140965520491591 0 47.140965520491591 310.17894999347845 0 0 0 0 44.885567120625637 176.91507224844236 0 176.91507224844236 190.22773866112402 0 0 0 0 65.458058479125611 62.334462406164675 0 62.334462406164675 165.21829569479814 0 0 0 0 -15.379146044767651 110.51107993833693 0 110.51107993833693 164.66805345179455 0 0 0 0 -26.118212744388316 26.235111607460126 0 26.235111607460126 -25.323857847954372 0 0 0 0 -13.79765708967534 47.917024067694001 0 47.917024067694001 151.68427338102515 0 0 0 0 109.94189411195475 93.812299279452418 0 93.812299279452418 75.459418195128819 0 0 0 0 136.01814959950752 128.31867874159343 0 128.31867874159343 63.164151197037427 0 0 0 0 61.615551482398587 162.28280902263941 0 162.28280902263941 139.13104692594061 0 0 0 0 62.15252045552694 131.94664935681482 0 131.94664935681482 13.254411944857566 0 0 0 0 -33.590649171522472 33.015648789317225 0 33.015648789317225 -34.075969605668831 0 0 0 0 177.31775737254793 251.21875681908568 0 251.21875681908568 -13.867040644603549 0 0 0 0 49.978701380241546 267.07042451118105 0 267.07042451118105 35.313876222488034 0 0 0 0 50.181973216742335 439.33594517846905 0 439.33594517846905 -49.272055412919144 0 0 0 0 151.83112379751401 255.96416207997208 0 255.96416207997208 -12.942639042516021 0 0 0 0 166.46590956449063 141.60847072855597 0 141.60847072855597 -76.235714296111837 0 0 0 0 217.12415097948542 295.09529792599278 0 295.09529792599278 -22.501841182081989 0 0 0 0 419.58931594472961 164.45227318137404 0 164.45227318137404 -74.332101920878358 0 0 0 0 -1.3487881197831939 2.5799310604717718 0 2.5799310604717718 0.0096943299558720497 0 0 0 0 39.516208985604862 194.09798545084595 0 194.09798545084595 494.60302161641448 0 0 0 0 38.450362563885847 299.55994416198109 0 299.55994416198109 679.90650787919367 0 0 0 0 -0.72487865853236144 0.73597049750630106 0 0.73597049750630106 0.065639090295029234 0 0 0 0 86.408614830492297 65.481345501451869 0 65.481345501451869 268.4730769728792 0 0 0 0 26.913934145777603 210.10687906070234 0 210.10687906070234 -547.13544428221576 0 0 0 0 -82.242297652446723 94.301804815817377 0 94.301804815817377 -78.281117076899591 0 0 0 0 -46.201501409610501 133.70425756935856 0 133.70425756935856 -59.360035692901874 0 0 0 0 -21.663633420488623 12.92196252985741 0 12.92196252985741 -13.431540542413131 0 0 0 0 -0.25960518732205173 4.7879814535616205 0 4.7879814535616205 -1.5761632878501306 0 0 0 0 7.2307769204053329 132.61615091404383 0 132.61615091404383 321.5913296800527 0 0 0 0 -11.492711769817106 20.523773506296493 0 20.523773506296493 -11.333354373377915 0 0 0 0 -3.8555493664029612 6.9011869070584027 0 6.9011869070584027 -2.3831618941406703 0 0 0 0 155.98724523121564 204.15871144815537 0 204.15871144815537 177.21074841665541 0 0 0 0 79.690440193095128 240.6180618605722 0 240.6180618605722 189.24307253556617 0 0 0 0 49.727181390153419 167.60196329969403 0 167.60196329969403 335.95040128234541 0 0 0 0 -0.081940666517766658 262.44095283570277 0 262.44095283570277 369.19678113928239 0 0 0 0 -1.9433289685628665 0.72896104318373744 0 0.72896104318373744 -0.23860835238946621 0 0 0 0 -355.55318451630592 685.7399093628519 0 685.7399093628519 -891.30808715681087 0 0 0 0 -27.109042911448341 206.72598389433733 0 206.72598389433733 543.05842909510829 0 0 0 0 57.08883912285819 153.33027673864308 0 153.33027673864308 195.19877930821531 0 0 0 0 -110.35371508216485 -7.9152415749376814 0 -7.9152415749376814 35.670743741078695 0 0 0 0 -3.3541586805237387 3.280887689055092 0 3.280887689055092 -1.4573682750880508 0 0 0 0 -549.06060927039198 457.10675805194433 0 457.10675805194433 -469.84034478495596 0 0 0 0 -641.3795834632765 438.14566251440556 0 438.14566251440556 -328.91278276221419 0 0 0 0 -1.6049019673545715 3.4630160840852326 0 3.4630160840852326 -2.1004534100288197 0 0 0 0 1.0654258289102643 2.5043217676679888 0 2.5043217676679888 -1.779130314436145 0 0 0 0 -657.84203833965148 902.87482723468565 0 902.87482723468565 -671.9162368466441 0 0 0 0 -6.5465228076021926 968.50895292666121 0 968.50895292666121 -665.39379736997216 0 0 0 0 -1.0218058828904759 394.24762142043255 0 394.24762142043255 -569.72482158657658 0 0 0 0 -657.73268368202116 519.07142609212451 0 519.07142609212451 -578.5333796699706 0 0 0 0 0.94897276667198582 2.1527539961561075 0 2.1527539961561075 -1.2665277848347785 0 0 0 0 -23.329773422570725 624.65446116115527 0 624.65446116115527 -365.46804564625927 0 0 0 0 -661.41618926005322 397.16027762579324 0 397.16027762579324 -445.88230245422164 0 0 0 0 -35.894259395543486 769.78162706080548 0 769.78162706080548 -514.80832652447862 0 0 0 0 -94.070416149050288 750.59282139929928 0 750.59282139929928 -279.05461967373412 0 0 0 0 -192.4406851743679 482.75712431676766 0 482.75712431676766 -63.512009432030027 0 0 0 0 -172.10317265856429 463.14147707479788 0 463.14147707479788 -49.953044838701317 0 0 0 0 -304.02481414674185 328.5529016003693 0 328.5529016003693 74.814744694878755 0 0 0 0 -42.143661304769921 251.05875119697521 0 251.05875119697521 -6.7095791776155238 0 0 0 0 -21.652212037959544 155.59116950143653 0 155.59116950143653 172.42709463053325 0 0 0 0 55.903718173234665 127.96275480306122 0 127.96275480306122 155.26628753798286 0 0 0 0 203.8796345749397 297.42221253916796 0 297.42221253916796 -290.80627816481137 0 0 0 0 133.48117793200072 103.50078099716302 0 103.50078099716302 123.76888048397086 0 0 0 0 29.547975320820115 311.12500357427052 0 311.12500357427052 -219.5484837976328 0 0 0 0 -51.876059836740751 53.515972633675119 0 53.515972633675119 40.364330597054504 0 0 0 0 -131.15902924135662 68.470784278226347 0 68.470784278226347 1.5377855166661902 0 0 0 0 -121.12062969115141 128.09964010994008 0 128.09964010994008 -12.41194115550752 0 0 0 0 98.900640509569712 35.47193209716329 0 35.47193209716329 -8.6727103439043276 0 0 0 0 100.46881507985381 49.601595215695852 0 49.601595215695852 -45.643883263859607 0 0 0 0 133.31766053528554 82.104346553987853 0 82.104346553987853 -79.057715677401575 0 0 0 0 3.495445399217715 48.78750185168974 0 48.78750185168974 -35.288118306176329 0 0 0 0 -130.91135046022464 96.892437899128709 0 96.892437899128709 10.514084227121202 0 0 0 0 -19.323429433290585 110.26060808207694 0 110.26060808207694 -37.567290187165781 0 0 0 0 13.3412322587792 145.02877104658546 0 145.02877104658546 -29.476073093690502 0 0 0 0 -5.4793256711200229 56.714546157081713 0 56.714546157081713 -4.4529790412343573 0 0 0 0 -49.554346609648746 136.53841691241723 0 136.53841691241723 -23.846031338631292 0 0 0 0 136.07410847155279 206.89060660818086 0 206.89060660818086 0.20573034488188569 0 0 0 0 136.03850108699044 96.588502936394434 0 96.588502936394434 -63.706995492881106 0 0 0 0 418.92025419467609 50.740137017792222 0 50.740137017792222 -92.15536624442575 0 0 0 0 159.18417756491544 -13.087456742483482 0 -13.087456742483482 -55.939139162921492 0 0 0 0 403.48048467251419 -122.06935795080256 0 -122.06935795080256 -10.193121698372124 0 0 0 0 0.49816823275201472 0.8263160080897336 0 0.8263160080897336 1.8714983108800851 0 0 0 0 -38.827124495262979 39.491081663350997 0 39.491081663350997 -0.05403262066829484 0 0 0 0 40.514786899122555 58.657596040480712 0 58.657596040480712 51.120803643381805 0 0 0 0 159.03824691452246 122.47897640712108 0 122.47897640712108 63.299506815914356 0 0 0 0 30.352693844550686 3.6325622642411872 0 3.6325622642411872 1.2840260350931203 0 0 0 0 212.00513946413412 -108.17328161828482 0 -108.17328161828482 -325.5041796989326 0 0 0 0 0.76055983637238 0.95611299681002038 0 0.95611299681002038 -0.28690501448821415 0 0 0 0 293.43196700117915 13.707882982282172 0 13.707882982282172 -71.875554431666387 0 0 0 0 304.3794632225472 47.296844994929415 0 47.296844994929415 -41.934739290154539 0 0 0 0 261.09971504838177 23.140623617604433 0 23.140623617604433 -107.46531524018792 0 0 0 0 238.79670005880325 65.066366858653055 0 65.066366858653055 -74.337734706445872 0 0 0 0 170.35152700925391 -52.247277043516078 0 -52.247277043516078 -18.455716579104774 0 0 0 0 154.5207152946532 91.220243727719208 0 91.220243727719208 137.47382279073645 0 0 0 0 181.6567059757981 130.14389490367103 0 130.14389490367103 63.872029499357268 0 0 0 0 -90.583037902677461 -25.36677468886046 0 -25.36677468886046 29.531476183081395 0 0 0 0 40.20585349177054 314.98638100942844 0 314.98638100942844 585.18524149779114 0 0 0 0 258.78094979482557 267.18834366572264 0 267.18834366572264 159.53696899325723 0 0 0 0 -100.86988520710293 155.75525992256735 0 155.75525992256735 150.83496061449523 0 0 0 0 -37.739048569044826 98.344388083674858 0 98.344388083674858 232.69690596784494 0 0 0 0 -0.40712831231917335 0.2944310686022078 0 0.2944310686022078 0.64215917529921285 0 0 0 0 150.17390112171415 144.7275674331886 0 144.7275674331886 137.04438115505764 0 0 0 0 -11.913651462895359 49.201297911080474 0 49.201297911080474 -82.796255407218268 0 0 0 0 4.0431698004967984 4.2070341601322099 0 4.2070341601322099 -0.28675459403175196 0 0 0 0 168.0252201848125 47.746893757495855 0 47.746893757495855 -294.12847323313326 0 0 0 0 0.6922042076750472 3.0173836999021404 0 3.0173836999021404 0.21274963842143357 0 0 0 0 2.5685199827361629 2.9374593872430239 0 2.9374593872430239 2.6529792230514602 0 0 0 0 -12.418871189467609 34.647755842113838 0 34.647755842113838 -32.103768525761552 0 0 0 0 -36.943011919069249 48.082444613461121 0 48.082444613461121 -35.848337789336256 0 0 0 0 -28.970536113138223 78.875626334454864 0 78.875626334454864 -35.503337354180985 0 0 0 0 -34.863669072576158 60.929654054605635 0 60.929654054605635 -0.048090646825585281 0 0 0 0 -13.780335972288412 41.690877622645075 0 41.690877622645075 -67.416909511572157 0 0 0 0 20.278374796231219 137.23976492409565 0 137.23976492409565 -136.4000883683475 0 0 0 0 -5.5923494308517547 57.010459614761203 0 57.010459614761203 -74.043441804953545 0 0 0 0 -32.433789305388927 93.615312914120295 0 93.615312914120295 -88.89711648379398 0 0 0 0 -43.857800612147912 118.88261165292715 0 118.88261165292715 -0.00056181856052717194 0 0 0 0 27.838497158460086 58.443109599833406 0 58.443109599833406 -272.99531202824437 0 0 0 0 -6.7382958074485941 195.21455675483594 0 195.21455675483594 481.42895204294382 0 0 0 0 1.5375293550239491 2.4739357608969357 0 2.4739357608969357 -0.23150867568147326 0 0 0 0 0.59470775343288551 155.00551395462753 0 155.00551395462753 263.87926230722223 0 0 0 0 6.2020397545211381 98.025691430367488 0 98.025691430367488 212.59044076110877 0 0 0 0 35.368322502421506 67.391993330005789 0 67.391993330005789 14.077930345119967 0 0 0 0 16.227458004745131 147.49397354114626 0 147.49397354114626 215.76734232924287 0 0 0 0 3.7016479175554196 82.875436902977981 0 82.875436902977981 66.723763315283577 0 0 0 0 -17.65086507632077 57.974750645447784 0 57.974750645447784 66.113108615118108 0 0 0 0 2.4032978286068101 90.045596664723689 0 90.045596664723689 -26.419307096264674 0 0 0 0 -5.0004617129125108 20.59379499761053 0 20.59379499761053 18.246658040431157 0 0 0 0 84.804094975537737 140.96313160434875 0 140.96313160434875 14.656721292833481 0 0 0 0 39.470543966604964 54.232997026570501 0 54.232997026570501 -20.698001957764063 0 0 0 0 -33.966875964870269 114.97534735052614 0 114.97534735052614 -36.074983503487601 0 0 0 0 128.22853674623912 -46.979198537293996 0 -46.979198537293996 -71.060220697210752 0 0 0 0 10.514047650783041 26.491245830310788 0 26.491245830310788 -1.9341398742646447 0 0 0 0 -36.672337871372875 45.803223643528838 0 45.803223643528838 -38.645689263689718 0 0 0 0 -20.506740997454472 51.728689229523297 0 51.728689229523297 -23.788648251538689 0 0 0 0 -34.485485243461881 60.883432316484686 0 60.883432316484686 -20.321853751320305 0 0 0 0 -20.044263683019921 83.100251173117016 0 83.100251173117016 -45.074013994948473 0 0 0 0 8.1291687775265018 71.839604282253276 0 71.839604282253276 -33.070600080896838 0 0 0 0 5.1655226581164158 27.353594582057596 0 27.353594582057596 2.1391438363443456 0 0 0 0 51.233023642143962 4.9048435675667861 0 4.9048435675667861 -52.854611107009987 0 0 0 0 -34.515650318953703 60.211208480181085 0 60.211208480181085 -4.0628611619868025 0 0 0 0 13.222425781996208 6.1016183793799428 0 6.1016183793799428 -41.268170030461988 0 0 0 0 9.1967504467033194 13.348120718194394 0 13.348120718194394 14.204181271552699 0 0 0 0 2.0793876018723836 1.0039681593115297 0 1.0039681593115297 6.9909526288889765 0 0 0 0 -92.51443806576026 48.539984851649933 0 48.539984851649933 15.83713626498502 0 0 0 0 -44.85346455308536 41.076430668668763 0 41.076430668668763 79.238156920946494 0 0 0 0 -47.225131928538758 55.159887582420197 0 55.159887582420197 7.5666159759166476 0 0 0 0 -15.120198185582694 87.984285832577825 0 87.984285832577825 7.8847366498957854 0 0 0 0 -13.326749966761781 124.79225026666882 0 124.79225026666882 178.78238109109225 0 0 0 0 -47.566517386368332 231.48425811255288 0 231.48425811255288 446.77553715837712 0 0 0 0 0.91800224873134439 -1.2107311861694683 0 -1.2107311861694683 1.6654939597183045 0 0 0 0 469.34108546454263 500.16002594135716 0 500.16002594135716 329.16108953529329 0 0 0 0 -283.7414590019107 -36.454971444163675 0 -36.454971444163675 195.74188504393533 0 0 0 0 365.37312290362388 313.27059261819159 0 313.27059261819159 279.46602176984561 0 0 0 0 216.50369842804139 74.278007143286231 0 74.278007143286231 118.86240957162227 0 0 0 0 446.74271449873413 61.023307030820433 0 61.023307030820433 89.760647936320311 0 0 0 0 224.16632223049965 2.3454314342088765 0 2.3454314342088765 -0.51998682733392343 0 0 0 0 239.41702983326104 -58.363421970294439 0 -58.363421970294439 260.00005579068238 0 0 0 0 72.998835947575571 238.27192168042893 0 238.27192168042893 431.94685339434727 0 0 0 0 2.5430777079928788 2.5278971983757543 0 2.5278971983757543 1.5863442692903362 0 0 0 0 37.264296266374004 116.43355966078798 0 116.43355966078798 389.15833097947325 0 0 0 0 331.56964626064109 355.82198179072657 0 355.82198179072657 226.37698337538313 0 0 0 0 170.08531145751658 32.187759185351752 0 32.187759185351752 -4.3284400660413667 0 0 0 0 1.744274487812941 3.3661709234521702 0 3.3661709234521702 -6.2487297871065834 0 0 0 0 520.95928373518836 -41.23886967018916 0 -41.23886967018916 -14.930706542556436 0 0 0 0 227.03197497683323 76.186765938504323 0 76.186765938504323 -25.477297321100195 0 0 0 0 10.577659930422669 228.82948753395613 0 228.82948753395613 9.3796517058053723 0 0 0 0 197.27893271054927 167.97132725529809 0 167.97132725529809 21.473029349435819 0 0 0 0 424.85089874513869 351.94447400192075 0 351.94447400192075 159.72043946754275 0 0 0 0 -112.22504847208984 222.03546064125476 0 222.03546064125476 39.288602462154813 0 0 0 0 29.00373890960509 324.75428707630999 0 324.75428707630999 113.10321974773251 0 0 0 0 44.740174364349514 304.40596591429858 0 304.40596591429858 -42.749255206790622 0 0 0 0 -130.21383461757159 226.35505487812452 0 226.35505487812452 -63.84969725395058 0 0 0 0 -169.9951594300519 349.97276343283511 0 349.97276343283511 -31.400822348194197 0 0 0 0 -113.71473482449727 262.9811139546178 0 262.9811139546178 -72.298275343331625 0 0 0 0 -264.52928112934387 219.91982873102461 0 219.91982873102461 61.104508993543277 0 0 0 0 -276.38882938143433 175.05652138784717 0 175.05652138784717 96.533982830456807 0 0 0 0 -141.86218803086922 160.6498169066399 0 160.6498169066399 9.424666720929963 0 0 0 0 24.397359958918969 119.76232628282742 0 119.76232628282742 157.92367146100696 0 0 0 0 -75.078300068853423 55.490223118016729 0 55.490223118016729 149.67444173644162 0 0 0 0 -114.46302059361551 217.8078516689402 0 217.8078516689402 128.00115405151155 0 0 0 0 54.319447462033168 47.659865093254666 0 47.659865093254666 53.02665210053965 0 0 0 0 62.191083168556361 80.984472342810477 0 80.984472342810477 162.80467865669561 0 0 0 0 -161.1517302466018 120.40814293341464 0 120.40814293341464 116.24762875113811 0 0 0 0 -157.9347446086781 134.67498385181307 0 134.67498385181307 -2.25921009448939 0 0 0 0 -21.099394971060974 113.28026432498154 0 113.28026432498154 18.783223966849619 0 0 0 0 -35.331655331494403 47.17610395821066 0 47.17610395821066 5.2930250811768929 0 0 0 0 -109.22673653053062 54.841521511440078 0 54.841521511440078 268.31684912391211 0 0 0 0 -40.160988766722369 0.60195438684981184 0 0.60195438684981184 1.2252080470796542 0 0 0 0 21.246759541631036 23.770696175954072 0 23.770696175954072 140.73246707952057 0 0 0 0 -33.337591690637055 65.985252724978636 0 65.985252724978636 253.00949570022203 0 0 0 0 -7.465864550355036 227.93241933195895 0 227.93241933195895 -534.45347202380617 0 0 0 0 183.05884374441666 135.89094996542553 0 135.89094996542553 -498.68086523452803 0 0 0 0 64.215756053572477 348.64664444967093 0 348.64664444967093 -412.45196957394364 0 0 0 0 -118.34391217619122 188.91851493605645 0 188.91851493605645 -252.4736720115834 0 0 0 0 -131.31482612712534 287.69475474710816 0 287.69475474710816 -267.32175141841071 0 0 0 0 -119.33979199128589 341.24931902472963 0 341.24931902472963 -120.88421984033539 0 0 0 0 -407.87051212567167 379.34999971545767 0 379.34999971545767 -224.20792968326896 0 0 0 0 -34.67166183365498 209.10827358747156 0 209.10827358747156 -186.18244834655343 0 0 0 0 -60.567637702451975 227.195962542497 0 227.195962542497 -57.604509920679448 0 0 0 0 -0.42421631054868314 0.31528972631912389 0 0.31528972631912389 -2.6224478915396787 0 0 0 0 -107.59113947400692 -127.1747243703303 0 -127.1747243703303 -21.876993384648813 0 0 0 0 -476.35822197542439 118.30644698903416 0 118.30644698903416 266.10116652654324 0 0 0 0 338.0543137692257 -110.76962471264414 0 -110.76962471264414 -201.55245045978882 0 0 0 0 -4.4628861237235355 6.9846005913441651 0 6.9846005913441651 -10.651995556337482 0 0 0 0 -749.38298522281548 566.27158970766686 0 566.27158970766686 13.248793219718209 0 0 0 0 270.22008010599666 -764.47937634101208 0 -764.47937634101208 -1002.6255365634279 0 0 0 0 -502.69653161986525 423.96514453816008 0 423.96514453816008 -161.07501950678125 0 0 0 0 -488.40300027619378 584.13341476297501 0 584.13341476297501 -76.347748997461167 0 0 0 0 -443.17248238322645 771.22599175767391 0 771.22599175767391 -739.79139855533867 0 0 0 0 597.1831098047187 392.60443940161349 0 392.60443940161349 -902.1118969935651 0 0 0 0 -912.28574207625934 1055.9438921261535 0 1055.9438921261535 -571.40251202572108 0 0 0 0 -312.65165075215191 15.939671212414396 0 15.939671212414396 922.53701829567581 0 0 0 0 -1625.0147848982015 1067.7996026738692 0 1067.7996026738692 -2485.7304050200746 0 0 0 0 -16.091250164089743 1.0704876607850764 0 1.0704876607850764 -0.49267002761947509 0 0 0 0 -168.2619540769374 1529.8621526972565 0 1529.8621526972565 -2437.7234615553898 0 0 0 0 92.359628306254308 -207.9419822356831 0 -207.9419822356831 563.81500665884232 0 0 0 0 191.62191996346519 -59.680465721707151 0 -59.680465721707151 283.98935285613697 0 0 0 0 26.456531066040043 131.69934815456509 0 131.69934815456509 257.75954380495023 0 0 0 0 32.930208582410842 -63.258245710987012 0 -63.258245710987012 571.79373760587623 0 0 0 0 471.19438422795793 1826.5890346094893 0 1826.5890346094893 -2240.5323928167199 0 0 0 0 -390.30016420051106 323.47200480753963 0 323.47200480753963 843.92781626583383 0 0 0 0 -647.00816148526428 715.81523624058718 0 715.81523624058718 254.25024535122793 0 0 0 0 -197.21578671529005 -652.67387711556239 0 -652.67387711556239 -1069.7323210415198 0 0 0 0 661.21214851010518 176.93553174245244 0 176.93553174245244 -275.5673541922697 0 0 0 0 17.936980340881988 4.5334530663207033 0 4.5334530663207033 2.2376938966417939 0 0 0 0 -157.21618117146136 1196.1812204444577 0 1196.1812204444577 -366.25775782996425 0 0 0 0 -122.97564559840248 -36.914511688113635 0 -36.914511688113635 -82.904214391764071 0 0 0 0 130.41017291536082 25.000067679510721 0 25.000067679510721 -39.514588059093512 0 0 0 0 71.287071623506563 121.68417187835803 0 121.68417187835803 80.52210708847997 0 0 0 0 164.65204301680933 196.94144286511801 0 196.94144286511801 40.60993116319878 0 0 0 0 162.02406238812546 241.2323242537168 0 241.2323242537168 -141.53513729382757 0 0 0 0 -44.540455549060425 191.71665764142745 0 191.71665764142745 421.53201408461609 0 0 0 0 -65.335361442786052 459.58201971894186 0 459.58201971894186 132.74756986951979 0 0 0 0 144.78347683613538 101.02066892364746 0 101.02066892364746 -81.547038699987752 0 0 0 0 -14.229346958962175 20.596567593107633 0 20.596567593107633 -28.830640176118123 0 0 0 0 248.50717204627472 200.31333284915308 0 200.31333284915308 0.62857310620893259 0 0 0 0 91.780101371485216 34.29299931749847 0 34.29299931749847 -47.255638887346322 0 0 0 0 45.947997020226467 34.180076465563616 0 34.180076465563616 12.933990937941417 0 0 0 0 68.151682809999329 59.866555776068708 0 59.866555776068708 -31.142992756564126 0 0 0 0 -22.380652933730261 37.918732230109981 0 37.918732230109981 -37.223765532150878 0 0 0 0 174.89051103495149 330.50354859604158 0 330.50354859604158 15.755311753164278 0 0 0 0 297.59186491859145 197.7324524511896 0 197.7324524511896 88.423489807768419 0 0 0 0 144.6474531058193 127.15728975117599 0 127.15728975117599 65.234223613035283 0 0 0 0 209.06498094499148 180.1635918708489 0 180.1635918708489 -2.8544071128271753 0 0 0 0 471.86778101293385 81.012324351591815 0 81.012324351591815 -29.191942200635822 0 0 0 0 -1197.8929896768532 491.55897671681487 0 491.55897671681487 516.90819568905863 0 0 0 0 -2.5254363028844757 -2.5286951371994633 0 -2.5286951371994633 -5.0943191041724276 0 0 0 0 260.81504492182194 31.715644478355443 0 31.715644478355443 -5.006368904694682 0 0 0 0 -226.05333432420048 -327.55997365723215 0 -327.55997365723215 132.3381993009607 0 0 0 0 -11.00382880285224 -278.59648089859832 0 -278.59648089859832 861.22725172000719 0 0 0 0 6.8002020256560343 3.9236672560744523 0 3.9236672560744523 4.517819058667051 0 0 0 0 -103.02504510541621 590.37568872475822 0 590.37568872475822 -84.714966866330542 0 0 0 0 473.2117844652239 649.62026643807621 0 649.62026643807621 -80.618752975224197 0 0 0 0 -240.18732687053671 380.76396143248849 0 380.76396143248849 741.84992969639279 0 0 0 0 -424.16443387656182 -110.98392999204589 0 -110.98392999204589 -121.96854841326422 0 0 0 0 232.84257767334202 471.15462479380221 0 471.15462479380221 -319.25422355214687 0 0 0 0 168.85070952222304 400.34638155707216 0 400.34638155707216 -765.97028486867202 0 0 0 0 80.062763027926849 449.76196022549266 0 449.76196022549266 -177.22792078088605 0 0 0 0 71.429812275440781 466.00862072930977 0 466.00862072930977 299.19010579687892 0 0 0 0 99.796022139609704 46.331237387539659 0 46.331237387539659 -27.885591913240205 0 0 0 0 8.4067287528693129 -1.8701146698527538 0 -1.8701146698527538 -24.706414622998139 0 0 0 0 103.57855958124856 34.25308521712941 0 34.25308521712941 2.9485332311160164 0 0 0 0 50.468506260665322 16.955441549490459 0 16.955441549490459 -4.5138066362680185 0 0 0 0 -1.7833906450105133 96.313079519219173 0 96.313079519219173 -134.88029098548395 0 0 0 0 123.29931582800054 42.873540409920679 0 42.873540409920679 -57.279746137832262 0 0 0 0 3.7697396125808353 1.5808161319314706 0 1.5808161319314706 -0.066131269336054288 0 0 0 0 2.2829706359141255 6.7600562623655094 0 6.7600562623655094 -5.5293947185860617 0 0 0 0 42.131592892401386 89.655124071765385 0 89.655124071765385 49.991635500227858 0 0 0 0 67.241705504122365 155.85132006439017 0 155.85132006439017 -311.68745400631747 0 0 0 0 1.7954364004444869 -243.28107638306619 0 -243.28107638306619 -46.179292410179187 0 0 0 0 31.056153873549192 70.280136709085127 0 70.280136709085127 19.001725375499518 0 0 0 0 27.906154443471369 28.012691565129636 0 28.012691565129636 -15.725810297751593 0 0 0 0 14.952634286819375 66.185106701950644 0 66.185106701950644 30.052980522581493 0 0 0 0 70.050187944078061 39.069559493533234 0 39.069559493533234 -58.574971731977712 0 0 0 0 -6.4460804560371869 4.2375193622793716 0 4.2375193622793716 0.4490092485694106 0 0 0 0 -56.727249066545482 53.83029377175626 0 53.83029377175626 3.0070311387171387 0 0 0 0 63.310007363001205 45.94504617358325 0 45.94504617358325 -102.00136914582617 0 0 0 0 11.285712869690542 131.74716343850332 0 131.74716343850332 -28.809050923642644 0 0 0 0 48.635551202856732 41.711429146740556 0 41.711429146740556 -15.650358445680467 0 0 0 0 -250.54411032001371 308.76316871910603 0 308.76316871910603 -193.01029015347513 0 0 0 0 14.439965084952696 11.95553440995949 0 11.95553440995949 9.3912170970456117 0 0 0 0 -27.792476724380322 132.31499576557326 0 132.31499576557326 -25.201840870671731 0 0 0 0 9.6107525576026394 0.59843579925082935 0 0.59843579925082935 -0.73234192991708369 0 0 0 0 80.639966667309636 8.6606499744957546 0 8.6606499744957546 -16.341508644916757 0 0 0 0 -41.109122728430521 49.467714618394893 0 49.467714618394893 -74.964595857010863 0 0 0 0 -67.605737036552455 50.725475275919052 0 50.725475275919052 -15.729046637214196 0 0 0 0 45.337858036783942 28.448532087901654 0 28.448532087901654 -10.78969702748617 0 0 0 0 18.852862045491335 19.988179951783025 0 19.988179951783025 13.903656248069424 0 0 0 0 -205.08723803805879 147.66257315986104 0 147.66257315986104 -62.951752288605348 0 0 0 0 23.984524986044562 65.659070103538397 0 65.659070103538397 -71.024053105084022 0 0 0 0 -113.32653698431022 108.90424453663945 0 108.90424453663945 -40.658872752574098 0 0 0 0 -225.58847100578532 154.59866309435893 0 154.59866309435893 -58.236196673973609 0 0 0 0 -274.67381149161338 126.699634935625 0 126.699634935625 59.1768858534233 0 0 0 0 -361.01599655731479 213.67411898440514 0 213.67411898440514 -7.853831868051202 0 0 0 0 -219.06291603290811 168.55805881075685 0 168.55805881075685 -30.036027231632033 0 0 0 0 -281.43446033281725 292.1254856385367 0 292.1254856385367 -105.3888977537099 0 0 0 0 -61.420193100409961 251.16195910134775 0 251.16195910134775 -178.12126268520842 0 0 0 0 -186.80611754573329 253.52609629760263 0 253.52609629760263 -91.102755440177134 0 0 0 0 -167.80204335268718 221.93411298952742 0 221.93411298952742 -207.40150276098939 0 0 0 0 -261.31990444663825 212.93789763580753 0 212.93789763580753 -76.034017245980067 0 0 0 0 -186.43131021809768 181.77707779564298 0 181.77707779564298 -101.47478336663335 0 0 0 0 -212.92758093868179 228.10172842691827 0 228.10172842691827 -96.835197767801219 0 0 0 0 -136.24117365455368 178.22298988197508 0 178.22298988197508 -99.341126954106585 0 0 0 0 -108.3425878957969 157.08056364175536 0 157.08056364175536 -78.496186240234238 0 0 0 0 -92.487535996515362 198.96322209064056 0 198.96322209064056 -116.53282033385767 0 0 0 0 -11.25992097856215 126.11169760230223 0 126.11169760230223 -84.96119211855148 0 0 0 0 18.668653497126797 78.570274558360325 0 78.570274558360325 -47.726601911370722 0 0 0 0 -74.550371771627397 121.61752161169488 0 121.61752161169488 -58.646183226977882 0 0 0 0 -25.559599495609291 131.29737998970086 0 131.29737998970086 -107.02360725394101 0 0 0 0 -24.360257076923517 143.60513039902708 0 143.60513039902708 -45.777009578439902 0 0 0 0 -81.005703683204047 200.63934161825091 0 200.63934161825091 -90.240745504205279 0 0 0 0 -27.355113208624971 151.66073702518042 0 151.66073702518042 -84.145658189212554 0 0 0 0 18.521662095201464 281.9638995221303 0 281.9638995221303 -137.58726483499777 0 0 0 0 -99.492045064358535 162.9419265698416 0 162.9419265698416 -167.06376557521435 0 0 0 0 -296.59641498769997 150.67146282170143 0 150.67146282170143 -136.89276046213126 0 0 0 0 -92.928189753823972 96.653351083909001 0 96.653351083909001 -47.347124837178853 0 0 0 0 -4.7485134615162679 186.41081773951737 0 186.41081773951737 -322.66624589362982 0 0 0 0 217.78020454569196 372.00689484043323 0 372.00689484043323 -244.3564406733567 0 0 0 0 6.973199912306363 4.3291612835612483 0 4.3291612835612483 1.2696680565308469 0 0 0 0 -93.756491805266705 505.06325985887815 0 505.06325985887815 -137.01268968979275 0 0 0 0 360.10012717026621 706.06862749009088 0 706.06862749009088 -131.38794461642101 0 0 0 0 56.146667021115718 346.73433317024137 0 346.73433317024137 -54.716268157098966 0 0 0 0 -72.853740528124035 332.27424349261491 0 332.27424349261491 36.439007196520834 0 0 0 0 -86.164017706123559 443.36780109055417 0 443.36780109055417 305.51678232065751 0 0 0 0 -80.490101706702262 203.43333706695921 0 203.43333706695921 278.64427769304893 0 0 0 0 -50.423726424854976 262.33995852206135 0 262.33995852206135 223.95873075263808 0 0 0 0 -67.003903148121026 161.86909277557425 0 161.86909277557425 378.87020662022405 0 0 0 0 93.857037871151988 114.23605706081071 0 114.23605706081071 135.26070411452383 0 0 0 0 35.366896518637077 227.70748240348985 0 227.70748240348985 67.301729292128584 0 0 0 0 43.878307134924398 204.73032753275038 0 204.73032753275038 59.894854210557241 0 0 0 0 48.784223842223582 219.57656698423671 0 219.57656698423671 -21.855961959890919 0 0 0 0 46.246879307836934 197.98749535690149 0 197.98749535690149 0.74246268493152456 0 0 0 0 45.796029401986743 233.82658022269629 0 233.82658022269629 -4.3128142866189592 0 0 0 0 16.182009508789633 256.75997744707274 0 256.75997744707274 14.165197025871748 0 0 0 0 7.6844443147128914 259.26864348250092 0 259.26864348250092 70.374886291376242 0 0 0 0 9.2489276365631667 180.06325433222537 0 180.06325433222537 21.02395261991478 0 0 0 0 12.804383616006817 189.94366604811876 0 189.94366604811876 -60.973400783608668 0 0 0 0 8.6506865265528177 134.90647585292118 0 134.90647585292118 14.058568866577843 0 0 0 0 7.4631576539541129 122.95920675373418 0 122.95920675373418 -47.292265377302556 0 0 0 0 8.5355821050652594 80.236629057699247 0 80.236629057699247 -0.12428583509245072 0 0 0 0 18.019405433347856 68.705633655428755 0 68.705633655428755 8.4366683176165225 0 0 0 0 23.987120517193034 70.087841437078168 0 70.087841437078168 -1.9704505869667628 0 0 0 0 26.257267007720657 56.000861027136125 0 56.000861027136125 65.759606697574782 0 0 0 0 5.3731738282180004 155.21400994047099 0 155.21400994047099 146.12758102141379 0 0 0 0 5.2815827239392092 150.53575650655876 0 150.53575650655876 -13.374403005702334 0 0 0 0 23.48845410420472 242.32622188464666 0 242.32622188464666 192.59642569624521 0 0 0 0 49.759178051834169 191.5180255533287 0 191.5180255533287 144.06950672708626 0 0 0 0 6.1028145650343504 82.427610992488553 0 82.427610992488553 46.52061389778828 0 0 0 0 4.3733401359859272 74.98421088839541 0 74.98421088839541 323.52614251839987 0 0 0 0 46.726492268222501 -69.031306615353969 0 -69.031306615353969 2.8822394062926833 0 0 0 0 -84.994129367434653 137.26008449653818 0 137.26008449653818 -137.58392089774134 0 0 0 0 607.2246618126519 -146.07954455082472 0 -146.07954455082472 -204.74184843874173 0 0 0 0 13.571953182887228 -136.95180220819111 0 -136.95180220819111 603.62200885350103 0 0 0 0 377.16926972531292 275.49015829626114 0 275.49015829626114 105.23728524833132 0 0 0 0 82.486766709313088 312.39562028737782 0 312.39562028737782 551.10570172214784 0 0 0 0 25.706742718602982 35.504404416957641 0 35.504404416957641 27.224969629860425 0 0 0 0 72.173738006355052 181.66146817432991 0 181.66146817432991 266.68983429048967 0 0 0 0 1.1206754215901356 -4.3291364632714249 0 -4.3291364632714249 -1.7836119957956456 0 0 0 0 23.974552470794151 247.46358546992269 0 247.46358546992269 34.158056755961297 0 0 0 0 43.82380639429357 214.68931580290337 0 214.68931580290337 35.108370802852733 0 0 0 0 -31.429856501832546 223.36774311471345 0 223.36774311471345 66.743960812207661 0 0 0 0 27.071591421175981 236.97999857091781 0 236.97999857091781 -423.2240314589053 0 0 0 0 -63.240730774761687 135.91249365833119 0 135.91249365833119 -155.00488025308005 0 0 0 0 -101.24754931112693 115.70593455175549 0 115.70593455175549 29.45210610466529 0 0 0 0 192.82099260647374 273.36815800481418 0 273.36815800481418 -525.68102019182334 0 0 0 0 308.59217397230532 142.64578734725183 0 142.64578734725183 -479.53821104566168 0 0 0 0 675.20886392444663 191.79624705913375 0 191.79624705913375 -512.03885123046894 0 0 0 0 -122.09905278675524 44.667447117164102 0 44.667447117164102 -303.77244436705223 0 0 0 0 -110.61929479611854 202.8558644731645 0 202.8558644731645 -319.11962227568438 0 0 0 0 50.764753178540559 18.763460111626046 0 18.763460111626046 -184.47736077216723 0 0 0 0 286.81024872656599 47.523143293212343 0 47.523143293212343 -453.95499772637413 0 0 0 0 44.28946104447823 -46.735575698403409 0 -46.735575698403409 -438.88741341818832 0 0 0 0 -143.83824587104755 -217.07499978088526 0 -217.07499978088526 -394.47534923642161 0 0 0 0 26.382669247555896 -54.771185596317082 0 -54.771185596317082 -294.82900728175082 0 0 0 0 -220.8182207708669 -291.86807585697534 0 -291.86807585697534 -456.16876545434934 0 0 0 0 209.67520120072004 -26.040815327600285 0 -26.040815327600285 -586.15962111935914 0 0 0 0 -1.4115567498147072 1.9137543855875521 0 1.9137543855875521 -3.485873098827355 0 0 0 0 1.5185982554176007 4.8523841145179176 0 4.8523841145179176 -4.3684622651217069 0 0 0 0 -254.00281530168286 -561.60835003146894 0 -561.60835003146894 -851.41835500067828 0 0 0 0 0.0055337640405923594 6.6311116298957131 0 6.6311116298957131 2.3113628500505001 0 0 0 0 1.8146244949020911 10.691285153716308 0 10.691285153716308 10.22715649327256 0 0 0 0 -0.14553785150255294 -0.41357905111374293 0 -0.41357905111374293 -1.1156978391318191 0 0 0 0 138.84394985433755 -86.98467742203502 0 -86.98467742203502 -1206.1461057894448 0 0 0 0 206.64428455513553 -31.38335949887005 0 -31.38335949887005 -505.13549558900559 0 0 0 0 86.944623979012249 -220.35272009554319 0 -220.35272009554319 -858.91580250698826 0 0 0 0 145.00162087975332 109.34647304283499 0 109.34647304283499 -565.71671389131734 0 0 0 0 205.18563513511617 -0.69926447719626594 0 -0.69926447719626594 -408.28187938296469 0 0 0 0 98.379238057968905 320.6711633967534 0 320.6711633967534 -134.77841382577208 0 0 0 0 -1.1618086255957221 335.00263723166637 0 335.00263723166637 -488.13775250997423 0 0 0 0 0.46018180929968366 123.8044655049107 0 123.8044655049107 -157.00957168366585 0 0 0 0 0.34092747488738612 336.32654124668721 0 336.32654124668721 1.8555913275267812 0 0 0 0 61.906319751753472 199.92199040654123 0 199.92199040654123 179.28311509540708 0 0 0 0 64.256681857863441 258.06173516453418 0 258.06173516453418 156.99238226377747 0 0 0 0 284.88848742058326 171.17812645854792 0 171.17812645854792 -23.504948582711222 0 0 0 0 441.56776873709168 388.61553056323282 0 388.61553056323282 62.156232624642143 0 0 0 0 -2.3437529713480032 5.2560535153540258 0 5.2560535153540258 -4.5732030307718077 0 0 0 0 381.60844326753067 -26.772394733457986 0 -26.772394733457986 -90.50057488447419 0 0 0 0 -191.9656433932505 27.456073048138933 0 27.456073048138933 -4.7990416459761036 0 0 0 0 -496.31742641854726 242.23390116852715 0 242.23390116852715 -122.32842818357676 0 0 0 0 -0.9965189699636241 2.4415589920727001 0 2.4415589920727001 -2.3929012130760015 0 0 0 0 -93.270438212492081 65.244508399776805 0 65.244508399776805 -27.077580402103195 0 0 0 0 -228.16800164900997 182.75346846956018 0 182.75346846956018 4.6653220671942108 0 0 0 0 -159.2711050770522 182.2947137890078 0 182.2947137890078 -29.5205769549666 0 0 0 0 -159.1234251830017 188.11206436712405 0 188.11206436712405 163.40124957423905 0 0 0 0 -88.735833440226997 43.331673948890966 0 43.331673948890966 -268.29878353443564 0 0 0 0 -91.396712815989304 41.796036566300245 0 41.796036566300245 41.60845905680435 0 0 0 0 672.90045566809931 456.96350912057915 0 456.96350912057915 18.567564871184004 0 0 0 0 505.14500469047925 15.783499926234072 0 15.783499926234072 -101.73057252629224 0 0 0 0 20.416467779068626 151.86930836358079 0 151.86930836358079 735.00511741407718 0 0 0 0 14.213517627722467 81.786592686756194 0 81.786592686756194 -42.747791112356936 0 0 0 0 413.06617651246779 -223.93732367762641 0 -223.93732367762641 30.925074962920917 0 0 0 0 756.93016424959933 322.30751932379462 0 322.30751932379462 -273.13767768924299 0 0 0 0 137.15727504453025 247.47440855585046 0 247.47440855585046 -281.34928350998234 0 0 0 0 10.980214227584383 -170.80319898023868 0 -170.80319898023868 -475.39327503978711 0 0 0 0 -46.134271490416722 400.35595617350918 0 400.35595617350918 -404.53268242038757 0 0 0 0 119.51168371524795 -32.041534338872907 0 -32.041534338872907 -455.34111988888617 0 0 0 0 149.23334828174848 38.237623662993428 0 38.237623662993428 -674.67485956747623 0 0 0 0 112.39954548545938 62.1626456146696 0 62.1626456146696 -208.53198179063838 0 0 0 0 146.51323926955683 9.6465547479161842 0 9.6465547479161842 -441.60638223065325 0 0 0 0 -18.351711220711877 83.459720373852178 0 83.459720373852178 -82.185002544607414 0 0 0 0 -31.727172559127212 6.8351961956832383 0 6.8351961956832383 -81.487045339566976 0 0 0 0 577.66066577919992 -587.23081852024188 0 -587.23081852024188 -117.95779387780203 0 0 0 0 -64.674861227322253 -71.096993848845159 0 -71.096993848845159 -679.42081670876723 0 0 0 0 -152.30985084583517 256.9991471829635 0 256.9991471829635 -238.29787648648926 0 0 0 0 4.2251897618602179 0.44147143692831037 0 0.44147143692831037 -2.7935108227306387 0 0 0 0 -78.122032848797971 217.89017911396149 0 217.89017911396149 -568.56419756510513 0 0 0 0 -28.563219746502 78.68821316803951 0 78.68821316803951 -523.24611552952229 0 0 0 0 -58.325665190701329 141.9420094324505 0 141.9420094324505 -443.8253166899849 0 0 0 0 94.06117569197886 -117.02544179083816 0 -117.02544179083816 -7.1383675023171236 0 0 0 0 99.362858316810161 -76.698184700062484 0 -76.698184700062484 -283.07485819924113 0 0 0 0 0.078804975114337594 -0.48641347442870142 0 -0.48641347442870142 -2.0283609291351752 0 0 0 0 -42.047714514832478 137.5867150437407 0 137.5867150437407 -444.61833911571694 0 0 0 0 -51.911047791316378 182.01879779733872 0 182.01879779733872 -309.50790669923299 0 0 0 0 -158.26261428234284 129.16598125455857 0 129.16598125455857 -112.95504382500553 0 0 0 0 -0.99627161299746092 -0.016267246517998046 0 -0.016267246517998046 -4.7500903310667724 0 0 0 0 18.713270788095542 8.4037781687657116 0 8.4037781687657116 -106.20409356064374 0 0 0 0 37.560886502411449 25.273973790026503 0 25.273973790026503 -31.863296892712242 0 0 0 0 1.0052715489146067 11.814120103801542 0 11.814120103801542 -3.1805282634522882 0 0 0 0 0.51250052017946146 8.7988103498308661 0 8.7988103498308661 -11.513715188228687 0 0 0 0 59.511718411598849 34.294331068294014 0 34.294331068294014 -65.553301301319152 0 0 0 0 53.530927986765164 10.509432938648388 0 10.509432938648388 -19.302004522964125 0 0 0 0 55.099362209468381 46.567605538788484 0 46.567605538788484 -20.585651018574936 0 0 0 0 105.93829515582183 -17.816746733260516 0 -17.816746733260516 -27.655020042133401 0 0 0 0 3.1834277303714771 32.756421447484172 0 32.756421447484172 -16.141056259984907 0 0 0 0 20.663519333931617 48.860022987360026 0 48.860022987360026 -57.479908196459292 0 0 0 0 18.271337617439713 36.071203987696208 0 36.071203987696208 -65.688985819735535 0 0 0 0 20.550856050339576 8.1845746916508091 0 8.1845746916508091 -1.3540378958184789 0 0 0 0 -9.6834932403289713 76.949137440176855 0 76.949137440176855 -30.37573217053432 0 0 0 0 5.6347077364293909 3.3772033987472518 0 3.3772033987472518 1.4794529443259705 0 0 0 0 25.270124355883411 25.811272901424466 0 25.811272901424466 8.2978130395404222 0 0 0 0 20.403151642261946 18.621773483560901 0 18.621773483560901 -12.541328157873068 0 0 0 0 39.684922246465703 53.154256800592975 0 53.154256800592975 27.304918036727031 0 0 0 0 10.95489101334951 11.238299714062133 0 11.238299714062133 -15.593152602967258 0 0 0 0 59.937604249324067 39.431906925372459 0 39.431906925372459 -17.924815680947177 0 0 0 0 41.88215175780806 36.981851610045851 0 36.981851610045851 -18.122908985504182 0 0 0 0 5.014539564858012 6.6143385668944674 0 6.6143385668944674 3.2984021236723002 0 0 0 0 23.798297670437023 38.782944552651315 0 38.782944552651315 -51.758650379533719 0 0 0 0 24.514246815946535 30.369080420186947 0 30.369080420186947 -1.9928388912994706 0 0 0 0 10.23991435235655 21.165842463628159 0 21.165842463628159 1.3092350514743245 0 0 0 0 -12.81527747947257 10.587234938083384 0 10.587234938083384 -15.758645917565445 0 0 0 0 -2.0395113999056775 17.440980323798613 0 17.440980323798613 3.7820873321179533 0 0 0 0 -1.6465429992512597 15.276748579354717 0 15.276748579354717 -1.4347693212576615 0 0 0 0 10.461281244110381 21.599429245014125 0 21.599429245014125 -1.284787201265452 0 0 0 0 26.161844243455562 42.882907652092399 0 42.882907652092399 -21.409326274810155 0 0 0 0 23.050899628957268 30.419749562403013 0 30.419749562403013 -15.518886017860495 0 0 0 0 30.413108821267997 9.7993817869150917 0 9.7993817869150917 -13.925432039661246 0 0 0 0 4.775066728904541 -2.1002696663777911 0 -2.1002696663777911 -8.9478901053110746 0 0 0 0 249.61773917042592 -474.56489866241463 0 -474.56489866241463 928.28858457508613 0 0 0 0 147.20577440077614 100.96589840306478 0 100.96589840306478 -8.951661358209094 0 0 0 0 26.777034316117351 5.8121127098929719 0 5.8121127098929719 -10.493592672388331 0 0 0 0 17.062100415263558 6.0687457202893 0 6.0687457202893 -0.83882485473558432 0 0 0 0 32.618922898203891 18.67521221109746 0 18.67521221109746 -7.7539840592871769 0 0 0 0 18.344663974756259 14.295444143304849 0 14.295444143304849 -8.6284796239851858 0 0 0 0 41.907240233973425 11.015950892584442 0 11.015950892584442 -14.82709780454752 0 0 0 0 32.134526237103273 15.895959658682841 0 15.895959658682841 -17.232127316454353 0 0 0 0 95.030829963281576 29.090243803831981 0 29.090243803831981 -54.863732119631095 0 0 0 0 16.58162680919202 -1.0698357124417583 0 -1.0698357124417583 -17.953055068089952 0 0 0 0 22.642989692677638 21.282330474277071 0 21.282330474277071 -25.21355711062084 0 0 0 0 21.440144983316713 66.57917989420821 0 66.57917989420821 -58.874362275308158 0 0 0 0 50.558139589084021 30.559694896141082 0 30.559694896141082 -20.486217217785452 0 0 0 0 29.841425300021399 19.70370315706343 0 19.70370315706343 -11.090594583091345 0 0 0 0 9.4782652459024632 22.018377152526234 0 22.018377152526234 -14.256684502651773 0 0 0 0 11.725234797002685 5.5804285196534167 0 5.5804285196534167 -15.403672175718 0 0 0 0 41.451008130679838 -12.078657109614142 0 -12.078657109614142 3.1645715800077596 0 0 0 0 1.6995373694999927 2.7983753501321047 0 2.7983753501321047 -0.91005471391054726 0 0 0 0 -11.46133335619561 -0.38367155366768202 0 -0.38367155366768202 62.565308157460095 0 0 0 0 -44.396599710220471 56.566415055629477 0 56.566415055629477 83.965747423319954 0 0 0 0 -45.049937848583795 102.10559821551942 0 102.10559821551942 -5.2573520309006199 0 0 0 0 8.6985084241987352 34.95418676279678 0 34.95418676279678 -15.15358197138994 0 0 0 0 47.328768421648419 22.26304392989914 0 22.26304392989914 -11.349470941931941 0 0 0 0 5.6107610757886874 9.6534068187923996 0 9.6534068187923996 -1.0094325841363201 0 0 0 0 -201.2417809780527 -23.77109833691793 0 -23.77109833691793 45.761343378850142 0 0 0 0 48.757517795151301 29.491280582855914 0 29.491280582855914 2.8812989630637134 0 0 0 0 10.504944525435118 8.2049104513421423 0 8.2049104513421423 2.6104452849947961 0 0 0 0 20.24694405061382 -42.221169627551717 0 -42.221169627551717 -90.537551420682576 0 0 0 0 33.946863925283552 33.79104381871295 0 33.79104381871295 -10.149056598731775 0 0 0 0 -49.38334311066501 61.548684222207157 0 61.548684222207157 -1.5831708775167499 0 0 0 0 -9.7323576140370278 22.656425993448011 0 22.656425993448011 26.412812858514371 0 0 0 0 -1.6315921318576834 21.725905922565488 0 21.725905922565488 2.1461051737288699 0 0 0 0 4.0070221098321781 120.78098021669575 0 120.78098021669575 -17.45361049137864 0 0 0 0 131.33836457468715 -44.952927720540174 0 -44.952927720540174 -3.9757681256246542 0 0 0 0 59.582069654337829 59.043878943641175 0 59.043878943641175 -41.637046498624841 0 0 0 0 65.818409874176723 45.941571052146173 0 45.941571052146173 -40.486519450109427 0 0 0 0 82.543348240396881 37.159356197324087 0 37.159356197324087 -35.651290038305888 0 0 0 0 66.249519061719184 47.823664388182806 0 47.823664388182806 -35.295467273994291 0 0 0 0 189.3232473102471 26.127025773035712 0 26.127025773035712 -58.668910692145801 0 0 0 0 128.28823984282099 123.18714725791961 0 123.18714725791961 -57.28197053502663 0 0 0 0 -7.8328736238726755 22.819129991260581 0 22.819129991260581 -5.8737087235133885 0 0 0 0 -112.09121821537701 -46.304926465925746 0 -46.304926465925746 170.68581821087719 0 0 0 0 -81.718305853268248 61.416082035639192 0 61.416082035639192 13.684501567824107 0 0 0 0 -29.839039979255176 38.717176447586098 0 38.717176447586098 13.58739261128396 0 0 0 0 -121.14435241922183 -3.5350548528003856 0 -3.5350548528003856 40.833469147422875 0 0 0 0 -31.563300116373284 2.8857035245782754 0 2.8857035245782754 34.506366915828039 0 0 0 0 3.5192579779904918 21.184818286430527 0 21.184818286430527 12.699146666981505 0 0 0 0 -54.842072090097645 -33.922780266349491 0 -33.922780266349491 52.362183950463077 0 0 0 0 2.0136530485261233 1.0729858755026953 0 1.0729858755026953 0.58550631188326463 0 0 0 0 29.058144159876974 -47.175233968458997 0 -47.175233968458997 12.822844499194616 0 0 0 0 -16.742356390997884 15.357883590761048 0 15.357883590761048 -7.8046294795228732 0 0 0 0 -28.614300352855935 49.878159119914926 0 49.878159119914926 -23.699306179572886 0 0 0 0 -3.4228966333677704 2.3348239570099452 0 2.3348239570099452 0.013361284181712563 0 0 0 0 -34.365006539854221 5.3889344559574965 0 5.3889344559574965 53.112542379538354 0 0 0 0 -67.830163621831161 20.313541645744408 0 20.313541645744408 49.960992402280681 0 0 0 0 -66.717651436203596 40.931451609995747 0 40.931451609995747 37.757642533233593 0 0 0 0 -19.847442698082887 9.4829054147667193 0 9.4829054147667193 0.77578974519565236 0 0 0 0 0.15317989907421747 4.5250185406239751 0 4.5250185406239751 -0.24951506941570756 0 0 0 0 -9.7130595475318842 13.543176535433304 0 13.543176535433304 -4.6388961064367322 0 0 0 0 -6.9830368866969366 19.942996773643245 0 19.942996773643245 -28.830053046756802 0 0 0 0 -12.728905318050238 24.879498620091908 0 24.879498620091908 -16.142119584415923 0 0 0 0 -7.0315975158006268 10.339132052377355 0 10.339132052377355 -2.7911571983479035 0 0 0 0 -16.116585159383249 24.5833319069352 0 24.5833319069352 -1.4324780242386623 0 0 0 0 -9.2982194124197122 15.151566445998469 0 15.151566445998469 -2.9596489391660725 0 0 0 0 -11.883679359452799 8.6126847019986599 0 8.6126847019986599 -8.5855639973160578 0 0 0 0 -9.752162191453408 8.6430913277438748 0 8.6430913277438748 -10.223708308265486 0 0 0 0 -9.7855340394889936 5.8374535275215749 0 5.8374535275215749 -14.446477895660792 0 0 0 0 -3.3122562979988288 12.816119731149229 0 12.816119731149229 -8.7738470584936294 0 0 0 0 -11.113939348144328 9.5903871989890472 0 9.5903871989890472 -3.7022616875872814 0 0 0 0 -4.8563340215114295 22.042123437193368 0 22.042123437193368 -1.2249786645479617 0 0 0 0 2.0568639034063381 14.278833871298957 0 14.278833871298957 -15.38684358853061 0 0 0 0 -60.096455344326387 79.165903902392984 0 79.165903902392984 -97.209646540250105 0 0 0 0 -21.581360986623622 -24.71051594679011 0 -24.71051594679011 -15.190428688540123 0 0 0 0 -4.3540127377873148 7.7393682071135004 0 7.7393682071135004 -0.62221577393816574 0 0 0 0 0.96514194207702531 9.9243308614932175 0 9.9243308614932175 -2.6880765520800196 0 0 0 0 5.8030190219978977 5.2357466717265879 0 5.2357466717265879 -0.010272946696204599 0 0 0 0 5.3618600565569068 11.337352736611706 0 11.337352736611706 -5.1272882942139404 0 0 0 0 -4.8157311090970722 5.7452891577808245 0 5.7452891577808245 -5.7752180265056907 0 0 0 0 -1.8491475526412557 1.0941359586726378 0 1.0941359586726378 2.0281026186880808 0 0 0 0 -23.912631998231518 7.8208719727463176 0 7.8208719727463176 14.224517763053882 0 0 0 0 0.88250622827763436 16.106828669071547 0 16.106828669071547 -8.4868390854317113 0 0 0 0 -15.984687706986733 13.224359629664832 0 13.224359629664832 -5.4777125714153954 0 0 0 0 -16.055726434002281 6.3642809002230933 0 6.3642809002230933 -8.6953134079740266 0 0 0 0 0.0064180199478869326 12.349286596502679 0 12.349286596502679 -7.5352735297783511 0 0 0 0 2.4782751483289758 17.248897078246955 0 17.248897078246955 -1.5963452750602301 0 0 0 0 -14.550992473130464 5.9092780782975751 0 5.9092780782975751 -3.1476841412368231 0 0 0 0 2.6084380904570708 10.976018762430414 0 10.976018762430414 -9.5404825422665454 0 0 0 0 5.4461198941644398 21.778037192023476 0 21.778037192023476 -11.794766714574507 0 0 0 0 1.4072403117448005 0.51243712006265696 0 0.51243712006265696 -0.7155190893810115 0 0 0 0 4.2621086464278051 41.438165863808536 0 41.438165863808536 70.300124610410421 0 0 0 0 0.0086862767675484065 14.243508137707977 0 14.243508137707977 4.0308453333582293 0 0 0 0 41.661065991429496 -6.7780845931119984 0 -6.7780845931119984 78.828559380751358 0 0 0 0 28.158891255834533 70.211137099328198 0 70.211137099328198 37.765264517220203 0 0 0 0 34.056161131786212 -46.794991988348556 0 -46.794991988348556 82.681400163344733 0 0 0 0 -23.422293754505517 47.36661124908187 0 47.36661124908187 28.573385417001191 0 0 0 0 27.98417082386004 46.339024423070441 0 46.339024423070441 1.6425173561365227 0 0 0 0 28.961164372762141 37.64375408891101 0 37.64375408891101 17.17736451259043 0 0 0 0 0.0067745799897238612 35.854945412093912 0 35.854945412093912 35.251587196758919 0 0 0 0 -82.274704154269784 9.4614502424295779 0 9.4614502424295779 21.194835595391851 0 0 0 0 1.8602330671667175 4.2570437766525524 0 4.2570437766525524 -0.55010791781956314 0 0 0 0 -27.18191180526992 -28.244010791669098 0 -28.244010791669098 -62.822950307363499 0 0 0 0 -98.033719578917953 72.249351155298427 0 72.249351155298427 24.83511780601566 0 0 0 0 -23.699962856117054 45.706212634272788 0 45.706212634272788 18.800780759715053 0 0 0 0 -55.707629143986196 39.875786673796938 0 39.875786673796938 -18.759306755957368 0 0 0 0 -52.958507928386098 30.054455892512578 0 30.054455892512578 16.238736569004686 0 0 0 0 -58.421979604645458 50.020673337978224 0 50.020673337978224 24.459237541698712 0 0 0 0 -62.704483452607747 39.364581144668705 0 39.364581144668705 -2.8712688601972332 0 0 0 0 -1.5607505036969087 -58.302311921709588 0 -58.302311921709588 99.090609570715969 0 0 0 0 3.7951605146017755 2.2159190257578842 0 2.2159190257578842 1.0664991449498942 0 0 0 0 -59.98278298736841 85.251172895053969 0 85.251172895053969 -24.846001504196238 0 0 0 0 20.034703189616266 50.85247127211187 0 50.85247127211187 16.279574793507777 0 0 0 0 -2.0456712102932215 34.496850704489589 0 34.496850704489589 -14.743025991647301 0 0 0 0 17.389758861128939 58.697010608168966 0 58.697010608168966 7.20614059540776 0 0 0 0 53.585008664922498 104.86736937151909 0 104.86736937151909 -72.86834940468998 0 0 0 0 0.088443500906578265 57.549503479429404 0 57.549503479429404 20.579057890518015 0 0 0 0 30.415349083898036 150.71317928646477 0 150.71317928646477 113.61040628910268 0 0 0 0 -0.034662549530313363 73.81797556648371 0 73.81797556648371 202.25427534757 0 0 0 0 91.354720489842293 86.762822219203372 0 86.762822219203372 178.19015949161803 0 0 0 0 107.6361279638877 162.23858691372789 0 162.23858691372789 147.29838377139595 0 0 0 0 1.4214628635676689 0.77703933417426185 0 0.77703933417426185 0.38320735048596077 0 0 0 0 26.761449189718405 -80.369822129107888 0 -80.369822129107888 310.18869702472693 0 0 0 0 23.669013458093104 2.2458273939555511 0 2.2458273939555511 58.19507567720666 0 0 0 0 -71.664631304263935 -24.903636588448805 0 -24.903636588448805 72.722697520259317 0 0 0 0 46.337580003681069 203.53701388798345 0 203.53701388798345 -93.603726415551137 0 0 0 0 2.0918151045966056 -0.49720327386731356 0 -0.49720327386731356 -1.8693908600926399 0 0 0 0 46.470525726937566 140.08494888865781 0 140.08494888865781 155.07657088141968 0 0 0 0 15.799168126388395 85.512943570578955 0 85.512943570578955 252.09963320625093 0 0 0 0 82.1463535760995 141.14632071736378 0 141.14632071736378 92.404129851725884 0 0 0 0 81.259931214553944 143.7740976491998 0 143.7740976491998 103.28698836782678 0 0 0 0 58.987061781092052 135.00943927530716 0 135.00943927530716 140.76123260083 0 0 0 0 0.062718886767907517 117.35491703081678 0 117.35491703081678 168.20259735744548 0 0 0 0 56.327537032335385 139.89906942385187 0 139.89906942385187 155.01883430242924 0 0 0 0 -144.42773747882165 -27.436285853465506 0 -27.436285853465506 48.722189618631376 0 0 0 0 -161.27804048827966 11.384002467404684 0 11.384002467404684 53.810272122457718 0 0 0 0 -230.55828482220022 2.4963429001736586 0 2.4963429001736586 69.801283050127495 0 0 0 0 -342.92280380512602 39.481770016939436 0 39.481770016939436 60.914924357581185 0 0 0 0 -209.24543963355245 -57.678425763717769 0 -57.678425763717769 18.257960416087371 0 0 0 0 -285.07820628225454 50.45781655250039 0 50.45781655250039 2.8978299462397672 0 0 0 0 -4.0283572449364975 15.627286798047322 0 15.627286798047322 16.209714114014904 0 0 0 0 20.129428155090864 -26.663608602936165 0 -26.663608602936165 -28.575572591133096 0 0 0 0 2.0191887787696032 63.287046115981866 0 63.287046115981866 85.292884320037047 0 0 0 0 17.776421202449001 29.362492164883037 0 29.362492164883037 24.325154492174988 0 0 0 0 -4.2302843844167839 14.685563584339462 0 14.685563584339462 24.944465331139099 0 0 0 0 -35.382123657555894 23.118851259125051 0 23.118851259125051 8.4914814601652324 0 0 0 0 -36.413058902813646 6.8879797653235073 0 6.8879797653235073 72.826948703101152 0 0 0 0 -4.1386872426394632 1.5461658374321416 0 1.5461658374321416 6.135896359649756 0 0 0 0 -60.228760093930759 12.849435394814464 0 12.849435394814464 57.065698179577339 0 0 0 0 -75.292853381802047 71.054667962438756 0 71.054667962438756 9.1377591322780063 0 0 0 0 -5.7550141570574702 14.513466466554618 0 14.513466466554618 34.167557037547191 0 0 0 0 -113.79166156273277 17.663141942402945 0 17.663141942402945 36.798345782193337 0 0 0 0 -58.763332440415979 -5.0940682579562235 0 -5.0940682579562235 61.3529777978315 0 0 0 0 -10.652339755906382 0.6783130244765232 0 0.6783130244765232 9.1244830233552747 0 0 0 0 -127.97552232579255 57.549932446430603 0 57.549932446430603 11.405298733568998 0 0 0 0 -348.16290513101558 148.48289451360233 0 148.48289451360233 -24.857889137461825 0 0 0 0 -205.69566780047171 18.500232436025499 0 18.500232436025499 73.218938614899344 0 0 0 0 -268.49419959029183 18.724780655426912 0 18.724780655426912 73.547817120128684 0 0 0 0 -210.45341705385545 -21.074695219286923 0 -21.074695219286923 40.598805545020241 0 0 0 0 -292.87210198431421 -26.761835035503282 0 -26.761835035503282 45.230869281860123 0 0 0 0 -82.13602588035792 59.018456060859307 0 59.018456060859307 -19.994274565315663 0 0 0 0 -0.1610863771515767 -1.1600027053733797 0 -1.1600027053733797 -1.4726052844981403 0 0 0 0 -96.345392810035264 -80.957998650775608 0 -80.957998650775608 38.728549770325571 0 0 0 0 -23.090473571210168 -87.446720500468473 0 -87.446720500468473 35.909695141182056 0 0 0 0 -330.82951871515615 44.175941128476552 0 44.175941128476552 160.01963308592804 0 0 0 0 -71.767605304630706 72.204988584997864 0 72.204988584997864 138.53436556807151 0 0 0 0 -18.246423004606186 14.572900215400864 0 14.572900215400864 31.375361952788808 0 0 0 0 -83.619033927687724 -7.3004847040307084 0 -7.3004847040307084 32.749196019622104 0 0 0 0 -19.340387472304087 -3.829574924892178 0 -3.829574924892178 32.330485738699281 0 0 0 0 -81.338725265526591 21.273166007812279 0 21.273166007812279 72.190187318094104 0 0 0 0 -2.1268983468449392 4.8254345414703437 0 4.8254345414703437 8.5780473935337298 0 0 0 0 -44.370794577560446 -11.953685569101253 0 -11.953685569101253 55.101195818667293 0 0 0 0 -3.075484783184578 18.192058227294503 0 18.192058227294503 38.304278751135222 0 0 0 0 -4.6658331030976008 21.837392346480215 0 21.837392346480215 9.3688677771397906 0 0 0 0 -15.585316840973974 26.13165364469387 0 26.13165364469387 16.175365704880278 0 0 0 0 -10.80008647084469 37.854626904349061 0 37.854626904349061 6.2833318119082833 0 0 0 0 -115.86552010265586 46.521299829956206 0 46.521299829956206 56.099823073565403 0 0 0 0 -16.256832333599263 28.627508951892871 0 28.627508951892871 25.454029379696472 0 0 0 0 107.35708535548474 5.6912435285285028 0 5.6912435285285028 -125.25165116443168 0 0 0 0 55.140709628552031 163.18918595052014 0 163.18918595052014 -45.893961117057188 0 0 0 0 -1.8896492585145239 29.311930321122439 0 29.311930321122439 -0.88200304641526373 0 0 0 0 15.385149878224183 42.703505317941563 0 42.703505317941563 -64.358629318761814 0 0 0 0 -81.729522885344466 41.297893274897206 0 41.297893274897206 -8.4960626465072959 0 0 0 0 -1.7408518118809297 313.9225179430905 0 313.9225179430905 95.09728343885854 0 0 0 0 -143.47369489384619 63.169441380545436 0 63.169441380545436 156.42121277642127 0 0 0 0 48.095720794783546 40.400387564293069 0 40.400387564293069 5.4034770025234025 0 0 0 0 38.752902796279159 -5.1853370420776628 0 -5.1853370420776628 -151.20387943121023 0 0 0 0 41.739982167422568 -37.280198640966262 0 -37.280198640966262 -343.91906641117748 0 0 0 0 143.64241303962808 246.83258690275943 0 246.83258690275943 -223.224017546916 0 0 0 0 130.98151737913531 191.1291150905497 0 191.1291150905497 -437.99165821682618 0 0 0 0 -618.22151188714997 270.41389964790869 0 270.41389964790869 36.978410550876561 0 0 0 0 -385.15515925044383 417.64314163322024 0 417.64314163322024 503.88536847289197 0 0 0 0 -71.039602072924026 -106.83415786195837 0 -106.83415786195837 3.6026264540823831 0 0 0 0 13.299494642054924 129.78097247783808 0 129.78097247783808 -380.68956639560201 0 0 0 0 -270.24414149812947 417.83295777667536 0 417.83295777667536 -306.41880816497724 0 0 0 0 4.5458304979204058 -25.010267010655781 0 -25.010267010655781 42.194420247808011 0 0 0 0 -1.9012358084655716 139.27851388190902 0 139.27851388190902 -136.16666305714352 0 0 0 0 6.0715803548846452 46.735190897505163 0 46.735190897505163 -12.940111027304738 0 0 0 0 19.227371265106285 94.361196557176811 0 94.361196557176811 45.091239187881001 0 0 0 0 2.3028897682797833 23.979343225652883 0 23.979343225652883 168.70515331055958 0 0 0 0 23.906389597063026 102.83007273923704 0 102.83007273923704 141.03419636362423 0 0 0 0 -21.573663554847371 133.13472014356512 0 133.13472014356512 371.62092436072317 0 0 0 0 -39.975360478863678 15.719022946733979 0 15.719022946733979 -5.5793343452229713 0 0 0 0 -15.914962113733054 199.03290516458583 0 199.03290516458583 47.298008338275167 0 0 0 0 -31.444543315068586 55.068683591166064 0 55.068683591166064 68.171256194111947 0 0 0 0 -30.881837751207058 174.0694957764274 0 174.0694957764274 188.9452009270467 0 0 0 0 -100.67468919315797 16.962896636059668 0 16.962896636059668 176.97313928387825 0 0 0 0 -76.990076912387593 31.227356889508059 0 31.227356889508059 -12.944009157254005 0 0 0 0 -209.74406471010843 164.89075558696436 0 164.89075558696436 302.70468926715785 0 0 0 0 -60.956423823966325 25.036612056085662 0 25.036612056085662 -9.070623737513019 0 0 0 0 -142.68353801489502 116.63233958674664 0 116.63233958674664 605.9721555367596 0 0 0 0 -83.068758602596063 215.28737195146095 0 215.28737195146095 -113.75220373208685 0 0 0 0 -14.048983767715981 235.57246658726763 0 235.57246658726763 -112.23762298204019 0 0 0 0 -123.63530911308317 228.70441755195952 0 228.70441755195952 10.661720639574924 0 0 0 0 -25.269329384482262 426.15433419240617 0 426.15433419240617 -492.31795772952319 0 0 0 0 -286.70078502438264 395.28297255653524 0 395.28297255653524 -70.242816489553661 0 0 0 0 -100.90011784520175 586.52815048995399 0 586.52815048995399 -718.23262906338641 0 0 0 0 235.69619568776398 80.177471567110842 0 80.177471567110842 -466.1772767800212 0 0 0 0 -105.4088245152343 323.95929786842066 0 323.95929786842066 -196.89950397167922 0 0 0 0 16.594702993447754 257.02195090147097 0 257.02195090147097 -186.98032093146321 0 0 0 0 88.400777419556107 21.014391998933206 0 21.014391998933206 -28.288183084226603 0 0 0 0 85.869465291454617 30.647849151773698 0 30.647849151773698 -58.426661865363712 0 0 0 0 39.340048888341698 137.73764271475011 0 137.73764271475011 -112.16761186801887 0 0 0 0 -11.014509379478113 300.06477338419245 0 300.06477338419245 -140.08946163346809 0 0 0 0 -13.927231205598432 162.21049926029374 0 162.21049926029374 -41.121603930678248 0 0 0 0 -41.42781994966208 153.50398218065766 0 153.50398218065766 5.0855955093556986 0 0 0 0 47.308068488245226 100.19023108518513 0 100.19023108518513 34.794512157954159 0 0 0 0 25.713108133844798 68.755805764856632 0 68.755805764856632 -1.2425804052663807 0 0 0 0 24.426342476363061 75.891734653750973 0 75.891734653750973 -3.4406592762188666 0 0 0 0 20.457679259418001 46.699803223056961 0 46.699803223056961 39.345623856366728 0 0 0 0 -31.841731282696855 102.6562441479864 0 102.6562441479864 169.08547084286329 0 0 0 0 5.162011196433923 76.709753363219534 0 76.709753363219534 183.87449379225473 0 0 0 0 -152.98507351157241 -21.104984759219406 0 -21.104984759219406 268.73543116271867 0 0 0 0 -342.11217234676587 -16.039353767961529 0 -16.039353767961529 291.77266574552391 0 0 0 0 -518.74619068721586 110.80173909944278 0 110.80173909944278 376.02991621079445 0 0 0 0 -14.713806801691689 4.9146369441381044 0 4.9146369441381044 -1.5817009063899743 0 0 0 0 -20.762401387954014 286.48216217002027 0 286.48216217002027 262.48049330456161 0 0 0 0 -264.78572201818133 191.02479387567473 0 191.02479387567473 343.51845552823033 0 0 0 0 25.719609827727254 211.5892842462963 0 211.5892842462963 -386.17416200168373 0 0 0 0 0.59104023261897964 -64.485679387737946 0 -64.485679387737946 -399.79523534285363 0 0 0 0 -205.26106261860332 1243.2065902840718 0 1243.2065902840718 930.65997621805855 0 0 0 0 -0.38789908239756699 0.35225807991156088 0 0.35225807991156088 1.5928015606317807 0 0 0 0 6.6025395224778549 -19.120794062781783 0 -19.120794062781783 -81.077235053253389 0 0 0 0 2.7151501437838306 -21.142177794246891 0 -21.142177794246891 -34.570211972124525 0 0 0 0 1.0151279894271283 117.65205427769524 0 117.65205427769524 -155.68434647161394 0 0 0 0 7.3091043575914227 161.83693695927923 0 161.83693695927923 -88.711772376365843 0 0 0 0 286.67535434783258 169.45504126182595 0 169.45504126182595 187.3622589278466 0 0 0 0 518.92680525159085 215.7333468656816 0 215.7333468656816 124.4830101981978 0 0 0 0 814.89408314505783 911.6594213537594 0 911.6594213537594 564.22009113865533 0 0 0 0 743.46038033636432 273.0253707222314 0 273.0253707222314 24.807061910373704 0 0 0 0 7.1051250725319761 -2.5759602019553967 0 -2.5759602019553967 1.2408795192584812 0 0 0 0 810.77139737627169 256.87052671474669 0 256.87052671474669 -671.81753705822121 0 0 0 0 -477.78379410101115 -212.34651189205169 0 -212.34651189205169 82.919656859638962 0 0 0 0 330.49222619966076 62.587790383752804 0 62.587790383752804 45.577533524525279 0 0 0 0 -625.64453450730662 468.73635660200932 0 468.73635660200932 3.2713348302522718 0 0 0 0 -170.91466732536355 218.69689115918254 0 218.69689115918254 61.27038436552175 0 0 0 0 -39.224267093355593 338.21281786803956 0 338.21281786803956 -561.21358147746082 0 0 0 0 -182.70828785498634 220.73109125604594 0 220.73109125604594 76.191358616081743 0 0 0 0 -118.79478169357026 136.12737217034555 0 136.12737217034555 73.630014043627853 0 0 0 0 -120.71168695370579 160.42692049557081 0 160.42692049557081 34.149838805627041 0 0 0 0 -131.44595988060064 118.56398139493115 0 118.56398139493115 132.01615323440456 0 0 0 0 -56.969004065838817 84.860429469214068 0 84.860429469214068 85.393397672879928 0 0 0 0 -245.2615430106307 189.51735059320117 0 189.51735059320117 133.96231625459222 0 0 0 0 -85.453499037415895 85.349325758161285 0 85.349325758161285 144.58804099313681 0 0 0 0 -137.01750890695985 -42.77155099964375 0 -42.77155099964375 130.12027155290934 0 0 0 0 -77.166916645741367 97.081326996114058 0 97.081326996114058 136.51433396816901 0 0 0 0 -52.141597308327619 47.545477829687115 0 47.545477829687115 156.76689474098976 0 0 0 0 49.887849878865381 6.778881248163998 0 6.778881248163998 112.2268034239778 0 0 0 0 156.77691227276227 125.63834458131987 0 125.63834458131987 114.01824435519302 0 0 0 0 211.96782337677723 112.86089838000953 0 112.86089838000953 101.41639209844516 0 0 0 0 248.17804733875528 83.068857736774589 0 83.068857736774589 103.44314486219173 0 0 0 0 214.44420787855051 54.867333686781421 0 54.867333686781421 87.181288843236871 0 0 0 0 342.13162417127023 75.937392020038715 0 75.937392020038715 142.02865821976206 0 0 0 0 219.05485416942361 138.87379023014847 0 138.87379023014847 131.83141160023115 0 0 0 0 -114.57493711126153 47.798392838688869 0 47.798392838688869 33.341040633251396 0 0 0 0 -277.43229425242316 72.879962300732586 0 72.879962300732586 33.210835551621585 0 0 0 0 -168.63954739668497 129.07775074853623 0 129.07775074853623 33.230396517198187 0 0 0 0 0.044748544868070894 132.68010217821268 0 132.68010217821268 -39.589136034338026 0 0 0 0 -86.817616049254866 248.05822047261245 0 248.05822047261245 -112.9092865634052 0 0 0 0 -40.760275872780767 151.83439845917155 0 151.83439845917155 -27.501968988222416 0 0 0 0 -179.82735907529423 204.34751249072724 0 204.34751249072724 -43.373324409888937 0 0 0 0 -161.43989144973239 282.362956977218 0 282.362956977218 -54.281031372999678 0 0 0 0 -112.72957884668358 220.94244872005265 0 220.94244872005265 -0.35956497319102709 0 0 0 0 -108.23627203162687 179.99414100735294 0 179.99414100735294 -49.605048724290555 0 0 0 0 -155.07029243804936 214.9977623538748 0 214.9977623538748 -53.25476637877 0 0 0 0 -112.16301513443614 221.82344327446009 0 221.82344327446009 -74.677473446141448 0 0 0 0 -154.6517242074915 226.53866163358953 0 226.53866163358953 -68.213319613110798 0 0 0 0 -244.00434012852566 249.11963063797884 0 249.11963063797884 -46.411931323869794 0 0 0 0 -297.8991641367902 79.153158446933503 0 79.153158446933503 46.001881802738353 0 0 0 0 -295.77816477245142 82.005440390576723 0 82.005440390576723 37.96929617173555 0 0 0 0 -628.91967117194872 92.264919155634743 0 92.264919155634743 38.90018510463895 0 0 0 0 -1.9583091343139643 2.960403305396504 0 2.960403305396504 -4.4626380759035662 0 0 0 0 -1220.385872771436 141.78301671307656 0 141.78301671307656 42.687505938462891 0 0 0 0 230.7054035921974 42.433322113153281 0 42.433322113153281 -128.7137436132416 0 0 0 0 1.5448254105867818 257.46663471288002 0 257.46663471288002 -297.82202284566029 0 0 0 0 -436.09084541534503 390.30122607706267 0 390.30122607706267 -134.33493688045019 0 0 0 0 -71.815321069996571 177.82202680176806 0 177.82202680176806 -156.7839871421811 0 0 0 0 -73.237812712669893 128.87583730282444 0 128.87583730282444 -0.31512374089106743 0 0 0 0 -68.810033275774913 98.059097633063175 0 98.059097633063175 -39.438975247431699 0 0 0 0 -55.69802098369837 49.679474976166148 0 49.679474976166148 6.1587746664240512 0 0 0 0 -60.445293569766363 53.407928891880374 0 53.407928891880374 16.450634834985976 0 0 0 0 -28.881057058199076 65.843952043365505 0 65.843952043365505 -59.010784187649733 0 0 0 0 -56.48698786499881 79.893417722567847 0 79.893417722567847 -15.71565188846489 0 0 0 0 -17.472097150090121 48.559965605859361 0 48.559965605859361 -3.9687449233697407 0 0 0 0 -18.073341668288776 39.29530733741376 0 39.29530733741376 24.982462139132622 0 0 0 0 -21.341096953641681 48.174653808060611 0 48.174653808060611 26.583826117511762 0 0 0 0 -50.277452867645479 49.954801522963862 0 49.954801522963862 27.01580587789249 0 0 0 0 -46.256881551467814 36.622126362469317 0 36.622126362469317 21.21243635659539 0 0 0 0 -49.153408179619873 39.993742551501782 0 39.993742551501782 28.420341605304202 0 0 0 0 -40.977025186773972 40.508656769870868 0 40.508656769870868 29.716801622294952 0 0 0 0 -41.954263011524745 37.341568819335635 0 37.341568819335635 22.185163257119711 0 0 0 0 -41.050882568780253 42.34836437951526 0 42.34836437951526 35.107451355081139 0 0 0 0 -40.379281347821234 39.445043133413492 0 39.445043133413492 28.025243556986425 0 0 0 0 -35.194595912937075 45.289708352092021 0 45.289708352092021 20.421484929995131 0 0 0 0 -26.774258431340058 62.523719808113583 0 62.523719808113583 50.85652350655073 0 0 0 0 39.433459790401685 75.380644203377415 0 75.380644203377415 30.12942600079441 0 0 0 0 -17.533361403249728 49.768001701317189 0 49.768001701317189 24.78647817187084 0 0 0 0 -27.461011758467066 55.882764923409923 0 55.882764923409923 34.924936450920882 0 0 0 0 -499.58056418591877 43.127880070827814 0 43.127880070827814 -33.152459396154882 0 0 0 0 157.72045365214217 123.76261939464985 0 123.76261939464985 -3.553063491546709 0 0 0 0 79.213117943341786 30.837968509178154 0 30.837968509178154 19.886944367726755 0 0 0 0 -3.5601964782974491 6.7102874499899485 0 6.7102874499899485 -13.505659622917161 0 0 0 0 -450.92756156015275 176.85078610464063 0 176.85078610464063 -10.80985374509055 0 0 0 0 -406.08938081426095 157.69282958642634 0 157.69282958642634 -3.2868058133735758 0 0 0 0 -568.12420544995985 143.24512452762792 0 143.24512452762792 17.676060115849282 0 0 0 0 11.981937272112191 126.69044805488033 0 126.69044805488033 58.190101488187793 0 0 0 0 23.460844314751739 7.4785443896616925 0 7.4785443896616925 130.27696673718947 0 0 0 0 -8.9261064712122788 97.010631627640691 0 97.010631627640691 193.41408309015787 0 0 0 0 33.517362851300277 99.920749146604976 0 99.920749146604976 169.48378524255531 0 0 0 0 119.92797502070243 101.52443440960678 0 101.52443440960678 139.55994114772511 0 0 0 0 46.539420622950274 63.369412406602351 0 63.369412406602351 118.4959241385186 0 0 0 0 -38.8933992004022 42.201632555344986 0 42.201632555344986 148.03509249051649 0 0 0 0 -34.976285230906797 17.756777331623198 0 17.756777331623198 107.78579293276198 0 0 0 0 -15.726137580529894 11.837560273541641 0 11.837560273541641 108.8310856759781 0 0 0 0 -41.795794076177117 4.8965387379575986 0 4.8965387379575986 87.022466346871852 0 0 0 0 -54.214752893247351 27.582335857559201 0 27.582335857559201 46.255417465819846 0 0 0 0 -39.336501039527775 48.126095205889442 0 48.126095205889442 75.953819054871929 0 0 0 0 -82.965373433540663 60.271584802342204 0 60.271584802342204 119.44980339208269 0 0 0 0 -78.67777219330992 87.247063991659388 0 87.247063991659388 30.619366311306294 0 0 0 0 -79.866950565330626 72.752297950660704 0 72.752297950660704 51.835181060518607 0 0 0 0 -48.056715782309766 32.279394694215625 0 32.279394694215625 30.085488211846496 0 0 0 0 -61.781796164630805 36.024513083055638 0 36.024513083055638 33.878543000646459 0 0 0 0 -42.459194022085285 25.817807266574164 0 25.817807266574164 30.142993050442328 0 0 0 0 -43.751746046211338 24.326467045590107 0 24.326467045590107 28.747088242647806 0 0 0 0 -38.062327826528417 22.039634243205455 0 22.039634243205455 29.509323461337772 0 0 0 0 -50.574755081332114 29.696275262237691 0 29.696275262237691 29.660235343741078 0 0 0 0 -34.748179883026751 31.291457224975602 0 31.291457224975602 27.02887415047735 0 0 0 0 -30.366020523513725 34.025941467107259 0 34.025941467107259 12.491284086721862 0 0 0 0 -20.5566342818056 24.962775081895415 0 24.962775081895415 17.034645015599381 0 0 0 0 -1.4229451740424963 -1.0389217166204947 0 -1.0389217166204947 6.7012987770625418 0 0 0 0 -5.4558523211308056 29.359410535651477 0 29.359410535651477 -4.6739757290561101 0 0 0 0 -14.370555877379957 20.897297062481812 0 20.897297062481812 18.206558870018398 0 0 0 0 -20.45265639821082 10.63885553104592 0 10.63885553104592 17.67742447144883 0 0 0 0 -7.9518928542681806 8.7441197831504667 0 8.7441197831504667 16.803838917054236 0 0 0 0 -7.6644397380550799 -2.4499928036129859 0 -2.4499928036129859 -56.370784894620556 0 0 0 0 -2.4228084868612996 1.6547196039200358 0 1.6547196039200358 -7.5135278683963032 0 0 0 0 -10.060680874532409 0.62365132159175118 0 0.62365132159175118 23.612069772394534 0 0 0 0 -34.012043981383613 6.3040105713926096 0 6.3040105713926096 48.393537387164997 0 0 0 0 -29.837729084516468 -43.115499261307377 0 -43.115499261307377 54.831840899384588 0 0 0 0 -6.1887935949444 -12.915927914737949 0 -12.915927914737949 33.56910299575884 0 0 0 0 -1.7929355453340747 0.34768132122403728 0 0.34768132122403728 1.4983108932300677 0 0 0 0 -73.559683918261726 3.447988647623788 0 3.447988647623788 -23.127399960519142 0 0 0 0 -22.900179256583215 16.08646318848696 0 16.08646318848696 -31.331338162292468 0 0 0 0 -7.1645712651552458 -37.679022652973345 0 -37.679022652973345 -33.895593781015123 0 0 0 0 -63.321608253644627 76.078179424359064 0 76.078179424359064 76.634101762390856 0 0 0 0 -46.924836983616842 -70.756907564661788 0 -70.756907564661788 65.383546088323783 0 0 0 0 -27.978594051375694 -27.887700021327873 0 -27.887700021327873 156.38460402747114 0 0 0 0 15.552502262231428 55.653021798369082 0 55.653021798369082 132.75635856853978 0 0 0 0 -9.4365322669909801 64.80933040437958 0 64.80933040437958 154.88860804889646 0 0 0 0 -6.6607211322952935 -17.609609665487369 0 -17.609609665487369 -99.148823170465221 0 0 0 0 5.4505796134204161 32.374801981642364 0 32.374801981642364 -23.360212755581856 0 0 0 0 2.9837756841807277 -21.352079779619999 0 -21.352079779619999 -100.93956405334848 0 0 0 0 -13.657016940313042 9.930101075075072 0 9.930101075075072 99.79044990725879 0 0 0 0 22.944131044096139 63.269735924711767 0 63.269735924711767 87.455329879447163 0 0 0 0 -0.23585978566188714 -2.7729791447659409 0 -2.7729791447659409 39.767933840553951 0 0 0 0 -9.445829644879268 45.120794599572037 0 45.120794599572037 66.78015486233835 0 0 0 0 4.820240782604742 34.288901129244323 0 34.288901129244323 74.973238304981351 0 0 0 0 2.2618610048403696 33.475660287985633 0 33.475660287985633 -15.389161500024308 0 0 0 0 -7.5359287176397629 55.203244606258522 0 55.203244606258522 85.581021590514865 0 0 0 0 -20.278114935263147 42.505695258252672 0 42.505695258252672 -5.3431449088097906 0 0 0 0 -9.1965954870211135 31.316059492011391 0 31.316059492011391 43.226741604731615 0 0 0 0 -4.5625279563755328 30.114231278664917 0 30.114231278664917 25.341339114360245 0 0 0 0 4.3702837952623668 50.334825794016069 0 50.334825794016069 59.358081630542074 0 0 0 0 -17.470645366667213 20.985134947400013 0 20.985134947400013 46.53823121381356 0 0 0 0 -15.543556288561376 35.502065543594654 0 35.502065543594654 30.695864075387362 0 0 0 0 -12.334054326806381 24.236990138131375 0 24.236990138131375 50.554788641638879 0 0 0 0 -8.5436870311168605 -16.146254694287109 0 -16.146254694287109 -31.445017026448113 0 0 0 0 -22.345128361455863 -8.7738859152686928 0 -8.7738859152686928 23.028112515892815 0 0 0 0 101.75953615632534 51.152089807283801 0 51.152089807283801 -138.68085551416743 0 0 0 0 54.116964187451231 -113.08750755745768 0 -113.08750755745768 -85.726503888091429 0 0 0 0 77.285160998249921 -88.305528987822299 0 -88.305528987822299 -140.59957383110941 0 0 0 0 -1.4470217754503523 1.0991575501848754 0 1.0991575501848754 0.51039082639582034 0 0 0 0 -10.764948369057493 15.012223728473316 0 15.012223728473316 18.321389800179531 0 0 0 0 68.14368746218679 -127.91615922699577 0 -127.91615922699577 -188.05095897511819 0 0 0 0 -2.6243104291143311 1.3768334524981238 0 1.3768334524981238 0.90744659194700628 0 0 0 0 -174.42911187203208 -126.67338839542958 0 -126.67338839542958 170.11791442729486 0 0 0 0 6.8727793270772963 15.710379611702365 0 15.710379611702365 55.922997426496295 0 0 0 0 27.846818789010285 22.094832697460561 0 22.094832697460561 -22.624361493688411 0 0 0 0 -0.53991941137977228 6.974169057485355 0 6.974169057485355 2.4193638196746825 0 0 0 0 0.98744839511091698 22.303131635240764 0 22.303131635240764 7.7370602021795944 0 0 0 0 -2.5535787378448873 8.562387476625517 0 8.562387476625517 5.8344791755722483 0 0 0 0 22.177243879734306 44.315783440273663 0 44.315783440273663 -9.0602520884649493 0 0 0 0 -133.04288706863008 167.49682833978204 0 167.49682833978204 -1.4746742936882811 0 0 0 0 73.227617569202266 116.60062929658557 0 116.60062929658557 -96.698406200347563 0 0 0 0 -230.34313360069063 81.068570594217363 0 81.068570594217363 -57.499576285445073 0 0 0 0 -188.44179514768985 41.329117934886881 0 41.329117934886881 88.931844413163162 0 0 0 0 -369.77325934414694 259.61641950418448 0 259.61641950418448 -44.119473812862452 0 0 0 0 -337.74519393951778 234.52114350065949 0 234.52114350065949 76.568939500330998 0 0 0 0 -12.232410859898664 38.408201504526005 0 38.408201504526005 -72.695013008810747 0 0 0 0 -44.909816186656826 39.802148830996657 0 39.802148830996657 77.326508586398631 0 0 0 0 10.040079729747958 66.280450466435468 0 66.280450466435468 5.5181775069286232 0 0 0 0 -4.2332420650256495 16.557187476550055 0 16.557187476550055 -17.357153307492133 0 0 0 0 15.900442258411204 49.011234598736337 0 49.011234598736337 30.294677756068268 0 0 0 0 11.882193523068963 76.493518727031756 0 76.493518727031756 -5.9088285490252019 0 0 0 0 5.5397003402758855 68.572843011064833 0 68.572843011064833 20.746554176630298 0 0 0 0 22.648449325184629 57.36447447913315 0 57.36447447913315 -3.427020545805135 0 0 0 0 13.264170112364809 72.210060807092304 0 72.210060807092304 -25.401425996240505 0 0 0 0 -18.033118658640888 40.849229929180183 0 40.849229929180183 -11.54062259618695 0 0 0 0 -35.062050124637608 49.41160767848578 0 49.41160767848578 10.580271731005837 0 0 0 0 -38.291726908464625 47.679633261499475 0 47.679633261499475 21.681165945579323 0 0 0 0 -10.218249012570595 31.041330268390993 0 31.041330268390993 19.412057468920466 0 0 0 0 -2.9054413590129116 14.564711945456565 0 14.564711945456565 7.62828890739911 0 0 0 0 -8.3554565646866337 27.430524596113781 0 27.430524596113781 29.42691114391825 0 0 0 0 -11.973125280237582 12.615080306879463 0 12.615080306879463 39.768208889443486 0 0 0 0 -28.14387831701606 37.112094721755057 0 37.112094721755057 22.16764377511663 0 0 0 0 0.065523462391865905 48.329802263859619 0 48.329802263859619 18.517212518506312 0 0 0 0 -42.685180852808116 98.490123766897796 0 98.490123766897796 -20.162748175528577 0 0 0 0 3.3604959869880986 43.361021657493893 0 43.361021657493893 -8.8744094819230668 0 0 0 0 18.61626284133672 17.354943153607564 0 17.354943153607564 -93.942549668852735 0 0 0 0 66.167885336115432 65.809394096184633 0 65.809394096184633 -100.16782374781553 0 0 0 0 26.338176657147415 108.00106381428031 0 108.00106381428031 -77.318848467522912 0 0 0 0 271.44944978775311 71.805571601806378 0 71.805571601806378 -53.169252015622988 0 0 0 0 0.07272792983072307 -0.4117952050481648 0 -0.4117952050481648 -5.5860068061492676 0 0 0 0 -23.730819135139427 26.88764628554236 0 26.88764628554236 -24.853604462797193 0 0 0 0 -187.84355487595894 67.790669669793488 0 67.790669669793488 -22.975001853345248 0 0 0 0 0.07343111892570775 7.3334251310423468 0 7.3334251310423468 -6.9030701257461899 0 0 0 0 67.009263691953493 74.498417783155901 0 74.498417783155901 11.087435659448602 0 0 0 0 -63.025233511922124 48.328044588385637 0 48.328044588385637 32.177582996282581 0 0 0 0 -8.1821673469739835 17.42204829977582 0 17.42204829977582 19.472057743430749 0 0 0 0 -195.27958872123418 -36.506887181823686 0 -36.506887181823686 28.0205183430528 0 0 0 0 -22.930738698305504 43.402752117167438 0 43.402752117167438 86.196773190373278 0 0 0 0 29.539447225994081 83.992390433946639 0 83.992390433946639 13.206603046668533 0 0 0 0 -209.10509212418401 116.30552320514653 0 116.30552320514653 82.183128687862336 0 0 0 0 32.661216241988768 103.63571830436217 0 103.63571830436217 -72.935763842038796 0 0 0 0 -90.277140328777023 11.983446019366056 0 11.983446019366056 -40.174167912755365 0 0 0 0 28.575357609355706 107.83391568184675 0 107.83391568184675 17.161023026012117 0 0 0 0 92.759812249074457 9.6082425043623516 0 9.6082425043623516 -3.2819430089525667 0 0 0 0 -48.874950310913846 51.168802845435494 0 51.168802845435494 31.354338460523763 0 0 0 0 -3.0580364835746252 0.41768196531369028 0 0.41768196531369028 1.2506675139560119 0 0 0 0 -156.72997001610565 129.7348481243987 0 129.7348481243987 37.250450065045698 0 0 0 0 -50.360342811502051 122.03169513031617 0 122.03169513031617 28.274260153630166 0 0 0 0 66.842268427251838 -53.751210896413795 0 -53.751210896413795 75.612662241588623 0 0 0 0 -168.67484162499022 120.97991745913532 0 120.97991745913532 47.858910893044595 0 0 0 0 119.382903029109 20.973876999452841 0 20.973876999452841 50.303163453404522 0 0 0 0 -458.85315585402714 563.82224852790614 0 563.82224852790614 -684.54673256794649 0 0 0 0 -50.094486580848752 -87.634207834058088 0 -87.634207834058088 163.11791664820112 0 0 0 0 -10.220013476158243 15.114052480486784 0 15.114052480486784 17.722201657765822 0 0 0 0 -1.5631440203734925 5.2807046485717422 0 5.2807046485717422 -0.24080586765241918 0 0 0 0 1608.6999792894012 693.06036072242364 0 693.06036072242364 -425.54060298005652 0 0 0 0 -2224.2929130618504 240.94751050102161 0 240.94751050102161 222.70505808638291 0 0 0 0 -1329.1884116574292 909.34704305222908 0 909.34704305222908 -372.08457324311235 0 0 0 0 -123.66831087294076 332.79677137058036 0 332.79677137058036 -400.77358873473167 0 0 0 0 -96.563208311708877 -31.777095699044366 0 -31.777095699044366 -218.15707368022686 0 0 0 0 -376.20080861962924 236.85657567199041 0 236.85657567199041 -146.97916981098831 0 0 0 0 -426.80095019785222 191.21011477706384 0 191.21011477706384 -132.93037159323285 0 0 0 0 -924.99709871301457 497.32573451386224 0 497.32573451386224 -181.4710084348626 0 0 0 0 -1271.6259286086097 -21.6556754072476 0 -21.6556754072476 -98.73782129315714 0 0 0 0 -767.00939020648366 130.19818390321507 0 130.19818390321507 -107.82509277772428 0 0 0 0 -856.94698774436256 189.98971310562956 0 189.98971310562956 59.419229575465124 0 0 0 0 -3.3550330207701755 13.552814965734242 0 13.552814965734242 0.77238670024707901 0 0 0 0 -529.73795157974382 281.95469760816422 0 281.95469760816422 6.3865756253024415 0 0 0 0 -476.36837554120939 168.47177549383423 0 168.47177549383423 22.899788745080514 0 0 0 0 -720.36275773599482 357.01661101389845 0 357.01661101389845 -49.932876235136519 0 0 0 0 754.65640668780543 338.6399515099306 0 338.6399515099306 81.710939604767646 0 0 0 0 274.80155602006562 265.7188255177166 0 265.7188255177166 260.23175685307365 0 0 0 0 667.00825751600496 22.507844254885185 0 22.507844254885185 115.73208642773909 0 0 0 0 301.64293008142158 243.963396782031 0 243.963396782031 51.112623627713674 0 0 0 0 5.1729372154113662 117.03199253874618 0 117.03199253874618 84.139760224364181 0 0 0 0 411.6280821924156 321.55137840796863 0 321.55137840796863 -173.07381206007904 0 0 0 0 -16.391487618981046 236.1317862764779 0 236.1317862764779 -153.81454598067438 0 0 0 0 -436.85458078479132 860.20713956976329 0 860.20713956976329 -66.199462857593062 0 0 0 0 466.24523619869433 193.99263483460402 0 193.99263483460402 -789.74099907388336 0 0 0 0 -8.016493273536895 11.828170128482704 0 11.828170128482704 13.115515258586484 0 0 0 0 77.952459913234634 604.5535430810404 0 604.5535430810404 -940.24470325116863 0 0 0 0 -305.00590282950725 264.30057942969427 0 264.30057942969427 -473.38662402313469 0 0 0 0 102.22472518416544 238.08603298809453 0 238.08603298809453 -504.22519965991023 0 0 0 0 -107.23559761750948 83.066069626699914 0 83.066069626699914 -656.01697574673517 0 0 0 0 -119.68957127850445 117.02040324384132 0 117.02040324384132 -493.50772871707341 0 0 0 0 -81.511838265141705 104.96719794446517 0 104.96719794446517 -231.57831183742428 0 0 0 0 -21.157140503535629 140.73931541606703 0 140.73931541606703 -488.43928740541946 0 0 0 0 -62.554076019747299 221.16819075226476 0 221.16819075226476 -599.11008971253023 0 0 0 0 -95.840881013500621 177.10881998500423 0 177.10881998500423 -452.3176192207643 0 0 0 0 -50.233297256609148 47.970565202918834 0 47.970565202918834 -295.34642669024356 0 0 0 0 -19.305113980219176 116.61496120041375 0 116.61496120041375 -441.98747544163211 0 0 0 0 3.6693387804916711 215.71485127365713 0 215.71485127365713 -119.73318069305571 0 0 0 0 15.122008825623197 80.265644193188791 0 80.265644193188791 -227.66837448795911 0 0 0 0 -76.00795684591867 73.776574515765674 0 73.776574515765674 -202.71301064536192 0 0 0 0 -24.085669532985776 110.30001449816828 0 110.30001449816828 -306.10061966376139 0 0 0 0 -15.379656090997742 89.096383343886657 0 89.096383343886657 -432.07769614689204 0 0 0 0 -69.028377337432175 154.13124547569291 0 154.13124547569291 -396.19424434190188 0 0 0 0 -44.755423703711131 140.77260248346579 0 140.77260248346579 -200.96405753032354 0 0 0 0 -0.016851367505296366 145.98788075150799 0 145.98788075150799 -169.33323318861585 0 0 0 0 0.034663722064578906 79.026225341159716 0 79.026225341159716 -307.76419429481598 0 0 0 0 -67.85062423969066 81.184497033128537 0 81.184497033128537 -47.263095428430688 0 0 0 0 -5.6777570042322623 87.698217976980004 0 87.698217976980004 -166.41730758494441 0 0 0 0 2.7661756314482773 135.24562921716779 0 135.24562921716779 -30.37748461538763 0 0 0 0 -0.073742450083066319 174.04298508939775 0 174.04298508939775 65.524494048935594 0 0 0 0 -73.591525951145741 126.49527672313923 0 126.49527672313923 26.681717967650911 0 0 0 0 -42.568515520742949 167.28863605069409 0 167.28863605069409 110.60869373364494 0 0 0 0 46.461716398156568 160.79645624949558 0 160.79645624949558 2.1406183521590947 0 0 0 0 10.257680649694521 230.76837973482429 0 230.76837973482429 176.51863039899399 0 0 0 0 145.62919536825211 255.28256799667906 0 255.28256799667906 108.35276615148109 0 0 0 0 21.888183662347728 209.79333301737051 0 209.79333301737051 113.85921238381073 0 0 0 0 68.01634453632505 192.58532970348261 0 192.58532970348261 104.91588491979928 0 0 0 0 66.000099119882179 203.90049702707176 0 203.90049702707176 115.97537409846791 0 0 0 0 -13.288902807980776 144.35764057141023 0 144.35764057141023 79.967368546537045 0 0 0 0 0.010840408933290746 179.71995334101757 0 179.71995334101757 118.36441808599784 0 0 0 0 33.798195467119513 164.02533340101581 0 164.02533340101581 125.65006873945731 0 0 0 0 24.8659872311855 179.19763140182624 0 179.19763140182624 116.17842685889536 0 0 0 0 29.349712821051071 145.83079839328093 0 145.83079839328093 139.2576663638248 0 0 0 0 0.020068925384274638 164.84986392078389 0 164.84986392078389 131.8542370686373 0 0 0 0 168.14817017882888 181.29789469439356 0 181.29789469439356 76.089861376558815 0 0 0 0 79.978634483069072 215.58275234066451 0 215.58275234066451 116.36306050447274 0 0 0 0 79.299642473102722 203.87495993257562 0 203.87495993257562 106.25757072953371 0 0 0 0 81.046424508786004 165.56953276599324 0 165.56953276599324 117.96775147219296 0 0 0 0 57.299416262301747 177.74783572770389 0 177.74783572770389 116.09005420742778 0 0 0 0 84.698008387153095 161.2279891591661 0 161.2279891591661 75.014875905513691 0 0 0 0 81.791756382743188 163.84690870104987 0 163.84690870104987 89.962298619889509 0 0 0 0 128.81437551884665 109.53662644936207 0 109.53662644936207 32.30125854979633 0 0 0 0 146.42940504183207 141.80384507693043 0 141.80384507693043 55.851487745333088 0 0 0 0 -4.0366740068345059 16.714028078590616 0 16.714028078590616 8.6317701502814259 0 0 0 0 171.52238661350566 137.4782736850666 0 137.4782736850666 50.257355879043644 0 0 0 0 6.7557549274251869 93.890250846459594 0 93.890250846459594 -133.51630408235269 0 0 0 0 -208.95029907685966 -76.381518244463223 0 -76.381518244463223 48.830962646474291 0 0 0 0 -370.21686424015934 -69.020368630601979 0 -69.020368630601979 -160.32967997728338 0 0 0 0 -479.08856008896328 325.98262772526914 0 325.98262772526914 -337.62556274911231 0 0 0 0 -299.07211623187686 -9.3879530720848834 0 -9.3879530720848834 15.118889576815945 0 0 0 0 -312.24866396226571 223.12327498832451 0 223.12327498832451 -90.906183944919007 0 0 0 0 -705.98139296939189 146.48477095013982 0 146.48477095013982 55.433199526382396 0 0 0 0 -583.71412892176886 158.87803832200939 0 158.87803832200939 56.177787028454532 0 0 0 0 276.90688523572317 174.1057354460213 0 174.1057354460213 93.913081007073743 0 0 0 0 286.91314517977298 235.7214742720189 0 235.7214742720189 93.389986195275469 0 0 0 0 307.34519131044726 152.95258926608085 0 152.95258926608085 50.98613501440559 0 0 0 0 -3.9095060772991594 16.43083738216265 0 16.43083738216265 3.5737567357001119 0 0 0 0 396.32791579678269 222.71636511644959 0 222.71636511644959 69.845730485045351 0 0 0 0 -207.91383638972638 142.52364162501408 0 142.52364162501408 48.469391255988739 0 0 0 0 -87.611870155322322 248.94201683980964 0 248.94201683980964 -125.35421041230074 0 0 0 0 -949.71192240435266 -71.917240646936989 0 -71.917240646936989 250.73562690800873 0 0 0 0 -270.52074955897115 -82.590242114256398 0 -82.590242114256398 250.24575450793418 0 0 0 0 -179.71307936789344 67.246982638481313 0 67.246982638481313 239.85616622725399 0 0 0 0 -2.9581504887083403 -2.8580183969060116 0 -2.8580183969060116 15.951209013149615 0 0 0 0 -47.943235699445722 -27.273787014361915 0 -27.273787014361915 159.41327411146176 0 0 0 0 53.9676747738431 -83.105688669364554 0 -83.105688669364554 127.28667239076731 0 0 0 0 42.249688007094846 94.323220225648129 0 94.323220225648129 -50.619532908134715 0 0 0 0 -46.760055377551907 -30.865719251624796 0 -30.865719251624796 153.20330601622027 0 0 0 0 -27.624560381752417 178.68172432304527 0 178.68172432304527 -11.297474369543124 0 0 0 0 -11.710973864910024 13.693288364295681 0 13.693288364295681 -7.3398505996237695 0 0 0 0 18.108828574899235 133.74087962713656 0 133.74087962713656 224.8875915903327 0 0 0 0 -108.49059904594833 71.889072668587687 0 71.889072668587687 222.70174976317867 0 0 0 0 26.294192446456691 123.36563769109603 0 123.36563769109603 299.29808455408602 0 0 0 0 37.407403323773906 122.16891541933569 0 122.16891541933569 208.31733370858092 0 0 0 0 264.60028945738304 -21.862101185613938 0 -21.862101185613938 -60.596964938300516 0 0 0 0 84.865352040858852 58.178407541739944 0 58.178407541739944 -146.94550774763502 0 0 0 0 15.853284234969095 5.0823816884528146 0 5.0823816884528146 -0.17295947361048081 0 0 0 0 129.11192241359458 101.55334567126556 0 101.55334567126556 -86.099773567344528 0 0 0 0 71.432803696008705 -52.315463934030504 0 -52.315463934030504 -0.040081935112539213 0 0 0 0 -132.05028582074192 -5.2405171190093824 0 -5.2405171190093824 -10.344845111554605 0 0 0 0 17.180257215699385 118.6990288265406 0 118.6990288265406 -88.401135561181036 0 0 0 0 57.651901742006885 93.043751389579484 0 93.043751389579484 -354.62255717685991 0 0 0 0 -78.824041530540853 191.28216950385467 0 191.28216950385467 333.78164851089446 0 0 0 0 6.5643340729763935 3.7372249039918497 0 3.7372249039918497 -0.28825058787798463 0 0 0 0 -46.142804049486585 -114.00183416539403 0 -114.00183416539403 -68.757798674105288 0 0 0 0 8.1773144687103922 116.1318432488406 0 116.1318432488406 210.42551105427083 0 0 0 0 21.365868149919194 6.9311749525478756 0 6.9311749525478756 -5.0396587730195712 0 0 0 0 -74.692642155576323 62.386923407622817 0 62.386923407622817 260.82382294940544 0 0 0 0 -17.373169213249639 105.55816194696308 0 105.55816194696308 244.80292335244894 0 0 0 0 -188.32883322480484 -15.804818483655254 0 -15.804818483655254 239.56280329409128 0 0 0 0 -22.848094392501253 17.781135751667648 0 17.781135751667648 209.05575487669557 0 0 0 0 8.753015478123416 -41.511154771323163 0 -41.511154771323163 118.69883292265467 0 0 0 0 2.8111132865471831 10.410147503878788 0 10.410147503878788 -6.49835842105891 0 0 0 0 77.338871407289844 -80.408087253611029 0 -80.408087253611029 138.43181173958601 0 0 0 0 220.34188862785231 174.15073059987753 0 174.15073059987753 31.272458490024292 0 0 0 0 -130.84099455857358 -120.26697440261159 0 -120.26697440261159 185.74003729245851 0 0 0 0 1.9276682171534674 0.13756507835761056 0 0.13756507835761056 0.93564571973855237 0 0 0 0 10.633159194543623 23.450404550042549 0 23.450404550042549 -15.558900456266656 0 0 0 0 15.520131459223194 12.010199320291122 0 12.010199320291122 11.004096333572306 0 0 0 0 -5.664845412906625 18.903816296458658 0 18.903816296458658 9.8413750449562087 0 0 0 0 -299.26645808024978 -214.44317370096496 0 -214.44317370096496 -49.952933487016708 0 0 0 0 -525.77139763882997 -143.88309663192058 0 -143.88309663192058 185.95521763059787 0 0 0 0 39.001828013848353 25.14011239740239 0 25.14011239740239 -4.2169480335346634 0 0 0 0 -457.51531657713531 -223.97059628685838 0 -223.97059628685838 -306.60368949740632 0 0 0 0 7.3949190271637235 117.20330035072516 0 117.20330035072516 -930.2086366198273 0 0 0 0 0.68001126133292189 8.8100307668572473 0 8.8100307668572473 0.42241999975629163 0 0 0 0 282.40579510494717 754.46691893338902 0 754.46691893338902 -796.88515439692492 0 0 0 0 2.2395035203701994 2.4812464448471907 0 2.4812464448471907 0.58895820253970754 0 0 0 0 -91.069696597871371 464.42638379600612 0 464.42638379600612 157.77662018364572 0 0 0 0 112.09084079579043 78.231596141151385 0 78.231596141151385 184.8410843719721 0 0 0 0 163.1603934402965 -139.8784416455228 0 -139.8784416455228 -732.10061778162799 0 0 0 0 0.6018150229593906 -1.9306194897177136 0 -1.9306194897177136 7.7860508762354499 0 0 0 0 293.90841178285609 115.69185294783165 0 115.69185294783165 -339.69430224532516 0 0 0 0 -468.37285046475336 -78.70463938665398 0 -78.70463938665398 246.56575810382128 0 0 0 0 0.013726838576356259 0.75314855311888884 0 0.75314855311888884 2.2357721889746003 0 0 0 0 207.94509081648505 31.196914060303925 0 31.196914060303925 -102.96251979450608 0 0 0 0 -164.5151141734932 177.06300924237803 0 177.06300924237803 228.61930966458777 0 0 0 0 72.852811987180758 261.76678339707723 0 261.76678339707723 112.66651940081283 0 0 0 0 169.0752383246072 287.34628651927324 0 287.34628651927324 52.026625443855664 0 0 0 0 350.46812932845569 205.30846115115673 0 205.30846115115673 11.031042898623127 0 0 0 0 328.80305645030239 56.40659337915622 0 56.40659337915622 34.806152021108574 0 0 0 0 -48.419202227471033 5.6019616770549874 0 5.6019616770549874 54.084920359345233 0 0 0 0 -5.1194982050269431 4.3889595516782727 0 4.3889595516782727 5.8416460067491762 0 0 0 0 543.66794426846536 233.45895618421082 0 233.45895618421082 -100.11257794687663 0 0 0 0 87.19591120599398 205.0683677829029 0 205.0683677829029 641.87389523990441 0 0 0 0 -277.47254907900242 57.425821206910115 0 57.425821206910115 222.55539292608955 0 0 0 0 110.33774584995444 -21.982589299346728 0 -21.982589299346728 -64.046559538896645 0 0 0 0 -39.339103121081138 35.284077586485552 0 35.284077586485552 -20.634670394623843 0 0 0 0 -16.6213725003945 3.8149575104753239 0 3.8149575104753239 3.1620017172499502 0 0 0 0 -53.156540762546683 47.499198630372121 0 47.499198630372121 -9.1557570451750507 0 0 0 0 -61.171990482854198 40.920202087413145 0 40.920202087413145 11.615902966913382 0 0 0 0 -5.0191083990714525 3.3904556350976236 0 3.3904556350976236 -2.3321214278012974 0 0 0 0 -97.74392286794864 68.476881955677982 0 68.476881955677982 32.045866548352933 0 0 0 0 -7.4731000892643351 131.98684673082516 0 131.98684673082516 41.847576100221659 0 0 0 0 -82.679918054222071 40.242333769784636 0 40.242333769784636 197.62668189304168 0 0 0 0 88.983841977327756 249.83512121217336 0 249.83512121217336 263.0319454521773 0 0 0 0 -60.522882410754391 156.74541129468162 0 156.74541129468162 308.22933296628617 0 0 0 0 -89.236234986883574 158.38234065003962 0 158.38234065003962 265.59006064004598 0 0 0 0 -87.510284661097103 100.87581647021284 0 100.87581647021284 219.84019960002479 0 0 0 0 23.430386542308952 182.59526642961782 0 182.59526642961782 86.83893439388703 0 0 0 0 -67.753396832507406 43.071251985146091 0 43.071251985146091 10.912976638718646 0 0 0 0 -118.19416810228358 132.7600020107152 0 132.7600020107152 349.69391017838279 0 0 0 0 -22.216178939317615 38.952392887145379 0 38.952392887145379 223.74953907421559 0 0 0 0 -18.653369388144711 99.870553462761109 0 99.870553462761109 109.28806967451055 0 0 0 0 -41.865366928312142 80.128162272494592 0 80.128162272494592 161.32606015514102 0 0 0 0 -18.76801012735632 146.87577691429124 0 146.87577691429124 179.42444337609322 0 0 0 0 -170.51166851996641 29.350877868801035 0 29.350877868801035 81.485589269753746 0 0 0 0 110.00849276143163 -89.444115578955461 0 -89.444115578955461 -68.926645360009843 0 0 0 0 372.53283768562233 46.474698373722276 0 46.474698373722276 -4.6318240465461713 0 0 0 0 42.76556870121567 29.702585538287167 0 29.702585538287167 54.938675012755994 0 0 0 0 96.352053472625812 35.143781493407232 0 35.143781493407232 -16.13857426064078 0 0 0 0 -30.22544245910467 -10.145806654134503 0 -10.145806654134503 -14.837352223006093 0 0 0 0 -120.6510618304028 -68.688764234261271 0 -68.688764234261271 -10.149563000968101 0 0 0 0 24.395536265030387 59.855382998646974 0 59.855382998646974 1.155960001989115 0 0 0 0 -9.9989651918254623 3.4039469378320364 0 3.4039469378320364 1.3962430985646446 0 0 0 0 6.4552608877129387 75.355314653615551 0 75.355314653615551 32.948595021227902 0 0 0 0 10.71181259909099 -51.307693477610201 0 -51.307693477610201 -58.728769207603818 0 0 0 0 25.371526266219462 38.003153297544259 0 38.003153297544259 -108.11153350096265 0 0 0 0 -190.59658701969602 -76.305308574346782 0 -76.305308574346782 -82.901376047645044 0 0 0 0 2.2392679637987385 16.163405078215874 0 16.163405078215874 -38.953089107839332 0 0 0 0 -39.126885015049993 143.30223754712961 0 143.30223754712961 -255.4980057970447 0 0 0 0 -3.0249692398921155 1.6245356851816179 0 1.6245356851816179 -1.4092412122205422 0 0 0 0 -284.79821061718212 158.15432569761356 0 158.15432569761356 -98.272678280394302 0 0 0 0 -118.66041353093215 103.67383794030184 0 103.67383794030184 -105.37627293548667 0 0 0 0 -50.549083155003245 180.25584486174239 0 180.25584486174239 -118.97555226125058 0 0 0 0 18.02708135163266 130.70548392040519 0 130.70548392040519 -93.881135419071143 0 0 0 0 19.968231526812133 113.26993393783289 0 113.26993393783289 -50.364674818718413 0 0 0 0 17.579288453309346 160.25491518868012 0 160.25491518868012 -78.754627581557997 0 0 0 0 91.970735531667742 138.84545204411461 0 138.84545204411461 -60.437245767766399 0 0 0 0 107.10843130803187 122.73111510803801 0 122.73111510803801 -69.940618112421362 0 0 0 0 75.323382467069678 143.2168365889429 0 143.2168365889429 20.153667680003309 0 0 0 0 66.699282930218033 115.00411216726798 0 115.00411216726798 -45.678162421231264 0 0 0 0 48.926844459910171 135.2131464795068 0 135.2131464795068 -35.871181782692929 0 0 0 0 23.125904203500795 86.735571851949771 0 86.735571851949771 105.28001928778849 0 0 0 0 71.607567175122313 129.50972206874576 0 129.50972206874576 18.541930976536605 0 0 0 0 24.59432972781542 105.11993838230683 0 105.11993838230683 120.21063723434577 0 0 0 0 -16.641314779789468 15.054186053277789 0 15.054186053277789 -6.6331288464926192 0 0 0 0 60.643216506205135 174.22694054011117 0 174.22694054011117 135.72183004891667 0 0 0 0 38.328189424890297 137.25472963455013 0 137.25472963455013 212.8434126864413 0 0 0 0 19.837508803749643 99.280272115786943 0 99.280272115786943 198.8016163663624 0 0 0 0 41.876804693751183 124.34647436711293 0 124.34647436711293 118.52223507144868 0 0 0 0 56.075625512989063 160.58352886172179 0 160.58352886172179 105.01930973875596 0 0 0 0 91.517495777186923 216.69094890148699 0 216.69094890148699 28.79012222547226 0 0 0 0 63.216309062652726 148.25652039933766 0 148.25652039933766 106.79603304936609 0 0 0 0 98.253229662122976 176.16589085883288 0 176.16589085883288 0.75187292758073454 0 0 0 0 107.2907718945753 177.77581932409839 0 177.77581932409839 -64.030290698106 0 0 0 0 123.65229136215567 133.92816145914094 0 133.92816145914094 -91.875824693734558 0 0 0 0 118.4349787274441 240.98762434327728 0 240.98762434327728 -150.74193661573861 0 0 0 0 185.62698816495322 144.5060770887344 0 144.5060770887344 -13.182894796699202 0 0 0 0 29.717925640982685 127.82209869858082 0 127.82209869858082 -13.459640195106658 0 0 0 0 109.66584195257019 325.11934796046262 0 325.11934796046262 -288.36001432598005 0 0 0 0 142.53605586626145 46.2492776862955 0 46.2492776862955 -119.6201899107291 0 0 0 0 1.2770849710323091 17.447923996947338 0 17.447923996947338 -66.365020950759344 0 0 0 0 2.3756302306973822 2.574892953445783 0 2.574892953445783 -40.302207936293058 0 0 0 0 210.30917238360053 116.54396769387392 0 116.54396769387392 -15.609337600925073 0 0 0 0 -26.720551381520636 25.354933811510818 0 25.354933811510818 55.548790985641062 0 0 0 0 245.81663361537176 122.41666524619723 0 122.41666524619723 35.942840051441863 0 0 0 0 2.8128333682336049 0.82887072284295416 0 0.82887072284295416 -6.959284870021718 0 0 0 0 201.90693942635198 99.751753122670152 0 99.751753122670152 31.351324363768981 0 0 0 0 -17.369518325504032 -4.274905203947128 0 -4.274905203947128 11.744117749378347 0 0 0 0 -0.17010748639969364 5.4074602182530676 0 5.4074602182530676 1.5473939154936183 0 0 0 0 5.2019655206368043 13.040568009189428 0 13.040568009189428 24.99955211759243 0 0 0 0 -68.909430939738741 35.457865803393815 0 35.457865803393815 2.7904841805166143 0 0 0 0 -1.7994168791465199 31.977567204369734 0 31.977567204369734 -96.813148260826893 0 0 0 0 820.75313213446134 272.9484401130926 0 272.9484401130926 36.257723466795142 0 0 0 0 466.35838556562339 95.009624927819004 0 95.009624927819004 13.156665840773712 0 0 0 0 0.57003457315705486 -0.31280621516793161 0 -0.31280621516793161 0.9937698206280956 0 0 0 0 248.1816936262403 234.92804652150426 0 234.92804652150426 132.59157956182935 0 0 0 0 316.05020500738101 335.20849887467693 0 335.20849887467693 229.32504012717959 0 0 0 0 56.836121080141311 236.14944283712703 0 236.14944283712703 314.8800787883074 0 0 0 0 37.882525337641709 171.5546911484048 0 171.5546911484048 212.59195072894545 0 0 0 0 58.620172762254697 174.3124884759352 0 174.3124884759352 210.82131468527859 0 0 0 0 62.982746854855577 176.77755601922263 0 176.77755601922263 103.78397465436501 0 0 0 0 151.0468460276461 201.96208070275588 0 201.96208070275588 110.77051459660743 0 0 0 0 139.67283160618854 167.33240348809954 0 167.33240348809954 92.453663549090379 0 0 0 0 252.2290308344509 206.75410061609364 0 206.75410061609364 42.70709765286847 0 0 0 0 -1.8141497767292236 1.7974279137805302 0 1.7974279137805302 1.0599678512224502 0 0 0 0 -226.16610283776026 133.21588268836649 0 133.21588268836649 131.85102012765856 0 0 0 0 -154.64581575748161 -35.482143048647913 0 -35.482143048647913 -148.95490654836055 0 0 0 0 -28.668465936514622 88.055207316475503 0 88.055207316475503 -69.664665473641435 0 0 0 0 -391.35657247508789 256.58195080323389 0 256.58195080323389 -67.861368711082605 0 0 0 0 -51.531755351512402 144.03426951317056 0 144.03426951317056 -31.989006967090063 0 0 0 0 -95.362728162996063 83.175687781626948 0 83.175687781626948 150.87631532242312 0 0 0 0 -51.840109708398813 217.21636970563486 0 217.21636970563486 72.299947841902735 0 0 0 0 -48.972125870992386 136.82183162756019 0 136.82183162756019 260.78941368890355 0 0 0 0 7.3991651135493157 270.31802284193623 0 270.31802284193623 -124.5429627614626 0 0 0 0 -83.143308911825443 139.48142237944012 0 139.48142237944012 84.132283105249286 0 0 0 0 150.32935346035629 167.34276316726107 0 167.34276316726107 -55.055509648308544 0 0 0 0 106.3531357000611 148.8753845982219 0 148.8753845982219 24.498645693731305 0 0 0 0 -3.2530881002316931 26.291431362375619 0 26.291431362375619 -21.057526348178346 0 0 0 0 114.18013508041986 133.83170467023092 0 133.83170467023092 32.593538155201259 0 0 0 0 96.680795407195546 155.83411953376253 0 155.83411953376253 22.490536929031578 0 0 0 0 6.4589146863017959 78.833659608195603 0 78.833659608195603 -26.551210761908806 0 0 0 0 -56.212007350437489 9.5080693132781562 0 9.5080693132781562 48.126259766727799 0 0 0 0 -77.132662024683668 114.99367932594123 0 114.99367932594123 -101.96343736870654 0 0 0 0 -95.825276420928276 -12.456625586025439 0 -12.456625586025439 -57.843192585151883 0 0 0 0 -4.0319416637794347 32.762590402183378 0 32.762590402183378 -54.29345226453006 0 0 0 0 -43.09453134171963 37.845617618326287 0 37.845617618326287 18.012493591306338 0 0 0 0 -31.1665227831636 85.45941328491017 0 85.45941328491017 43.994877073318094 0 0 0 0 -12.605531888640172 29.297141423502456 0 29.297141423502456 -17.026910199800383 0 0 0 0 -90.342195676836127 305.28365418872363 0 305.28365418872363 263.88387240375232 0 0 0 0 105.63946402588226 -40.490610331173457 0 -40.490610331173457 304.26000073016985 0 0 0 0 -16.567922028322585 33.929647368699463 0 33.929647368699463 -9.4895080428106908 0 0 0 0 85.150706206277391 81.897679855061142 0 81.897679855061142 -329.58431484484345 0 0 0 0 9.4551481840881024 75.598181428249973 0 75.598181428249973 -59.336533437085563 0 0 0 0 23.576118105850128 15.796603405628069 0 15.796603405628069 -0.43465838940598545 0 0 0 0 -16.458533160832303 50.524022150639212 0 50.524022150639212 -165.06924503743085 0 0 0 0 -9.1834887726654415 4.5380563323433307 0 4.5380563323433307 -128.93845520205332 0 0 0 0 -12.554286772014166 -3.3611692641570698 0 -3.3611692641570698 -143.98229620519487 0 0 0 0 18.146779944084074 106.52591967762348 0 106.52591967762348 239.43845538344613 0 0 0 0 9.7551793226998882 34.774860145412944 0 34.774860145412944 -29.315249219515501 0 0 0 0 5.467738641113101 116.37910431254022 0 116.37910431254022 382.87170839257215 0 0 0 0 24.642903551299241 101.99799919812813 0 101.99799919812813 241.63632301282996 0 0 0 0 40.365771992226655 58.397663156601084 0 58.397663156601084 249.50822537562999 0 0 0 0 -45.690336000532625 12.558335825436188 0 12.558335825436188 257.70170971228799 0 0 0 0 45.91550146902955 -62.964337750717505 0 -62.964337750717505 96.492187830830517 0 0 0 0 53.162558336447546 -40.408357926185545 0 -40.408357926185545 -34.033457605479271 0 0 0 0 40.582972180243814 -66.599276301614736 0 -66.599276301614736 -104.12530258832521 0 0 0 0 57.158477650395071 -7.8295499829382607 0 -7.8295499829382607 -197.31004880151204 0 0 0 0 99.437358975992538 -79.940433312609457 0 -79.940433312609457 -254.78609857588935 0 0 0 0 38.929841565131937 -83.07646370657676 0 -83.07646370657676 -14.297430587084818 0 0 0 0 74.911913095354976 -19.422309746049905 0 -19.422309746049905 367.96191280083258 0 0 0 0 103.04388951755391 25.824984950021644 0 25.824984950021644 53.784211675671941 0 0 0 0 74.441760160028934 120.86275680895596 0 120.86275680895596 542.62922148941107 0 0 0 0 198.28782798259999 307.34386294977185 0 307.34386294977185 471.67610306858296 0 0 0 0 258.18389667023803 142.56496879742053 0 142.56496879742053 88.184194131516051 0 0 0 0 -54.170721092514214 21.006959558458902 0 21.006959558458902 54.244481668307344 0 0 0 0 19.870966818421948 12.176482177144141 0 12.176482177144141 7.5266587309888386 0 0 0 0 173.30235165392423 266.78043002495883 0 266.78043002495883 -459.98581606543667 0 0 0 0 133.10248011363728 -172.76127682107472 0 -172.76127682107472 15.077539028554384 0 0 0 0 -249.88881502611912 11.080717614042214 0 11.080717614042214 654.03942611705133 0 0 0 0 -178.22287155920321 446.67277618627372 0 446.67277618627372 820.73241571312792 0 0 0 0 68.302992770768469 260.43488928110946 0 260.43488928110946 1139.3660872658529 0 0 0 0 380.38510431886243 274.91961393715337 0 274.91961393715337 638.46450651340319 0 0 0 0 334.42453694864912 767.62486773674675 0 767.62486773674675 946.25299644015831 0 0 0 0 204.69832742399194 -338.26025140496245 0 -338.26025140496245 -521.38100802973349 0 0 0 0 123.14570722256758 671.67903724301868 0 671.67903724301868 1184.4719444166017 0 0 0 0 -192.91996315944562 -20.847051189465674 0 -20.847051189465674 -143.18520869741042 0 0 0 0 449.18567770209484 -72.113865047806485 0 -72.113865047806485 -140.31729026656467 0 0 0 0 7.5727940517026582 -104.62020925307888 0 -104.62020925307888 427.30251698468783 0 0 0 0 375.0993109823612 321.37749330008342 0 321.37749330008342 4.2219652991052499 0 0 0 0 170.00538419289296 59.265138134149538 0 59.265138134149538 -290.8102832681343 0 0 0 0 5.8471862988943286 1.9854633047164647 0 1.9854633047164647 -1.5070757124879313 0 0 0 0 572.16699866636191 653.98829344370643 0 653.98829344370643 703.19676599624427 0 0 0 0 148.44536243507901 742.66717425824049 0 742.66717425824049 1265.5994014949374 0 0 0 0 161.69207648934753 155.26937563846877 0 155.26937563846877 455.04357352934039 0 0 0 0 471.92743260754651 203.48485137275884 0 203.48485137275884 287.87281478129171 0 0 0 0 322.97097226148981 407.00147970807984 0 407.00147970807984 264.08441552448198 0 0 0 0 102.67059176944167 165.40692034179438 0 165.40692034179438 253.13149891428884 0 0 0 0 293.12762681633467 256.96181339208624 0 256.96181339208624 153.35488978553803 0 0 0 0 162.76129292255564 141.78264895377109 0 141.78264895377109 183.28581134004889 0 0 0 0 14.177144766421407 106.87704003623139 0 106.87704003623139 316.15291683041733 0 0 0 0 390.97936634184589 -138.7236695022325 0 -138.7236695022325 151.7578605845265 0 0 0 0 17.301754277047166 3.4277821840479241 0 3.4277821840479241 -2.7579047354830655 0 0 0 0 5.66233374781946 9.8227285061859035 0 9.8227285061859035 -5.0479310613865245 0 0 0 0 38.690311157964061 47.234160685062648 0 47.234160685062648 -52.827043319626682 0 0 0 0 -111.1839185469853 339.77869053283348 0 339.77869053283348 427.44442579971656 0 0 0 0 18.168304507675202 379.92016918140689 0 379.92016918140689 377.5749160672749 0 0 0 0 -3.9737213579285822 10.514749352154929 0 10.514749352154929 -6.3169675077852094 0 0 0 0 19.054315213816153 105.40424213039205 0 105.40424213039205 41.130402421526014 0 0 0 0 -62.177341503425851 -86.08622445545916 0 -86.08622445545916 12.379726313268975 0 0 0 0 -182.62147788011862 177.98300130580674 0 177.98300130580674 425.97798848272942 0 0 0 0 -58.027103972144687 82.079751806772947 0 82.079751806772947 279.77085458152487 0 0 0 0 126.98068134461937 386.83270946492462 0 386.83270946492462 413.07572244970834 0 0 0 0 67.278127302433859 236.93024334561414 0 236.93024334561414 312.41970659887011 0 0 0 0 180.90086068377059 373.47153051419946 0 373.47153051419946 338.96787399836103 0 0 0 0 49.19565195535688 273.72678137577441 0 273.72678137577441 376.64553261231595 0 0 0 0 276.65337569415715 274.71873853178658 0 274.71873853178658 210.78072288010412 0 0 0 0 528.01472134840515 385.46982773129548 0 385.46982773129548 156.13842881945493 0 0 0 0 501.54405421595584 508.55271772802098 0 508.55271772802098 341.57716546822667 0 0 0 0 728.7475392446504 664.93600259602863 0 664.93600259602863 317.44145744754724 0 0 0 0 219.21785853921028 312.94752293974398 0 312.94752293974398 395.49871374700183 0 0 0 0 -18.376995666561925 -5.3711282236326952 0 -5.3711282236326952 -151.96997185001874 0 0 0 0 7.2998222377990061 6.4596157545755233 0 6.4596157545755233 4.3017538644720226 0 0 0 0 594.18142011507734 339.4166672732872 0 339.4166672732872 -120.75782492660494 0 0 0 0 158.14786332354925 829.65898461890129 0 829.65898461890129 957.13590116916021 0 0 0 0 6.6466379641770175 2.2331732899463113 0 2.2331732899463113 -2.7722222253486004 0 0 0 0 -18.517860907317299 656.64532305276362 0 656.64532305276362 1095.1845521313853 0 0 0 0 62.920185193172074 807.67456654000671 0 807.67456654000671 972.70682445066632 0 0 0 0 359.11938215316695 622.36056998221466 0 622.36056998221466 1049.9407269122748 0 0 0 0 403.7314089767242 -512.43233949807836 0 -512.43233949807836 832.95820657499939 0 0 0 0 179.83308619500713 116.97080299414438 0 116.97080299414438 -122.95167349523945 0 0 0 0 -36.869127880207088 107.67601805293521 0 107.67601805293521 -95.220562978667658 0 0 0 0 -135.24688755362513 -66.68305305123431 0 -66.68305305123431 -147.92853507590553 0 0 0 0 -45.75007554248441 90.979591537279703 0 90.979591537279703 -74.822126288216168 0 0 0 0 114.11248939657526 -50.799540901003638 0 -50.799540901003638 -500.41100444965377 0 0 0 0 11.808979160251639 6.0735344291767284 0 6.0735344291767284 -3.8392592418688274 0 0 0 0 366.48928132672836 76.484813925138042 0 76.484813925138042 -17.217769194740868 0 0 0 0 -72.421580073038058 -126.46468468087824 0 -126.46468468087824 -276.74304536863383 0 0 0 0 -10.58963130909251 14.501574663860083 0 14.501574663860083 -278.98328277151631 0 0 0 0 7.859598923689191 148.20099274128415 0 148.20099274128415 -28.080555012456898 0 0 0 0 87.106548070500139 157.44765410830587 0 157.44765410830587 -413.74204010650828 0 0 0 0 -3.2237990219819039 250.28082988252504 0 250.28082988252504 199.19452346838079 0 0 0 0 -72.263449101345032 108.30504680791773 0 108.30504680791773 -20.069553485655661 0 0 0 0 46.076194583125471 -6.6415611836355311 0 -6.6415611836355311 18.386220254539694 0 0 0 0 -73.191013595928098 125.60042816156994 0 125.60042816156994 178.12553692479378 0 0 0 0 20.490331634377071 -2.8932170648622559 0 -2.8932170648622559 -79.97749945226974 0 0 0 0 67.262382836477627 192.90051728428898 0 192.90051728428898 403.38378743398061 0 0 0 0 2.4496845284282074 1.4303212401638636 0 1.4303212401638636 -0.61755808675673229 0 0 0 0 167.84097777131683 -10.55738672291227 0 -10.55738672291227 -278.51805064667121 0 0 0 0 83.118490713057099 2.9358530289714508 0 2.9358530289714508 -13.272273175594819 0 0 0 0 -80.945548197090829 -130.23121234761402 0 -130.23121234761402 -42.788608253686107 0 0 0 0 115.77998163731536 221.75377424410908 0 221.75377424410908 10.651851302016439 0 0 0 0 -5.6055075902986573 224.30292504264889 0 224.30292504264889 329.88147087465859 0 0 0 0 -80.662398438813398 215.63081518956642 0 215.63081518956642 107.01283112035526 0 0 0 0 -211.16756924757647 40.318234870017932 0 40.318234870017932 113.17264505708954 0 0 0 0 102.31437272641097 203.82360281139688 0 203.82360281139688 134.06613053479668 0 0 0 0 119.9360759959236 105.72338473355921 0 105.72338473355921 166.37240602457678 0 0 0 0 34.295174728613347 30.706581256490153 0 30.706581256490153 -33.774637689524752 0 0 0 0 8.0472610356160033 3.3736550357143469 0 3.3736550357143469 -4.0173790091621342 0 0 0 0 -8.7374705088043356 14.646124575276506 0 14.646124575276506 -18.444303852681628 0 0 0 0 -1.3045582598369947 13.278225649017259 0 13.278225649017259 -1.9827722662721499 0 0 0 0 -5.6784643849232452 33.783773854639094 0 33.783773854639094 -3.8230283902266819 0 0 0 0 5.0850251646688776 46.021288018915129 0 46.021288018915129 -2.3225485259335983 0 0 0 0 -21.250962066067586 43.329471623306745 0 43.329471623306745 -2.0398339142930126 0 0 0 0 -13.32095694806527 18.967218833712142 0 18.967218833712142 -28.578103605968064 0 0 0 0 47.944364892391604 51.491341906899834 0 51.491341906899834 -26.360368257037862 0 0 0 0 30.022242429749895 40.439758118493046 0 40.439758118493046 -20.589850837546692 0 0 0 0 71.279802631466737 160.37789091237619 0 160.37789091237619 122.43038085858393 0 0 0 0 -86.254788851754711 31.767114115984896 0 31.767114115984896 22.268345492126173 0 0 0 0 2.1476174260480718 2.0313943380880559 0 2.0313943380880559 6.1050636711552215 0 0 0 0 -113.54798474851486 110.86711470506123 0 110.86711470506123 164.41156145478243 0 0 0 0 35.857506192984147 43.594198163764702 0 43.594198163764702 -45.443960128576236 0 0 0 0 -11.455293490439338 26.171952211438185 0 26.171952211438185 -36.789166929798007 0 0 0 0 0.69244346703645476 12.89692240107005 0 12.89692240107005 12.631725221148647 0 0 0 0 -26.251582806067745 83.542076111784525 0 83.542076111784525 -31.103382903234561 0 0 0 0 91.565641413710182 37.703090111916822 0 37.703090111916822 -10.80819563474779 0 0 0 0 12.727276992667612 39.268426777091463 0 39.268426777091463 -0.67366526627074563 0 0 0 0 31.404878005091177 38.996899207800993 0 38.996899207800993 -3.0748949821854694 0 0 0 0 -12.07357303137367 14.804077279562595 0 14.804077279562595 -7.7517413986949357 0 0 0 0 3.85865528346676 20.121731570555767 0 20.121731570555767 -4.6576898340481421 0 0 0 0 20.594598709665661 -11.812609778452497 0 -11.812609778452497 -57.835735428605403 0 0 0 0 -6.19897127944283 19.466095132659682 0 19.466095132659682 -18.494024731761222 0 0 0 0 19.292779581410286 1.9967626838533761 0 1.9967626838533761 -120.59132591961543 0 0 0 0 -14.537772379928356 2.3792494485660427 0 2.3792494485660427 -9.0423567097568593 0 0 0 0 70.281775251471117 102.3502214196883 0 102.3502214196883 124.70163443622914 0 0 0 0 -0.45505595340719651 1.031692950158237 0 1.031692950158237 -0.49081448010123552 0 0 0 0 3.7714394049682909 1.2761301025800584 0 1.2761301025800584 -3.0916702567850507 0 0 0 0 -141.46227706433274 107.28409709839434 0 107.28409709839434 89.166252090314174 0 0 0 0 -19.902900684166525 39.682833343896164 0 39.682833343896164 -66.897011539305822 0 0 0 0 -29.359931061822863 236.30535787660483 0 236.30535787660483 91.693309382272275 0 0 0 0 -51.896712220372137 127.38131634817182 0 127.38131634817182 -84.152607244945102 0 0 0 0 -35.286853770199741 52.326863474500897 0 52.326863474500897 -25.570012806456361 0 0 0 0 0.13429300670031807 69.503843104401312 0 69.503843104401312 -109.29544953790764 0 0 0 0 -13.255528646310637 52.341875813823293 0 52.341875813823293 -28.659379953438474 0 0 0 0 19.336513322859901 32.115546016956159 0 32.115546016956159 -41.614818532805657 0 0 0 0 31.998719830060509 66.663106222050374 0 66.663106222050374 -59.114680362747094 0 0 0 0 456.95423056875006 181.31559395891509 0 181.31559395891509 226.4440287595271 0 0 0 0 460.04213301262644 246.97763092496189 0 246.97763092496189 108.43752176763064 0 0 0 0 337.52314067923726 187.02123424136107 0 187.02123424136107 100.39528058454744 0 0 0 0 340.20982415693106 189.25166679297649 0 189.25166679297649 88.518116994525371 0 0 0 0 189.63159528251344 179.67655949891343 0 179.67655949891343 96.281148109482274 0 0 0 0 281.1585844189176 293.86822308685225 0 293.86822308685225 50.861837750199811 0 0 0 0 385.15509787291376 255.59556379194873 0 255.59556379194873 53.836923736544065 0 0 0 0 276.27831307675297 280.89566472720367 0 280.89566472720367 161.37260572333616 0 0 0 0 437.29176996907336 350.2465552058793 0 350.2465552058793 190.59943090371098 0 0 0 0 -117.96118674554964 -20.435359341310232 0 -20.435359341310232 8.485615089489329 0 0 0 0 -2.9233526439108459 1.6172526409018424 0 1.6172526409018424 -0.61541076770146752 0 0 0 0 268.75840629724735 242.93470157985064 0 242.93470157985064 -26.880616806540274 0 0 0 0 -14.049672877808916 321.23182487322902 0 321.23182487322902 71.91476371106819 0 0 0 0 449.39838425467678 -22.243890441125131 0 -22.243890441125131 -180.89493002602194 0 0 0 0 -117.42878125186689 227.93340293039955 0 227.93340293039955 325.12492918746625 0 0 0 0 -85.766450814935524 96.696350193602484 0 96.696350193602484 36.625069430554049 0 0 0 0 -34.789951866478077 67.746532707843016 0 67.746532707843016 18.078717796302044 0 0 0 0 50.357519751327345 92.706828272928078 0 92.706828272928078 12.576432061814558 0 0 0 0 -4.3662167821603362 53.8332914749667 0 53.8332914749667 6.2884127051602263 0 0 0 0 29.934864083772254 62.839437258329667 0 62.839437258329667 6.6924727939531294 0 0 0 0 1.2261344188809744 39.13445977738229 0 39.13445977738229 0.64098292462767859 0 0 0 0 -16.332942598772206 37.033888423702138 0 37.033888423702138 14.061330684252425 0 0 0 0 -18.448137891788974 26.908816592034896 0 26.908816592034896 3.1850529903549614 0 0 0 0 -32.931213279417875 31.256973360913449 0 31.256973360913449 12.07326118952551 0 0 0 0 -25.282503150698176 19.507392961351798 0 19.507392961351798 25.073373912522584 0 0 0 0 -25.631362684957367 16.4759486452636 0 16.4759486452636 -0.9344607536586409 0 0 0 0 115.87489104211272 209.19722223659392 0 209.19722223659392 407.97454126800039 0 0 0 0 -0.84930702540724212 8.0647060610832497 0 8.0647060610832497 -3.8699376889035086 0 0 0 0 4.8062653905090329 1.5234439658543906 0 1.5234439658543906 -0.42146301495105121 0 0 0 0 -22.050714743872959 29.175622396251583 0 29.175622396251583 4.0742573287291179 0 0 0 0 78.873463024567172 -30.951982581367474 0 -30.951982581367474 1.0892519376138807 0 0 0 0 16.191607873652988 24.619861430063224 0 24.619861430063224 -6.576337542619715 0 0 0 0 22.667297567419297 -9.019617677132203 0 -9.019617677132203 1.8229375775612731 0 0 0 0 70.168804774195451 -14.322066170105018 0 -14.322066170105018 -5.728411662095823 0 0 0 0 31.509984416115913 10.43854564864796 0 10.43854564864796 -2.4323737154816172 0 0 0 0 49.951126152314828 -18.1165594170443 0 -18.1165594170443 25.787711857755312 0 0 0 0 677.68605483986175 539.57511282906125 0 539.57511282906125 277.71961218553042 0 0 0 0 764.15383105297224 399.26376717500352 0 399.26376717500352 290.19451743684021 0 0 0 0 452.24471453905426 371.62971553654165 0 371.62971553654165 412.05145449205702 0 0 0 0 49.884372528584208 46.903627200566916 0 46.903627200566916 -53.493708830572814 0 0 0 0 -10.924333485949319 112.20009691887026 0 112.20009691887026 -78.073744375998103 0 0 0 0 34.980488679939299 22.80422903887029 0 22.80422903887029 4.686448180300431 0 0 0 0 35.186792017950211 22.064666411150938 0 22.064666411150938 -51.095396972561502 0 0 0 0 15.974426268666864 28.755180279346305 0 28.755180279346305 5.7026821503682292 0 0 0 0 -22.073251481982879 45.640795222361248 0 45.640795222361248 1.2985277277596765 0 0 0 0 108.79831291510709 -5.4163439085123173 0 -5.4163439085123173 -33.034963373042046 0 0 0 0 79.079002946789842 58.944378695725391 0 58.944378695725391 -30.689792736377058 0 0 0 0 44.020983247201002 45.179426499629244 0 45.179426499629244 -13.223221841350096 0 0 0 0 80.691982650065256 51.463581908265951 0 51.463581908265951 -12.6517747027101 0 0 0 0 11.646193954636452 37.386060039344329 0 37.386060039344329 16.194378811704503 0 0 0 0 4.5576709938286513 40.785485266542764 0 40.785485266542764 -0.39693977308843387 0 0 0 0 -1.2296534347042325 67.238404703679407 0 67.238404703679407 34.432800892107423 0 0 0 0 2.0955161399688222 62.959065252854998 0 62.959065252854998 23.956333026443644 0 0 0 0 1.0859802427203249 39.653736972749812 0 39.653736972749812 36.125593023814872 0 0 0 0 -17.410114285306918 37.066194095444644 0 37.066194095444644 13.865443740105547 0 0 0 0 16.815778148929894 53.644804439283234 0 53.644804439283234 10.749395369781269 0 0 0 0 16.1329213280369 45.564504496202062 0 45.564504496202062 7.872000922126972 0 0 0 0 -14.528744263464361 14.404931720115073 0 14.404931720115073 -10.618177796660202 0 0 0 0 -3.31333758744222 100.05688289802947 0 100.05688289802947 118.66845046986782 0 0 0 0 71.977858491503866 58.105753894096779 0 58.105753894096779 50.317472417078534 0 0 0 0 -24.489903248484907 12.014034038374767 0 12.014034038374767 -4.5008979986866073 0 0 0 0 -45.722280520276399 -16.008440414490906 0 -16.008440414490906 -330.06768144875696 0 0 0 0 341.27621707533035 120.48969998729626 0 120.48969998729626 -375.9816510681685 0 0 0 0 -33.575900723721134 279.16236952061172 0 279.16236952061172 237.74579703770723 0 0 0 0 -105.62100197748805 -440.64987118310273 0 -440.64987118310273 314.04927074098669 0 0 0 0 -135.2835104859987 101.17501773851836 0 101.17501773851836 484.24649035922994 0 0 0 0 4.8163123112194342 2.928533071396167 0 2.928533071396167 1.9185565473753954 0 0 0 0 -150.6130855738993 75.363940686736896 0 75.363940686736896 38.461024553686002 0 0 0 0 213.95917011834842 -35.264897563945169 0 -35.264897563945169 1.7174192168276932 0 0 0 0 14.969837199110771 19.630574711402005 0 19.630574711402005 -6.4574208409467246 0 0 0 0 228.35534601299435 268.15477619352447 0 268.15477619352447 91.752749469560513 0 0 0 0 5.5517594060729607 79.467802875914458 0 79.467802875914458 -41.350723542702326 0 0 0 0 16.598370654077954 53.117720182363179 0 53.117720182363179 5.1272173365295686 0 0 0 0 -190.22283767249974 213.21357186082605 0 213.21357186082605 78.259710847432871 0 0 0 0 -13.343974078023166 47.298627051171934 0 47.298627051171934 36.1166485411959 0 0 0 0 -344.06256406314787 14.916329210340336 0 14.916329210340336 -110.61422199352819 0 0 0 0 -16.765851132915998 15.093543251997833 0 15.093543251997833 -2.6621266449357712 0 0 0 0 5.5223210702457806 72.650422709405731 0 72.650422709405731 -6.6177117966515624 0 0 0 0 -98.505919028437347 116.55248934183828 0 116.55248934183828 -153.70755877938791 0 0 0 0 -18.74861222931689 20.689993503953936 0 20.689993503953936 -5.6935865966946295 0 0 0 0 -36.10432628383569 -395.32186309194731 0 -395.32186309194731 -164.23776920241653 0 0 0 0 74.399039934003667 73.486565409308241 0 73.486565409308241 17.874270480206178 0 0 0 0 88.99036353493284 105.57405368080435 0 105.57405368080435 55.925000226350676 0 0 0 0 90.015267998969648 86.733857739476662 0 86.733857739476662 30.470515028544469 0 0 0 0 70.191570423223311 52.744571203649684 0 52.744571203649684 9.1157939989279839 0 0 0 0 100.78354460334231 88.553647906890546 0 88.553647906890546 2.2894350485639734 0 0 0 0 204.43697964673629 48.522144418035168 0 48.522144418035168 10.659929213950818 0 0 0 0 147.40025780518772 116.71166014136907 0 116.71166014136907 29.749438574110115 0 0 0 0 141.65891924638709 76.510024017105025 0 76.510024017105025 7.1703340045642108 0 0 0 0 169.06486394505191 -19.75811259377042 0 -19.75811259377042 84.18375736894086 0 0 0 0 44.568511522287736 53.473071993958001 0 53.473071993958001 52.968500133771158 0 0 0 0 -4.4826617348601872 17.244939093559459 0 17.244939093559459 -1.357251922213635 0 0 0 0 185.60531018482288 99.059366093446442 0 99.059366093446442 94.234503650208353 0 0 0 0 8.4194338553293875 8.3413765247648133 0 8.3413765247648133 7.1724016037138227 0 0 0 0 115.85280541281099 125.37151354900925 0 125.37151354900925 51.857096445752177 0 0 0 0 59.160608480175142 117.07669833908949 0 117.07669833908949 -524.00891121152017 0 0 0 0 33.384750722526405 84.591641865338261 0 84.591641865338261 -52.223562716604647 0 0 0 0 -207.00084837082977 3.8615180442320707 0 3.8615180442320707 71.519529424135726 0 0 0 0 -213.04572319629369 171.44413163965328 0 171.44413163965328 199.30805716026498 0 0 0 0 81.359951139369514 -37.911939027209883 0 -37.911939027209883 123.17384062281417 0 0 0 0 -7.9564342029079853 1.3596271584893707 0 1.3596271584893707 1.0869030283695125 0 0 0 0 -1.1886886355674307 0.092613686929556849 0 0.092613686929556849 1.1740289836984203 0 0 0 0 149.38318908559449 273.36372922737428 0 273.36372922737428 -919.27446591256012 0 0 0 0 -202.83540346044174 764.37874856757844 0 764.37874856757844 -753.06839389144534 0 0 0 0 -237.52684800625138 -255.50403862665553 0 -255.50403862665553 -784.11944920980159 0 0 0 0 -395.74439793657803 591.3390902617175 0 591.3390902617175 -351.32054211915965 0 0 0 0 -195.97269994902308 125.67485208845028 0 125.67485208845028 148.49151462751979 0 0 0 0 -301.72991260132403 355.06907756936198 0 355.06907756936198 -78.989188775262846 0 0 0 0 -402.30463789097848 379.65650279974216 0 379.65650279974216 -16.400119528385403 0 0 0 0 -114.06840530956106 178.34903005295746 0 178.34903005295746 -29.967816048167151 0 0 0 0 -74.188412573261303 72.076097501718323 0 72.076097501718323 61.2130592424528 0 0 0 0 -68.272273063004832 85.248400922060682 0 85.248400922060682 50.576060428204073 0 0 0 0 2.5679612251842627 -17.187123724852427 0 -17.187123724852427 119.38351716274337 0 0 0 0 52.689123791918973 75.724648180053009 0 75.724648180053009 -19.006391423281457 0 0 0 0 36.874537483970926 50.226679816238175 0 50.226679816238175 -8.6640515491999395 0 0 0 0 -49.610950283153215 140.86178512907964 0 140.86178512907964 -8.6557225904252846 0 0 0 0 -36.956767208959718 -44.21292847517725 0 -44.21292847517725 41.65680296026585 0 0 0 0 168.96031966115061 -90.322582488686749 0 -90.322582488686749 -11.837871125753736 0 0 0 0 249.36984776277404 161.21701426263189 0 161.21701426263189 47.100107861730066 0 0 0 0 34.662920137277979 77.301745423883403 0 77.301745423883403 18.187618519465104 0 0 0 0 -7.8902871977644224 3.2239147895884557 0 3.2239147895884557 0.82892357917035042 0 0 0 0 -106.92100006609871 31.597692322642615 0 31.597692322642615 36.747995204548715 0 0 0 0 -8.6249180416157287 23.85976401077653 0 23.85976401077653 -57.682715580704098 0 0 0 0 0.43649849576304511 0.79767892004935703 0 0.79767892004935703 0.93315388892364837 0 0 0 0 123.41506505825964 156.27446105742001 0 156.27446105742001 116.33425918463763 0 0 0 0 -173.08867866481887 -37.349047811705532 0 -37.349047811705532 28.593052058280591 0 0 0 0 -259.25877915180354 14.609383458632237 0 14.609383458632237 85.495299879243248 0 0 0 0 -47.293528622147278 -25.244243894929241 0 -25.244243894929241 -50.586528565611388 0 0 0 0 178.50167806469653 137.49676148590243 0 137.49676148590243 73.362233886011381 0 0 0 0 166.20405317111727 209.53407973389403 0 209.53407973389403 120.22621033869018 0 0 0 0 265.08383032645543 143.61909293662484 0 143.61909293662484 72.895638150850573 0 0 0 0 -0.46483842536076025 2.6142670546397966 0 2.6142670546397966 -0.48689744417914227 0 0 0 0 -18.51261009459995 4.2208020651505649 0 4.2208020651505649 153.08888095113798 0 0 0 0 -2.681153807138422 8.844261828234238 0 8.844261828234238 -5.9136600050745116 0 0 0 0 1.5608099971977936 13.729403158178684 0 13.729403158178684 5.4505198332080909 0 0 0 0 -7.7818671193253337 8.1087264673658233 0 8.1087264673658233 -5.6780508293596235 0 0 0 0 -0.0084298314159241272 16.587836003835946 0 16.587836003835946 0.49649779333776678 0 0 0 0 -3.9084043761919816 10.4845266402089 0 10.4845266402089 -9.9544393770800319 0 0 0 0 6.8164473567085224 -20.375855132206198 0 -20.375855132206198 38.681100365887687 0 0 0 0 -10.946136014783406 34.51173552633918 0 34.51173552633918 5.2931488872594912 0 0 0 0 7.7281881931703538 62.154236997484986 0 62.154236997484986 56.566958970608539 0 0 0 0 -22.348236870279344 5.8790987943796544 0 5.8790987943796544 8.2184280178825801 0 0 0 0 -11.173788671829527 10.821534894072908 0 10.821534894072908 -7.2220889509693365 0 0 0 0 13.857459583978198 54.297451302101763 0 54.297451302101763 6.6349984928892809 0 0 0 0 16.266935706195 -6.1629582277319059 0 -6.1629582277319059 -81.507065271431202 0 0 0 0 32.052687802064611 184.54731690912377 0 184.54731690912377 -132.46097687085376 0 0 0 0 -9.12351375321159 1.8471178808385247 0 1.8471178808385247 4.8186172971556402 0 0 0 0 19.346256921427994 121.99189632566595 0 121.99189632566595 30.08690284397926 0 0 0 0 -6.3858464066470333 67.206375121410019 0 67.206375121410019 57.813356656628457 0 0 0 0 -0.73229740494934958 113.65089871704913 0 113.65089871704913 205.06173824440975 0 0 0 0 13.715498412428133 81.659425615445798 0 81.659425615445798 64.965343418125485 0 0 0 0 21.986523540541384 77.519730059731955 0 77.519730059731955 33.915303172469066 0 0 0 0 54.057937272929848 91.845553785343327 0 91.845553785343327 17.863393433559395 0 0 0 0 11.479359011544148 45.165708532376811 0 45.165708532376811 6.479701770527754 0 0 0 0 -25.322420800221153 41.951846049389133 0 41.951846049389133 82.813737514753484 0 0 0 0 -35.226149209360301 -5.9164360353825032 0 -5.9164360353825032 338.158761233723 0 0 0 0 14.381798350328609 140.14565043312541 0 140.14565043312541 101.74149783171742 0 0 0 0 11.485512635910709 45.801370806948398 0 45.801370806948398 12.961539360931056 0 0 0 0 10.89594440605714 11.04358746098756 0 11.04358746098756 4.1107082327899391 0 0 0 0 21.523088622881914 42.860486167795898 0 42.860486167795898 1.4919978465622989 0 0 0 0 9.3438826900819549 31.698677419168234 0 31.698677419168234 15.566570809957739 0 0 0 0 -5.6072321158997305 16.394109879692614 0 16.394109879692614 -9.1645899738833307 0 0 0 0 9.0672286523949879 24.979479150890256 0 24.979479150890256 -6.3812389968652496 0 0 0 0 137.71773782678582 41.396005121832786 0 41.396005121832786 -38.704349244831974 0 0 0 0 -0.54310163904665387 28.799003979993358 0 28.799003979993358 6.6892763069699868 0 0 0 0 -11.98320349228068 22.651701822321733 0 22.651701822321733 -1.8544861858853778 0 0 0 0 4.9893446886335369 11.512118108482355 0 11.512118108482355 -30.319675961640314 0 0 0 0 17.401139533474634 28.24828643084038 0 28.24828643084038 -0.1175892411993118 0 0 0 0 -7.2396206361921998 13.595408777506679 0 13.595408777506679 -11.822610623382523 0 0 0 0 44.340942665545299 53.903514445524706 0 53.903514445524706 -35.110450991392781 0 0 0 0 53.056321834221308 76.699528387546707 0 76.699528387546707 -2.8774134006525856 0 0 0 0 -30.289872819714443 29.066935585557175 0 29.066935585557175 2.643353067990617 0 0 0 0 240.2528890837923 67.704602553135373 0 67.704602553135373 -363.42479259846004 0 0 0 0 -36.030086096184512 27.862820830589911 0 27.862820830589911 -8.7402745969061897 0 0 0 0 168.53331120612893 277.10022066775127 0 277.10022066775127 -10.50912734096346 0 0 0 0 63.699198544008141 51.819884701144474 0 51.819884701144474 79.082038748207196 0 0 0 0 209.15874652736483 41.118980897811525 0 41.118980897811525 14.475643248275446 0 0 0 0 27.702980079350255 108.04833910304751 0 108.04833910304751 -6.1602751418322441 0 0 0 0 16.133977244356174 74.235501229959482 0 74.235501229959482 -75.079654471679532 0 0 0 0 27.375507383474996 56.935943475504246 0 56.935943475504246 -49.135191656794632 0 0 0 0 76.162682671098082 2.0609784679218137 0 2.0609784679218137 -9.6382310927807566 0 0 0 0 78.438537877363615 27.448991354609461 0 27.448991354609461 17.357911073167543 0 0 0 0 -26.876545496640119 24.71689427156889 0 24.71689427156889 -9.8315945346057561 0 0 0 0 -60.821628998232995 112.07941208123975 0 112.07941208123975 -147.25693354976829 0 0 0 0 -86.622092403697025 53.116527299964218 0 53.116527299964218 -5.1245996174657193 0 0 0 0 -78.987754991703696 76.334231584727604 0 76.334231584727604 -69.878195145995051 0 0 0 0 -25.64363631606011 65.671083837634797 0 65.671083837634797 -88.205811937179533 0 0 0 0 -48.057178189919796 82.19427718787847 0 82.19427718787847 -101.53694701369386 0 0 0 0 -57.246730724766621 125.79396890862517 0 125.79396890862517 -168.800607793979 0 0 0 0 -1.8512157109898908 162.15307978837518 0 162.15307978837518 -376.10299778172953 0 0 0 0 -23.303466249266876 52.209384855589178 0 52.209384855589178 -222.10566397959701 0 0 0 0 -84.513150423457773 39.520491055256571 0 39.520491055256571 387.12483608998127 0 0 0 0 -3.8053024013338987 -0.62436641241495039 0 -0.62436641241495039 0.076531313117877087 0 0 0 0 -159.02352321219422 234.29691797825171 0 234.29691797825171 -131.87375543358212 0 0 0 0 -182.19856091385509 98.057141396417137 0 98.057141396417137 -26.197711602522759 0 0 0 0 -1.539582026343906 0.76333983166578889 0 0.76333983166578889 -0.41826392363363851 0 0 0 0 -101.72482515663 22.316266399818005 0 22.316266399818005 -3.941796007740777 0 0 0 0 -117.5794798662937 128.02686434514726 0 128.02686434514726 -94.586804927177582 0 0 0 0 -27.541792257350608 104.62980984525166 0 104.62980984525166 -223.95458235634396 0 0 0 0 -32.102061010932175 90.872328360058418 0 90.872328360058418 -150.88202979692505 0 0 0 0 -10.330633981822956 1.0544751309689246 0 1.0544751309689246 -0.072573315413026585 0 0 0 0 -20.692222628749732 7.96288819325855 0 7.96288819325855 -56.788324387900502 0 0 0 0 -66.2833250137287 61.349532369102235 0 61.349532369102235 -50.919884585022373 0 0 0 0 -27.055860639962248 52.471668483066878 0 52.471668483066878 -138.17348534240227 0 0 0 0 -21.368266163945009 33.703403986030025 0 33.703403986030025 -62.192461305404322 0 0 0 0 -59.09475130688952 10.971895710329591 0 10.971895710329591 29.660380287423322 0 0 0 0 -1.0040412538341812 -4.0977061877316103 0 -4.0977061877316103 2.0926313672464953 0 0 0 0 -12.983166065789192 -23.36265467456542 0 -23.36265467456542 -14.429860865468072 0 0 0 0 16.406621384187019 62.375238588052525 0 62.375238588052525 85.542262105323971 0 0 0 0 7.2755679718520696 83.02500003331852 0 83.02500003331852 55.95490602332211 0 0 0 0 10.274142877845406 40.955632682949272 0 40.955632682949272 72.949449730600463 0 0 0 0 0.76495701785438541 16.240134323849816 0 16.240134323849816 166.99257431289152 0 0 0 0 -22.272864747006679 88.798617677744915 0 88.798617677744915 116.00083529354197 0 0 0 0 -46.17063365577269 54.912899901992205 0 54.912899901992205 228.84163312389165 0 0 0 0 -13.31705671245436 86.671156620562215 0 86.671156620562215 96.396270012071909 0 0 0 0 -30.292164447073446 77.613769593370307 0 77.613769593370307 177.39180307040533 0 0 0 0 -6.4951797478370281 86.998537608284096 0 86.998537608284096 179.92153556892663 0 0 0 0 13.571126445476011 76.424869316372224 0 76.424869316372224 95.515371177185443 0 0 0 0 -60.378554225981134 66.427234479848266 0 66.427234479848266 82.403441088805266 0 0 0 0 -46.465074411094974 82.311658624985284 0 82.311658624985284 95.82579381337564 0 0 0 0 -49.858082344944705 51.266533363563212 0 51.266533363563212 65.252685617742827 0 0 0 0 -19.2367303122046 62.083761554764351 0 62.083761554764351 69.046110402938211 0 0 0 0 -111.25019251491358 38.067207962874818 0 38.067207962874818 18.536843819554633 0 0 0 0 -56.008306889738378 64.300165069378636 0 64.300165069378636 53.156212292858982 0 0 0 0 -46.947681150983044 71.337727948211977 0 71.337727948211977 35.578040417691227 0 0 0 0 -41.983232424277958 59.065716884062567 0 59.065716884062567 43.875074922536442 0 0 0 0 -116.18144080860657 116.97899081332434 0 116.97899081332434 38.901102833711775 0 0 0 0 -27.867980151690062 104.04303951597831 0 104.04303951597831 40.06538251298366 0 0 0 0 -41.056712155586865 111.26686296946173 0 111.26686296946173 67.757033500522084 0 0 0 0 -4.8237555697851349 77.702488370388892 0 77.702488370388892 84.252143020123185 0 0 0 0 -10.326541660321709 101.27121420952199 0 101.27121420952199 50.437516514386516 0 0 0 0 6.9061108752885048 109.80407147238475 0 109.80407147238475 12.119225839411229 0 0 0 0 -19.863746334449388 117.58142878051513 0 117.58142878051513 10.75450915780857 0 0 0 0 21.615778460807633 96.111885798052754 0 96.111885798052754 11.429509037050593 0 0 0 0 17.208182535294327 89.923027664999609 0 89.923027664999609 43.128022226766916 0 0 0 0 -13.726012203846949 120.65609209021022 0 120.65609209021022 318.21423661917652 0 0 0 0 -154.8321114759342 121.02098617832689 0 121.02098617832689 319.36396429928936 0 0 0 0 -4.0384042107931464 101.55937998969608 0 101.55937998969608 15.251459326147597 0 0 0 0 -41.239518054873308 23.0515155376998 0 23.0515155376998 -4.2590149458425941 0 0 0 0 -43.959820791376842 71.16127463823068 0 71.16127463823068 222.69779172631388 0 0 0 0 61.059125128091409 -43.695389644368333 0 -43.695389644368333 259.79321330430321 0 0 0 0 1.9358173077418996 17.845246263568924 0 17.845246263568924 107.92737876116735 0 0 0 0 -9.9335360269014927 84.778392142408848 0 84.778392142408848 74.908736177614628 0 0 0 0 -22.919177759891681 5.9807136770596117 0 5.9807136770596117 47.557313398701808 0 0 0 0 -44.669830810713393 29.986005521841435 0 29.986005521841435 107.59220840580758 0 0 0 0 -38.878302078878733 43.765279694074707 0 43.765279694074707 -1.8434142360274564 0 0 0 0 -44.211706925711042 53.209648820507937 0 53.209648820507937 63.124099485507031 0 0 0 0 -20.781371398654301 27.16370429766539 0 27.16370429766539 6.1448108711920213 0 0 0 0 -33.350646096543883 21.388169330870234 0 21.388169330870234 -1.0397739057038393 0 0 0 0 14.296328942794389 75.421319833554207 0 75.421319833554207 16.919195578062499 0 0 0 0 -99.021868308020203 49.247553588767914 0 49.247553588767914 56.598886989795574 0 0 0 0 -85.132268823233971 60.603778551825599 0 60.603778551825599 25.247184519877919 0 0 0 0 -29.850561312923674 15.495446846429331 0 15.495446846429331 31.552868719469188 0 0 0 0 -114.00535940558984 58.259521172824861 0 58.259521172824861 33.143739374576398 0 0 0 0 -21.179864467085281 69.348992517820079 0 69.348992517820079 19.184882275949349 0 0 0 0 -18.805425521135476 66.884043608236425 0 66.884043608236425 -13.72137903010298 0 0 0 0 -18.050410963234754 57.547279619525398 0 57.547279619525398 -22.283991799991782 0 0 0 0 1.487526213268211 35.239787489398623 0 35.239787489398623 -9.5224629610966076 0 0 0 0 -13.450682265631087 28.631309284202167 0 28.631309284202167 -11.619638863037835 0 0 0 0 -10.654657681077767 23.201858590539523 0 23.201858590539523 2.5086420119292612 0 0 0 0 17.939739405657747 48.933400851079568 0 48.933400851079568 -4.4391593482441749 0 0 0 0 4.6162796665066708 39.929097405042739 0 39.929097405042739 17.013963025819976 0 0 0 0 -215.16587551804423 79.72567562472841 0 79.72567562472841 -20.952495718098362 0 0 0 0 35.128236362732423 42.151668682839954 0 42.151668682839954 -11.954036646573513 0 0 0 0 6.7878006191709677 2.8393019890041717 0 2.8393019890041717 -1.7686388991614166 0 0 0 0 -2.7034941975746323 1.1748201262773277 0 1.1748201262773277 0.38616804981590036 0 0 0 0 -90.512781638943125 -0.72904294305772055 0 -0.72904294305772055 -31.131865269664559 0 0 0 0 -255.44444040431881 -7.5506572839003638 0 -7.5506572839003638 3.5471006987359033 0 0 0 0 -58.022720139821104 28.064092996570253 0 28.064092996570253 -6.2628240871817979 0 0 0 0 -29.357181398834655 103.69674528123505 0 103.69674528123505 -31.760758806492959 0 0 0 0 -29.233073944700664 135.82893680147026 0 135.82893680147026 -24.575313666242437 0 0 0 0 -99.666349947521667 162.97671089167852 0 162.97671089167852 -67.934646747929946 0 0 0 0 35.995905354549905 112.38273816129913 0 112.38273816129913 -26.200435219645442 0 0 0 0 53.075569990440272 96.656091670382011 0 96.656091670382011 -23.601935512122509 0 0 0 0 -25.773733875315884 117.73848164940864 0 117.73848164940864 -16.7739308987002 0 0 0 0 32.4447300723441 108.40304667044165 0 108.40304667044165 -16.096943954755261 0 0 0 0 24.237456661317992 134.09587049290894 0 134.09587049290894 -46.387839998482377 0 0 0 0 70.245211306515557 110.53251669947895 0 110.53251669947895 -63.862599772965041 0 0 0 0 70.40222840759688 81.107033753661 0 81.107033753661 -28.84256915538208 0 0 0 0 -61.445141351698112 88.065121015419209 0 88.065121015419209 -2.8148775077434038 0 0 0 0 110.16079904295611 63.25492804995838 0 63.25492804995838 -7.0016158726793947 0 0 0 0 81.026670131037463 163.24489048375472 0 163.24489048375472 -2.5561008898221189 0 0 0 0 -218.09904825797912 73.79951663524389 0 73.79951663524389 -4.8383833461557515 0 0 0 0 -79.177412953813473 145.60285898733946 0 145.60285898733946 -17.313939335668692 0 0 0 0 -155.17848876862445 -11.901627821798684 0 -11.901627821798684 -44.69262490391543 0 0 0 0 -6.5912843853471603 21.441925659400802 0 21.441925659400802 8.4538775294132407 0 0 0 0 -524.41980911922565 17.244907529302509 0 17.244907529302509 206.11749634706848 0 0 0 0 -119.60201000015149 149.02184970640701 0 149.02184970640701 156.00030248705116 0 0 0 0 121.24419812845917 153.7052085478249 0 153.7052085478249 149.24450662482195 0 0 0 0 88.326817285273137 80.82587101984609 0 80.82587101984609 11.552179990537752 0 0 0 0 137.1164703706163 179.75633333082533 0 179.75633333082533 78.215649030255008 0 0 0 0 203.87064221357423 5.2916263990814514 0 5.2916263990814514 160.98556729364645 0 0 0 0 -15.98454416397658 134.91116778575713 0 134.91116778575713 137.26237015898369 0 0 0 0 -131.80754567581789 -26.488382678101516 0 -26.488382678101516 285.42519482073567 0 0 0 0 -166.24704921939929 110.54873760446867 0 110.54873760446867 -125.89753117830332 0 0 0 0 18.483445123714773 36.966178126181148 0 36.966178126181148 6.1029490918915599 0 0 0 0 5.3054542688296351 21.2884259522707 0 21.2884259522707 7.2856222400569095 0 0 0 0 0.78083830873038096 39.70801475983626 0 39.70801475983626 -3.4923857979574677 0 0 0 0 11.068762526843784 23.909758997820973 0 23.909758997820973 12.958086121551787 0 0 0 0 48.167620746346074 26.718057316525346 0 26.718057316525346 -1.9130409161389252 0 0 0 0 3.7693171743344465 46.45343505168421 0 46.45343505168421 -25.979731961968355 0 0 0 0 -5.0055109197342063 42.100749327920425 0 42.100749327920425 -26.899434044982627 0 0 0 0 -25.472561130407485 93.892106595603764 0 93.892106595603764 -68.053222401465973 0 0 0 0 48.083813740266123 47.159006965706794 0 47.159006965706794 -41.48687011543916 0 0 0 0 -59.615176356401662 66.878582769203376 0 66.878582769203376 11.144072349630733 0 0 0 0 -13.069969081975387 29.9043314756982 0 29.9043314756982 -30.665031898588495 0 0 0 0 -23.030282528337921 48.318892209779278 0 48.318892209779278 -23.685286248761258 0 0 0 0 -29.453549113884108 29.128585752824861 0 29.128585752824861 -21.135289834392179 0 0 0 0 15.728979525320028 84.910998650512738 0 84.910998650512738 109.90245675100778 0 0 0 0 133.69761685343474 50.608416924951598 0 50.608416924951598 53.224099555562134 0 0 0 0 164.06607591301963 119.45520775864634 0 119.45520775864634 51.625401983837946 0 0 0 0 227.00746148202961 135.8665509389175 0 135.8665509389175 49.765508874044826 0 0 0 0 202.3666308988677 155.86872179319698 0 155.86872179319698 70.915740350774286 0 0 0 0 153.05026602702856 84.267829322482612 0 84.267829322482612 76.523021542934657 0 0 0 0 181.3578161774949 178.85003376651593 0 178.85003376651593 65.044357068696627 0 0 0 0 315.91892398600248 34.51248818492968 0 34.51248818492968 64.265861753986428 0 0 0 0 263.18702303242208 144.06508691027921 0 144.06508691027921 5.9790001641631534 0 0 0 0 -25.075652866486053 -1.2293181350405575 0 -1.2293181350405575 26.275498900037292 0 0 0 0 -1.6397687938572094 17.945449865962772 0 17.945449865962772 -19.969373230631916 0 0 0 0 -21.371955733407276 33.760246486626784 0 33.760246486626784 -20.871464560752429 0 0 0 0 57.645441154232685 131.48501401881094 0 131.48501401881094 82.127461570460127 0 0 0 0 -2.2350611152476176 21.642058303172348 0 21.642058303172348 -13.235421586618031 0 0 0 0 2.3491529388716117 26.402596113272011 0 26.402596113272011 -10.100105970581353 0 0 0 0 2.9174499089545458 15.799353692960242 0 15.799353692960242 -2.1004211030328506 0 0 0 0 68.35786860072767 -25.108520043695535 0 -25.108520043695535 24.957219167712537 0 0 0 0 291.94444419298952 32.671926323995422 0 32.671926323995422 -38.118284219486668 0 0 0 0 236.4958262359396 -57.333468392986106 0 -57.333468392986106 8.9097772773639008 0 0 0 0 -1.8051782009789648 2.993816103337462 0 2.993816103337462 0.87807378796510704 0 0 0 0 123.20072137178613 35.323661072749019 0 35.323661072749019 -7.9831440298421512 0 0 0 0 143.72338426669739 97.564032979795229 0 97.564032979795229 -51.873699121937534 0 0 0 0 66.025142200049231 103.11804908351587 0 103.11804908351587 -34.128911036765203 0 0 0 0 142.75820641311657 20.360404631758684 0 20.360404631758684 -18.214835760958522 0 0 0 0 64.270311769403634 50.175650284869334 0 50.175650284869334 -17.135006844189775 0 0 0 0 67.069934474351612 64.942903846265835 0 64.942903846265835 -19.105370258803305 0 0 0 0 53.321911288941919 94.266045644013502 0 94.266045644013502 -13.721408307526872 0 0 0 0 80.204017675365321 56.651746853762234 0 56.651746853762234 -18.71212490409016 0 0 0 0 87.280130372435451 89.877725992389969 0 89.877725992389969 -32.94256229001985 0 0 0 0 3.2490034014814864 13.696786199734433 0 13.696786199734433 13.3947972509891 0 0 0 0 -12.623689607299923 23.17457930618491 0 23.17457930618491 6.3265232651938277 0 0 0 0 6.2237490344716146 12.592502192491999 0 12.592502192491999 4.7191268682827427 0 0 0 0 -4.7028271864892304 24.261368291918188 0 24.261368291918188 32.972318674299459 0 0 0 0 -2.3140646985893376 0.16412835412567262 0 0.16412835412567262 1.1169403325777765 0 0 0 0 92.234281224209553 33.130460685426442 0 33.130460685426442 -12.710616503351048 0 0 0 0 2.7904318096801561 3.2464991339296319 0 3.2464991339296319 0.004253993097051989 0 0 0 0 36.375946682081121 31.713552454857563 0 31.713552454857563 -11.771324872336663 0 0 0 0 -4.3994108171773405 22.197312929543841 0 22.197312929543841 6.4106261337155956 0 0 0 0 -3.6507727875077762 26.386899066980732 0 26.386899066980732 11.000676397463394 0 0 0 0 12.262479836421043 17.691894404464666 0 17.691894404464666 15.042730449287475 0 0 0 0 36.6469843827972 36.494646809354435 0 36.494646809354435 5.7766223097748934 0 0 0 0 18.648304588892188 34.12193046684024 0 34.12193046684024 22.756283203463681 0 0 0 0 6.1789566606730659 17.540502251552425 0 17.540502251552425 12.67678375465448 0 0 0 0 -0.24742614009119279 17.54064361118435 0 17.54064361118435 11.508950651410487 0 0 0 0 14.374792641021259 25.473203980060134 0 25.473203980060134 -20.305909693756348 0 0 0 0 19.593600644772323 14.535232262168392 0 14.535232262168392 2.6178903471882222 0 0 0 0 29.971962365973013 11.806262629799676 0 11.806262629799676 3.3106592670228565 0 0 0 0 35.028116173697526 40.852143193476877 0 40.852143193476877 -44.507064174833431 0 0 0 0 30.647798372099714 4.0916703187212988 0 4.0916703187212988 39.503379368936294 0 0 0 0 60.655341876920829 38.984928938893972 0 38.984928938893972 75.147295671544271 0 0 0 0 8.5923298543503606 -4.5158210027569758 0 -4.5158210027569758 -7.8211538293003358 0 0 0 0 61.589136629813765 7.0469721863082668 0 7.0469721863082668 -1.9933664373929787 0 0 0 0 0.4972650664307654 2.4425223074621059 0 2.4425223074621059 1.4068688336853938 0 0 0 0 29.030957148173002 11.303794668656337 0 11.303794668656337 4.605538604377216 0 0 0 0 32.866926766210781 48.383606031962245 0 48.383606031962245 23.014021516351477 0 0 0 0 28.038904596736984 19.424942841683162 0 19.424942841683162 12.956926632432442 0 0 0 0 8.1494722916911329 2.4655280647281597 0 2.4655280647281597 -5.9146668098155892 0 0 0 0 49.359280972169017 1.5318963997078754 0 1.5318963997078754 1.9181366574412095 0 0 0 0 18.421702458942946 29.418258044910544 0 29.418258044910544 48.581434980609629 0 0 0 0 26.281820651636735 16.82024815083696 0 16.82024815083696 11.815050560117015 0 0 0 0 4.5688161811537711 1.4476808312377187 0 1.4476808312377187 -1.9061243321840386 0 0 0 0 15.128254027924868 8.4697381582905109 0 8.4697381582905109 23.297609252235816 0 0 0 0 8.0907156869793653 8.869595445779396 0 8.869595445779396 4.3624422229877382 0 0 0 0 14.862040206473466 5.593398459830496 0 5.593398459830496 1.1329339187250298 0 0 0 0 0.89575008928876088 4.2602529285094892 0 4.2602529285094892 10.504886979326191 0 0 0 0 7.1533532255834871 2.3655385314255 0 2.3655385314255 40.3942834381387 0 0 0 0 3.6551525059073429 10.577901793334181 0 10.577901793334181 10.071741046928828 0 0 0 0 6.9115365884488575 4.6261891661320629 0 4.6261891661320629 0.40644149110850591 0 0 0 0 10.254319391999161 27.111682217753696 0 27.111682217753696 6.0828886989074817 0 0 0 0 15.435492529530364 23.602710630915606 0 23.602710630915606 11.757452653799916 0 0 0 0 -2.1697703016379819 27.201170722863026 0 27.201170722863026 7.331904483748076 0 0 0 0 -1.5958211661695714 25.721584761354507 0 25.721584761354507 11.515011649396911 0 0 0 0 16.357152241216681 18.687499420237145 0 18.687499420237145 14.339572511060396 0 0 0 0 8.5127208480655323 14.926240617590389 0 14.926240617590389 4.5165161177775559 0 0 0 0 -17.826049961603182 17.962151816349955 0 17.962151816349955 9.8520292122829218 0 0 0 0 3.1599649226982365 18.268274445417774 0 18.268274445417774 15.593909741553944 0 0 0 0 3.0253573300469725 16.785080666119029 0 16.785080666119029 11.221906664417475 0 0 0 0 1.1882741033994302 11.654282956975951 0 11.654282956975951 8.7486533979791972 0 0 0 0 5.7004503034494292 19.833735349127892 0 19.833735349127892 12.138649782107677 0 0 0 0 2.0864567677554078 26.640801420428033 0 26.640801420428033 11.727039534896903 0 0 0 0 3.8539539144410924 24.036551255436279 0 24.036551255436279 9.1026276091070031 0 0 0 0 -1.0695351231765926 15.056059444394123 0 15.056059444394123 7.3169054644058633 0 0 0 0 12.948817546908685 23.507558620411146 0 23.507558620411146 -118.81068731051528 0 0 0 0 5.6311215079742887 12.707505963804127 0 12.707505963804127 1.8025973734009622 0 0 0 0 3.4775917045423581 15.030919704591353 0 15.030919704591353 5.9753699271571818 0 0 0 0 2.9947768170904965 23.280954691017541 0 23.280954691017541 18.453910439937317 0 0 0 0 12.894726221018573 20.360953829705977 0 20.360953829705977 18.028953749173525 0 0 0 0 -3.6053998124469011 10.120709179021782 0 10.120709179021782 6.3756360349929153 0 0 0 0 20.799413981223552 30.319125054747929 0 30.319125054747929 -133.57740884606028 0 0 0 0 3.0116384006216776 21.288756690444643 0 21.288756690444643 3.3018028808292001 0 0 0 0 2.8355910215850182 19.096843768270226 0 19.096843768270226 12.170242384832253 0 0 0 0 5.1182817728848553 23.385735416287854 0 23.385735416287854 2.4633205790168518 0 0 0 0 3.3158024181193468 19.941365484017297 0 19.941365484017297 0.27290416820324026 0 0 0 0 -3.1899973339877761 28.600604843430119 0 28.600604843430119 12.100944874815468 0 0 0 0 -0.69830758411275085 22.385085750866182 0 22.385085750866182 13.533423110395614 0 0 0 0 -4.8521477346939719 33.877758046033705 0 33.877758046033705 19.244230082200374 0 0 0 0 12.842626531372083 26.977494336919577 0 26.977494336919577 7.1974797075110857 0 0 0 0 -4.3729527582081573 35.442619482288137 0 35.442619482288137 15.274378756526858 0 0 0 0 7.9020504305281065 21.832280739341968 0 21.832280739341968 42.197738884746286 0 0 0 0 5.8144998259504064 26.471970859902285 0 26.471970859902285 12.3344534013886 0 0 0 0 4.0305977435420859 19.741094620589827 0 19.741094620589827 9.7298523117698181 0 0 0 0 -1.014381005755113 21.272914422557914 0 21.272914422557914 20.510614681506784 0 0 0 0 -0.9786343131496551 25.78742738852452 0 25.78742738852452 11.865639573454246 0 0 0 0 20.357661711201217 60.829808478029008 0 60.829808478029008 4.9297021866532305 0 0 0 0 23.29310986501514 71.609068876437959 0 71.609068876437959 42.851506763887301 0 0 0 0 39.096872550548142 84.518052669798635 0 84.518052669798635 -7.7425952829053131 0 0 0 0 46.534867932079578 72.41839345324297 0 72.41839345324297 5.5950284674945578 0 0 0 0 33.526714238418208 53.851223695986846 0 53.851223695986846 -20.878060908668886 0 0 0 0 12.420797255734215 54.286566996247529 0 54.286566996247529 35.459485814844811 0 0 0 0 9.5137441711209547 16.46775556435162 0 16.46775556435162 11.761777336567633 0 0 0 0 -1.7540555397645221 24.387687145221207 0 24.387687145221207 8.120966330758165 0 0 0 0 5.1998257384911994 31.475165310388547 0 31.475165310388547 -4.7223961543058977 0 0 0 0 -6.4863392838669824 47.492542306470568 0 47.492542306470568 23.246085741531715 0 0 0 0 6.1073949422425358 42.201384754207538 0 42.201384754207538 12.402553157591683 0 0 0 0 -13.126450782274333 47.190223749337747 0 47.190223749337747 -8.3194784850602446 0 0 0 0 35.691460768077377 49.041819321566436 0 49.041819321566436 -16.773636950063519 0 0 0 0 -7.5080411861308676 33.271429432556033 0 33.271429432556033 8.3662481898682017 0 0 0 0 -6.8788836568928673 44.447854952759371 0 44.447854952759371 21.72145111851205 0 0 0 0 -7.3072537558200565 30.562044466421867 0 30.562044466421867 28.333316710308281 0 0 0 0 -13.056390607138496 10.084479207987165 0 10.084479207987165 7.1076857177503996 0 0 0 0 8.9686875616398538 24.155721811164767 0 24.155721811164767 18.672333425376564 0 0 0 0 -48.319060437715962 18.999876882218814 0 18.999876882218814 3.0130475001096784 0 0 0 0 -0.41221492916306346 13.746635564808855 0 13.746635564808855 -3.8361019082902938 0 0 0 0 -2.7298964321763517 3.6618808417896958 0 3.6618808417896958 5.3461882594330348 0 0 0 0 -7.0730912689955403 33.401830315559437 0 33.401830315559437 60.010869219906454 0 0 0 0 -1.5956617352167086 43.777639791969705 0 43.777639791969705 78.055078126336412 0 0 0 0 3.3563726006323122 42.98359348674785 0 42.98359348674785 34.108723478297179 0 0 0 0 -11.70797947961546 37.745994297769357 0 37.745994297769357 75.157189987883612 0 0 0 0 1.9223867928485561 54.104303536998486 0 54.104303536998486 58.65858804247182 0 0 0 0 2.8231173825479345 49.522905631980393 0 49.522905631980393 81.669874193134092 0 0 0 0 -10.898774186040036 1.718444581025139 0 1.718444581025139 0.86789543582952788 0 0 0 0 -4.8391712035590899 3.5788340521248756 0 3.5788340521248756 15.88925442103573 0 0 0 0 6.0115423961315173 -2.1222718881908804 0 -2.1222718881908804 -0.79370234741509194 0 0 0 0 -3.8844393557944024 1.5437184429113557 0 1.5437184429113557 -1.8268364840853455 0 0 0 0 -39.750614025675532 -123.5119297168203 0 -123.5119297168203 -106.44666604491431 0 0 0 0 -3.7768568435654437 2.6594740606771126 0 2.6594740606771126 -1.5220630020824757 0 0 0 0 -33.508109270444038 -64.296954939934949 0 -64.296954939934949 40.796072577744781 0 0 0 0 -17.060158374490129 -36.683889992407785 0 -36.683889992407785 -104.28692499591125 0 0 0 0 -0.0079302399017642244 1.7229181884417244 0 1.7229181884417244 -2.662012116942885 0 0 0 0 17.604654000846494 16.079156686329952 0 16.079156686329952 -36.125870602314535 0 0 0 0 -15.660535257696136 4.9695474439333189 0 4.9695474439333189 5.8061253091746181 0 0 0 0 6.5838479921512771 -79.490979092333873 0 -79.490979092333873 -233.01361826630614 0 0 0 0 21.355270929023391 -66.959752316892263 0 -66.959752316892263 -224.75790843891446 0 0 0 0 -4.9887658111547353 -8.0131673706873698 0 -8.0131673706873698 -147.62892007120536 0 0 0 0 -108.39420000263635 -72.09723097623646 0 -72.09723097623646 -174.0029156045639 0 0 0 0 6.1239544346606181 -86.480681531775645 0 -86.480681531775645 -279.17056359382696 0 0 0 0 4.617287802771898 115.65028586820699 0 115.65028586820699 -167.7477576671954 0 0 0 0 -4.5945504216069821 -82.177832383877103 0 -82.177832383877103 -295.58401548130496 0 0 0 0 -32.322569737809317 54.051773685145236 0 54.051773685145236 -231.93610828470264 0 0 0 0 118.29145692042221 -12.385810230625793 0 -12.385810230625793 -202.63805136628071 0 0 0 0 121.81996129235995 -33.717574337555561 0 -33.717574337555561 -98.099394890990652 0 0 0 0 -44.510224440575257 -24.926735934874159 0 -24.926735934874159 -97.956551491035498 0 0 0 0 77.371002187262093 8.4465689040262077 0 8.4465689040262077 -4.3640705972793512 0 0 0 0 92.13032676171315 84.614930445461141 0 84.614930445461141 327.89970888403332 0 0 0 0 104.42617011896743 19.50158562038564 0 19.50158562038564 18.594011868241068 0 0 0 0 159.17081096161746 185.0495151405994 0 185.0495151405994 110.18519888168157 0 0 0 0 97.755302654082698 80.649627778082504 0 80.649627778082504 -41.918101832612592 0 0 0 0 22.507458224763468 18.354086137420381 0 18.354086137420381 96.070487002066329 0 0 0 0 5.9695154715889203 -48.092800206810807 0 -48.092800206810807 8.9180643192667048 0 0 0 0 -97.203935243130218 -115.66220940226231 0 -115.66220940226231 -182.91740150402256 0 0 0 0 -10.409524066071754 -7.0561106477143767 0 -7.0561106477143767 -69.97172982525808 0 0 0 0 -1.6633962489577243 32.594666622688237 0 32.594666622688237 12.055307937234502 0 0 0 0 43.211413591185192 23.454150967221722 0 23.454150967221722 18.966693625297921 0 0 0 0 11.112105899173622 19.462266455321128 0 19.462266455321128 23.705559698864022 0 0 0 0 -1.4125086246722276 32.480078797201713 0 32.480078797201713 8.7267081158206565 0 0 0 0 4.4212354936854323 4.8517749179987693 0 4.8517749179987693 -3.1058774667893232 0 0 0 0 63.062398742205914 82.439817737398698 0 82.439817737398698 -25.439117205445655 0 0 0 0 -315.77437191679746 54.985945339918544 0 54.985945339918544 122.88129426053274 0 0 0 0 -216.2799015809851 393.76397973851999 0 393.76397973851999 387.24700736199156 0 0 0 0 24.907796243660414 35.844303050060262 0 35.844303050060262 -136.10266010359919 0 0 0 0 33.323972721155769 -4.1717623419663141 0 -4.1717623419663141 -138.85581612141686 0 0 0 0 24.068706244328496 45.933091210245038 0 45.933091210245038 -185.19878805082044 0 0 0 0 78.315496892477768 83.654992825087902 0 83.654992825087902 -159.49321841035271 0 0 0 0 216.0721135755557 51.441458544857596 0 51.441458544857596 -151.96458453956438 0 0 0 0 0.85522759662015257 2.1566394032584881 0 2.1566394032584881 5.812180203113428 0 0 0 0 -199.327016189196 -138.63855528068234 0 -138.63855528068234 -407.28696114132981 0 0 0 0 571.75104804398325 150.69396925636556 0 150.69396925636556 -20.174501588633575 0 0 0 0 425.25555392250317 1016.8040794385452 0 1016.8040794385452 797.32459888649464 0 0 0 0 286.67102659084776 -73.372942753449024 0 -73.372942753449024 12.713005375291687 0 0 0 0 -22.265789784151252 31.77519270105131 0 31.77519270105131 7.4757389944243187 0 0 0 0 -56.841068667299623 71.375631213230008 0 71.375631213230008 7.7669566010808921 0 0 0 0 -11.483291011117217 142.26424550250158 0 142.26424550250158 -72.759061123701031 0 0 0 0 -153.13901615223074 87.966431436958374 0 87.966431436958374 31.073482728537783 0 0 0 0 -106.92501492857627 36.012787005663995 0 36.012787005663995 5.2404530287357147 0 0 0 0 -108.50241072983408 131.28803362006784 0 131.28803362006784 -0.29189431421764311 0 0 0 0 -197.23655283097924 181.85771547300283 0 181.85771547300283 -10.797379877631101 0 0 0 0 1.5109067541389045 3.8203989458088863 0 3.8203989458088863 19.850994617329832 0 0 0 0 157.64813011317551 53.850278537988288 0 53.850278537988288 -1.7422260009116144 0 0 0 0 -103.7756416093498 43.705765405693455 0 43.705765405693455 15.186067720005667 0 0 0 0 -124.63141023647609 99.484467771622121 0 99.484467771622121 -3.155788515941822 0 0 0 0 -43.36535754626243 84.763433330108455 0 84.763433330108455 13.756845022689959 0 0 0 0 -39.449917633598488 68.705268365736629 0 68.705268365736629 42.070496640752026 0 0 0 0 -1.2454820347105731 20.218782616538228 0 20.218782616538228 27.623482471080919 0 0 0 0 -74.09521928197023 30.076985975567823 0 30.076985975567823 17.896584766869637 0 0 0 0 47.79758253590353 50.195738166603405 0 50.195738166603405 10.704245076512962 0 0 0 0 15.3259048066991 61.751068758278507 0 61.751068758278507 9.4294958494137973 0 0 0 0 -9.3182172570597341 47.111830922796216 0 47.111830922796216 -11.421920038252985 0 0 0 0 19.231672374918162 49.564505657041082 0 49.564505657041082 -2.7180418049410946 0 0 0 0 -27.010965182529617 62.130285150822601 0 62.130285150822601 148.98417384348795 0 0 0 0 -13.214525003438212 51.60651376745227 0 51.60651376745227 13.31361058888433 0 0 0 0 -19.398770901444347 40.962575555089032 0 40.962575555089032 -4.4340599041214936 0 0 0 0 -48.842000923875958 60.478394688934713 0 60.478394688934713 93.261828742954094 0 0 0 0 -5.0997068703875357 87.051816152968513 0 87.051816152968513 53.69480958850545 0 0 0 0 -1.5249312412170184 89.433726772658702 0 89.433726772658702 49.828581345984276 0 0 0 0 10.924877515940352 81.4200987319673 0 81.4200987319673 39.049023040037355 0 0 0 0 61.373359945463562 105.58778498961874 0 105.58778498961874 12.976494817681669 0 0 0 0 4.8357974861191906 104.37329871210204 0 104.37329871210204 16.601141031687803 0 0 0 0 60.594754090507195 101.97275223599354 0 101.97275223599354 2.1987206263174812 0 0 0 0 2.0084533020905155 126.05898450564143 0 126.05898450564143 12.333880996597145 0 0 0 0 2.6539864215191642 119.7762917036431 0 119.7762917036431 13.284553285269794 0 0 0 0 101.35399251004026 124.4745373435303 0 124.4745373435303 -7.3258499826260959 0 0 0 0 115.35288048285656 57.792712962174846 0 57.792712962174846 34.874791451118654 0 0 0 0 351.49452927303355 12.362637963395173 0 12.362637963395173 -9.8839801312569762 0 0 0 0 146.75047878087935 20.027244087548752 0 20.027244087548752 45.952312626915045 0 0 0 0 205.69110075225171 81.587343544493706 0 81.587343544493706 -23.766018443282519 0 0 0 0 -2.956215016069109 162.41263281693318 0 162.41263281693318 -19.489988821882434 0 0 0 0 25.569090977418455 132.12676061094498 0 132.12676061094498 38.141066511750978 0 0 0 0 -7.4193528441826402 58.348125078068279 0 58.348125078068279 -34.6136683630466 0 0 0 0 -197.18744571245907 70.168662093119565 0 70.168662093119565 -34.057661110855406 0 0 0 0 -57.966669936190556 99.732506183023361 0 99.732506183023361 -32.838122242283362 0 0 0 0 -48.613345479910095 138.76741195585419 0 138.76741195585419 -175.86318533374816 0 0 0 0 -54.62229610729446 60.071533488653586 0 60.071533488653586 -75.358535889878112 0 0 0 0 -93.034458839144463 -14.616131055990991 0 -14.616131055990991 -169.24935570313937 0 0 0 0 -44.939488617033703 21.113157504951232 0 21.113157504951232 -46.294161342077132 0 0 0 0 -25.85505347011167 85.074207540979842 0 85.074207540979842 12.193140742940159 0 0 0 0 -89.789407831783137 90.940379799046241 0 90.940379799046241 16.888508454692783 0 0 0 0 -81.627113215118698 109.28437968655817 0 109.28437968655817 14.347731671001384 0 0 0 0 -12.621771579379356 35.921028664110054 0 35.921028664110054 -22.790142870471755 0 0 0 0 -31.454782166098539 20.543952318124866 0 20.543952318124866 -35.271704265938752 0 0 0 0 -45.030897496637067 27.084336203675775 0 27.084336203675775 -47.606541673310858 0 0 0 0 -34.114758771745073 65.396493317497516 0 65.396493317497516 -111.08747694064459 0 0 0 0 -47.683630374878248 36.982422835198122 0 36.982422835198122 0.36773769443607307 0 0 0 0 -5.3327220871242389 36.921404039434492 0 36.921404039434492 -45.173477924954568 0 0 0 0 -4.8063666936156695 -8.4933144499837212 0 -8.4933144499837212 -7.8182473147971905 0 0 0 0 24.411868610860665 8.7807312307850225 0 8.7807312307850225 2.0124533180205617 0 0 0 0 9.7309964632566661 7.1947828666969968 0 7.1947828666969968 6.722122413813608 0 0 0 0 11.868620697145388 -11.294450452288856 0 -11.294450452288856 18.295103501761332 0 0 0 0 0.94537778888911816 16.452441221886147 0 16.452441221886147 18.586607859018841 0 0 0 0 45.006365416162225 31.691826331372795 0 31.691826331372795 0.65003084354248131 0 0 0 0 338.48401364243546 -3.2609830336878076 0 -3.2609830336878076 7.1544163894886879 0 0 0 0 118.95394812870916 -9.5090118916415349 0 -9.5090118916415349 10.174413850425481 0 0 0 0 -44.152765825693223 31.949378933593835 0 31.949378933593835 27.913324522571202 0 0 0 0 -48.720960790486515 107.26901864108186 0 107.26901864108186 47.329930329222407 0 0 0 0 -31.570939430050203 103.54825106235876 0 103.54825106235876 48.050041497504935 0 0 0 0 -36.363103153162228 81.532875378752578 0 81.532875378752578 37.06307779961935 0 0 0 0 24.432308947176352 92.740086316793167 0 92.740086316793167 31.55693324359072 0 0 0 0 -34.848884341970006 103.61756733257607 0 103.61756733257607 95.888262478241813 0 0 0 0 96.144536308841111 143.52869589850616 0 143.52869589850616 54.02185296783864 0 0 0 0 -16.040997663412782 161.08591451259781 0 161.08591451259781 60.778786603481421 0 0 0 0 -8.1679284193332933 131.37253010318454 0 131.37253010318454 107.12765182475596 0 0 0 0 23.139458047281551 67.773785285560734 0 67.773785285560734 58.390172421621173 0 0 0 0 -82.5236228385088 11.328964172584165 0 11.328964172584165 48.410260255157482 0 0 0 0 8.4020094750802556 40.414237363466746 0 40.414237363466746 -20.569485719751903 0 0 0 0 -50.066168150838166 -9.7181170186231611 0 -9.7181170186231611 563.65333404413832 0 0 0 0 -258.45948418364515 69.194707901944639 0 69.194707901944639 204.1570313252123 0 0 0 0 344.69702970997969 293.17947429429114 0 293.17947429429114 59.773666761888308 0 0 0 0 -149.51870862224769 474.39498880276415 0 474.39498880276415 318.77999427598115 0 0 0 0 34.331939287654677 145.82077267215573 0 145.82077267215573 -387.28845966743756 0 0 0 0 -0.42904488199602042 2.3782360952957049 0 2.3782360952957049 0.88600112041897816 0 0 0 0 -73.98377100704316 21.221917135557931 0 21.221917135557931 -100.83974462440528 0 0 0 0 -14.326635598101348 121.08270394438296 0 121.08270394438296 748.11488636503054 0 0 0 0 -1.8226441089317014 4.5615812748030606 0 4.5615812748030606 1.4439231217075239 0 0 0 0 34.985001271437795 84.797866025266558 0 84.797866025266558 275.45001642051648 0 0 0 0 7.8504501759871346 54.918589245644398 0 54.918589245644398 -263.39795201193192 0 0 0 0 -143.31703539469891 58.873009484825161 0 58.873009484825161 190.97189901364436 0 0 0 0 -3.2871294646818114 -43.215260901126385 0 -43.215260901126385 163.6365168205848 0 0 0 0 664.66003113858824 39.456995702475979 0 39.456995702475979 -53.867793978502959 0 0 0 0 15.782214432332175 40.765514227638953 0 40.765514227638953 -21.301853129482232 0 0 0 0 2.9332621942236141 2.6270957357805429 0 2.6270957357805429 2.5131990886719109 0 0 0 0 129.05539661982039 528.78267449783743 0 528.78267449783743 448.97462016606005 0 0 0 0 -16.761351332476352 233.30345005406343 0 233.30345005406343 6.4357173555326881 0 0 0 0 -14.507882869144851 154.8220059145915 0 154.8220059145915 560.17546953119745 0 0 0 0 -20.709023124363739 94.572086902139745 0 94.572086902139745 77.275653321834398 0 0 0 0 56.051795836521705 127.38072024494249 0 127.38072024494249 89.188172571622999 0 0 0 0 103.03122903817621 96.436248992005858 0 96.436248992005858 56.020911291263474 0 0 0 0 68.030872578638991 95.921512128006725 0 95.921512128006725 10.34553413582762 0 0 0 0 49.641360961217288 96.118909584882203 0 96.118909584882203 56.205721227173854 0 0 0 0 74.483631959104059 96.578689518493775 0 96.578689518493775 3.5291952561528888 0 0 0 0 34.654891574131852 16.106135181984428 0 16.106135181984428 -61.675078096261132 0 0 0 0 34.262682251574006 55.378473287364613 0 55.378473287364613 -11.030177888531398 0 0 0 0 -1.4802897400359143 63.184048699080449 0 63.184048699080449 27.482410429729498 0 0 0 0 -19.181256607877913 31.631401819064195 0 31.631401819064195 0.36337563028791919 0 0 0 0 50.149568038083089 99.009516968795651 0 99.009516968795651 7.6524614475201815 0 0 0 0 37.661920668985545 95.757922203496946 0 95.757922203496946 12.204454008176981 0 0 0 0 -74.750259723175986 75.77176476130262 0 75.77176476130262 -98.758941206833697 0 0 0 0 -74.210542525873279 24.904988388614584 0 24.904988388614584 17.778390459003276 0 0 0 0 -31.307143524063576 26.462893772753887 0 26.462893772753887 -91.345403241471104 0 0 0 0 -65.013716286025556 44.428879985149251 0 44.428879985149251 8.0965904035838321 0 0 0 0 -47.992236112462706 58.42115501085209 0 58.42115501085209 -78.521937457437161 0 0 0 0 -61.521640343384206 42.958309363246372 0 42.958309363246372 22.785255892919849 0 0 0 0 -66.259596702022463 33.421264872165921 0 33.421264872165921 48.621089109008608 0 0 0 0 -65.569468882355977 0.81643166859612393 0 0.81643166859612393 125.97893416171428 0 0 0 0 -19.502125268806594 42.65035728584553 0 42.65035728584553 12.02782244212267 0 0 0 0 -60.821739366959946 36.817810936534443 0 36.817810936534443 14.064576328579278 0 0 0 0 -1.2823709722679268 -15.373528674761474 0 -15.373528674761474 -95.796328053213074 0 0 0 0 2.6971141654087205 25.232300047715398 0 25.232300047715398 -40.679952658920229 0 0 0 0 31.251391527138367 79.176081533685647 0 79.176081533685647 -168.6365565024098 0 0 0 0 135.95451296978672 123.90849797299234 0 123.90849797299234 12.334760388799623 0 0 0 0 -52.483961838859841 53.855448233283823 0 53.855448233283823 74.318595980901591 0 0 0 0 -51.053513788873708 67.928222132551127 0 67.928222132551127 -10.350731909740716 0 0 0 0 -152.30168934003899 35.872200652029278 0 35.872200652029278 100.60464867131486 0 0 0 0 -75.131033845714256 71.626963571939996 0 71.626963571939996 -6.7307150220658514 0 0 0 0 -17.284949425830746 79.746044558938593 0 79.746044558938593 -84.220107321481919 0 0 0 0 -12.431846400864515 107.78848630580615 0 107.78848630580615 -17.278127531862992 0 0 0 0 3.0760190705841524 17.195608097728837 0 17.195608097728837 43.72850407192891 0 0 0 0 4.7257386582956258 19.644765629910825 0 19.644765629910825 42.006972723441493 0 0 0 0 -10.13112762521386 6.6763591650921086 0 6.6763591650921086 7.0717543872963482 0 0 0 0 -29.519026968548133 19.938270380422182 0 19.938270380422182 59.737290336856859 0 0 0 0 -21.795195516130434 54.358283921798829 0 54.358283921798829 20.308215047552949 0 0 0 0 0.79225793290083502 31.571607493606809 0 31.571607493606809 46.800821174409407 0 0 0 0 -19.099081748094932 75.60853248355852 0 75.60853248355852 86.627969693669002 0 0 0 0 -1.9649946514318799 18.236987905485876 0 18.236987905485876 97.87220257736044 0 0 0 0 -15.818619195042629 27.900777617152926 0 27.900777617152926 234.57349941849134 0 0 0 0 -1.5557488339095684 41.574999113713019 0 41.574999113713019 -22.292372428718888 0 0 0 0 -4.8375797763620181 4.6292974232949291 0 4.6292974232949291 0.85997919373905063 0 0 0 0 9.3293464039386436 39.016438866818135 0 39.016438866818135 124.29217648169288 0 0 0 0 17.063948990946521 42.853240752725711 0 42.853240752725711 -39.040485070489154 0 0 0 0 -4.7541545464586363 7.625853571395993 0 7.625853571395993 -6.5294233848081262 0 0 0 0 -75.792533219337201 84.852823034385437 0 84.852823034385437 -12.985402594706102 0 0 0 0 -129.76481555303144 79.901684830267186 0 79.901684830267186 -15.2186742311751 0 0 0 0 -114.28448663872405 82.121339660494414 0 82.121339660494414 -24.619978811104374 0 0 0 0 -82.621707641329635 30.907059946628365 0 30.907059946628365 11.769230258686978 0 0 0 0 -94.021243324899842 75.855692889545026 0 75.855692889545026 -25.974242191186931 0 0 0 0 -101.83550223643033 40.649775258738373 0 40.649775258738373 53.16365164454146 0 0 0 0 -83.765145967681747 40.395958194205377 0 40.395958194205377 31.005232467403403 0 0 0 0 -12.010665047309736 16.734962614816666 0 16.734962614816666 13.488737896375895 0 0 0 0 -63.701056636764406 19.280957086928538 0 19.280957086928538 49.472587792726699 0 0 0 0 -23.890798943873961 62.565460361623991 0 62.565460361623991 33.644609960642811 0 0 0 0 -104.10354911278409 20.990281725107707 0 20.990281725107707 56.123507414178675 0 0 0 0 1.5734367238963785 2.8983903219553184 0 2.8983903219553184 6.0263338548080867 0 0 0 0 1.0230745075350569 -185.2659906927347 0 -185.2659906927347 436.80717299056414 0 0 0 0 -256.70499158045277 500.23691437040907 0 500.23691437040907 803.28676229013399 0 0 0 0 -167.94298954772739 278.64066328351407 0 278.64066328351407 48.781452602423087 0 0 0 0 -262.87674728893035 462.9936711343089 0 462.9936711343089 108.33698547062522 0 0 0 0 -197.42022957900917 493.43616734080024 0 493.43616734080024 -134.08324424908642 0 0 0 0 -134.23667259225113 192.45390121264973 0 192.45390121264973 213.32033471987961 0 0 0 0 -161.68008665575962 345.76658931810607 0 345.76658931810607 -97.057114896342682 0 0 0 0 -99.448498491339706 33.195401374224275 0 33.195401374224275 64.653762844784069 0 0 0 0 -151.05139537379728 149.98583363957368 0 149.98583363957368 38.786984364574892 0 0 0 0 28.17653675789391 46.2662384569173 0 46.2662384569173 -3.4946641670943279 0 0 0 0 -133.21180993316557 161.88181562697082 0 161.88181562697082 -53.070855146052054 0 0 0 0 62.190972313481325 38.425765774141837 0 38.425765774141837 -64.546239311825047 0 0 0 0 -43.38996417785529 106.27043184105969 0 106.27043184105969 -57.952523632880911 0 0 0 0 -35.081592393193205 134.86701819047266 0 134.86701819047266 -10.038298670071526 0 0 0 0 -169.63135271079113 45.006299988291289 0 45.006299988291289 29.290732126344665 0 0 0 0 -154.73843984807172 213.15071345434262 0 213.15071345434262 61.381282106798608 0 0 0 0 -66.30395970572863 -69.877571854080088 0 -69.877571854080088 -110.26047863851545 0 0 0 0 19.798566933798163 47.537335539691952 0 47.537335539691952 -15.024790659931355 0 0 0 0 -75.50116803084029 119.52555511007313 0 119.52555511007313 -15.380221776256803 0 0 0 0 -98.58930644497741 53.333231836591949 0 53.333231836591949 -26.400318432692075 0 0 0 0 -146.05657614360098 71.671823137106003 0 71.671823137106003 9.631479450254119 0 0 0 0 -84.54481504268756 29.824409471053947 0 29.824409471053947 18.205617983579309 0 0 0 0 -112.49460738376729 44.74279858358932 0 44.74279858358932 66.635449216266352 0 0 0 0 -5.2305899661721753 13.575675728869328 0 13.575675728869328 4.2900709188498993 0 0 0 0 1.1532000162042095 40.898585063005157 0 40.898585063005157 -19.84624451142372 0 0 0 0 -62.346678519144916 48.03532309782895 0 48.03532309782895 5.582631684752414 0 0 0 0 -107.79722816967478 81.970040529269681 0 81.970040529269681 8.2080851911814534 0 0 0 0 -97.166962088842411 119.04459277969363 0 119.04459277969363 18.451154772644259 0 0 0 0 -32.938083946020924 83.11850914106617 0 83.11850914106617 -13.454366329873665 0 0 0 0 87.616235385434265 70.677292934018624 0 70.677292934018624 -23.564500416243391 0 0 0 0 15.775904319792971 67.027662133178637 0 67.027662133178637 13.796012439961487 0 0 0 0 41.316538798711917 14.041762330304664 0 14.041762330304664 -8.1328000083121879 0 0 0 0 91.037798006615049 47.475489951764757 0 47.475489951764757 -12.188527594212246 0 0 0 0 16.47609020985692 56.727955041304085 0 56.727955041304085 -67.945686676976038 0 0 0 0 -40.54089149167703 79.367629340635176 0 79.367629340635176 -19.934826159966178 0 0 0 0 -12.942226255519927 60.342602792217804 0 60.342602792217804 -10.927139631967293 0 0 0 0 -40.91548532296656 114.17352929475965 0 114.17352929475965 -109.68452477102505 0 0 0 0 6.6292319670392317 9.3224745153183903 0 9.3224745153183903 -119.25925352223089 0 0 0 0 -3.8659798438593427 0.929439061089953 0 0.929439061089953 1.7615358516364807 0 0 0 0 5.9961818934383473 -1.958218307750883 0 -1.958218307750883 -11.454117730390863 0 0 0 0 28.21717489448929 31.153843145132669 0 31.153843145132669 -4.0183084853670152 0 0 0 0 25.512193133919936 7.7744849200189492 0 7.7744849200189492 -4.3794692138690152 0 0 0 0 13.464575197289378 26.485905901006845 0 26.485905901006845 27.179744915839592 0 0 0 0 -1.7824729422218795 5.0767431830516259 0 5.0767431830516259 1.287692760176121 0 0 0 0 15.289709831863298 20.634409277248217 0 20.634409277248217 0.82348336721430826 0 0 0 0 24.287948891938868 13.965386889518413 0 13.965386889518413 1.5828418392920867 0 0 0 0 24.214612764016806 15.869893929575767 0 15.869893929575767 -1.7693277873331681 0 0 0 0 0.94887628113392353 35.944687803088399 0 35.944687803088399 -10.493606020918463 0 0 0 0 -31.123270265070914 39.129278067265659 0 39.129278067265659 -7.3092307577862812 0 0 0 0 72.931164795234508 32.638243904235424 0 32.638243904235424 -17.509699555039333 0 0 0 0 84.000409602863385 22.755704837384656 0 22.755704837384656 -12.419930378557183 0 0 0 0 -0.13207921686581781 26.079612207274916 0 26.079612207274916 -3.9398554477835575 0 0 0 0 6.8372252338031103 28.710704486096802 0 28.710704486096802 -5.4644578806837671 0 0 0 0 -9.4877830419954989 28.519545334622308 0 28.519545334622308 -5.3162651950224245 0 0 0 0 42.800473167827022 2.7972347043050831 0 2.7972347043050831 -36.690128005639053 0 0 0 0 55.386465293011497 33.938021551595739 0 33.938021551595739 -0.76720650563947856 0 0 0 0 65.851152390980815 17.406067907370016 0 17.406067907370016 16.556847639454645 0 0 0 0 25.404514084786342 0.50705322357134719 0 0.50705322357134719 12.142500111705886 0 0 0 0 5.7878679486049691 17.404176324026665 0 17.404176324026665 9.6840578870118463 0 0 0 0 79.769205365770176 23.976149370773783 0 23.976149370773783 -9.5067101447129971 0 0 0 0 -13.927619856031015 38.179109256840093 0 38.179109256840093 -10.740538906562506 0 0 0 0 -9.5462584632883409 30.501901560734147 0 30.501901560734147 -4.0301188800102352 0 0 0 0 -9.9334170754624527 25.856631781845017 0 25.856631781845017 8.060009481540888 0 0 0 0 -9.1579957399371779 39.224794740699508 0 39.224794740699508 26.521270180770443 0 0 0 0 -8.9375483687135784 23.585321495831522 0 23.585321495831522 -1.9349529349665318 0 0 0 0 -17.651550546516319 40.707837101339464 0 40.707837101339464 21.044454658265749 0 0 0 0 16.56870483968487 78.723687564095599 0 78.723687564095599 59.767290848179982 0 0 0 0 21.004649382423224 34.887943859381039 0 34.887943859381039 25.362951577197236 0 0 0 0 10.591420236600243 60.502719226280533 0 60.502719226280533 77.157893748171773 0 0 0 0 22.94541883738961 42.690355751935591 0 42.690355751935591 -21.329205646081242 0 0 0 0 18.674708251627997 40.600624070596425 0 40.600624070596425 -22.00656052941487 0 0 0 0 45.613016865419922 103.3235132515656 0 103.3235132515656 72.995616266260186 0 0 0 0 42.072001246281616 84.71187684434517 0 84.71187684434517 14.641593300759268 0 0 0 0 60.752792118335492 99.15000090448666 0 99.15000090448666 17.357202685489028 0 0 0 0 45.508410386848482 115.84490857830679 0 115.84490857830679 1.2834799876363832 0 0 0 0 116.4425659652552 89.693316622993734 0 89.693316622993734 -12.897365474262187 0 0 0 0 111.57283410233867 71.062126382545102 0 71.062126382545102 -81.532748970144894 0 0 0 0 59.791603481207858 92.616813839864335 0 92.616813839864335 -10.015729268998257 0 0 0 0 60.992491998627884 73.462519629527378 0 73.462519629527378 -2.6164979288878385 0 0 0 0 53.764793257561905 75.877698330190469 0 75.877698330190469 6.3310968726145802 0 0 0 0 -33.914924766967943 44.972176294356359 0 44.972176294356359 42.534343424420513 0 0 0 0 0.78580561092120149 12.579137865823046 0 12.579137865823046 -2.194038775143099 0 0 0 0 146.44102529167139 30.620124209501228 0 30.620124209501228 -83.44990500107815 0 0 0 0 84.413406979812862 62.188625243165006 0 62.188625243165006 12.340309768340376 0 0 0 0 0.7983659325432928 -2.3726408505946193 0 -2.3726408505946193 -2.9512858161847362 0 0 0 0 -163.32967720554007 -71.903841742412624 0 -71.903841742412624 541.24731701859855 0 0 0 0 130.33502009223957 31.421728952445847 0 31.421728952445847 -18.355609522906889 0 0 0 0 75.866550806157647 5.4341400291486934 0 5.4341400291486934 -119.32157892115356 0 0 0 0 -131.49684007200995 162.7677505002539 0 162.7677505002539 -165.12107379338704 0 0 0 0 -0.6600049931563845 4.7019320339205706 0 4.7019320339205706 -3.8815254228171909 0 0 0 0 -246.25074049955947 156.26566436221037 0 156.26566436221037 -107.79320400900178 0 0 0 0 -16.452221765572958 27.153814730578276 0 27.153814730578276 0.24831232021607974 0 0 0 0 -37.424943296289712 42.736870476426702 0 42.736870476426702 24.714003253176998 0 0 0 0 -0.37279823140798385 10.096412404216508 0 10.096412404216508 36.701035849961215 0 0 0 0 -54.976016833723406 57.153994532751312 0 57.153994532751312 33.629636537334591 0 0 0 0 5.4723913057150639 65.322725466961856 0 65.322725466961856 18.156435534612683 0 0 0 0 -11.553186579897195 31.044907377103272 0 31.044907377103272 27.826181800954075 0 0 0 0 -39.285717714599741 73.359028996746929 0 73.359028996746929 35.596344366982521 0 0 0 0 8.5050663396250457 26.732505948439211 0 26.732505948439211 33.353976898062683 0 0 0 0 -111.50351175114156 54.186678783949901 0 54.186678783949901 44.5037200192819 0 0 0 0 -44.515625351775725 47.256091779991493 0 47.256091779991493 27.151842639308597 0 0 0 0 -175.55157616404176 35.368884177758446 0 35.368884177758446 72.421280365386338 0 0 0 0 -12.052498489003714 16.86958568889608 0 16.86958568889608 43.695607329450482 0 0 0 0 -98.587434603399743 31.826093995074189 0 31.826093995074189 32.407004524046897 0 0 0 0 -64.962605999501648 38.592666382833158 0 38.592666382833158 37.372218265743868 0 0 0 0 -82.869809003721457 43.086864042143134 0 43.086864042143134 18.355786060012178 0 0 0 0 -124.30282251240533 101.11403601184429 0 101.11403601184429 17.734155030513648 0 0 0 0 -101.80078631642755 112.81735971238231 0 112.81735971238231 4.6873193845258356 0 0 0 0 -132.5506038763142 109.18795618615877 0 109.18795618615877 17.811013692647975 0 0 0 0 -149.88659840533455 156.58016612501797 0 156.58016612501797 -14.41281460718892 0 0 0 0 -145.13499078370296 133.31515452517124 0 133.31515452517124 57.982854672962276 0 0 0 0 -35.462915561739464 5.9940646765198835 0 5.9940646765198835 10.952978766421438 0 0 0 0 -3.1190823798146852 1.7228107910624715 0 1.7228107910624715 3.5194377807066388 0 0 0 0 -267.64479040746664 -50.31855405108945 0 -50.31855405108945 24.292185981750663 0 0 0 0 -148.33530873570635 210.81789379607108 0 210.81789379607108 -297.44279415158235 0 0 0 0 -229.66508914752558 270.86909018667211 0 270.86909018667211 -166.84549468670593 0 0 0 0 -296.98167116586956 211.81664458519299 0 211.81664458519299 -17.47588152543176 0 0 0 0 -241.14940885837132 206.35617773956619 0 206.35617773956619 -36.354830629315984 0 0 0 0 -230.46561982634739 48.885778444504467 0 48.885778444504467 52.232559860494803 0 0 0 0 35.453113052808476 129.149600757808 0 129.149600757808 -337.67320312447191 0 0 0 0 -347.94176657243997 201.51312629183212 0 201.51312629183212 37.456290547037497 0 0 0 0 102.93297621945203 -29.70385903755232 0 -29.70385903755232 -54.291396107380024 0 0 0 0 -350.4470350064712 250.76247155742476 0 250.76247155742476 -92.897021056240192 0 0 0 0 4.4346967414561043 9.0046081008393983 0 9.0046081008393983 -12.291208701749468 0 0 0 0 -204.79497432489006 317.49449302028734 0 317.49449302028734 -126.03938131146606 0 0 0 0 -295.72678840934714 204.41900702830571 0 204.41900702830571 -122.16714960015088 0 0 0 0 -102.97446850553388 21.664722139990772 0 21.664722139990772 54.975558695803556 0 0 0 0 -136.93620193952302 110.93448069022998 0 110.93448069022998 -133.24616565449332 0 0 0 0 -156.89296955184545 168.06991741634374 0 168.06991741634374 -210.51758151716786 0 0 0 0 -58.438199627914344 3.3608394787096785 0 3.3608394787096785 1.4115411461807064 0 0 0 0 34.870325092464554 84.237492043837847 0 84.237492043837847 -55.527617363375612 0 0 0 0 -13.7388062484961 16.411333257182157 0 16.411333257182157 -14.370169292336755 0 0 0 0 -43.277148771729117 194.47076934216238 0 194.47076934216238 -139.52491822282354 0 0 0 0 23.231712184882642 37.901300339424829 0 37.901300339424829 -25.92910914418124 0 0 0 0 -92.079687237532198 111.86387011894112 0 111.86387011894112 -60.375843759011332 0 0 0 0 -101.39994690578146 112.89726115288749 0 112.89726115288749 -53.767859922219941 0 0 0 0 -118.91841649793423 69.439472515616217 0 69.439472515616217 -17.655912736117898 0 0 0 0 -72.548498843883863 102.96884679475625 0 102.96884679475625 9.1916346868383698 0 0 0 0 -271.41314719542788 171.90848960754374 0 171.90848960754374 28.020388139411807 0 0 0 0 -347.50749974460632 194.58102085673454 0 194.58102085673454 29.158208130789717 0 0 0 0 -324.70627653504562 117.53870112592267 0 117.53870112592267 8.1877145266807929 0 0 0 0 -402.93471910880908 187.06953792945569 0 187.06953792945569 -5.46211907043471 0 0 0 0 -496.23439151318962 54.507376572895737 0 54.507376572895737 -22.57985681159289 0 0 0 0 -351.57129187475221 136.79251226946508 0 136.79251226946508 -32.024347016024876 0 0 0 0 -306.88559245876604 161.21125308368573 0 161.21125308368573 -37.001309950443101 0 0 0 0 -377.01955407021524 154.65023979224134 0 154.65023979224134 17.555980216726311 0 0 0 0 -330.10760723088242 199.89164931815867 0 199.89164931815867 -62.585565869550919 0 0 0 0 -0.98828226286022947 1.0054404849256358 0 1.0054404849256358 -0.58839231230169275 0 0 0 0 -352.63943420924261 185.42044544007513 0 185.42044544007513 24.754319007450249 0 0 0 0 -359.47582937941479 221.10185618794276 0 221.10185618794276 -39.095164966551238 0 0 0 0 -357.05182100031016 186.81537376137931 0 186.81537376137931 49.335096987342695 0 0 0 0 -276.51387524706661 167.96604715256763 0 167.96604715256763 -3.6353154892713064 0 0 0 0 -268.80609071856725 252.88424229808743 0 252.88424229808743 -76.241183237318182 0 0 0 0 -374.41880504882647 213.25520244062136 0 213.25520244062136 -50.690919260756345 0 0 0 0 -325.31408585380086 345.72278395103604 0 345.72278395103604 -109.83744888866204 0 0 0 0 -262.41483841879017 250.1942565944737 0 250.1942565944737 -123.27022444406907 0 0 0 0 -704.87235254393454 336.94503960206566 0 336.94503960206566 -19.186094853517716 0 0 0 0 -494.28565705346409 172.65222810473279 0 172.65222810473279 -116.54789288766915 0 0 0 0 -635.53733273882244 257.5212930845446 0 257.5212930845446 -144.94121814370737 0 0 0 0 -504.18903977821901 370.89370300378687 0 370.89370300378687 -120.26058853604627 0 0 0 0 -322.98532858583349 218.20875177987909 0 218.20875177987909 -107.38334382500761 0 0 0 0 154.69716129970402 -114.93223327658052 0 -114.93223327658052 61.983687899832148 0 0 0 0 34.094184631729149 38.250813158578239 0 38.250813158578239 36.859956176747801 0 0 0 0 -58.718089713071095 -84.568651188881631 0 -84.568651188881631 72.066649737781518 0 0 0 0 252.47964260335266 -49.436007341397271 0 -49.436007341397271 -55.109623010052019 0 0 0 0 3.9106271509219361 6.9609577467863417 0 6.9609577467863417 -9.89769750093879 0 0 0 0 -143.11254676952393 196.37379251377274 0 196.37379251377274 -113.91299616760807 0 0 0 0 -143.95784437125258 159.54780557507183 0 159.54780557507183 -44.837930303852772 0 0 0 0 -28.559898671846895 94.057579310887377 0 94.057579310887377 -63.222698283592763 0 0 0 0 32.398156322422437 29.779001725481066 0 29.779001725481066 -5.3329624813195551 0 0 0 0 -141.66636697405011 105.13733478934228 0 105.13733478934228 -42.328718223754549 0 0 0 0 -61.831425938388747 163.9507677396 0 163.9507677396 -123.09286895545665 0 0 0 0 -50.193453956610028 39.085301357263234 0 39.085301357263234 -2.9456704537260521 0 0 0 0 -95.875656204947518 154.26967307954692 0 154.26967307954692 -65.805267006115173 0 0 0 0 98.438453245204073 -1.0581563258638198 0 -1.0581563258638198 -8.5047566291468684 0 0 0 0 116.51215240626698 41.48224780880264 0 41.48224780880264 -63.309989392604621 0 0 0 0 45.921705154991741 99.010062469158584 0 99.010062469158584 -41.73139766883105 0 0 0 0 74.525058946364879 -24.159479764098251 0 -24.159479764098251 8.7805151741340524 0 0 0 0 130.86600996589186 40.324827554170042 0 40.324827554170042 56.361183061955671 0 0 0 0 182.43106213264764 41.782072910973511 0 41.782072910973511 45.403791213109798 0 0 0 0 164.33883119465827 -67.989385661097913 0 -67.989385661097913 3.392118528863648 0 0 0 0 297.36799917209282 -82.575840349920327 0 -82.575840349920327 -41.67616431722854 0 0 0 0 -1195.4951798318052 347.53952550807844 0 347.53952550807844 -98.863416155527375 0 0 0 0 -1132.3527290165357 391.88005387938574 0 391.88005387938574 -112.94310069629864 0 0 0 0 1.7085163855698831 4.2717407450671629 0 4.2717407450671629 -5.7603842824362061 0 0 0 0 253.02553641700251 26.47099410622468 0 26.47099410622468 13.025311160978163 0 0 0 0 -1125.8401692819571 162.81006247853111 0 162.81006247853111 80.971009387369122 0 0 0 0 0.0053858152417767258 0.9347945381821674 0 0.9347945381821674 -1.5023191184600933 0 0 0 0 490.29293123442585 -17.189979962087818 0 -17.189979962087818 -45.087219249860937 0 0 0 0 158.26786605273452 106.70629406474097 0 106.70629406474097 47.427630593309004 0 0 0 0 164.55246009643088 -38.865096802299377 0 -38.865096802299377 69.54051603192238 0 0 0 0 11.658555300075022 115.04937229131247 0 115.04937229131247 49.102858617756283 0 0 0 0 43.008621971155662 70.639526875787851 0 70.639526875787851 78.299960928707151 0 0 0 0 21.11600777100648 122.51372296225236 0 122.51372296225236 52.824737848062796 0 0 0 0 4.7805178252901896 153.59949290521581 0 153.59949290521581 4.8551179667265387 0 0 0 0 -82.482898724238112 145.15734504314605 0 145.15734504314605 -8.196023804581273 0 0 0 0 -45.251420110587787 183.47920524640358 0 183.47920524640358 11.271980286648613 0 0 0 0 -27.465591823998693 216.43776032517781 0 216.43776032517781 -34.81390075066156 0 0 0 0 -49.781787986008567 108.75594815605655 0 108.75594815605655 -76.707811225489422 0 0 0 0 -36.231284454384877 76.642031296429195 0 76.642031296429195 71.337512405269081 0 0 0 0 -3.8969869908560213 156.52363851541304 0 156.52363851541304 -34.700689404286095 0 0 0 0 -95.553884140837908 59.822125309401599 0 59.822125309401599 -22.936833291765652 0 0 0 0 -92.556313719080208 237.81676869047794 0 237.81676869047794 -223.36905455051601 0 0 0 0 -316.9531071178435 395.94123498565568 0 395.94123498565568 -195.70228743227199 0 0 0 0 -204.38987811894185 151.22352908722678 0 151.22352908722678 -66.53176144205645 0 0 0 0 -625.19052353349525 365.02276672952758 0 365.02276672952758 -12.541278442215116 0 0 0 0 -237.61718861855479 244.52651568136207 0 244.52651568136207 -124.98458031455084 0 0 0 0 -444.56110609588177 117.66381978323261 0 117.66381978323261 -19.981130425891024 0 0 0 0 0.071469501607719366 -0.13037691466766432 0 -0.13037691466766432 -1.0360670796011675 0 0 0 0 345.72303902292879 153.4536435247428 0 153.4536435247428 -141.58532662755533 0 0 0 0 299.3190739475649 -55.462011527470167 0 -55.462011527470167 -494.49336863789358 0 0 0 0 180.43392991909786 75.820441312091134 0 75.820441312091134 -176.52914713160135 0 0 0 0 186.15306259496901 99.802444948429184 0 99.802444948429184 -75.969595005793963 0 0 0 0 201.3845528228976 218.25306681085567 0 218.25306681085567 -54.607435808735318 0 0 0 0 54.970955730970672 226.8600654785987 0 226.8600654785987 -53.251154098501502 0 0 0 0 80.70603694372403 145.64711412012366 0 145.64711412012366 -18.431905078410637 0 0 0 0 75.04957198872944 161.1576883369089 0 161.1576883369089 -49.21416916623275 0 0 0 0 77.589282549497739 117.07123806766504 0 117.07123806766504 -31.799809993826784 0 0 0 0 141.38310332516266 140.81118114555284 0 140.81118114555284 -43.363495715475437 0 0 0 0 35.226350146741879 138.83977576690813 0 138.83977576690813 -9.1052057060442166 0 0 0 0 77.469842384257504 117.37282723566591 0 117.37282723566591 -11.967234383700998 0 0 0 0 41.073985812738101 128.35291073566623 0 128.35291073566623 -15.267730219475197 0 0 0 0 31.242418788551731 157.75027806610524 0 157.75027806610524 -21.391679021719028 0 0 0 0 32.918244251937267 143.36527514443151 0 143.36527514443151 -6.0951753839326557 0 0 0 0 72.101192865067787 178.60830993319905 0 178.60830993319905 -50.022668468271149 0 0 0 0 53.484967986292759 182.38574387421249 0 182.38574387421249 -47.075796069691933 0 0 0 0 53.362252506862205 178.93477101842655 0 178.93477101842655 -22.119363936573791 0 0 0 0 32.607713558451906 196.54924323029445 0 196.54924323029445 -44.585299721089541 0 0 0 0 26.63552984441958 183.74708556301903 0 183.74708556301903 -24.679243255981419 0 0 0 0 93.476902047839758 196.20156855310552 0 196.20156855310552 -124.64859759213869 0 0 0 0 120.28832827536098 113.34169571969687 0 113.34169571969687 -47.865988344922698 0 0 0 0 56.049632651167485 88.320006691219533 0 88.320006691219533 91.867656847367471 0 0 0 0 98.310040450071028 167.1969096440007 0 167.1969096440007 113.73578993028786 0 0 0 0 114.64892505342516 106.10048024375305 0 106.10048024375305 28.783483974140836 0 0 0 0 27.738134348581298 86.344732195797405 0 86.344732195797405 54.883519577888364 0 0 0 0 99.155357391745383 111.41791782993641 0 111.41791782993641 -0.010944875517452601 0 0 0 0 105.39196062711017 75.781263892564311 0 75.781263892564311 68.238715137114923 0 0 0 0 104.19120933973818 161.92138301267937 0 161.92138301267937 95.297688935832412 0 0 0 0 -0.53746063109815623 2.2660162080502246 0 2.2660162080502246 -2.6352225535869991 0 0 0 0 58.906652189025408 49.471132563041465 0 49.471132563041465 104.54356376601572 0 0 0 0 -193.41663221146337 111.68844818028083 0 111.68844818028083 158.89188332492631 0 0 0 0 107.21878016794699 69.9768687495216 0 69.9768687495216 0.14415746350641712 0 0 0 0 0.27879939219514682 1.1765246724790259 0 1.1765246724790259 -1.7778711603266402 0 0 0 0 -228.95685175273002 260.61249623048161 0 260.61249623048161 70.500956207375566 0 0 0 0 -169.53224574273918 191.30320519188899 0 191.30320519188899 132.73108718689764 0 0 0 0 -57.808370174698666 169.72888067415261 0 169.72888067415261 92.643861257311073 0 0 0 0 -69.494656801896326 128.28486577576223 0 128.28486577576223 91.77286250427278 0 0 0 0 55.398234190842231 105.06907718574075 0 105.06907718574075 26.560058674906031 0 0 0 0 22.81134167372511 80.351012298702699 0 80.351012298702699 81.620390637353012 0 0 0 0 4.5761907399955817 104.56953957514452 0 104.56953957514452 52.15177551053057 0 0 0 0 59.401313505342841 151.20216721280849 0 151.20216721280849 24.527017555148632 0 0 0 0 -45.521734126596129 270.65562776839215 0 270.65562776839215 -49.301128424642229 0 0 0 0 266.98545225394082 189.59096747843796 0 189.59096747843796 -28.572793341278157 0 0 0 0 -606.22943546152601 349.50384420131377 0 349.50384420131377 -183.9819731542666 0 0 0 0 -1.0149766578540351 1.6592526855541223 0 1.6592526855541223 -0.55986383531848105 0 0 0 0 72.286550676821207 171.33198085265758 0 171.33198085265758 -3.8100768686126685 0 0 0 0 -167.88409024081557 74.397445001468441 0 74.397445001468441 -35.14721546378496 0 0 0 0 -0.63878383550185003 0.25598496119674508 0 0.25598496119674508 0.12815356450630588 0 0 0 0 -106.21765635593692 239.14226817211602 0 239.14226817211602 64.880015199112677 0 0 0 0 -203.09260063019883 268.40029183813203 0 268.40029183813203 58.684935580837191 0 0 0 0 -104.2966416894451 215.05909786398479 0 215.05909786398479 49.520631579836845 0 0 0 0 -65.812108644704495 268.11550916797933 0 268.11550916797933 85.241165418563469 0 0 0 0 -162.30000704769532 297.04893226615013 0 297.04893226615013 79.07060624112637 0 0 0 0 -171.06459486963104 259.04381473112335 0 259.04381473112335 0.21425230972454301 0 0 0 0 -281.18860671055518 213.85072455186673 0 213.85072455186673 0.040843860086170025 0 0 0 0 -252.98502750328953 266.78164057909817 0 266.78164057909817 68.99494945178958 0 0 0 0 -387.28259523457018 232.91317953429098 0 232.91317953429098 18.756809725375206 0 0 0 0 -256.87643656249747 185.21194328539059 0 185.21194328539059 33.629952367162332 0 0 0 0 -248.31573837286487 193.02483024182948 0 193.02483024182948 0.021010326798206167 0 0 0 0 -310.82084799310542 84.181254625636939 0 84.181254625636939 4.2063662961299997 0 0 0 0 -378.79761864187822 113.4323085269134 0 113.4323085269134 -3.3252889484683692 0 0 0 0 -130.85532306538795 131.5537724110381 0 131.5537724110381 -63.428595065008267 0 0 0 0 -381.95314301026156 85.778523049320938 0 85.778523049320938 -85.850729520869208 0 0 0 0 -795.3578235893624 173.3906007991809 0 173.3906007991809 66.879153829147981 0 0 0 0 -666.34344394160416 155.25687848235521 0 155.25687848235521 47.782550240357523 0 0 0 0 -491.72417837322428 201.15309043322122 0 201.15309043322122 -68.232028671278385 0 0 0 0 -381.30226795366616 96.905227659164666 0 96.905227659164666 -26.63569634669966 0 0 0 0 -180.07958447789133 96.982509243127424 0 96.982509243127424 2.9542287273779948 0 0 0 0 -173.75707744715328 136.7260177504013 0 136.7260177504013 -38.778956153531908 0 0 0 0 -353.80696089227422 149.55636117802351 0 149.55636117802351 10.248732416162966 0 0 0 0 -66.870563834782388 46.199628204756664 0 46.199628204756664 -0.93084663894114783 0 0 0 0 -109.91025511656517 66.087002703512553 0 66.087002703512553 13.229862203799712 0 0 0 0 -0.41281681863288666 0.65231231728504824 0 0.65231231728504824 9.7389065280882505 0 0 0 0 -15.743141749150482 16.101229851203243 0 16.101229851203243 3.6430417694537027 0 0 0 0 -57.529213597335769 5.30828092782167 0 5.30828092782167 33.877025917514402 0 0 0 0 -11.65146593446957 3.5463527212150439 0 3.5463527212150439 19.219334143097512 0 0 0 0 -5.8404744481980515 -12.238713531403846 0 -12.238713531403846 37.732245813574991 0 0 0 0 -18.992295233611912 -6.9085648349755502 0 -6.9085648349755502 62.644567532566725 0 0 0 0 -13.604468914576728 7.5044073635217501 0 7.5044073635217501 26.915373520849244 0 0 0 0 -20.074360980576785 -43.823219770492869 0 -43.823219770492869 64.112656289369625 0 0 0 0 -44.997840158454949 11.822563823974633 0 11.822563823974633 78.842310785905283 0 0 0 0 -13.686816892872798 8.1074972033493395 0 8.1074972033493395 78.576405966854509 0 0 0 0 -43.830966411190275 -8.8251225969124789 0 -8.8251225969124789 181.07256129918824 0 0 0 0 -89.523057549348323 52.859149529705974 0 52.859149529705974 181.71011941434699 0 0 0 0 -58.58071433728378 78.307732404689887 0 78.307732404689887 115.37679415853927 0 0 0 0 -47.370592662887248 65.413531187135959 0 65.413531187135959 83.849547529560368 0 0 0 0 -32.873407877992122 121.96563205192524 0 121.96563205192524 296.45808361392847 0 0 0 0 91.648893976678892 142.87161625225872 0 142.87161625225872 38.323231292961282 0 0 0 0 -14.183495044462234 -91.460547353892252 0 -91.460547353892252 216.63567473791772 0 0 0 0 -0.44830273792288189 -0.55757497991665517 0 -0.55757497991665517 4.0066235965049088 0 0 0 0 -55.253221328808195 154.19384198267289 0 154.19384198267289 266.81602806664159 0 0 0 0 47.214911670666652 -67.737081081210818 0 -67.737081081210818 192.02526569583279 0 0 0 0 -80.549295216773316 108.11808961807765 0 108.11808961807765 149.09240564404627 0 0 0 0 -43.870158475576318 68.314848465328396 0 68.314848465328396 81.299429393598984 0 0 0 0 -73.993593396658071 95.730678392232221 0 95.730678392232221 62.173672409269784 0 0 0 0 -76.061150309939876 96.012435579616067 0 96.012435579616067 92.175769201472576 0 0 0 0 -62.570665005473302 117.80988079737926 0 117.80988079737926 86.557143303434714 0 0 0 0 -1.1321757320192773 109.66286313733144 0 109.66286313733144 7.8086489098168386 0 0 0 0 1.3859969969162194 101.72979291006959 0 101.72979291006959 32.45308932001717 0 0 0 0 -42.284688403307882 71.099355952675978 0 71.099355952675978 27.05811119225018 0 0 0 0 -45.665098104180288 112.67873115822658 0 112.67873115822658 51.649961192895717 0 0 0 0 -50.184244247260722 127.02815807677325 0 127.02815807677325 20.12721608434731 0 0 0 0 -20.988861905742851 179.17363450890116 0 179.17363450890116 -17.757256106851855 0 0 0 0 -24.242522518213264 137.66820956346055 0 137.66820956346055 16.217321609488863 0 0 0 0 -52.468300931431259 158.60563173025002 0 158.60563173025002 0.80949771574523766 0 0 0 0 -82.954136366489365 141.75025089578048 0 141.75025089578048 32.044030250726792 0 0 0 0 -69.678637265996258 246.31468343353845 0 246.31468343353845 -43.666460354208539 0 0 0 0 -120.94602633228351 147.67884643844445 0 147.67884643844445 -0.71397472257558547 0 0 0 0 -62.116507031159045 140.35280069352257 0 140.35280069352257 24.024861455778591 0 0 0 0 -69.021880929574763 110.87695378738499 0 110.87695378738499 81.072127545859985 0 0 0 0 -74.537822799135938 130.38894123956925 0 130.38894123956925 60.317614675434015 0 0 0 0 -69.726707462176819 120.41810086134046 0 120.41810086134046 22.920180138273281 0 0 0 0 -88.906805133156013 149.28786063009466 0 149.28786063009466 5.1566378789630107 0 0 0 0 -67.65792739166136 120.64154437481739 0 120.64154437481739 0.63757243473446579 0 0 0 0 -144.72136272422813 140.26595152600567 0 140.26595152600567 -2.4135197742070886 0 0 0 0 -90.991288168534084 168.80444530118984 0 168.80444530118984 10.950974687759299 0 0 0 0 -80.289574771639309 116.99636495621235 0 116.99636495621235 171.06801371537949 0 0 0 0 -99.312678518538519 211.11734583372754 0 211.11734583372754 23.295463563052181 0 0 0 0 -71.46570917385543 149.72134293564886 0 149.72134293564886 -46.268014895646047 0 0 0 0 -98.083260038159096 188.13146046752081 0 188.13146046752081 -41.169311831444247 0 0 0 0 0.29029363534147379 1.2879683149764531 0 1.2879683149764531 -1.9003574544566533 0 0 0 0 -94.736908242266509 122.81975493936625 0 122.81975493936625 87.004143040050621 0 0 0 0 -4.4940771787657923 142.09902986197631 0 142.09902986197631 0.019593207089201314 0 0 0 0 -166.63342606950641 150.31161458119823 0 150.31161458119823 16.395270262506529 0 0 0 0 -100.23700731477277 152.48605728130588 0 152.48605728130588 3.4866627485171193 0 0 0 0 -173.43927987436473 153.39780856509606 0 153.39780856509606 26.749992400089468 0 0 0 0 -166.47278253177956 184.49038215134715 0 184.49038215134715 0.073419779579126043 0 0 0 0 -189.71037025138151 131.34123179260041 0 131.34123179260041 20.11213827595202 0 0 0 0 -294.90537109749857 195.519723947069 0 195.519723947069 -0.13692083007956404 0 0 0 0 -397.29752888393489 -56.515820311976768 0 -56.515820311976768 11.782191212725593 0 0 0 0 -0.40736603052371834 1.9605917380383033 0 1.9605917380383033 0.19207869552765544 0 0 0 0 -134.67962078129926 0.11572045080720272 0 0.11572045080720272 22.71434215413683 0 0 0 0 -249.04648176431647 111.48716495541339 0 111.48716495541339 27.867423259071074 0 0 0 0 -219.09710760707009 23.86012213277354 0 23.86012213277354 29.331626408253214 0 0 0 0 -148.88818524847034 32.150063319650144 0 32.150063319650144 26.727893697170657 0 0 0 0 -166.61956718290458 49.191885854343127 0 49.191885854343127 11.832602189643694 0 0 0 0 -118.35595564150958 93.847829280716724 0 93.847829280716724 23.896296405124303 0 0 0 0 -9.0902847622410263 27.575771394409458 0 27.575771394409458 21.321984225047345 0 0 0 0 -55.096405782692045 28.086236167049719 0 28.086236167049719 20.229949899459825 0 0 0 0 -0.26402102113836756 1.197185001556921 0 1.197185001556921 14.235616302934631 0 0 0 0 -11.574875120599017 28.208441632355971 0 28.208441632355971 9.784517801776019 0 0 0 0 -26.932718862560023 6.7481107167532173 0 6.7481107167532173 16.16194227377855 0 0 0 0 1.5456863425333838 10.245156677426948 0 10.245156677426948 -9.1453882023234883 0 0 0 0 9.215521887607224 40.942623185117554 0 40.942623185117554 13.773509786185059 0 0 0 0 -8.7931847524318414 21.907705839261325 0 21.907705839261325 24.051212898273661 0 0 0 0 -0.96960018680578264 3.4418910800257336 0 3.4418910800257336 17.509780560463753 0 0 0 0 6.3161786003809084 11.016225438303081 0 11.016225438303081 -0.14583188781762146 0 0 0 0 50.506459583417495 20.1665152739115 0 20.1665152739115 9.8995213183079613 0 0 0 0 0.12165101692005376 2.1036005942688121 0 2.1036005942688121 -0.93745455121469945 0 0 0 0 7.3444948228781186 36.989670907030359 0 36.989670907030359 24.655350040178746 0 0 0 0 26.178029076981261 25.96099110472278 0 25.96099110472278 0.53445290326271788 0 0 0 0 13.209191596330072 35.940835900337333 0 35.940835900337333 4.2549492358230054 0 0 0 0 17.367870645641688 26.94837434769579 0 26.94837434769579 16.395046585646924 0 0 0 0 38.06830922852464 26.03868635273102 0 26.03868635273102 9.8371192358463304 0 0 0 0 32.793132277155564 22.633967905858299 0 22.633967905858299 16.070000958658056 0 0 0 0 24.620753679693109 13.260110362745763 0 13.260110362745763 15.866243137061247 0 0 0 0 54.818094818854831 158.04162037991046 0 158.04162037991046 80.8617837674974 0 0 0 0 19.923855697110525 30.713861075226305 0 30.713861075226305 8.3151227244597976 0 0 0 0 51.945337641454444 9.73913644496497 0 9.73913644496497 130.140353252973 0 0 0 0 1.7410435042593733 1.6562176252927827 0 1.6562176252927827 -0.7921042100204545 0 0 0 0 -26.913749480244405 131.7003756277627 0 131.7003756277627 295.15040103601496 0 0 0 0 2.6866726045709584 2.3174031309026759 0 2.3174031309026759 -0.0046005645308468957 0 0 0 0 7.231807733444839 -16.19876490004026 0 -16.19876490004026 16.804766015475252 0 0 0 0 21.741762278292981 71.689742536423182 0 71.689742536423182 69.508571557133109 0 0 0 0 -4.0123026911769557 -14.539207307883771 0 -14.539207307883771 25.178605848216648 0 0 0 0 -8.4564686580258694 58.706514166493434 0 58.706514166493434 -1.201381889579352 0 0 0 0 3.8363394423549764 -16.688079595514409 0 -16.688079595514409 52.330136332653638 0 0 0 0 1.1788029546470096 0.32307437240103098 0 0.32307437240103098 -1.822514718397656 0 0 0 0 -9.7027438294001627 -2.4892666793321041 0 -2.4892666793321041 0.0077618738032469992 0 0 0 0 4.0602706798295536 1.8029886749906154 0 1.8029886749906154 -1.182637180502482 0 0 0 0 0.92952978683206311 -1.8164963512099348 0 -1.8164963512099348 -5.368939105544996 0 0 0 0 34.054072397706022 105.51592015776987 0 105.51592015776987 180.36055689452041 0 0 0 0 5.3718254914383579 21.347762782301288 0 21.347762782301288 121.73551840001164 0 0 0 0 48.470083792293735 48.847891101869209 0 48.847891101869209 65.645191943178361 0 0 0 0 8.6897949588169467 27.804563709061767 0 27.804563709061767 59.85670017425582 0 0 0 0 20.995361567589498 48.145019794832479 0 48.145019794832479 -14.621497068190365 0 0 0 0 40.095062711351147 58.254091680690181 0 58.254091680690181 37.459121369975037 0 0 0 0 3.8710714294750233 -2.5560907849958312 0 -2.5560907849958312 -2.9011515615638928 0 0 0 0 1.6947129075500538 0.53180906026469188 0 0.53180906026469188 -4.6309982855234892 0 0 0 0 42.160989671925108 13.654179984419898 0 13.654179984419898 -12.558782465482182 0 0 0 0 -5.1363083819600206 13.267828216607995 0 13.267828216607995 -39.361624594588648 0 0 0 0 3.9905793647515022 8.9424937991803688 0 8.9424937991803688 -13.263675550863951 0 0 0 0 -0.20072094260779494 1.9536657849090346 0 1.9536657849090346 -1.8391934437429995 0 0 0 0 16.761637693922239 47.825863596350246 0 47.825863596350246 136.28639976983868 0 0 0 0 30.52840572038167 15.867912654906831 0 15.867912654906831 -28.914030731590174 0 0 0 0 1.3215529329236801 13.046984925313893 0 13.046984925313893 0.21264452890358143 0 0 0 0 -0.23543232853444351 -0.5096005550440168 0 -0.5096005550440168 13.447356236833002 0 0 0 0 1.8606549281648768 -2.4270903378492221 0 -2.4270903378492221 -33.719170304277213 0 0 0 0 16.087008798638863 32.11434970188202 0 32.11434970188202 11.557776255580393 0 0 0 0 0.7042198189023261 2.2087150186161395 0 2.2087150186161395 -0.93525645118482714 0 0 0 0 3.8037473914202087 7.9497285906411506 0 7.9497285906411506 -12.870815034900446 0 0 0 0 15.771540745367474 32.383632072065666 0 32.383632072065666 11.909338256853516 0 0 0 0 5.7490518120303022 23.842207167748711 0 23.842207167748711 18.399972633904326 0 0 0 0 3.5192145442097171 28.136051769502956 0 28.136051769502956 66.499318929847504 0 0 0 0 23.501401571843758 52.719327174354476 0 52.719327174354476 29.301385472186666 0 0 0 0 5.6211982570866326 30.153172752859973 0 30.153172752859973 27.839855649035599 0 0 0 0 0.21365111703380535 22.375350676895323 0 22.375350676895323 18.386053448226448 0 0 0 0 -1.511385249817863 -0.694240611931491 0 -0.694240611931491 53.377463652817823 0 0 0 0 -7.5417824540494394 12.838009191160381 0 12.838009191160381 37.688613123791583 0 0 0 0 -3.5902593270959642 5.8925220829114551 0 5.8925220829114551 46.807419164972089 0 0 0 0 0.69583205763012757 -1.477816188489669 0 -1.477816188489669 39.348722490838554 0 0 0 0 -1.4202669287597018 -2.5621326673717704 0 -2.5621326673717704 28.254474877870962 0 0 0 0 -3.8767981565565606 -8.0308438456595468 0 -8.0308438456595468 46.150518953363644 0 0 0 0 -27.40424001462452 -3.8393722848195466 0 -3.8393722848195466 35.811291095818888 0 0 0 0 1.0675090376203116 -3.7030328232485772 0 -3.7030328232485772 35.187517786689568 0 0 0 0 4.7806893524170846 10.991840492293704 0 10.991840492293704 46.970568267352064 0 0 0 0 7.6314844620728763 5.1323163128945453 0 5.1323163128945453 58.980026531939075 0 0 0 0 41.579130061390515 46.89725802623434 0 46.89725802623434 82.849505212245276 0 0 0 0 16.218456585548665 16.962210022953514 0 16.962210022953514 59.547721198359795 0 0 0 0 36.692395968892015 54.66389174861979 0 54.66389174861979 99.078999651588674 0 0 0 0 2.4158364765407896 65.749531297864451 0 65.749531297864451 96.829413056839257 0 0 0 0 25.503721773642383 86.018078926027556 0 86.018078926027556 107.50491955683538 0 0 0 0 -7.2991320076471311 1.7814834617711313 0 1.7814834617711313 12.704317083705973 0 0 0 0 2.0056085625715241 0.43615113894174584 0 0.43615113894174584 0.40561357072064652 0 0 0 0 4.9916467354196357 26.437040393382631 0 26.437040393382631 32.681394928924419 0 0 0 0 0.16620830207239123 54.007802241147147 0 54.007802241147147 113.25234909570281 0 0 0 0 15.214197457829414 46.043956620424069 0 46.043956620424069 56.710473604311119 0 0 0 0 21.38119859719518 62.88143755805504 0 62.88143755805504 37.178677193725889 0 0 0 0 53.255948864989477 40.690366512189939 0 40.690366512189939 11.910995675614686 0 0 0 0 31.583898743048849 61.552452008112596 0 61.552452008112596 -1.9114018449763535 0 0 0 0 -25.216669717939112 15.34319818001677 0 15.34319818001677 63.441981348849367 0 0 0 0 -28.111496649944456 68.901641559234122 0 68.901641559234122 44.668754261714639 0 0 0 0 -0.94134376300166878 18.360363410874925 0 18.360363410874925 44.912745836103568 0 0 0 0 -109.98574797525544 12.710017933110066 0 12.710017933110066 47.052499777093544 0 0 0 0 -97.775830773232883 -21.771266772630042 0 -21.771266772630042 14.944848914361501 0 0 0 0 -28.174247972216108 -10.095794374748948 0 -10.095794374748948 -14.27937446028227 0 0 0 0 -103.64893744405163 48.282997325804899 0 48.282997325804899 47.046569862206525 0 0 0 0 -70.247456927111671 94.69460190044083 0 94.69460190044083 36.10886478581233 0 0 0 0 -32.568062467270465 40.292811267339857 0 40.292811267339857 -25.239532996027265 0 0 0 0 25.372875298804502 53.177477933502814 0 53.177477933502814 82.732400041626533 0 0 0 0 75.230493636983738 64.16505895514274 0 64.16505895514274 -1.8803586362448641 0 0 0 0 18.964388783702816 108.70182690084039 0 108.70182690084039 17.629013459227281 0 0 0 0 18.58776190813478 20.302367578842677 0 20.302367578842677 40.404138003037588 0 0 0 0 4.2798570978685184 4.5607055846834328 0 4.5607055846834328 1.6679219767547977 0 0 0 0 4.3146299880056027 3.5625492732455868 0 3.5625492732455868 0.29628513216903229 0 0 0 0 76.043295136512825 25.67851145350869 0 25.67851145350869 -3.5748067542153876 0 0 0 0 -0.33187650084801135 9.756141256155388 0 9.756141256155388 16.054417884213763 0 0 0 0 -39.065178133939298 16.684907810220466 0 16.684907810220466 39.957375493540894 0 0 0 0 4.3546190655746173 11.046438879807532 0 11.046438879807532 21.167544032371353 0 0 0 0 28.200782132858954 24.388090490072074 0 24.388090490072074 15.04384323707211 0 0 0 0 2.6780650219623752 15.060343927166524 0 15.060343927166524 24.738557464013695 0 0 0 0 -45.793840042184456 30.320451918352774 0 30.320451918352774 46.788058520760387 0 0 0 0 -59.203035922459321 21.932975951621302 0 21.932975951621302 47.198526301450329 0 0 0 0 -55.701114785789287 45.49360919521132 0 45.49360919521132 68.785565827820392 0 0 0 0 -44.310038611842941 50.625973752549726 0 50.625973752549726 73.099847572288127 0 0 0 0 -3.5101650016176791 15.562082963442663 0 15.562082963442663 38.120915780145879 0 0 0 0 -13.058716277673739 38.704452728346951 0 38.704452728346951 72.023314895144722 0 0 0 0 9.2415631932132101 58.081373045166401 0 58.081373045166401 115.20171946152186 0 0 0 0 15.353807604913754 15.49962819115899 0 15.49962819115899 74.517248527961783 0 0 0 0 -2.02080795220445 74.179171326337382 0 74.179171326337382 136.73962476808811 0 0 0 0 1.9918359922236277 4.8069947253425198 0 4.8069947253425198 55.549725427903468 0 0 0 0 -2.4279860355677556 4.3234560087985301 0 4.3234560087985301 51.469799382459314 0 0 0 0 2.6128253288889027 34.776012445283413 0 34.776012445283413 51.484568853949895 0 0 0 0 -1.8578272177956023 3.9063424095074879 0 3.9063424095074879 11.312902087040129 0 0 0 0 -31.87416095004869 26.381043658695944 0 26.381043658695944 35.895478403952438 0 0 0 0 -15.80320885027686 -7.1691508561634691 0 -7.1691508561634691 286.55207186665211 0 0 0 0 2.5423838676864392 1.954418969008703 0 1.954418969008703 1.3222173921572278 0 0 0 0 267.46187799109794 24.478296409670293 0 24.478296409670293 -32.943149171187542 0 0 0 0 -1.574474297100096 -9.1591684975392127 0 -9.1591684975392127 57.310196967733646 0 0 0 0 -16.911707329589262 19.822949181627337 0 19.822949181627337 45.806929552169095 0 0 0 0 -13.802383629572432 11.211432283525937 0 11.211432283525937 67.809999573555615 0 0 0 0 18.681672952130612 25.812857350752893 0 25.812857350752893 44.360235392752656 0 0 0 0 -16.377241816684545 22.129628814047464 0 22.129628814047464 54.401710265043221 0 0 0 0 -8.8981142015254946 7.9191960553239653 0 7.9191960553239653 16.30585849923574 0 0 0 0 23.174981379485303 74.110958412436503 0 74.110958412436503 25.118659045925597 0 0 0 0 -56.28730780119804 31.925597716774064 0 31.925597716774064 61.652936675151977 0 0 0 0 17.842750468213609 36.385496086664872 0 36.385496086664872 48.752550397023612 0 0 0 0 1.5006398954028555 20.829029090275071 0 20.829029090275071 57.318273508601123 0 0 0 0 -21.01471546195171 8.6760772780762636 0 8.6760772780762636 71.082810766918556 0 0 0 0 22.202343002581983 77.076280852095806 0 77.076280852095806 10.534212359703815 0 0 0 0 -67.720831285478198 86.397874623382449 0 86.397874623382449 84.123333652607471 0 0 0 0 17.345629710415217 31.224230838444079 0 31.224230838444079 40.737818754113221 0 0 0 0 -34.141178535158815 107.53869829113864 0 107.53869829113864 73.277772165747592 0 0 0 0 -48.605001457048274 19.881707530010317 0 19.881707530010317 26.534696890943451 0 0 0 0 -11.120455278098234 -0.77381492466520285 0 -0.77381492466520285 28.813357976054249 0 0 0 0 21.69498924209579 30.755945192649001 0 30.755945192649001 27.030209003250917 0 0 0 0 5.6702772834323696 86.528637194704061 0 86.528637194704061 13.338900878841741 0 0 0 0 39.686338325955148 40.058315508842497 0 40.058315508842497 -34.297676537395546 0 0 0 0 180.69916365531208 65.098629963596977 0 65.098629963596977 -32.528584824925929 0 0 0 0 33.366292163612343 111.79282625664837 0 111.79282625664837 76.740341896933387 0 0 0 0 157.14618302291638 192.58364755857838 0 192.58364755857838 122.63231849200383 0 0 0 0 83.870114548386482 8.946539117251632 0 8.946539117251632 11.365665950936091 0 0 0 0 415.36362814404129 -13.248741632965903 0 -13.248741632965903 -8.3783876185989357 0 0 0 0 61.20023370119452 37.834179545294319 0 37.834179545294319 -63.834027939697989 0 0 0 0 31.518250950366749 25.47525389304419 0 25.47525389304419 5.9062950520141939 0 0 0 0 61.319543782437904 72.112778305249776 0 72.112778305249776 -30.8719670822029 0 0 0 0 29.441436788940337 22.668182518267713 0 22.668182518267713 41.527571617039939 0 0 0 0 19.72028269965449 18.186022447698633 0 18.186022447698633 15.27849672969387 0 0 0 0 4.516676217129735 1.71974822509479 0 1.71974822509479 10.892685057179946 0 0 0 0 10.185599147765878 4.2663836913670679 0 4.2663836913670679 -0.88072532611310805 0 0 0 0 32.198313424940125 36.35907524123968 0 36.35907524123968 44.917997885931982 0 0 0 0 27.308374936230393 46.406829387742619 0 46.406829387742619 -3.9628186238987837 0 0 0 0 -11.823629082679872 17.476791632707318 0 17.476791632707318 9.7346067839680472 0 0 0 0 -17.159883538861322 26.461699276025684 0 26.461699276025684 17.604505833995063 0 0 0 0 0.22631515392621537 18.61554797668488 0 18.61554797668488 10.189774113630484 0 0 0 0 42.667354519715161 30.151156198827373 0 30.151156198827373 7.7715231514289336 0 0 0 0 71.130942836232862 58.458517159022449 0 58.458517159022449 7.3942982538064825 0 0 0 0 12.00727346024113 8.2398804115347097 0 8.2398804115347097 -7.6516862087144091 0 0 0 0 37.49482498693169 51.756341437559058 0 51.756341437559058 76.017173617918161 0 0 0 0 38.844616963167937 52.122961242719612 0 52.122961242719612 49.965361543597055 0 0 0 0 -6.8685064292171774 35.135673062392016 0 35.135673062392016 51.132810160350346 0 0 0 0 36.111089788963909 55.039042024009177 0 55.039042024009177 26.857092258796911 0 0 0 0 10.980512152047595 33.217901973092012 0 33.217901973092012 96.228594600641372 0 0 0 0 20.41493170624608 82.652234539158599 0 82.652234539158599 142.7255428395365 0 0 0 0 7.1991479105702041 1.4287754940529709 0 1.4287754940529709 -1.5319112595112472 0 0 0 0 37.647542693905052 -19.6940477702301 0 -19.6940477702301 -27.244592276474577 0 0 0 0 16.461460494493167 35.749632546260273 0 35.749632546260273 0.073224945452238899 0 0 0 0 10.861068041309863 5.5658942150275834 0 5.5658942150275834 -4.4163233561339439 0 0 0 0 3.1932091510934697 -6.1875347267923644 0 -6.1875347267923644 0.40273980063648196 0 0 0 0 84.961839757486089 5.5625847013410237 0 5.5625847013410237 6.4998011415882502 0 0 0 0 0.49653019684940247 1.4663252949587786 0 1.4663252949587786 0.73364300813512529 0 0 0 0 1.3632331710222374 0.8078623112400436 0 0.8078623112400436 0.1429535326782343 0 0 0 0 6.2577396222259267 19.190529200041055 0 19.190529200041055 75.950222975021461 0 0 0 0 19.993840377652305 1.9364180217598914 0 1.9364180217598914 6.4488365043143858 0 0 0 0 49.523629975192307 7.7552228522108635 0 7.7552228522108635 -0.0017048617228283547 0 0 0 0 85.126995824266601 28.031423534442467 0 28.031423534442467 16.12986399581132 0 0 0 0 41.230022044336692 -41.165032537306615 0 -41.165032537306615 16.303490642967517 0 0 0 0 -1.8146933272300885 13.623733311255819 0 13.623733311255819 4.883717331016669 0 0 0 0 8.5182489712296956 11.670426716827933 0 11.670426716827933 16.101795982354815 0 0 0 0 12.023873503554569 3.838208338671393 0 3.838208338671393 2.5405412580439588 0 0 0 0 -1.0617014989415097 0.99340706227873454 0 0.99340706227873454 2.326872710141231 0 0 0 0 10.630795671956456 1.6425351545715756 0 1.6425351545715756 -0.18894736505561838 0 0 0 0 10.074091326456255 11.340989931439253 0 11.340989931439253 9.5111976283733384 0 0 0 0 6.782294662524663 4.3286269726249742 0 4.3286269726249742 -0.94001662315644907 0 0 0 0 6.3843948825397092 4.4892208297897014 0 4.4892208297897014 -0.00028783939342247322 0 0 0 0 7.0350128362133546 4.2584445278152998 0 4.2584445278152998 -1.89754850497593 0 0 0 0 7.8332638427005818 3.7862147914930802 0 3.7862147914930802 -1.1692738172158101 0 0 0 0 7.2577897033661429 2.3722780866555695 0 2.3722780866555695 -1.3351562598409146 0 0 0 0 7.6022753316783565 3.2038500254384417 0 3.2038500254384417 -0.0026802175743796397 0 0 0 0 8.8035622555092203 3.1663442392011945 0 3.1663442392011945 -2.6209323131079785 0 0 0 0 12.330310855024436 2.7013005641747441 0 2.7013005641747441 0.36456644052577758 0 0 0 0 11.36036027467344 -7.9723916094480956 0 -7.9723916094480956 9.1184865171981073 0 0 0 0 17.892180843675305 10.10789345399462 0 10.10789345399462 10.106342354352819 0 0 0 0 7.3225268327677266 0.78448238729964004 0 0.78448238729964004 -2.718450333363819 0 0 0 0 4.8682167805547323 0.39849659101203372 0 0.39849659101203372 -0.3039367531917847 0 0 0 0 2.2230448320339988 -1.1977768697867148 0 -1.1977768697867148 -0.62685227315844827 0 0 0 0 23.727120817758987 16.713290465151658 0 16.713290465151658 0.058639068815519745 0 0 0 0 17.899489137063483 10.286561081398759 0 10.286561081398759 10.34443566788832 0 0 0 0 40.938274542810177 35.143288106010004 0 35.143288106010004 19.789863485930255 0 0 0 0 9.7379241670460033 16.143856595139368 0 16.143856595139368 24.062808922111799 0 0 0 0 54.922967713881917 42.42108665631622 0 42.42108665631622 12.115261178038054 0 0 0 0 49.074269598831961 29.946502640807012 0 29.946502640807012 -0.10239143536455231 0 0 0 0 10.866441435698974 8.6438777315004813 0 8.6438777315004813 3.3388284620611017 0 0 0 0 136.03487589811903 189.85907247168416 0 189.85907247168416 -65.307352639290912 0 0 0 0 30.577599998016012 46.020884101344564 0 46.020884101344564 61.981206100645068 0 0 0 0 -27.253711125213158 -104.45786882255197 0 -104.45786882255197 -44.397980579415162 0 0 0 0 1.7735610517536315 0.72138838767054381 0 0.72138838767054381 -0.16285272998193534 0 0 0 0 -12.930846380175353 -4.1054345873126294 0 -4.1054345873126294 68.93483999532873 0 0 0 0 11.328612693974719 -21.85675409716896 0 -21.85675409716896 -40.226712899107952 0 0 0 0 8.3610013112047454 9.5779180541030655 0 9.5779180541030655 -32.922253212978831 0 0 0 0 40.342708940414013 15.777972919899184 0 15.777972919899184 -94.067325250034628 0 0 0 0 11.48090764064316 4.9454598777395802 0 4.9454598777395802 0.0020867751434323623 0 0 0 0 9.4839238156564534 15.100258348218631 0 15.100258348218631 -4.4121274662393262 0 0 0 0 9.201187295751879 9.4959155320175341 0 9.4959155320175341 2.1384132771345321 0 0 0 0 7.1845017572009198 8.2078715338328152 0 8.2078715338328152 2.9905471475324958 0 0 0 0 7.6126172956137452 11.229779422923457 0 11.229779422923457 -26.197818886008463 0 0 0 0 9.3401303458380056 -1.4453049217497878 0 -1.4453049217497878 -8.8137614839873066 0 0 0 0 7.5234687875605317 9.3643647076215473 0 9.3643647076215473 -0.51264716731429161 0 0 0 0 7.5296177319344793 14.238405221256983 0 14.238405221256983 -10.636014267431165 0 0 0 0 9.5375366476837371 12.092706454714062 0 12.092706454714062 -10.969366750388872 0 0 0 0 4.8854239489810425 6.2739684984953783 0 6.2739684984953783 1.0760363099179813 0 0 0 0 2.6153225361376826 14.320798907370772 0 14.320798907370772 8.2776052315530251 0 0 0 0 11.658851193180453 18.85159033468517 0 18.85159033468517 -20.357252428724678 0 0 0 0 1.6267602932082497 11.464202374073594 0 11.464202374073594 -6.7985658949185463 0 0 0 0 20.20907474789783 23.244706580711863 0 23.244706580711863 -2.2450636702760676 0 0 0 0 11.060982417050539 7.8216309127567456 0 7.8216309127567456 -1.5504515700958521 0 0 0 0 1.1889343845766405 -0.37047159096388071 0 -0.37047159096388071 -3.4615936812792327 0 0 0 0 20.634367383905555 20.456320049817805 0 20.456320049817805 6.6308252868784621 0 0 0 0 14.205294519452764 25.838424845381269 0 25.838424845381269 21.770062252449861 0 0 0 0 -0.037187753030490711 12.379614261798828 0 12.379614261798828 3.4061565017260875 0 0 0 0 14.218576994539035 27.361104931551381 0 27.361104931551381 39.170772329231113 0 0 0 0 -1.2367903161793947 7.6864721949095838 0 7.6864721949095838 -23.894743876357097 0 0 0 0 -8.055331662450044 32.908354156934365 0 32.908354156934365 39.610749075000058 0 0 0 0 5.84341798619743 7.4150211206539893 0 7.4150211206539893 -0.33906002080217945 0 0 0 0 26.091348716796347 -25.105811011792866 0 -25.105811011792866 -38.252104285485984 0 0 0 0 23.537262287147314 -23.249176155325586 0 -23.249176155325586 -27.905624332139269 0 0 0 0 57.754026633338071 13.857200585160172 0 13.857200585160172 14.086147528723814 0 0 0 0 61.037198382975475 33.901269602023604 0 33.901269602023604 -15.697376862553938 0 0 0 0 12.526814387583727 2.5738103564649464 0 2.5738103564649464 9.5847588217584416 0 0 0 0 10.548272390799958 4.5934310729972481 0 4.5934310729972481 -0.22184583417533332 0 0 0 0 13.397488000997932 9.1184163723394533 0 9.1184163723394533 0.64584325056587488 0 0 0 0 21.254853600674323 -2.8715145136411593 0 -2.8715145136411593 -21.771536191852647 0 0 0 0 12.897041777458071 9.3910671146459208 0 9.3910671146459208 13.677972512617998 0 0 0 0 7.9256623277906328 4.2585494331578957 0 4.2585494331578957 -25.179155870719114 0 0 0 0 17.829834336584099 -4.0756374107331794 0 -4.0756374107331794 -15.809894311852986 0 0 0 0 14.229645164981861 5.1521251730380726 0 5.1521251730380726 -1.0151161908911526 0 0 0 0 4.9768588145041264 10.998710663188021 0 10.998710663188021 9.4372465922135618 0 0 0 0 14.741046207929131 15.258179685299481 0 15.258179685299481 -4.9788062594251983 0 0 0 0 5.2411992168636061 12.079604959260905 0 12.079604959260905 0.77189153715153225 0 0 0 0 21.005481511155281 17.77171478665651 0 17.77171478665651 -3.4938917355073045 0 0 0 0 -4.2625993060955807 8.0750125669292174 0 8.0750125669292174 13.829053596942686 0 0 0 0 -1.46006764001595 2.3895536738355077 0 2.3895536738355077 -0.0026945309436996467 0 0 0 0 -0.59212787138059753 1.2873529845543885 0 1.2873529845543885 1.188002394686734 0 0 0 0 8.1902129290101584 3.0031070729237399 0 3.0031070729237399 -2.7228517141575139 0 0 0 0 11.24391014388857 5.0593601661566936 0 5.0593601661566936 -2.4897509249858558 0 0 0 0 7.1186773747904226 3.949048638343811 0 3.949048638343811 0.0041228262853110209 0 0 0 0 1.9454479314297188 -0.16560521061906286 0 -0.16560521061906286 1.4200105095507567 0 0 0 0 0.13256380135680956 0.039452660530514549 0 0.039452660530514549 -1.9182018249412067 0 0 0 0 12.721840986124448 -2.4309176623836066 0 -2.4309176623836066 0.12386516678532189 0 0 0 0 6.2161549860920786 -18.119356307888211 0 -18.119356307888211 -1.4657293223353918 0 0 0 0 74.346326034092272 -127.58028108437475 0 -127.58028108437475 22.374532765941694 0 0 0 0 -25.464818669759552 -65.646122192643816 0 -65.646122192643816 35.173765357892989 0 0 0 0 22.252029186444481 5.2441305916182799 0 5.2441305916182799 -0.30225065287207542 0 0 0 0 56.18982705405142 67.129503428146563 0 67.129503428146563 -10.666783369706536 0 0 0 0 34.724535959863715 9.8020727082621306 0 9.8020727082621306 -3.8633037974941544 0 0 0 0 34.575508542624448 8.0544281863985816 0 8.0544281863985816 -0.017085666411730926 0 0 0 0 3.1199282861364637 3.2934151978566177 0 3.2934151978566177 -1.6974853703155404 0 0 0 0 15.894599420338636 -2.5207654486130195 0 -2.5207654486130195 -3.3273237240427989 0 0 0 0 4.0993026438220825 -0.7975993568810793 0 -0.7975993568810793 -0.25093965229442006 0 0 0 0 32.554091558764412 9.0737202816781064 0 9.0737202816781064 -0.20667199863601127 0 0 0 0 -56.084628765367597 -45.132355050236583 0 -45.132355050236583 41.994508794596186 0 0 0 0 2.039091757674516 10.227891528228874 0 10.227891528228874 -4.1617988945462514 0 0 0 0 11.421937991974119 13.278723802563036 0 13.278723802563036 -10.434272060159856 0 0 0 0 7.1085282033745898 16.088380476150633 0 16.088380476150633 -1.2291133735925541 0 0 0 0 116.55086926813487 27.412749455201435 0 27.412749455201435 -69.550095710459573 0 0 0 0 14.054293296935652 9.6759210623558474 0 9.6759210623558474 -4.4925011098623884 0 0 0 0 1.5072023222742814 -0.12771623096378448 0 -0.12771623096378448 -0.84201015244332211 0 0 0 0 4.6339739339782682 111.86036603047251 0 111.86036603047251 106.74185792628487 0 0 0 0 -123.92345698215649 -22.97036594767269 0 -22.97036594767269 39.666400989659451 0 0 0 0 3.4546828067336293 1.7132511933180012 0 1.7132511933180012 -1.4776424979431759 0 0 0 0 -5.7117294862341623 9.9385824810819656 0 9.9385824810819656 20.72303722718425 0 0 0 0 352.57796915811559 1.3375317772661219 0 1.3375317772661219 -534.09349203912279 0 0 0 0 -1.8487176715017313 -1.9452869740318874 0 -1.9452869740318874 -0.56556557302511412 0 0 0 0 -126.79073798899481 -7.7492998913985502 0 -7.7492998913985502 26.930624903415719 0 0 0 0 70.335713621981995 67.121832342603739 0 67.121832342603739 85.285438220817184 0 0 0 0 3.2066364548700221 -18.888518965484764 0 -18.888518965484764 42.242622922029113 0 0 0 0 -51.862000031249408 34.499788747554703 0 34.499788747554703 42.544460047894972 0 0 0 0 21.607589811470461 25.99425406651897 0 25.99425406651897 18.133718170312747 0 0 0 0 -7.5235807509623811 4.1542509394098488 0 4.1542509394098488 3.936004750537788 0 0 0 0 59.013562860150159 127.89754506563168 0 127.89754506563168 -258.28819451192976 0 0 0 0 53.334948685220297 121.25077843402687 0 121.25077843402687 -329.60721508273855 0 0 0 0 -99.875266996190476 151.24858862549627 0 151.24858862549627 -205.22877784706361 0 0 0 0 122.45353897222958 -70.608345968004869 0 -70.608345968004869 -90.401826627530681 0 0 0 0 16.205385437416226 6.7750047378676754 0 6.7750047378676754 17.140380432931124 0 0 0 0 -1.2490095230314182 36.779003916988586 0 36.779003916988586 4.6486705874976906 0 0 0 0 18.722944789493006 20.388266503891423 0 20.388266503891423 12.283366981904067 0 0 0 0 -1.0190545693531021 45.511596189363445 0 45.511596189363445 44.991377258542343 0 0 0 0 -33.542501261967118 124.18796792879402 0 124.18796792879402 34.711063595756514 0 0 0 0 51.626961272004337 31.034219680859678 0 31.034219680859678 -36.268420576190692 0 0 0 0 8.3765243170746544 43.306731628097623 0 43.306731628097623 -39.481452617779723 0 0 0 0 18.590360637183039 14.763003659383685 0 14.763003659383685 -26.224914538877783 0 0 0 0 14.949394333852979 10.179230227735388 0 10.179230227735388 -31.468554616647452 0 0 0 0 26.190511374086782 0.94407926021085586 0 0.94407926021085586 -24.840787878318224 0 0 0 0 28.605081918574797 7.0694998916096665 0 7.0694998916096665 -20.329407693483518 0 0 0 0 -7.7829479743195407 18.296726022817211 0 18.296726022817211 -4.3696195627271663 0 0 0 0 -0.23685012767777991 13.720648180990366 0 13.720648180990366 -12.25293592440363 0 0 0 0 22.839924147163401 0.88343611771233554 0 0.88343611771233554 -18.812646011727338 0 0 0 0 12.380225157087409 32.108667665781013 0 32.108667665781013 9.3755094121988805 0 0 0 0 27.977631834750355 29.034191932931208 0 29.034191932931208 -25.966361356864581 0 0 0 0 18.764391576665389 10.348482174065111 0 10.348482174065111 1.3321061588794691 0 0 0 0 -0.82886274763062473 16.027736148213002 0 16.027736148213002 -2.9331261579225298 0 0 0 0 43.814424296877405 36.221933713233739 0 36.221933713233739 5.4929252350921161 0 0 0 0 31.643724916350038 30.657138080136065 0 30.657138080136065 16.451582601875998 0 0 0 0 43.341971421742983 31.847855130379003 0 31.847855130379003 15.61689958871284 0 0 0 0 43.990063155407825 18.128287911181815 0 18.128287911181815 27.07379978300014 0 0 0 0 53.530544888628356 5.0659621032336872 0 5.0659621032336872 34.990210150004714 0 0 0 0 76.514702017462696 -7.9912187544105109 0 -7.9912187544105109 24.6723597213022 0 0 0 0 57.598649321795165 19.59869501387584 0 19.59869501387584 13.105071083409712 0 0 0 0 57.850666570891917 15.294260046895943 0 15.294260046895943 19.415459024057782 0 0 0 0 -8.941277683727094 42.765952705711243 0 42.765952705711243 -1.6447852479468565 0 0 0 0 -67.167445392959053 2.6855369386976236 0 2.6855369386976236 36.5434836392742 0 0 0 0 -52.980284927369212 -20.673717054793087 0 -20.673717054793087 -14.902315825482219 0 0 0 0 -24.485897907536128 17.379544849711237 0 17.379544849711237 -26.579820429053143 0 0 0 0 0.26163047031588094 13.366251844739665 0 13.366251844739665 19.2096384006514 0 0 0 0 -7.4662794976611622 86.529996712215507 0 86.529996712215507 62.188952082920878 0 0 0 0 16.308389980499214 68.935620726490356 0 68.935620726490356 26.372600810398581 0 0 0 0 28.149941191330072 30.029645330886524 0 30.029645330886524 3.1410837566036207 0 0 0 0 -0.84218609010163448 16.914108696233157 0 16.914108696233157 -17.652091318388571 0 0 0 0 13.438225906240405 32.03922702228374 0 32.03922702228374 0.010779777789139189 0 0 0 0 -28.584735760588956 46.493893642462353 0 46.493893642462353 80.075155547245231 0 0 0 0 15.267531721699925 24.586511343321035 0 24.586511343321035 13.239171059729415 0 0 0 0 23.362482704367721 28.778031173245836 0 28.778031173245836 -14.98378640737792 0 0 0 0 7.8732861396856606 40.160606876019301 0 40.160606876019301 11.367389552106033 0 0 0 0 47.067242258832266 22.99230637888104 0 22.99230637888104 -2.6789100297755795 0 0 0 0 11.441609979323403 39.198990151031467 0 39.198990151031467 -2.1545622721369 0 0 0 0 12.19657525990624 34.904009110876359 0 34.904009110876359 -3.0907618971978081 0 0 0 0 -22.437764706253802 27.14720734923867 0 27.14720734923867 -2.6077504177228548 0 0 0 0 -3.2873257258252124 50.619002214023567 0 50.619002214023567 -17.455055513113621 0 0 0 0 21.017081000842154 39.551557022143243 0 39.551557022143243 -51.825346189270931 0 0 0 0 14.003763501511976 16.55865673471266 0 16.55865673471266 4.2304948444683532 0 0 0 0 23.894332850331466 1.2240258918183144 0 1.2240258918183144 18.116632880570251 0 0 0 0 24.671660196300763 15.411089219117684 0 15.411089219117684 -19.905145793425618 0 0 0 0 11.416856101393932 36.263564362074248 0 36.263564362074248 -48.326628736751445 0 0 0 0 4.6515959288606403 1.657202320051141 0 1.657202320051141 0.2819598096579341 0 0 0 0 -3.19385271823365 1.3056602748589032 0 1.3056602748589032 -0.43335974316852344 0 0 0 0 28.034104773651052 29.127317618123016 0 29.127317618123016 9.7690703619809938 0 0 0 0 57.646235142801743 34.202991913596634 0 34.202991913596634 -40.609103622446128 0 0 0 0 -4.7229173638580306 20.031318945927922 0 20.031318945927922 -4.0410665466335161 0 0 0 0 10.48679115709092 30.59464128313266 0 30.59464128313266 -25.82518663542578 0 0 0 0 25.120471333721071 50.158739808004611 0 50.158739808004611 -1.8008294376904814 0 0 0 0 19.081324017053703 34.721503969794867 0 34.721503969794867 -22.476338979729917 0 0 0 0 -14.525898651758325 30.659853964727517 0 30.659853964727517 -15.022803983316408 0 0 0 0 -16.681802937658176 54.269288440415039 0 54.269288440415039 -29.953369198774453 0 0 0 0 -10.587855770267197 29.144992740508314 0 29.144992740508314 -19.371606850821991 0 0 0 0 -45.793152254904271 50.541805699449469 0 50.541805699449469 -19.92175434071396 0 0 0 0 -20.226008570851263 15.136585705944526 0 15.136585705944526 -9.496204401642899 0 0 0 0 -37.113883374750003 62.734729512096237 0 62.734729512096237 -46.509337357776531 0 0 0 0 -13.220284855844511 36.950930572576908 0 36.950930572576908 12.722951967443805 0 0 0 0 50.321579073526664 61.988897974757492 0 61.988897974757492 -3.4007778247178067 0 0 0 0 2.2342150870679056 6.7100760925194969 0 6.7100760925194969 13.3388924899551 0 0 0 0 -127.25679009197847 -21.132654184882995 0 -21.132654184882995 49.653687583584542 0 0 0 0 114.16169218501091 -12.601157130193315 0 -12.601157130193315 -35.925604737254616 0 0 0 0 2.137809810024919 -140.65917043637819 0 -140.65917043637819 95.741172627704145 0 0 0 0 26.722814775358529 -11.182226946454648 0 -11.182226946454648 -40.490084085948183 0 0 0 0 24.768354028921749 -10.028495374092017 0 -10.028495374092017 -18.418479846819537 0 0 0 0 -12.906807331451091 24.145328767883257 0 24.145328767883257 22.858683433987608 0 0 0 0 4.7933367008847796 7.2792915338064681 0 7.2792915338064681 -1.7388535247845738 0 0 0 0 13.145752649021787 4.2896918661576677 0 4.2896918661576677 -13.134654104009513 0 0 0 0 39.099245667267496 15.624023198050054 0 15.624023198050054 -6.6234450629854109 0 0 0 0 11.8800717505801 16.54255247295805 0 16.54255247295805 -5.1692747133820376 0 0 0 0 14.299086331477156 13.29407078938857 0 13.29407078938857 -8.6002951758673589 0 0 0 0 19.983000627096771 31.11505917138129 0 31.11505917138129 -0.99748110756536335 0 0 0 0 1.3214367498815918 3.9554007025773075 0 3.9554007025773075 2.0371386018077544 0 0 0 0 0.74112270082859766 8.5647799355240295 0 8.5647799355240295 -13.581308286886042 0 0 0 0 -13.067698450737225 35.579624902611613 0 35.579624902611613 28.832592286082217 0 0 0 0 4.1885866929733311 48.942853011423722 0 48.942853011423722 10.889741412695003 0 0 0 0 40.302310079387098 38.543604666352621 0 38.543604666352621 8.6327575191871802 0 0 0 0 32.158606935539865 45.642555452795932 0 45.642555452795932 6.8727476068343094 0 0 0 0 3.6617386604835929 8.7136007094000263 0 8.7136007094000263 -12.083906680332575 0 0 0 0 31.920457963511581 36.137814658301068 0 36.137814658301068 16.778470319361077 0 0 0 0 39.629440268334292 37.466989807709979 0 37.466989807709979 -1.9210390245279996 0 0 0 0 31.270714778889669 50.043269181467622 0 50.043269181467622 -3.3816020302874676 0 0 0 0 49.460515547267278 32.631815872096922 0 32.631815872096922 5.8122050801694058 0 0 0 0 39.187043351132161 38.540922937829237 0 38.540922937829237 7.5443772883299971 0 0 0 0 58.899634937566589 29.688030150937266 0 29.688030150937266 -4.8335915038333042 0 0 0 0 16.850176618034311 44.591844302902246 0 44.591844302902246 -21.747764632811595 0 0 0 0 16.509727788972668 47.267692356059342 0 47.267692356059342 -0.99206805034555146 0 0 0 0 5.3400413128197215 47.206573350057852 0 47.206573350057852 -11.609732999779226 0 0 0 0 -18.370137721703941 20.011973988819591 0 20.011973988819591 -23.852326644355344 0 0 0 0 0.82957674222438982 5.3856793625014419 0 5.3856793625014419 11.702915522389915 0 0 0 0 -81.438857537075819 24.710885412010612 0 24.710885412010612 31.541583948000152 0 0 0 0 -47.354781414882382 131.06367293888979 0 131.06367293888979 49.634344740788947 0 0 0 0 -28.25191059836834 56.116066148307254 0 56.116066148307254 294.26084599963542 0 0 0 0 225.16551647991582 157.0492466100568 0 157.0492466100568 -20.708783986639901 0 0 0 0 1.0835380069287623 4.616865693826302 0 4.616865693826302 6.971002349982399 0 0 0 0 290.10272122478227 142.46372164417198 0 142.46372164417198 -53.269693371530593 0 0 0 0 -17.064527985381574 29.400422650043765 0 29.400422650043765 -47.773514592876381 0 0 0 0 -155.13813926683088 77.367237709449682 0 77.367237709449682 4.4434934971723123 0 0 0 0 -55.243978425118257 7.799307260200294 0 7.799307260200294 -9.1720413852272031 0 0 0 0 -50.601448349613293 42.225808818226369 0 42.225808818226369 -1.369475490777404 0 0 0 0 28.540147318561139 23.974793372491149 0 23.974793372491149 -2.9616073647484882 0 0 0 0 13.888826911934302 56.982881913856545 0 56.982881913856545 -32.229631923066336 0 0 0 0 71.176310863083927 18.383922150478611 0 18.383922150478611 -0.1070060143538285 0 0 0 0 65.404796242553857 11.920875214898842 0 11.920875214898842 5.4104856021003798 0 0 0 0 52.509171055022307 29.371442439449311 0 29.371442439449311 1.1559804327771417 0 0 0 0 54.072310436808039 31.903451534559281 0 31.903451534559281 -21.311032241272187 0 0 0 0 62.566936257411726 26.419718726589053 0 26.419718726589053 -16.195572754550085 0 0 0 0 82.503764117929677 20.67260913163409 0 20.67260913163409 -10.541160317032336 0 0 0 0 82.14289270670929 8.6457019042536558 0 8.6457019042536558 7.8782401115022367 0 0 0 0 144.20690763173661 -20.122961200248938 0 -20.122961200248938 -0.71961900050519034 0 0 0 0 89.653512037786982 -7.87055770105394 0 -7.87055770105394 42.087103323501651 0 0 0 0 88.862406037051642 15.420603372581127 0 15.420603372581127 1.2307417302654358 0 0 0 0 66.80962066291977 11.60940512815796 0 11.60940512815796 8.4113211388830678 0 0 0 0 79.488588899090246 15.580350165671916 0 15.580350165671916 1.2326776580666774 0 0 0 0 110.54197648588342 -31.739836578355607 0 -31.739836578355607 28.230672149831662 0 0 0 0 113.21339964085928 -13.882892750512838 0 -13.882892750512838 8.769924644362618 0 0 0 0 -17.147212446223421 22.113226524619677 0 22.113226524619677 18.492385429806745 0 0 0 0 39.384167472977424 18.412354170006438 0 18.412354170006438 -27.081294686851834 0 0 0 0 39.058950204671419 9.0361336742098501 0 9.0361336742098501 12.196740120005416 0 0 0 0 110.87926576160862 22.562208612657741 0 22.562208612657741 15.25305315485457 0 0 0 0 48.209325553210874 42.144505522952386 0 42.144505522952386 11.450326936846977 0 0 0 0 83.92275236216301 3.2137614458915778 0 3.2137614458915778 28.87164448243675 0 0 0 0 124.69806926237652 15.401279153133146 0 15.401279153133146 19.442488872165995 0 0 0 0 91.098145168994961 -5.9382375887289527 0 -5.9382375887289527 9.329232995507482 0 0 0 0 198.07189053066395 25.056764050888887 0 25.056764050888887 25.977707781386925 0 0 0 0 0.96597338354850848 3.2995352830421893 0 3.2995352830421893 8.6613230821202762 0 0 0 0 -2.8663197781606868 70.52921608523684 0 70.52921608523684 74.637744901603583 0 0 0 0 154.82618493298287 130.51682237575005 0 130.51682237575005 97.219376192837444 0 0 0 0 59.208181258052718 184.95884585702697 0 184.95884585702697 134.55510787514686 0 0 0 0 63.379186526139165 -1.5332313310136669 0 -1.5332313310136669 192.90192922446295 0 0 0 0 269.59607384812989 136.48910106717267 0 136.48910106717267 61.839285728725372 0 0 0 0 631.77317568869557 188.55813290157698 0 188.55813290157698 -9.4410509365916369 0 0 0 0 0.63730172756908665 1.8517113824960347 0 1.8517113824960347 2.0731628288086199 0 0 0 0 -246.66091910223349 67.865550471936785 0 67.865550471936785 95.109700496897858 0 0 0 0 -8.094530887963856 17.214896887718055 0 17.214896887718055 -21.767750167327506 0 0 0 0 -54.960447633693548 76.388798122769003 0 76.388798122769003 17.534913565825264 0 0 0 0 -3.6541948811070952 3.6757213488724858 0 3.6757213488724858 3.1389221728121299 0 0 0 0 6.2538873599496583 38.450882845487286 0 38.450882845487286 -37.490820030252507 0 0 0 0 -46.161480927701632 59.298760424651846 0 59.298760424651846 -33.248047054046765 0 0 0 0 -65.736238948393293 18.09674424282457 0 18.09674424282457 -10.1333193583705 0 0 0 0 45.474693032207142 -5.3377511464223062 0 -5.3377511464223062 -45.014490244771878 0 0 0 0 -1.0243661568674725 -20.01486201127409 0 -20.01486201127409 -19.197080214820744 0 0 0 0 78.870993983331573 28.581219505093031 0 28.581219505093031 32.562927440631029 0 0 0 0 -55.907217502055573 36.694980554135327 0 36.694980554135327 38.799366992201612 0 0 0 0 -1.0365160054486715 4.8427668640952817 0 4.8427668640952817 -1.5919795289607066 0 0 0 0 149.19668973917578 75.422156206981526 0 75.422156206981526 -34.627579387048172 0 0 0 0 80.792943121096869 89.581024418902871 0 89.581024418902871 29.971886597151752 0 0 0 0 88.573227171043982 53.18637279228642 0 53.18637279228642 -27.944349238507129 0 0 0 0 -53.580505111334787 22.006366475034156 0 22.006366475034156 0.63225686131772818 0 0 0 0 -85.430250780547794 33.472563712843112 0 33.472563712843112 4.8702675732783973 0 0 0 0 -6.0573221988088335 72.370951116896322 0 72.370951116896322 -26.070240367633232 0 0 0 0 4.4730305564808077 53.652733635481127 0 53.652733635481127 -1.5545039107055345 0 0 0 0 58.478144115775649 69.267531278441311 0 69.267531278441311 -36.094165177088144 0 0 0 0 7.1762379357494481 8.752835174981044 0 8.752835174981044 -18.650446042426964 0 0 0 0 53.531513683665253 98.507234437569423 0 98.507234437569423 34.562582514816313 0 0 0 0 -7.7370000224618707 6.3799408809645684 0 6.3799408809645684 41.51103580920244 0 0 0 0 71.620726784678482 69.374215419337816 0 69.374215419337816 -0.35974073313263943 0 0 0 0 -29.194203337981889 68.125346612025169 0 68.125346612025169 -30.288949343186687 0 0 0 0 -12.582983097672695 37.807434287900833 0 37.807434287900833 21.64361281638412 0 0 0 0 -134.92783363572016 26.100347209488973 0 26.100347209488973 44.028483789297752 0 0 0 0 1.8982758422341353 1.9971124756645438 0 1.9971124756645438 0.26727560125367233 0 0 0 0 94.449069099755434 11.950876621958741 0 11.950876621958741 3.2987581515917554 0 0 0 0 -11.322816486033844 39.383701709139132 0 39.383701709139132 56.967417021704023 0 0 0 0 94.264067780775804 -1.4176384991606028 0 -1.4176384991606028 2.4365832253824919 0 0 0 0 0.96754939797872552 5.5171994966635509 0 5.5171994966635509 16.499698416702074 0 0 0 0 -89.918822163737786 64.617462413803878 0 64.617462413803878 -26.599497282040829 0 0 0 0 -62.122487129021465 21.671521412672519 0 21.671521412672519 27.363856246578507 0 0 0 0 -99.903865274347481 -17.626126305403886 0 -17.626126305403886 38.736587543069618 0 0 0 0 -86.152269392638118 48.164618381662876 0 48.164618381662876 33.638609689945952 0 0 0 0 -14.396791733775899 22.97609088905665 0 22.97609088905665 16.920591147776577 0 0 0 0 92.415619861843879 7.7652457867297926 0 7.7652457867297926 -5.1086542549310252 0 0 0 0 70.584037161373999 10.674079263073509 0 10.674079263073509 5.536371096757648 0 0 0 0 88.515875751021667 16.179903760228626 0 16.179903760228626 16.597055249912955 0 0 0 0 52.515247538853146 -38.310399033649446 0 -38.310399033649446 -112.66700805811706 0 0 0 0 -243.70047119756418 23.235382135742839 0 23.235382135742839 43.500287433667836 0 0 0 0 1.704731381182496 5.3703202838577688 0 5.3703202838577688 12.696018472165349 0 0 0 0 -0.17848182211848829 -0.47996059553744175 0 -0.47996059553744175 0.096007050261775362 0 0 0 0 -77.583123265039831 4.3451333304665241 0 4.3451333304665241 -65.2610953405092 0 0 0 0 -107.09066794994578 113.86984230158123 0 113.86984230158123 1.0973526540183229 0 0 0 0 -81.415747316554189 130.94630457552466 0 130.94630457552466 65.386974972614553 0 0 0 0 -66.900184986145177 52.110733935163807 0 52.110733935163807 8.0269812379410723 0 0 0 0 -69.763017925095482 65.131449154645452 0 65.131449154645452 -49.973791940759838 0 0 0 0 -82.503059555921141 79.3416717637798 0 79.3416717637798 -10.0448324410645 0 0 0 0 -229.01870229134511 35.540809921447362 0 35.540809921447362 34.911564392390574 0 0 0 0 -83.208364581743808 20.973152650285556 0 20.973152650285556 41.197161872369179 0 0 0 0 41.12085605460743 21.877597851002065 0 21.877597851002065 9.6346814578246267 0 0 0 0 4.7978609775091172 32.703647716327396 0 32.703647716327396 -19.332067744544474 0 0 0 0 9.2031831661879551 53.238985050816609 0 53.238985050816609 47.375492904058774 0 0 0 0 -39.577648926868278 78.117506891627272 0 78.117506891627272 16.707195186862009 0 0 0 0 21.414665641710599 20.511571964675568 0 20.511571964675568 15.841572424127662 0 0 0 0 2.7408188442568644 83.864739263395677 0 83.864739263395677 24.697989674110431 0 0 0 0 116.78229992152046 -10.211143786913453 0 -10.211143786913453 65.361424116720627 0 0 0 0 96.305428137973649 63.908173197103679 0 63.908173197103679 -7.2315081669003121 0 0 0 0 253.62315584804492 85.929633125138025 0 85.929633125138025 -40.112054819979676 0 0 0 0 0.25485506519139989 -0.52861193317367849 0 -0.52861193317367849 -1.428467462928225 0 0 0 0 159.2249271699111 101.21044148791407 0 101.21044148791407 -79.542879529293714 0 0 0 0 -186.36942436549634 29.287903103218014 0 29.287903103218014 93.30363478669824 0 0 0 0 -5.0261266290920119 8.5678288532387654 0 8.5678288532387654 -13.926681246648428 0 0 0 0 69.792202504471788 80.245400959708604 0 80.245400959708604 -42.099059804862918 0 0 0 0 -4.0924645697641608 79.678432673682892 0 79.678432673682892 56.974291266524233 0 0 0 0 97.991517898892198 106.45261413677326 0 106.45261413677326 63.373980671960453 0 0 0 0 107.30772688528668 33.253185350764397 0 33.253185350764397 -26.416826347853203 0 0 0 0 2.8287975660250595 94.095153307818691 0 94.095153307818691 28.081462821744935 0 0 0 0 87.073957463493571 117.98017590306699 0 117.98017590306699 34.46642718559815 0 0 0 0 -12.080884633014648 81.204595007326134 0 81.204595007326134 78.495708877171182 0 0 0 0 -12.884736219570186 60.600278515108585 0 60.600278515108585 40.359175606972713 0 0 0 0 -50.944901583692626 31.76153069011707 0 31.76153069011707 39.20122853720386 0 0 0 0 -120.35449298941603 64.638558981454025 0 64.638558981454025 180.93571806092768 0 0 0 0 -32.346240823058906 159.82037037127338 0 159.82037037127338 167.52352600643826 0 0 0 0 13.896589036173197 31.890492262198119 0 31.890492262198119 -17.605622161884973 0 0 0 0 47.308572457051923 75.033158503325467 0 75.033158503325467 -160.23011525897891 0 0 0 0 -4.6115359394570987 68.110045738218105 0 68.110045738218105 32.740310785519114 0 0 0 0 -49.276223390475934 102.68349904261322 0 102.68349904261322 29.840043284368221 0 0 0 0 -22.993391316245834 67.13533901242954 0 67.13533901242954 74.834940656449362 0 0 0 0 10.605888150039391 54.12570750611485 0 54.12570750611485 -6.5160630196187412 0 0 0 0 10.774798157515761 49.188486080900475 0 49.188486080900475 17.389942404813155 0 0 0 0 14.284173572374158 18.142971338913817 0 18.142971338913817 8.0763685623926165 0 0 0 0 -12.102717664331067 95.20154041873775 0 95.20154041873775 128.37196647552264 0 0 0 0 -7.7515755095009808 -13.200033833796624 0 -13.200033833796624 55.742393692098631 0 0 0 0 56.07456800863838 59.749643321594704 0 59.749643321594704 4.7953123196311935 0 0 0 0 43.573295568712638 32.981506036845531 0 32.981506036845531 49.277219797671933 0 0 0 0 -45.292545839982267 -25.728120255730573 0 -25.728120255730573 -9.4770795251170057 0 0 0 0 55.582848323096187 74.057200485921385 0 74.057200485921385 46.955153169023106 0 0 0 0 100.37343917519865 59.580991965074645 0 59.580991965074645 4.4371323605591897 0 0 0 0 112.2452439425615 147.62529024001287 0 147.62529024001287 108.93335772420687 0 0 0 0 125.02784658448218 54.886034017017209 0 54.886034017017209 33.791348922539328 0 0 0 0 511.78655100635297 131.30403570330236 0 131.30403570330236 38.089241468287582 0 0 0 0 -196.10965352078711 -29.561182921155705 0 -29.561182921155705 79.091475877185985 0 0 0 0 0.42685755033284067 0.96713222337638882 0 0.96713222337638882 3.2240780874569168 0 0 0 0 111.70363899262156 242.04975925936924 0 242.04975925936924 229.17471569211193 0 0 0 0 142.23178801796166 38.700478726523215 0 38.700478726523215 -269.65859342693511 0 0 0 0 77.491099713481162 203.48223002883788 0 203.48223002883788 -10.892556772147145 0 0 0 0 123.61015407208652 -88.405884510374563 0 -88.405884510374563 60.986409930406353 0 0 0 0 15.705723487736094 31.438450416439927 0 31.438450416439927 -17.471595826381606 0 0 0 0 28.855844366189558 20.555749248159373 0 20.555749248159373 -81.905769222305025 0 0 0 0 -6.2415919415525423 -128.74103584334352 0 -128.74103584334352 -107.64478195683478 0 0 0 0 5.0320906969991483 33.386758810108404 0 33.386758810108404 -29.778455648105592 0 0 0 0 14.105764505385693 31.085226545303165 0 31.085226545303165 -17.14647765093126 0 0 0 0 2.1465803330738709 32.849610610370746 0 32.849610610370746 -9.3893874063178373 0 0 0 0 22.53642471481362 28.717364195636947 0 28.717364195636947 -60.255298083364096 0 0 0 0 11.464572470762505 45.644396650954604 0 45.644396650954604 -23.469389786534521 0 0 0 0 -5.8258967430301709 60.985047660286 0 60.985047660286 41.820964569489661 0 0 0 0 -7.7250369760354261 34.815046042626903 0 34.815046042626903 15.17382576120508 0 0 0 0 -15.012367160088615 18.778086797777178 0 18.778086797777178 -3.412085271936121 0 0 0 0 -32.043004676757846 38.103174800446141 0 38.103174800446141 -17.236005621170989 0 0 0 0 3.2823348737783817 8.98172724772121 0 8.98172724772121 -55.118088473084754 0 0 0 0 10.614645280010976 32.078211114270388 0 32.078211114270388 -17.124630311350078 0 0 0 0 0.82041559271237929 -75.063962956885007 0 -75.063962956885007 3.8055948619330593 0 0 0 0 64.665892355937103 -130.16448582372868 0 -130.16448582372868 -148.05877476792739 0 0 0 0 -18.507013127815299 18.328461729945047 0 18.328461729945047 -35.730689773859922 0 0 0 0 -146.47619975913767 117.51720659794046 0 117.51720659794046 -112.51228469313355 0 0 0 0 -19.635012245120379 8.2898730616543617 0 8.2898730616543617 79.955561365030007 0 0 0 0 34.418183449390199 11.028792822929972 0 11.028792822929972 -22.95130455204162 0 0 0 0 36.006717993979692 -33.291766935533815 0 -33.291766935533815 -26.723793639765063 0 0 0 0 -201.30182214654997 -43.717749144965637 0 -43.717749144965637 16.745102654758284 0 0 0 0 -1.5074241625452558 0.97723995042780132 0 0.97723995042780132 -1.947895444116341 0 0 0 0 -60.195389037351561 79.747767802382441 0 79.747767802382441 112.24875317517217 0 0 0 0 -159.29394571597913 263.61195375246734 0 263.61195375246734 -151.62883966306254 0 0 0 0 7.5585526118518089 32.448930703250284 0 32.448930703250284 -18.342542088694902 0 0 0 0 56.515436543732903 74.851502706152587 0 74.851502706152587 -63.433096768530959 0 0 0 0 65.344601270331623 27.349768404717906 0 27.349768404717906 -80.518521474201407 0 0 0 0 -348.60948227858898 -44.328979603739299 0 -44.328979603739299 115.38933076634112 0 0 0 0 4.8831066108978121 126.95934724484619 0 126.95934724484619 99.072442658368345 0 0 0 0 -42.128479280509055 129.61370782323593 0 129.61370782323593 150.21640570520867 0 0 0 0 -93.67635261824762 -28.409762410702569 0 -28.409762410702569 11.082217582985322 0 0 0 0 1.5501229900037288 43.16535643014322 0 43.16535643014322 -84.72050965637527 0 0 0 0 -40.538494592386996 -103.71391647543987 0 -103.71391647543987 -154.9820118950438 0 0 0 0 -45.1635103117369 72.171363282794687 0 72.171363282794687 80.687924007133006 0 0 0 0 30.72689028273453 93.534163013421676 0 93.534163013421676 55.312571326895977 0 0 0 0 25.967048170952694 87.747876372452765 0 87.747876372452765 113.497360399424 0 0 0 0 196.70914856457239 163.30455932155928 0 163.30455932155928 89.581782591403226 0 0 0 0 125.07507570136659 198.39916931622065 0 198.39916931622065 102.13746654240867 0 0 0 0 0.69484676599357797 -0.038343798737898283 0 -0.038343798737898283 1.5854589201543092 0 0 0 0 475.21544759795506 274.96474896717245 0 274.96474896717245 -3.8354957942065084 0 0 0 0 -65.456469014614413 8.8801491615890882 0 8.8801491615890882 -2.5624380304848273 0 0 0 0 25.420770048906888 -207.49633972466222 0 -207.49633972466222 199.1732467499769 0 0 0 0 351.90101976851292 190.30585500219058 0 190.30585500219058 24.848274528427282 0 0 0 0 0.97672563366546683 1.9907219373797744 0 1.9907219373797744 5.4012270984257533 0 0 0 0 -265.59918487145114 331.1333097461586 0 331.1333097461586 55.969413989565624 0 0 0 0 88.277554725038499 -13.366587589093115 0 -13.366587589093115 -73.399983919642182 0 0 0 0 354.61632678569003 221.34926904577151 0 221.34926904577151 140.61270778942253 0 0 0 0 -44.911415525712073 281.71321493969663 0 281.71321493969663 145.06144439427317 0 0 0 0 118.69100823319059 348.47733748322207 0 348.47733748322207 212.15418839582344 0 0 0 0 204.17730847160828 396.01620758887316 0 396.01620758887316 148.04583439787712 0 0 0 0 3.7968057428870452 106.06757458712309 0 106.06757458712309 -78.388221779467131 0 0 0 0 8.7337482577045193 62.329171893905368 0 62.329171893905368 -28.473328822012263 0 0 0 0 9.7306668179207829 8.7247464068301639 0 8.7247464068301639 4.7510919237124085 0 0 0 0 -37.007738269483525 -30.767545394639455 0 -30.767545394639455 74.088713001500764 0 0 0 0 30.406484833065218 36.155305433327165 0 36.155305433327165 35.079057450799404 0 0 0 0 -2.0188702171376391 10.470798847055704 0 10.470798847055704 13.580047576561434 0 0 0 0 -125.82212099295066 95.500937321559832 0 95.500937321559832 54.007075101088049 0 0 0 0 -144.99403950042688 16.702021794077154 0 16.702021794077154 110.94204251041538 0 0 0 0 -19.929850844076725 80.385922911726084 0 80.385922911726084 6.3736369940997974 0 0 0 0 -13.387939347831662 90.277678769336489 0 90.277678769336489 -21.399994218314532 0 0 0 0 -35.937495961996774 85.916325039203002 0 85.916325039203002 7.1063204463142711 0 0 0 0 -33.103997938188513 77.015151767347561 0 77.015151767347561 1.5903548920032335 0 0 0 0 12.370812491589732 75.765273473010893 0 75.765273473010893 33.864805071815226 0 0 0 0 -34.64005275761383 71.282382023652644 0 71.282382023652644 33.461687042996346 0 0 0 0 -10.25422632511868 79.052652512171335 0 79.052652512171335 7.471746340442337 0 0 0 0 -6.0020032102052028 89.553948702139678 0 89.553948702139678 41.507245233719004 0 0 0 0 -18.080192023765036 122.93967957760546 0 122.93967957760546 7.7759506594557024 0 0 0 0 54.293475108658185 89.74858713940921 0 89.74858713940921 34.124216679977508 0 0 0 0 -18.652863240259165 95.558025627353345 0 95.558025627353345 34.621215837218188 0 0 0 0 -43.495525737274193 59.336660506110093 0 59.336660506110093 -22.887445467909856 0 0 0 0 1.3156805118035972 13.300056898869249 0 13.300056898869249 -9.9206714028833005 0 0 0 0 -5.6719947703642575 34.463729469414019 0 34.463729469414019 -15.432968079635749 0 0 0 0 -9.7701139032392348 47.357394193908476 0 47.357394193908476 17.701726007951947 0 0 0 0 -9.6626935977390076 48.694137343656621 0 48.694137343656621 27.702584059726178 0 0 0 0 547.61077331556226 -131.55401426735398 0 -131.55401426735398 -312.58375137459325 0 0 0 0 4.8700901989650447 76.693339087512868 0 76.693339087512868 -0.90436385853354295 0 0 0 0 6.6368943340519309 41.1442784492233 0 41.1442784492233 -14.148081492480186 0 0 0 0 32.939813397767786 46.011703531487882 0 46.011703531487882 29.122450065265241 0 0 0 0 -306.96622594599467 111.50203946935289 0 111.50203946935289 434.30710425040184 0 0 0 0 -27.562047569055444 39.05947244833196 0 39.05947244833196 8.372724795629054 0 0 0 0 -2.5119952451168501 36.165339508523175 0 36.165339508523175 8.6339264761263621 0 0 0 0 -5.5424790599554399 56.255069781542261 0 56.255069781542261 5.3843975620702622 0 0 0 0 11.541214480066888 31.854781002119857 0 31.854781002119857 20.189119276229917 0 0 0 0 49.45024919149364 36.775057682258193 0 36.775057682258193 -32.820895397391723 0 0 0 0 11.651740871518927 4.0914004977795457 0 4.0914004977795457 -0.25229877564734693 0 0 0 0 26.373584259141964 25.921424866713377 0 25.921424866713377 -1.5699733712583424 0 0 0 0 -31.068424464025156 60.168348374301786 0 60.168348374301786 -15.282983159875585 0 0 0 0 15.638204977369696 18.2916880587631 0 18.2916880587631 8.7859648969169939 0 0 0 0 5.9027860840755899 21.693382014445767 0 21.693382014445767 6.2887354063838785 0 0 0 0 18.944374426202558 22.877983661832332 0 22.877983661832332 11.566277595149586 0 0 0 0 22.042230168553033 39.207979704866375 0 39.207979704866375 2.8633060662559728 0 0 0 0 6.6956461134243739 18.067091151500975 0 18.067091151500975 12.740596509456211 0 0 0 0 3.3510662519747711 36.860203665397421 0 36.860203665397421 12.178645881183911 0 0 0 0 -28.865172944275344 46.94693011583513 0 46.94693011583513 14.221118906207266 0 0 0 0 13.777271596480851 24.421921546580322 0 24.421921546580322 10.094654689819436 0 0 0 0 9.3893760277596385 16.327736492551892 0 16.327736492551892 4.3589965091249496 0 0 0 0 11.363384880380181 27.488131021102163 0 27.488131021102163 9.5991092825715896 0 0 0 0 9.854604211085686 17.73691683428909 0 17.73691683428909 2.5613466759522794 0 0 0 0 -18.064539514437456 49.780742111499421 0 49.780742111499421 25.138564933629823 0 0 0 0 -13.598490579256008 55.696862943975248 0 55.696862943975248 15.245690640167595 0 0 0 0 -10.112609191535626 31.5672559672239 0 31.5672559672239 12.702886932496313 0 0 0 0 -10.203710012795796 36.852034714169349 0 36.852034714169349 42.747681233740877 0 0 0 0 -0.20277677184753884 31.932790315380771 0 31.932790315380771 31.460184780808049 0 0 0 0 0.62465090383236888 4.2473942082622251 0 4.2473942082622251 -0.22411386996938631 0 0 0 0 23.062237059695349 32.049778735559812 0 32.049778735559812 -11.346240922440302 0 0 0 0 1.8134147318857883 23.234738896719591 0 23.234738896719591 10.212844830083878 0 0 0 0 -10.320470265941992 25.04665320926506 0 25.04665320926506 16.429808525019325 0 0 0 0 5.6247383943114073 58.412892881578045 0 58.412892881578045 45.575599408788548 0 0 0 0 -34.552270676435455 53.750665460454911 0 53.750665460454911 55.643897932342952 0 0 0 0 -23.672466480508319 74.13726197453434 0 74.13726197453434 87.98672604605963 0 0 0 0 64.868528267740317 55.08706969647028 0 55.08706969647028 20.064347362196713 0 0 0 0 153.18191340739429 106.06660664790979 0 106.06660664790979 45.844324681409489 0 0 0 0 -1.1336510269624624 -1.9779416027919723 0 -1.9779416027919723 1.8604762331828226 0 0 0 0 -19.493223761159243 18.635853540788958 0 18.635853540788958 12.927952989036385 0 0 0 0 -4.2648346437493458 16.907602740034179 0 16.907602740034179 25.260687896800718 0 0 0 0 15.483607273708913 24.247720055842365 0 24.247720055842365 30.67592511230032 0 0 0 0 21.625479717280996 34.927062582060671 0 34.927062582060671 10.721034821384819 0 0 0 0 -0.074008501793393577 19.931050940343749 0 19.931050940343749 13.404510211430534 0 0 0 0 14.734071293925808 33.556685324969294 0 33.556685324969294 27.239605361039139 0 0 0 0 13.83228248327481 27.125483387670386 0 27.125483387670386 16.978472711867653 0 0 0 0 14.285960489985882 25.397652943094727 0 25.397652943094727 15.549922029371373 0 0 0 0 2.5694511051901019 30.869756784379749 0 30.869756784379749 4.0434420660037063 0 0 0 0 -14.196555453992458 22.581611896423695 0 22.581611896423695 8.4558404232283237 0 0 0 0 -18.456319010978405 35.583851808260079 0 35.583851808260079 29.011791515222285 0 0 0 0 -29.983550317605477 19.166126699215965 0 19.166126699215965 10.725596298208984 0 0 0 0 -0.68419456097385023 24.500201553041563 0 24.500201553041563 14.476925501797027 0 0 0 0 -0.79522383301809896 20.19603385735536 0 20.19603385735536 6.0799845841611386 0 0 0 0 0.47415984609927975 40.964177688685503 0 40.964177688685503 17.747128387818719 0 0 0 0 20.797821371132159 48.63308819651138 0 48.63308819651138 11.284432322470821 0 0 0 0 -6.5998549302094283 6.8636323152990215 0 6.8636323152990215 14.745693859376274 0 0 0 0 -35.821816368809721 37.67045203893872 0 37.67045203893872 49.685611880500801 0 0 0 0 -33.852169784026046 54.117225774189137 0 54.117225774189137 55.36135830260173 0 0 0 0 -34.333456445818229 54.298592931460007 0 54.298592931460007 56.042348483693786 0 0 0 0 -34.18331175962885 53.493643855010305 0 53.493643855010305 54.763369074891671 0 0 0 0 2.715540239477904 19.592459153331067 0 19.592459153331067 22.577995334668017 0 0 0 0 27.830604315666278 24.421908007007005 0 24.421908007007005 26.440729444468161 0 0 0 0 -31.640127746299186 42.441673726501904 0 42.441673726501904 55.072201352359116 0 0 0 0 -2.0715668534344456 14.281669379126537 0 14.281669379126537 30.343955466933181 0 0 0 0 18.068073496931902 31.833281213082955 0 31.833281213082955 35.722699680700316 0 0 0 0 7.295949085502798 27.068814742931863 0 27.068814742931863 45.229428636173907 0 0 0 0 5.8906252290294105 22.747746599569382 0 22.747746599569382 35.560792721444159 0 0 0 0 6.0763284356580698 22.014780473502469 0 22.014780473502469 29.485328848124482 0 0 0 0 -9.1651840709369026 19.488016440085175 0 19.488016440085175 22.886627631785814 0 0 0 0 13.131012508740241 26.450843610014999 0 26.450843610014999 5.0268350277574427 0 0 0 0 16.045273831874511 25.097810093579938 0 25.097810093579938 16.664666755081271 0 0 0 0 6.6302660643450508 31.353004444797989 0 31.353004444797989 31.05704910782697 0 0 0 0 15.268989297632288 34.71834846470847 0 34.71834846470847 19.178166035519098 0 0 0 0 -10.768314960428143 38.028359458155933 0 38.028359458155933 32.609230157031561 0 0 0 0 -5.4230711793843511 59.695868253303161 0 59.695868253303161 5.2972658046637662 0 0 0 0 12.080050136750501 18.009220362844324 0 18.009220362844324 20.559038818146732 0 0 0 0 -15.123909369283268 3.6930889751750868 0 3.6930889751750868 11.626593053685284 0 0 0 0 3.8119056803311651 35.59488331210855 0 35.59488331210855 30.772757370796171 0 0 0 0 -3.0443910741960281 -3.2284810456694686 0 -3.2284810456694686 33.740553096013173 0 0 0 0 25.33827916313021 14.783093859250585 0 14.783093859250585 14.884768340780283 0 0 0 0 -26.617686780711665 10.487447880326727 0 10.487447880326727 14.79240212561308 0 0 0 0 2.0690673568782785 5.2597702568228915 0 5.2597702568228915 6.5508644185964044 0 0 0 0 -51.128313153010822 57.44285288404717 0 57.44285288404717 31.005367072539229 0 0 0 0 5.5979468553159677 64.880630253901018 0 64.880630253901018 31.361071050116152 0 0 0 0 113.96422949026237 202.33993544815166 0 202.33993544815166 -3.9076106153606815 0 0 0 0 182.84168744066483 -69.493663041545005 0 -69.493663041545005 -74.886260605936513 0 0 0 0 -9.3640826622577151 88.083301899237995 0 88.083301899237995 -145.68075226770452 0 0 0 0 -0.52590996067495155 3.6813336080757608 0 3.6813336080757608 3.6048421671854385 0 0 0 0 -69.722067380720546 45.196817104613729 0 45.196817104613729 166.47430675645774 0 0 0 0 -59.027570362872211 194.66387395554193 0 194.66387395554193 76.784606474979228 0 0 0 0 30.915250919231767 69.509333964450889 0 69.509333964450889 41.785594714699982 0 0 0 0 -77.353388322138926 76.161778942741876 0 76.161778942741876 56.698833407703205 0 0 0 0 -151.31199902278968 44.472522974056119 0 44.472522974056119 85.701466538708701 0 0 0 0 -79.173634774841048 -10.859311028538286 0 -10.859311028538286 9.9766951322540081 0 0 0 0 0.95361307461933364 7.7280561144848576 0 7.7280561144848576 -1.3670729455628106 0 0 0 0 -42.572831689438317 26.238531737947596 0 26.238531737947596 14.427879906066664 0 0 0 0 15.878910407373041 50.42361835626798 0 50.42361835626798 -6.3041581116131056 0 0 0 0 6.6214103793718095 40.195582942926194 0 40.195582942926194 5.8566333630906229 0 0 0 0 13.731426737091212 18.323814918908667 0 18.323814918908667 17.362259072450385 0 0 0 0 -30.128118320340946 26.544488167080999 0 26.544488167080999 14.270265758252208 0 0 0 0 -58.282835221933055 65.027178014552192 0 65.027178014552192 6.7423300446052963 0 0 0 0 14.055687732041406 125.53801012342228 0 125.53801012342228 -246.24330785835627 0 0 0 0 9.4138980232091853 -0.75206958337730612 0 -0.75206958337730612 -293.41672187236236 0 0 0 0 39.276197751809377 137.37164236588433 0 137.37164236588433 -324.45338001215168 0 0 0 0 0.7602251242424245 166.38205235208443 0 166.38205235208443 -173.74101120291743 0 0 0 0 -26.352426420031406 111.73345488208906 0 111.73345488208906 -239.93314097932307 0 0 0 0 1.9806515479649534 173.1314094193076 0 173.1314094193076 -390.58225631062669 0 0 0 0 46.217769979892182 113.22498816682491 0 113.22498816682491 -241.41406861121141 0 0 0 0 51.646922557847574 132.16384327325068 0 132.16384327325068 -247.33317835302296 0 0 0 0 -2.7909768547397107 135.03894931309696 0 135.03894931309696 -172.46924318152742 0 0 0 0 21.061273657287529 175.14997799224511 0 175.14997799224511 -235.84126173552613 0 0 0 0 9.1951682558428729 117.50935504318477 0 117.50935504318477 -199.29723761883724 0 0 0 0 -131.14302295160451 278.60398746570627 0 278.60398746570627 -281.41819937980108 0 0 0 0 -66.082887751312228 162.0696580191543 0 162.0696580191543 -282.70086204794427 0 0 0 0 11.208381235095715 8.0142437192433 0 8.0142437192433 2.8252298687397683 0 0 0 0 -7.8296226874517743 121.78727418881681 0 121.78727418881681 -186.28171108919923 0 0 0 0 -88.697439335288436 156.96415109241616 0 156.96415109241616 -200.52684626128757 0 0 0 0 12.654748003813921 10.46386092111258 0 10.46386092111258 0.56309507607912224 0 0 0 0 -13.825476355246792 85.243246310608811 0 85.243246310608811 -198.98231161424155 0 0 0 0 -3.0605798491560563 23.00639358855733 0 23.00639358855733 -0.46162533365713898 0 0 0 0 9.6019543893598893 6.1180562860645296 0 6.1180562860645296 6.7467783385291114 0 0 0 0 5.5603794324868261 14.184506597215034 0 14.184506597215034 -2.3946948645467145 0 0 0 0 97.151945069235808 -44.961790280729474 0 -44.961790280729474 398.80589059614249 0 0 0 0 40.831259121223411 507.07201780899777 0 507.07201780899777 1228.9064198835913 0 0 0 0 -29.044671878011286 75.517674169910606 0 75.517674169910606 1999.7357319194089 0 0 0 0 416.62923133500772 941.96880091204548 0 941.96880091204548 1049.6259341364057 0 0 0 0 5.5143124718207872 9.8446710001266062 0 9.8446710001266062 7.3059960712192549 0 0 0 0 -10.873603754946089 72.950238959479975 0 72.950238959479975 -161.50708024202322 0 0 0 0 556.12565735470707 70.560887919815286 0 70.560887919815286 14.710038624682056 0 0 0 0 -1.3052538640890816 4.8383844118366994 0 4.8383844118366994 3.2636571531199934 0 0 0 0 516.56084496316907 902.52951035308433 0 902.52951035308433 665.67470970783506 0 0 0 0 -0.47444772381410871 -0.49848251451157921 0 -0.49848251451157921 0.231822956244919 0 0 0 0 52.252067964494927 346.24750509446312 0 346.24750509446312 429.80007634480353 0 0 0 0 66.574268523327191 22.181268658347108 0 22.181268658347108 -561.61681129780482 0 0 0 0 1.6590034297514649 709.69946604395773 0 709.69946604395773 2151.5275197372066 0 0 0 0 -0.59930786736003938 487.68976314286374 0 487.68976314286374 1372.3614848792204 0 0 0 0 1.8871449700687037 1.6214882772946737 0 1.6214882772946737 2.3224010337695162 0 0 0 0 493.81024956576221 921.69714699757969 0 921.69714699757969 0.32074644653948781 0 0 0 0 496.92104101170116 -148.38183038704665 0 -148.38183038704665 1172.7224310113997 0 0 0 0 728.1400493373967 1049.0057500242738 0 1049.0057500242738 1265.6984883834666 0 0 0 0 516.43747673112375 723.15851282979929 0 723.15851282979929 942.24553708156236 0 0 0 0 100.39673274909114 1050.6562771018041 0 1050.6562771018041 1268.2079749333498 0 0 0 0 2.7372701873322001 4.2199789337706619 0 4.2199789337706619 0.41693558074697279 0 0 0 0 137.02467177195649 703.21120867765057 0 703.21120867765057 1979.9079043033835 0 0 0 0 459.4130951942534 1201.854610962122 0 1201.854610962122 252.05879950957387 0 0 0 0 -0.7492655307280125 1178.0105554947461 0 1178.0105554947461 1031.3690588053578 0 0 0 0 170.23965082869836 930.52996834504847 0 930.52996834504847 386.08763680541961 0 0 0 0 362.73578569359961 694.64613035292496 0 694.64613035292496 679.47936700609898 0 0 0 0 1.0473189320864549 3.2187864878795267 0 3.2187864878795267 0.060017376109044562 0 0 0 0 53.819777801109012 883.63409972207955 0 883.63409972207955 1840.7509750108566 0 0 0 0 337.37371721801537 823.72991981831728 0 823.72991981831728 27.026209723058855 0 0 0 0 317.33516631219391 1054.5460088057189 0 1054.5460088057189 1735.4726683023327 0 0 0 0 138.73011491046327 512.04273792982076 0 512.04273792982076 1183.3762246921106 0 0 0 0 194.98047790350392 804.07035028500104 0 804.07035028500104 1445.5655200944093 0 0 0 0 -92.99576295031693 237.07401265763019 0 237.07401265763019 950.16649362659518 0 0 0 0 130.57744446760626 824.00430787065761 0 824.00430787065761 953.18790510148392 0 0 0 0 60.142786560958484 365.84843305976028 0 365.84843305976028 663.7689215861792 0 0 0 0 173.63438917198073 569.88202605875267 0 569.88202605875267 627.6496433847733 0 0 0 0 175.25323255013063 576.30654409975705 0 576.30654409975705 659.41287758398539 0 0 0 0 209.63563133932985 603.27771529443817 0 603.27771529443817 650.97563719609752 0 0 0 0 252.03370624964737 675.67676499226945 0 675.67676499226945 652.72877017447536 0 0 0 0 65.446718263243383 674.56528264361987 0 674.56528264361987 657.91146943047352 0 0 0 0 494.17978145396955 445.28453855723455 0 445.28453855723455 512.7963847209503 0 0 0 0 379.94227787331329 616.70476754450283 0 616.70476754450283 255.70301900580307 0 0 0 0 558.61739496856262 544.96963106457497 0 544.96963106457497 185.84891204849555 0 0 0 0 -28.427906160035491 324.9060266667766 0 324.9060266667766 558.31813995625453 0 0 0 0 4.0349651919922991 3.1189702989616883 0 3.1189702989616883 5.195086656524694 0 0 0 0 238.00697261609457 24.582449598794483 0 24.582449598794483 -22.936750554097671 0 0 0 0 623.33930803341354 394.60776474212798 0 394.60776474212798 267.10095881583402 0 0 0 0 -37.479686941082036 -27.16848007234239 0 -27.16848007234239 351.12945233278151 0 0 0 0 28.349095133424271 103.00158702812041 0 103.00158702812041 -106.23517764807002 0 0 0 0 -6.9256773061693337 10.205278917470167 0 10.205278917470167 3.4390242617490117 0 0 0 0 5.8506466755425208 39.564475529237825 0 39.564475529237825 31.693834463152598 0 0 0 0 52.277344416099368 30.452606728265891 0 30.452606728265891 11.326013175668777 0 0 0 0 22.308389044468953 33.935177242177005 0 33.935177242177005 23.995612627950706 0 0 0 0 -24.916867303290928 61.89465952464343 0 61.89465952464343 62.02312103145232 0 0 0 0 48.033769870038668 41.384282117949624 0 41.384282117949624 8.4662388348660897 0 0 0 0 17.763578205259776 37.186761984347868 0 37.186761984347868 26.727515373127488 0 0 0 0 56.076495209621044 24.167810681041146 0 24.167810681041146 -2.477164819414611 0 0 0 0 54.40260260807554 34.878540905629052 0 34.878540905629052 14.231126036615024 0 0 0 0 32.253823289829498 9.0885425745130988 0 9.0885425745130988 -1.8650206477454674 0 0 0 0 51.357032616175275 30.662744876031866 0 30.662744876031866 13.21509197573323 0 0 0 0 56.005921690191826 227.27797438794914 0 227.27797438794914 336.54756913569872 0 0 0 0 18.940691055666122 7.2669987796777207 0 7.2669987796777207 -5.9058235511732065 0 0 0 0 17.019732648725039 14.248315799137345 0 14.248315799137345 4.8827425763356587 0 0 0 0 39.007149535231292 26.449508201387289 0 26.449508201387289 11.879844404515097 0 0 0 0 40.923066891402414 0.38379531566351943 0 0.38379531566351943 2.2663206392862776 0 0 0 0 70.013096986804157 37.102168204770351 0 37.102168204770351 15.958977490532561 0 0 0 0 49.257139346198528 -5.2046011315087526 0 -5.2046011315087526 -0.99808517938072328 0 0 0 0 2.250030723058444 29.539990980310904 0 29.539990980310904 -14.417663035816076 0 0 0 0 3.8891237452517089 16.809049867815702 0 16.809049867815702 10.311836402566769 0 0 0 0 90.489188778126845 32.788539875658898 0 32.788539875658898 -20.493886377764284 0 0 0 0 136.18938934046309 38.635567950426775 0 38.635567950426775 32.062875848325348 0 0 0 0 74.992326735464303 47.162746060326754 0 47.162746060326754 34.77000484738528 0 0 0 0 17.255415024017566 83.270507642278972 0 83.270507642278972 86.227640990102373 0 0 0 0 119.45582469483634 72.122113928762701 0 72.122113928762701 42.403876316588139 0 0 0 0 -1.7368789819913246 1.4864184706623718 0 1.4864184706623718 -0.71998097786237736 0 0 0 0 142.17444762231025 75.693709209150256 0 75.693709209150256 7.1155152898863889 0 0 0 0 131.45872251324181 60.227447597084392 0 60.227447597084392 4.72554423128895 0 0 0 0 13.463440537048882 22.21738792877477 0 22.21738792877477 3.3886434611995355 0 0 0 0 -5.929859459989558 16.578467636916372 0 16.578467636916372 4.2452159429546299 0 0 0 0 29.472104527056217 64.711704671797634 0 64.711704671797634 23.719062719981594 0 0 0 0 18.356373683510355 33.280729684801173 0 33.280729684801173 24.021907757021836 0 0 0 0 85.368626771116396 27.451708730706741 0 27.451708730706741 -4.2885362260876718 0 0 0 0 63.064861024286074 47.421963228756795 0 47.421963228756795 6.7929252959802398 0 0 0 0 69.930314058481599 26.518486281209334 0 26.518486281209334 44.214498462774372 0 0 0 0 112.31298235203576 36.567925232347989 0 36.567925232347989 8.6149067126098089 0 0 0 0 43.618455031370104 76.587275017433058 0 76.587275017433058 25.918962275289232 0 0 0 0 85.776855311043619 20.003304401558125 0 20.003304401558125 -51.136598244556353 0 0 0 0 16.177157960439217 33.673450845471962 0 33.673450845471962 -25.865526669665996 0 0 0 0 -44.226202839461621 -23.637060084762197 0 -23.637060084762197 18.582164826111693 0 0 0 0 -3.482772294752067 36.551786160627671 0 36.551786160627671 -20.321930485162738 0 0 0 0 7.7507940716407191 14.169547045361547 0 14.169547045361547 0.88203210670735643 0 0 0 0 -0.42034943206122932 0.11733813240056179 0 0.11733813240056179 0.072625824514773285 0 0 0 0 16.541911333039025 -10.753088969771852 0 -10.753088969771852 -47.8987214815279 0 0 0 0 28.981865081768774 12.718584597951121 0 12.718584597951121 -5.70453161214391 0 0 0 0 42.959618820896139 48.950359324713645 0 48.950359324713645 11.579566901553335 0 0 0 0 -5.2971829250745941 19.515685218340877 0 19.515685218340877 7.0641376979983761 0 0 0 0 22.485720223859971 20.002700774124605 0 20.002700774124605 -16.090535134371748 0 0 0 0 -1.6175525990062312 4.2658366031893422 0 4.2658366031893422 -4.0749212229097225 0 0 0 0 5.3563587252283469 1.6205390042086947 0 1.6205390042086947 -11.543363867981952 0 0 0 0 18.002342300485907 -10.500580030043238 0 -10.500580030043238 -31.113206897774944 0 0 0 0 23.861759955358139 15.400099904010858 0 15.400099904010858 41.675177391094621 0 0 0 0 43.800755527350702 103.02592209306022 0 103.02592209306022 95.498645914181907 0 0 0 0 1.235936200566556 -0.41636225426633189 0 -0.41636225426633189 0.30242214212227481 0 0 0 0 14.225105544919643 5.3923884292962612 0 5.3923884292962612 -15.768703464404098 0 0 0 0 14.225105544937833 5.3923884292889852 0 5.3923884292889852 -15.768703464410464 0 0 0 0 4.6113997293336979 -0.69256682309038808 0 -0.69256682309038808 -0.76642449982645644 0 0 0 0 29.021944084062852 35.356305960984173 0 35.356305960984173 1.4526569435365673 0 0 0 0 13.31153341949539 15.586216648083791 0 15.586216648083791 -6.044877040618303 0 0 0 0 38.68554258524 25.682238448193289 0 25.682238448193289 -26.568062231075601 0 0 0 0 33.053471937484574 31.498266121147026 0 31.498266121147026 -28.671158499681042 0 0 0 0 33.78514100080065 31.070936675387202 0 31.070936675387202 -30.589375065763306 0 0 0 0 38.833729054075548 31.236857729278427 0 31.236857729278427 -30.650493241337244 0 0 0 0 28.972900901324465 28.805948402441572 0 28.805948402441572 -31.809762260512798 0 0 0 0 33.663866719958605 33.548621249323332 0 33.548621249323332 -26.630825565924169 0 0 0 0 29.263126700214343 30.681670127014513 0 30.681670127014513 -27.762009887301247 0 0 0 0 34.159506812735344 32.449987817970396 0 32.449987817970396 -33.822553899386548 0 0 0 0 32.119204453119892 45.832468111846538 0 45.832468111846538 -20.008102667034109 0 0 0 0 43.748570024308719 19.876502640512626 0 19.876502640512626 -13.829058596376854 0 0 0 0 32.148994655071874 28.692372306824836 0 28.692372306824836 -11.465804574221693 0 0 0 0 38.122581890624133 34.700792564530275 0 34.700792564530275 -26.252249911471154 0 0 0 0 39.026748448333819 27.665252629005408 0 27.665252629005408 -39.750266267103143 0 0 0 0 43.074179179850034 20.458236667989695 0 20.458236667989695 -52.954721307469299 0 0 0 0 60.590113604645012 84.368269058220903 0 84.368269058220903 119.56781622458948 0 0 0 0 4.7187283250732435 -35.083719899990683 0 -35.083719899990683 -27.536004606030474 0 0 0 0 4.670029547807502 6.1090718669574784 0 6.1090718669574784 -28.665476160234363 0 0 0 0 105.95284773215099 125.53149866695094 0 125.53149866695094 87.029268569196574 0 0 0 0 136.74267108667482 37.490072867874915 0 37.490072867874915 -69.180429667765566 0 0 0 0 -45.701042526161473 15.080792153312359 0 15.080792153312359 88.427519110409776 0 0 0 0 22.739053059114667 32.209829788553179 0 32.209829788553179 24.689461754132481 0 0 0 0 12.837633699966545 9.9099492922251642 0 9.9099492922251642 -23.284012888492725 0 0 0 0 50.182541515832781 78.833386762859845 0 78.833386762859845 27.265828863746719 0 0 0 0 103.09212872038188 84.832057676434488 0 84.832057676434488 51.974584214571223 0 0 0 0 11.739032483143092 25.468339017759718 0 25.468339017759718 64.188894566313138 0 0 0 0 294.79967120606307 307.59371016308978 0 307.59371016308978 0.71757264861480508 0 0 0 0 -102.48811201148055 -70.224936799375428 0 -70.224936799375428 181.120814025453 0 0 0 0 555.73192032138468 131.51853800276876 0 131.51853800276876 -542.74240607216416 0 0 0 0 -241.08613937661721 -56.871449676993507 0 -56.871449676993507 178.4481391243753 0 0 0 0 134.15241076877282 106.28736463790119 0 106.28736463790119 126.0557149577362 0 0 0 0 -3.0471733256197524 0.60553853823884651 0 0.60553853823884651 -0.78613253696974539 0 0 0 0 3.3242349898600736 0.37082290175025889 0 0.37082290175025889 -5.4702400718786963 0 0 0 0 165.56551216660591 157.67641593171902 0 157.67641593171902 164.9966930481969 0 0 0 0 17.090810319077718 137.18634624927654 0 137.18634624927654 220.16760398406404 0 0 0 0 119.41036667411936 93.305005221566717 0 93.305005221566717 231.92339577879466 0 0 0 0 115.46227005552282 162.76452877925112 0 162.76452877925112 189.04828696767072 0 0 0 0 127.06454738314278 165.97846452530939 0 165.97846452530939 167.7641075149877 0 0 0 0 118.33275126439912 225.80984584586076 0 225.80984584586076 196.88442775464546 0 0 0 0 60.000046604574891 133.13737960389699 0 133.13737960389699 -0.010785237700474681 0 0 0 0 127.48407350674825 227.87052812123511 0 227.87052812123511 121.55080955972517 0 0 0 0 103.87710890490598 180.33001129614149 0 180.33001129614149 43.987374237149197 0 0 0 0 121.12597210111562 144.26641686286166 0 144.26641686286166 104.52165290592438 0 0 0 0 8.8090508888635668 115.3556621910393 0 115.3556621910393 88.211960714394081 0 0 0 0 12.201270698034932 20.253026432645129 0 20.253026432645129 4.4254573325706588 0 0 0 0 11.549106408347143 98.772767902013584 0 98.772767902013584 42.826843394785101 0 0 0 0 38.300449718695745 85.9902793802612 0 85.9902793802612 48.650123777264525 0 0 0 0 17.839568144922538 20.522265632393179 0 20.522265632393179 -4.300965885306419 0 0 0 0 47.257636699388968 139.83573466235248 0 139.83573466235248 179.79546563613258 0 0 0 0 80.082724399362633 158.6340477857193 0 158.6340477857193 274.68884170576348 0 0 0 0 51.777720749130822 87.336925881048955 0 87.336925881048955 125.22623923746141 0 0 0 0 0.92750536794442695 3.3313190951319314 0 3.3313190951319314 4.4057309394617903 0 0 0 0 14.214335344375286 7.0936177925250377 0 7.0936177925250377 -39.623657736403402 0 0 0 0 133.69562095383094 156.83363230715514 0 156.83363230715514 -120.70791186590213 0 0 0 0 7.2574906025206474 10.792738960205284 0 10.792738960205284 -28.077961856218423 0 0 0 0 14.091638445665012 24.458608118340635 0 24.458608118340635 -34.308122623748204 0 0 0 0 20.987775560060982 23.254395082884002 0 23.254395082884002 -37.076931325544138 0 0 0 0 31.041212075404474 24.749417888648168 0 24.749417888648168 -38.469521397157223 0 0 0 0 29.271248115983326 25.457852319821541 0 25.457852319821541 -38.217528269684408 0 0 0 0 28.128910212573828 24.490569210458489 0 24.490569210458489 -37.169269134115893 0 0 0 0 26.36085380896111 25.483255777748127 0 25.483255777748127 -37.050372902784147 0 0 0 0 29.438610496043111 7.9965602511874749 0 7.9965602511874749 -47.781466569649638 0 0 0 0 28.97888971852808 33.504162529570749 0 33.504162529570749 -32.534379284512397 0 0 0 0 23.414499031408923 28.615282749804464 0 28.615282749804464 -35.165280884735694 0 0 0 0 33.138529665480746 35.616494361789591 0 35.616494361789591 -35.998539214415359 0 0 0 0 33.274457115447149 33.08414261660073 0 33.08414261660073 -36.261953678527789 0 0 0 0 29.231744446180528 31.373293046242907 0 31.373293046242907 -34.997847219472533 0 0 0 0 34.627525172647438 32.89147008897271 0 32.89147008897271 -37.055350002134219 0 0 0 0 30.58132495728205 32.533155694181914 0 32.533155694181914 -35.967440293483378 0 0 0 0 36.652141156519065 32.403892953516333 0 32.403892953516333 -36.508999527912238 0 0 0 0 32.979800184912165 31.895798469427973 0 31.895798469427973 -36.559487046091817 0 0 0 0 33.770826349438721 34.823305226334924 0 34.823305226334924 -40.410897716341424 0 0 0 0 32.757430754412781 29.022344965080265 0 29.022344965080265 -37.866961030827952 0 0 0 0 35.832914417638676 34.440098520841275 0 34.440098520841275 -43.728192122057408 0 0 0 0 28.839348267105606 22.516379335868692 0 22.516379335868692 -46.003457685335889 0 0 0 0 3.2007240056700539 21.795808369875886 0 21.795808369875886 -44.882477982722776 0 0 0 0 27.822203792573418 13.273846275704273 0 13.273846275704273 -42.011435006203101 0 0 0 0 -9.579754490765481 43.237239823876735 0 43.237239823876735 19.732632357958209 0 0 0 0 -53.877243011513201 10.053227761483868 0 10.053227761483868 -56.248016373247992 0 0 0 0 54.339482364841388 66.372327593297086 0 66.372327593297086 -70.05375605028712 0 0 0 0 24.117318988635873 20.41224437413176 0 20.41224437413176 -0.194022958631481 0 0 0 0 130.35283351133694 209.344260906626 0 209.344260906626 -209.45316411881868 0 0 0 0 84.482661213797655 148.73989934496967 0 148.73989934496967 5.3194229830551194 0 0 0 0 81.548192403581197 162.13503738222425 0 162.13503738222425 69.734617951573455 0 0 0 0 53.115357379629131 52.790269164514029 0 52.790269164514029 -176.59517655789386 0 0 0 0 -29.092260899855319 63.798614254012136 0 63.798614254012136 33.162262834433932 0 0 0 0 18.47424586717807 103.99640764410196 0 103.99640764410196 20.858684187347535 0 0 0 0 30.425847350728873 122.7475590801987 0 122.7475590801987 42.258207738414058 0 0 0 0 82.847979001617205 93.426373860369495 0 93.426373860369495 -8.0304612845529846 0 0 0 0 48.071421182731683 81.494884760050809 0 81.494884760050809 19.774027589286561 0 0 0 0 85.207863810661365 105.61228084339382 0 105.61228084339382 0.1380498366570426 0 0 0 0 148.09429934008222 62.439127185873076 0 62.439127185873076 -11.433124433620833 0 0 0 0 132.53982170597374 -28.617942254732043 0 -28.617942254732043 14.537130732278456 0 0 0 0 118.24928255669874 89.253896352138327 0 89.253896352138327 4.6684290548946592 0 0 0 0 82.505994621897116 101.61222416765668 0 101.61222416765668 6.7029494214111764 0 0 0 0 71.486980813300761 113.6032764281772 0 113.6032764281772 55.411076704222069 0 0 0 0 74.451166835198819 104.3511111705011 0 104.3511111705011 34.215764541841054 0 0 0 0 71.198344524505956 101.20074734523951 0 101.20074734523951 38.736391913800617 0 0 0 0 79.646471341256984 80.401801475149114 0 80.401801475149114 39.326998254909995 0 0 0 0 102.01032160674367 15.81728183238738 0 15.81728183238738 -14.029629860156547 0 0 0 0 21.891563922137721 33.036918690653692 0 33.036918690653692 48.184731610523158 0 0 0 0 86.28508199287171 67.732950560863173 0 67.732950560863173 24.056576143411803 0 0 0 0 4.5955394110311261 -0.034579955362289638 0 -0.034579955362289638 -0.9199563852914352 0 0 0 0 66.554276290451526 -2.5739141244703205 0 -2.5739141244703205 -13.714213525900277 0 0 0 0 69.928728002225398 46.655245754336647 0 46.655245754336647 0.96233501930692 0 0 0 0 -730.23239788098726 129.02405309438473 0 129.02405309438473 -70.319077910215128 0 0 0 0 -113.08452575777483 154.89803590578231 0 154.89803590578231 -243.19637110675285 0 0 0 0 -847.5261066971434 -407.4224509901469 0 -407.4224509901469 84.05564665660313 0 0 0 0 6.0605337309059664 2.4943688610229948 0 2.4943688610229948 -7.4842187569491045 0 0 0 0 168.04671933471764 -124.75991727963083 0 -124.75991727963083 -414.23263684670019 0 0 0 0 -86.247743597952649 -64.660735640733037 0 -64.660735640733037 -376.9798128514667 0 0 0 0 46.760967191396048 153.47851389845164 0 153.47851389845164 133.35010791884997 0 0 0 0 1.4128385277849418 1.3810094398144628 0 1.3810094398144628 -1.5323924734071781 0 0 0 0 30.39644548221753 20.86785627513791 0 20.86785627513791 0.80880246484734575 0 0 0 0 43.722983378713252 75.846873176426016 0 75.846873176426016 123.24545552609925 0 0 0 0 84.716738852410344 -77.4487011533638 0 -77.4487011533638 -229.15045762162845 0 0 0 0 -18.709554608576582 -6.5639211118686944 0 -6.5639211118686944 34.897874823212533 0 0 0 0 -0.40589923570773578 0.46132223407205686 0 0.46132223407205686 -0.35383512559197072 0 0 0 0 98.918890661387195 -21.486823832350638 0 -21.486823832350638 -145.81120524455764 0 0 0 0 -11.440503600832017 -77.489653227050439 0 -77.489653227050439 -130.18940024167114 0 0 0 0 -34.387468186643673 123.51461347651639 0 123.51461347651639 -77.04758144455991 0 0 0 0 90.481046164422878 22.362836132151642 0 22.362836132151642 -21.277368549344828 0 0 0 0 40.850497619572707 110.09139570570551 0 110.09139570570551 87.883956846111687 0 0 0 0 23.428325149605371 56.123042088911461 0 56.123042088911461 15.460456744420298 0 0 0 0 -22.371371469089354 16.11717685972144 0 16.11717685972144 8.489944187036599 0 0 0 0 -30.33683709242905 92.611683693477971 0 92.611683693477971 16.322379980989353 0 0 0 0 13.337366418505553 59.135214518339126 0 59.135214518339126 38.909839631622162 0 0 0 0 60.417240636830684 75.482935768615789 0 75.482935768615789 -9.7175104818452382 0 0 0 0 18.108052432427939 109.85091095631651 0 109.85091095631651 143.4475554656965 0 0 0 0 53.039736303544487 77.024663993033755 0 77.024663993033755 35.667352829374977 0 0 0 0 26.748992815690144 54.101848272537609 0 54.101848272537609 117.32666492299904 0 0 0 0 -0.69428470763733685 2.3519541634012739 0 2.3519541634012739 -1.7473335642038563 0 0 0 0 50.639294601947768 54.88145490268289 0 54.88145490268289 39.318802363788564 0 0 0 0 16.979743142408552 -8.5442884957810747 0 -8.5442884957810747 -101.53100793053545 0 0 0 0 3.7674995239576674 35.954104048862064 0 35.954104048862064 -89.928882502608758 0 0 0 0 45.362854497485387 61.522262645397859 0 61.522262645397859 39.505631075582642 0 0 0 0 20.057413186994381 22.952943846263224 0 22.952943846263224 -40.051164922188036 0 0 0 0 2.2626464805143769 -3.1346472497752984 0 -3.1346472497752984 -35.747813422709442 0 0 0 0 4.5635007476230385 -14.723745507195417 0 -14.723745507195417 -57.746227031257149 0 0 0 0 22.238268399097251 9.900231855621314 0 9.900231855621314 -72.497793614515103 0 0 0 0 65.060101373972429 50.09643226634762 0 50.09643226634762 34.09714833808539 0 0 0 0 -1.5293373032855406 4.7474884733016012 0 4.7474884733016012 -4.76557786543367 0 0 0 0 14.225105544920552 5.3923884293030824 0 5.3923884293030824 -15.76870346441865 0 0 0 0 70.461471296488526 51.907941773133643 0 51.907941773133643 16.353203000733629 0 0 0 0 59.491263831660035 65.634381452862726 0 65.634381452862726 37.364946198336838 0 0 0 0 60.259865006129985 61.100361972597966 0 61.100361972597966 11.751640468508413 0 0 0 0 64.277119481044792 51.587085597629994 0 51.587085597629994 3.6242808672905085 0 0 0 0 65.497085037408397 48.468327959235467 0 48.468327959235467 10.823144759159732 0 0 0 0 68.404456080352247 52.80545884275125 0 52.80545884275125 16.306735454771115 0 0 0 0 127.34532632787341 73.380091902905406 0 73.380091902905406 26.437796656873616 0 0 0 0 65.280373737132322 38.785321089668287 0 38.785321089668287 16.282703610774416 0 0 0 0 64.871401704211166 35.997825532214847 0 35.997825532214847 -0.16581198020594456 0 0 0 0 54.918467446750583 38.593973890672714 0 38.593973890672714 10.461014831096691 0 0 0 0 -0.11784941462054022 0.61119395222783623 0 0.61119395222783623 -0.77554239567564309 0 0 0 0 -40.605201315910108 24.166285238962928 0 24.166285238962928 -13.121661542878428 0 0 0 0 -98.923812630950124 20.460528718725982 0 20.460528718725982 -7.1796745347364777 0 0 0 0 -162.10052403998316 55.491199700773677 0 55.491199700773677 15.189343468300649 0 0 0 0 -45.389464416606643 78.199915134846378 0 78.199915134846378 -71.631686060609354 0 0 0 0 59.851549878556398 47.331760127621237 0 47.331760127621237 0.26552325575175928 0 0 0 0 51.026865019732213 70.014124448001894 0 70.014124448001894 -48.839018137143285 0 0 0 0 62.071560868009556 30.518632484017758 0 30.518632484017758 -10.287033004249679 0 0 0 0 -10.525439824465138 4.7859083043440478 0 4.7859083043440478 2.4799727139834431 0 0 0 0 10.312663338227139 -3.7218662567793217 0 -3.7218662567793217 -0.27507935411995277 0 0 0 0 25.257552814375231 15.73985903569519 0 15.73985903569519 -3.3922331991707324 0 0 0 0 -1.4145850569141993 1.9680796689747027 0 1.9680796689747027 -4.3818453393730863 0 0 0 0 -10.318355472099938 10.50141647055716 0 10.50141647055716 -1.0750714533278369 0 0 0 0 -16.336513728892896 4.0742857149971314 0 4.0742857149971314 -3.8536367580090882 0 0 0 0 -40.785462206491502 21.883357353881365 0 21.883357353881365 -16.365277621880523 0 0 0 0 0.0003784318255837249 0.80516286261556047 0 0.80516286261556047 -2.5160134028446635 0 0 0 0 21.021866777740797 15.37875168683604 0 15.37875168683604 19.462127454069559 0 0 0 0 17.495228950649334 22.263987269209338 0 22.263987269209338 8.4522688382276101 0 0 0 0 59.320342395163607 35.497834566285746 0 35.497834566285746 12.522803799452959 0 0 0 0 51.098434479461503 34.819442113687728 0 34.819442113687728 52.339340974420338 0 0 0 0 113.17477620857971 13.175074363911335 0 13.175074363911335 13.339105880233546 0 0 0 0 57.122846809586918 60.196371996706148 0 60.196371996706148 -10.914878182084067 0 0 0 0 20.167054307145008 14.761780229800934 0 14.761780229800934 21.279179409280005 0 0 0 0 49.489268161851214 13.877279763943079 0 13.877279763943079 -2.107328861100541 0 0 0 0 -3.970119672769215 19.109680321038468 0 19.109680321038468 -1.9214238662971184 0 0 0 0 16.497942541813245 7.0945957367057417 0 7.0945957367057417 -15.438035452665645 0 0 0 0 -100.88581185645307 32.861913468963394 0 32.861913468963394 9.0754839451838052 0 0 0 0 0.19539900690399703 -0.69446369853601908 0 -0.69446369853601908 -1.2417986780469334 0 0 0 0 9.8652252963292995 62.856834395366604 0 62.856834395366604 -10.694474920528592 0 0 0 0 -6.925475379346608 11.112471017499047 0 11.112471017499047 -18.536716468301165 0 0 0 0 -6.1385784066660563 30.542982721333829 0 30.542982721333829 1.1567159053138312 0 0 0 0 5.9270622090480174 13.90338025964229 0 13.90338025964229 -18.591103669179574 0 0 0 0 -13.717950537256414 9.1893247958247883 0 9.1893247958247883 -5.7819176516985067 0 0 0 0 -3.7958682890202908 -4.8947526861029473 0 -4.8947526861029473 -12.062634474430524 0 0 0 0 -7.1816987860224231 4.2148649313946294 0 4.2148649313946294 -4.5352578757853337 0 0 0 0 -17.336804213118739 3.4321587803169677 0 3.4321587803169677 -8.256353662991387 0 0 0 0 8.167736862903439 4.4914914393934851 0 4.4914914393934851 -12.969846708103432 0 0 0 0 7.2409502714654082 7.612352755788379 0 7.612352755788379 -13.016015530789446 0 0 0 0 6.3167388501315145 6.838179611335363 0 6.838179611335363 -1.1930141383900263 0 0 0 0 -3.9902830671322391 4.7781142130384069 0 4.7781142130384069 -9.2956157001105311 0 0 0 0 1.4883884649971151 7.3544770138414606 0 7.3544770138414606 -14.433695159386843 0 0 0 0 -4.3908761952916393 8.6401085405141203 0 8.6401085405141203 -7.6396988750857417 0 0 0 0 -1.9901944422512905 4.0441588673194104 0 4.0441588673194104 -11.534934053437681 0 0 0 0 -0.77713536391500071 3.224629445895971 0 3.224629445895971 -10.098726424672762 0 0 0 0 4.7418825581771671 6.4101790116164921 0 6.4101790116164921 -10.628926781526388 0 0 0 0 164.47094996820852 124.92785524376677 0 124.92785524376677 -14.648466250557249 0 0 0 0 -0.86279439058484098 3.6409205062137318 0 3.6409205062137318 -7.1166967902810541 0 0 0 0 106.53431016067771 54.221686015944215 0 54.221686015944215 49.326158707399372 0 0 0 0 10.276201229498156 1.4116977091175613 0 1.4116977091175613 -20.277049010452174 0 0 0 0 -19.809201033080171 1.0509053485766344 0 1.0509053485766344 -8.3770755453879246 0 0 0 0 -0.78271809240921186 1.3180424201043195 0 1.3180424201043195 -2.4758998326213089 0 0 0 0 -85.716349984126282 72.984698991193 0 72.984698991193 -47.690394945615481 0 0 0 0 -7.6391089637254481 55.669478863570475 0 55.669478863570475 -379.45215985034883 0 0 0 0 -22.252735000118264 234.47245013905922 0 234.47245013905922 -330.0029556407153 0 0 0 0 48.186520079572801 88.868178476874164 0 88.868178476874164 -289.12311670066993 0 0 0 0 280.18913941152277 -457.2764880024697 0 -457.2764880024697 -300.54879731093092 0 0 0 0 -0.38528213848916337 1.5079458853335268 0 1.5079458853335268 -2.7068184768603629 0 0 0 0 302.48584543188917 75.704700377491463 0 75.704700377491463 -15.807142634774209 0 0 0 0 91.59689863701351 174.1014541911336 0 174.1014541911336 -59.148033207518893 0 0 0 0 475.65329526674395 118.4366550807714 0 118.4366550807714 31.127987647705595 0 0 0 0 -8.1884369887375215 3.5198212057475757 0 3.5198212057475757 407.51128870815182 0 0 0 0 4.8117996106116294 4.6599229335024184 0 4.6599229335024184 6.2287978541140205 0 0 0 0 77.885293772371369 624.02536198151574 0 624.02536198151574 515.01282578003156 0 0 0 0 861.60663981905964 -489.63559671700204 0 -489.63559671700204 228.65139234456728 0 0 0 0 -75.345590167751652 236.84026961643394 0 236.84026961643394 1132.0460198192486 0 0 0 0 6.2861069314240012 -125.25733629392198 0 -125.25733629392198 332.96251453899458 0 0 0 0 -78.386738572196919 -37.980838253257389 0 -37.980838253257389 271.94082130014067 0 0 0 0 99.132842939332477 225.32863610229469 0 225.32863610229469 535.14347040439316 0 0 0 0 29.231637570183011 59.60794609164077 0 59.60794609164077 165.27957862753829 0 0 0 0 498.1120217632124 445.18779778729731 0 445.18779778729731 405.96575019378361 0 0 0 0 250.1195220117479 165.82792780286582 0 165.82792780286582 91.520443539156986 0 0 0 0 289.67899293484516 214.11027665435176 0 214.11027665435176 95.6019979269131 0 0 0 0 229.29967759764804 142.03886533397372 0 142.03886533397372 16.565078803367214 0 0 0 0 208.10174747693054 195.13040885728333 0 195.13040885728333 79.952363375821733 0 0 0 0 173.36920681797164 159.61039513495416 0 159.61039513495416 62.677654271676147 0 0 0 0 212.07266012061882 119.08769455327638 0 119.08769455327638 -13.592265067281915 0 0 0 0 201.3783596374542 107.71526317754615 0 107.71526317754615 -8.704622132521763 0 0 0 0 339.3070247001142 14.175470171454208 0 14.175470171454208 -34.612212486015778 0 0 0 0 -116.98402266224002 54.090429931342442 0 54.090429931342442 49.994637390676871 0 0 0 0 4.2481560977189154 23.746122498350807 0 23.746122498350807 1.0729711704955776 0 0 0 0 -50.328378749392868 67.150621555341786 0 67.150621555341786 -43.912849257347261 0 0 0 0 -50.517403830264811 77.836689196037696 0 77.836689196037696 63.689283761770639 0 0 0 0 87.955823393931496 102.13392001691682 0 102.13392001691682 20.745240464650124 0 0 0 0 89.988496644669794 96.23126657586181 0 96.23126657586181 26.893765340882965 0 0 0 0 174.00510816468159 115.31570129403553 0 115.31570129403553 5.6599390831725032 0 0 0 0 -2.3948619703805889 36.409342265709711 0 36.409342265709711 68.179246021069275 0 0 0 0 -7.4466787275196111 111.70109497540216 0 111.70109497540216 72.181854554379242 0 0 0 0 -61.684027172606875 34.98886860158018 0 34.98886860158018 115.59038975799558 0 0 0 0 25.036053411451576 107.56206329496126 0 107.56206329496126 211.3727118729621 0 0 0 0 -18.561861273054092 9.9805100216944993 0 9.9805100216944993 221.70553821940121 0 0 0 0 1.7502200700510002 -163.70171783971364 0 -163.70171783971364 56.37804079799389 0 0 0 0 -27.460369713697219 -34.419749613746717 0 -34.419749613746717 15.175635169543966 0 0 0 0 -62.250456935528291 17.442230671004666 0 17.442230671004666 -21.913144165322592 0 0 0 0 -113.65025212700857 -6.3505328801511496 0 -6.3505328801511496 34.021495235458133 0 0 0 0 -45.81148420977479 -1.2879315766131185 0 -1.2879315766131185 -37.159456322908227 0 0 0 0 -20.976603333645471 -23.988202660824754 0 -23.988202660824754 -43.693580804620979 0 0 0 0 -3.844414734316806 22.894248301513073 0 22.894248301513073 -2.4790141224756042 0 0 0 0 13.582950290256122 -28.741859454759833 0 -28.741859454759833 -57.78578068906063 0 0 0 0 1.981018844882783 -54.011986825738859 0 -54.011986825738859 20.037021217789516 0 0 0 0 61.423024259712292 -18.494769733445992 0 -18.494769733445992 -61.477709584374679 0 0 0 0 -18.573869608223504 -1.5472519370346163 0 -1.5472519370346163 -27.97459164520842 0 0 0 0 -28.32379650605435 21.332353410271935 0 21.332353410271935 -31.770433667927136 0 0 0 0 -2.8392755794484401 4.2273846769367083 0 4.2273846769367083 -67.348493596789922 0 0 0 0 -14.74965272973192 15.493738171637901 0 15.493738171637901 -10.967045595962631 0 0 0 0 -1.7216481891524245 3.3569634700588011 0 3.3569634700588011 -4.7634996835002852 0 0 0 0 -32.694037637331462 27.573705640224659 0 27.573705640224659 12.375151461172209 0 0 0 0 45.145394665218191 138.93871893054893 0 138.93871893054893 64.990999978945183 0 0 0 0 -94.496711586916945 30.950295913404489 0 30.950295913404489 142.81002322775021 0 0 0 0 143.69930466235019 15.896307073342541 0 15.896307073342541 3.4938908028925653 0 0 0 0 -145.38398596096158 50.563542142663209 0 50.563542142663209 11.490450189143303 0 0 0 0 504.91531658659369 -145.62422650978624 0 -145.62422650978624 -95.955239385301866 0 0 0 0 404.7148988478184 205.31142445159276 0 205.31142445159276 -46.510737522388808 0 0 0 0 0.11829194496474571 0.79011066646425121 0 0.79011066646425121 5.6485194566138262 0 0 0 0 -77.551771647165879 133.87647052191096 0 133.87647052191096 383.68842971537742 0 0 0 0 -115.87293661948934 152.30543203969864 0 152.30543203969864 148.58151961962346 0 0 0 0 474.47896573148319 -11.841776549033966 0 -11.841776549033966 -274.64169653866702 0 0 0 0 208.10633578499983 437.87065050923047 0 437.87065050923047 154.70185679353017 0 0 0 0 -49.716288607232855 197.97274819323502 0 197.97274819323502 -40.61915951827541 0 0 0 0 -47.00749988896132 -134.81446184218657 0 -134.81446184218657 -119.23675034402731 0 0 0 0 5.1042955326682886 10.587300380560535 0 10.587300380560535 -21.071824413698728 0 0 0 0 18.93950648631494 31.447668609174002 0 31.447668609174002 3.9343644296677667 0 0 0 0 4.1815661311302392 23.74055486251018 0 23.74055486251018 0.61752716822593356 0 0 0 0 -7.8435544483697583 24.771293522587783 0 24.771293522587783 -15.232889713237697 0 0 0 0 78.405410987972573 -121.27222893741782 0 -121.27222893741782 -267.58545159515893 0 0 0 0 3.5533365098126524 38.874406052691484 0 38.874406052691484 1.1652164698698471 0 0 0 0 -41.427142584225294 197.50889084529081 0 197.50889084529081 -41.323340210481547 0 0 0 0 -59.051295707322424 67.409128522995161 0 67.409128522995161 9.6686544678377686 0 0 0 0 -4.438690773790583 2.2445107322258906 0 2.2445107322258906 11.066705880296794 0 0 0 0 -27.190963140262284 48.658609272197054 0 48.658609272197054 0.9049611390910286 0 0 0 0 13.203758431261079 20.738573833646726 0 20.738573833646726 9.3493893186779466 0 0 0 0 -34.573572196120949 62.434958664817714 0 62.434958664817714 2.8343299656989984 0 0 0 0 -22.627061890896584 84.172206059272867 0 84.172206059272867 -14.742931813707401 0 0 0 0 -30.486354967069929 57.686267709636013 0 57.686267709636013 -1.3119591385461717 0 0 0 0 -0.15294808255930548 31.345872741259882 0 31.345872741259882 -9.3057469957984722 0 0 0 0 3.3236402228441051 14.329936354530709 0 14.329936354530709 15.479256460352165 0 0 0 0 -25.277691476338077 62.951882571353963 0 62.951882571353963 -4.5548636038838595 0 0 0 0 -23.091932376097247 54.661370312220697 0 54.661370312220697 20.45173418532795 0 0 0 0 -35.216374932977487 60.188374975423358 0 60.188374975423358 -0.060137795199807442 0 0 0 0 -46.230930899313535 66.135894833283601 0 66.135894833283601 -1.4781256066503374 0 0 0 0 -37.83534478063666 63.113560961479379 0 63.113560961479379 10.036972706424422 0 0 0 0 -39.336474904383067 59.990314163112998 0 59.990314163112998 4.7351402770400455 0 0 0 0 -40.464619987033075 65.481561621178116 0 65.481561621178116 13.267868349441414 0 0 0 0 -91.33143958778237 161.70973425265402 0 161.70973425265402 8.0503802093007835 0 0 0 0 -9.3628765553427087 35.710963569128189 0 35.710963569128189 44.658228269903262 0 0 0 0 -33.308993255162932 67.367979839778855 0 67.367979839778855 8.6788306408025164 0 0 0 0 -26.176050316331384 73.330052933281877 0 73.330052933281877 9.677481790663478 0 0 0 0 84.469520061007643 116.01367838335864 0 116.01367838335864 -2.2199287542180173 0 0 0 0 -26.194524151823316 79.372376100775398 0 79.372376100775398 24.401007308193584 0 0 0 0 -38.474510687852558 40.292138578667902 0 40.292138578667902 -6.9212899029007033 0 0 0 0 56.985384842315398 60.610339489106991 0 60.610339489106991 19.899044660942309 0 0 0 0 -12.756224295910215 49.857235910847976 0 49.857235910847976 45.632003521313891 0 0 0 0 29.609221035945609 35.407465876469075 0 35.407465876469075 22.279998963479599 0 0 0 0 -120.44628615393231 278.15624017144182 0 278.15624017144182 63.40273522134521 0 0 0 0 0.84460074365736659 10.204151514048419 0 10.204151514048419 14.597457521479868 0 0 0 0 -313.11650124518201 100.80491250700652 0 100.80491250700652 -1.8939771493041917 0 0 0 0 19.573445985945 117.71765353075898 0 117.71765353075898 -113.32025531007093 0 0 0 0 -139.15365536404715 63.360123377162381 0 63.360123377162381 -113.58195867217728 0 0 0 0 -227.80963996214996 15.600956792284705 0 15.600956792284705 -20.99774054297086 0 0 0 0 -149.49361385122938 61.032150223474673 0 61.032150223474673 -3.5572821738533094 0 0 0 0 -204.51308251491446 165.38381349291785 0 165.38381349291785 2.0322727194434265 0 0 0 0 -102.05706834713783 60.789024881112709 0 60.789024881112709 -15.646767546870251 0 0 0 0 -17.772911492134881 185.48164514390464 0 185.48164514390464 60.339175209519453 0 0 0 0 -44.263126735611877 134.32992656432543 0 134.32992656432543 -31.928413282104884 0 0 0 0 -82.370161887432914 120.82555484057593 0 120.82555484057593 -36.599691889838141 0 0 0 0 16.148311367860515 96.647602241576351 0 96.647602241576351 -37.338095154664188 0 0 0 0 19.266878209702554 88.867560793257326 0 88.867560793257326 -122.24235217582464 0 0 0 0 52.951518390233105 25.956621869820083 0 25.956621869820083 -43.244652064528054 0 0 0 0 -5.964605912087336 50.792267869327873 0 50.792267869327873 -0.82806416029779939 0 0 0 0 -3.3080562720789715 12.326189532160356 0 12.326189532160356 -12.417943437586032 0 0 0 0 -6.3874194595700828 40.589470008773787 0 40.589470008773787 -9.1644067005836405 0 0 0 0 -13.216023953500553 13.374123335699551 0 13.374123335699551 5.4332938076113351 0 0 0 0 -0.93106893111267652 9.9646160137666513 0 9.9646160137666513 17.038611450552082 0 0 0 0 106.1433355680274 -13.615190283029733 0 -13.615190283029733 -15.519491477469273 0 0 0 0 4.7707298070445319 8.1361702135413481 0 8.1361702135413481 6.3729736918762114 0 0 0 0 -77.72783221478312 74.209776764799244 0 74.209776764799244 -8.3491054519181489 0 0 0 0 -3.8395156313045078 -0.88761415878964556 0 -0.88761415878964556 4.9547157465422913 0 0 0 0 -68.189911094174022 62.837153241631313 0 62.837153241631313 -16.610488531441661 0 0 0 0 2.1054681962988795 5.9510347360763092 0 5.9510347360763092 14.853848765132994 0 0 0 0 149.16565769406589 69.615262981034903 0 69.615262981034903 66.00578819103248 0 0 0 0 -0.11537581940107344 0.89968210885481881 0 0.89968210885481881 -1.3165765138129331 0 0 0 0 124.15647759132844 138.34258874472289 0 138.34258874472289 -67.534567170981518 0 0 0 0 -64.354398988303728 151.17385322842529 0 151.17385322842529 194.32944326785946 0 0 0 0 -161.38599724683627 -53.37494062720998 0 -53.37494062720998 101.82429946602497 0 0 0 0 117.32418308198976 -89.351787470979616 0 -89.351787470979616 5.9220056882622885 0 0 0 0 360.43974057351443 204.34886572697724 0 204.34886572697724 16.074952618997713 0 0 0 0 302.02339858826235 35.466829075487112 0 35.466829075487112 -116.54003006901075 0 0 0 0 144.59197001002474 -14.446771737132735 0 -14.446771737132735 71.11012752159877 0 0 0 0 55.948821906538797 -25.445276410126098 0 -25.445276410126098 -67.285034573196754 0 0 0 0 55.358001545158913 -6.9726599196874304 0 -6.9726599196874304 31.701841018489176 0 0 0 0 -49.281773255137523 14.337837596621284 0 14.337837596621284 8.3880936424211541 0 0 0 0 32.599578922512592 50.800154907548858 0 50.800154907548858 -40.703291054259353 0 0 0 0 243.23903433842861 206.44810683861397 0 206.44810683861397 -0.62645460719249968 0 0 0 0 -0.98785459339546122 3.1364327794363618 0 3.1364327794363618 -3.0343841982631972 0 0 0 0 24.557726667295356 15.07316293628719 0 15.07316293628719 17.202535372474813 0 0 0 0 23.542732690451885 21.991317742818865 0 21.991317742818865 -9.3657189797377214 0 0 0 0 3.9853343486525716 2.5324313068912261 0 2.5324313068912261 1.0007101328811245 0 0 0 0 46.895605740011888 33.603771793546912 0 33.603771793546912 2.5579916385504475 0 0 0 0 7.0130773959826911 13.270030840152799 0 13.270030840152799 4.6062993367787186 0 0 0 0 19.34050154534998 15.756534456671943 0 15.756534456671943 -4.28429358352696 0 0 0 0 1.8535703404741071 18.442769529088764 0 18.442769529088764 1.1496794169652276 0 0 0 0 6.1402356785498995 15.522951137880227 0 15.522951137880227 4.2026287756502541 0 0 0 0 -47.825322008407966 44.294773710847949 0 44.294773710847949 -12.026321873514462 0 0 0 0 -1.4493688309739809 19.823497724077242 0 19.823497724077242 2.3986820817299304 0 0 0 0 -5.2123248856078135 17.830667940068452 0 17.830667940068452 7.9147328503822791 0 0 0 0 9.0668619316404175 12.719940989629048 0 12.719940989629048 2.9482255663599659 0 0 0 0 58.686259382535354 9.5115024918814015 0 9.5115024918814015 -2.9574178456041409 0 0 0 0 37.621074741299708 10.130462627818588 0 10.130462627818588 10.154393848788459 0 0 0 0 2.0718324826086629 7.6653073723505116 0 7.6653073723505116 9.01617758808041 0 0 0 0 313.14007765405404 59.601183801136358 0 59.601183801136358 -401.60406890623926 0 0 0 0 64.441338932083454 188.22891356033506 0 188.22891356033506 3.7778061658755178 0 0 0 0 729.22226883444819 373.2993048404096 0 373.2993048404096 -246.85283121850443 0 0 0 0 -38.640521337896644 120.44405155256391 0 120.44405155256391 60.30173188484514 0 0 0 0 43.350306008527696 274.36626814071496 0 274.36626814071496 346.0528134685228 0 0 0 0 -30.840430302821915 106.70821844937564 0 106.70821844937564 -1.8328171226457926 0 0 0 0 -165.87900269513193 2.714211792590504 0 2.714211792590504 8.3542693933050032 0 0 0 0 -63.102656149902032 95.299370450766219 0 95.299370450766219 2.2179355230982765 0 0 0 0 -35.964308455353603 19.033232769023016 0 19.033232769023016 -43.366963479471451 0 0 0 0 7.0839502822782379 111.03508180089557 0 111.03508180089557 -91.263403251345153 0 0 0 0 1.1770437820159714 18.126041422445269 0 18.126041422445269 3.3437794372683243 0 0 0 0 9.0200289843688779 13.645797329007056 0 13.645797329007056 6.3765201438073547 0 0 0 0 -0.7573058162063262 3.3710710702114852 0 3.3710710702114852 -1.6668834977888167 0 0 0 0 6.4079264486572356 -90.0378582816993 0 -90.0378582816993 -209.80534193509811 0 0 0 0 125.94543383189739 35.161386989635503 0 35.161386989635503 31.941244599751371 0 0 0 0 142.08914181524597 -21.792299612689931 0 -21.792299612689931 124.5984355193068 0 0 0 0 73.699903162887495 63.148560452165839 0 63.148560452165839 60.189149131405429 0 0 0 0 75.286893658201734 71.601490319790173 0 71.601490319790173 7.0673074212918436 0 0 0 0 -220.44805192262766 172.76138240107912 0 172.76138240107912 -146.71673389116768 0 0 0 0 8.3859781561675959 6.2868404349828282 0 6.2868404349828282 1.7167884705007168 0 0 0 0 -239.13737601553294 412.78655871439878 0 412.78655871439878 -310.43718451036329 0 0 0 0 -272.14196412852471 82.441898008048156 0 82.441898008048156 -121.65996877055295 0 0 0 0 -169.81499790476482 108.89332338513623 0 108.89332338513623 75.704455211023742 0 0 0 0 -131.34287947465782 277.98204974409646 0 277.98204974409646 121.17654405473149 0 0 0 0 3.259642764216963 2.4505400255875678 0 2.4505400255875678 0.52415441613638336 0 0 0 0 -366.58043079232448 454.04919497130686 0 454.04919497130686 -45.591973238882929 0 0 0 0 274.29624777973004 -324.77023009498953 0 -324.77023009498953 -409.91791969537007 0 0 0 0 8.5898146044637542 198.6430666653614 0 198.6430666653614 -49.736505817422881 0 0 0 0 -48.957010721089318 139.22298416902049 0 139.22298416902049 58.062909034306358 0 0 0 0 -33.742713978805114 181.31756096853496 0 181.31756096853496 42.218549387212988 0 0 0 0 -50.594242543251312 194.83409733796179 0 194.83409733796179 31.37725301025057 0 0 0 0 -540.13174570680712 92.521678016408259 0 92.521678016408259 -160.71648316651977 0 0 0 0 8.7284619614074472 -88.945218911158008 0 -88.945218911158008 145.67796940077346 0 0 0 0 -153.88864517956245 -120.40742894920368 0 -120.40742894920368 578.5139183847059 0 0 0 0 2.4282222851372239 2.0812327225327802 0 2.0812327225327802 1.8328175410768281 0 0 0 0 -265.25614984771528 244.83002285132352 0 244.83002285132352 -178.12428215331602 0 0 0 0 -46.692484000217519 127.61895127822754 0 127.61895127822754 -158.40672958040159 0 0 0 0 -80.532712089298002 62.271709833019486 0 62.271709833019486 -23.967438650561235 0 0 0 0 7.8065768122367558 7.5839734729755026 0 7.5839734729755026 6.9279014897126956 0 0 0 0 461.57106299957377 -49.736646641686093 0 -49.736646641686093 -56.448897449743527 0 0 0 0 -1233.7013021123275 -149.55402224124555 0 -149.55402224124555 161.26476001539231 0 0 0 0 105.05389020424627 549.6022271689144 0 549.6022271689144 -152.59869075795177 0 0 0 0 -89.831739213603214 6.8232024989265483 0 6.8232024989265483 -26.853667871997459 0 0 0 0 -40.441953611560166 36.331086825550301 0 36.331086825550301 70.194347092561657 0 0 0 0 38.044792636326747 15.462007698210073 0 15.462007698210073 74.45590897348302 0 0 0 0 3.0284301436768146 149.31266969413991 0 149.31266969413991 12.324783828469663 0 0 0 0 85.047653912857641 123.57371787199008 0 123.57371787199008 19.991454692746629 0 0 0 0 -8.8985909558687126 79.052540146552928 0 79.052540146552928 -31.452989386307308 0 0 0 0 -155.84607442615379 104.29666073235057 0 104.29666073235057 68.261187330062967 0 0 0 0 -850.57618681297026 85.717070094205155 0 85.717070094205155 99.600240684369055 0 0 0 0 34.329804910979874 -41.687784802206806 0 -41.687784802206806 -202.60395287683059 0 0 0 0 -1.589362263606688 2.468537562418561 0 2.468537562418561 -6.1189983204787524 0 0 0 0 231.4964021029009 62.686707504588412 0 62.686707504588412 -248.06031404366695 0 0 0 0 75.553817780666577 127.37980120626526 0 127.37980120626526 -102.33180478376016 0 0 0 0 -73.505029187814216 -238.78560873472088 0 -238.78560873472088 54.30990960752024 0 0 0 0 93.3731503119634 231.76848659392999 0 231.76848659392999 -109.05797698502215 0 0 0 0 19.631878025277402 16.204138709858984 0 16.204138709858984 15.08817340812098 0 0 0 0 -24.830174644826911 -19.408757455210434 0 -19.408757455210434 9.3168837776429427 0 0 0 0 16.984066901841288 39.908715419966029 0 39.908715419966029 -41.366759338525299 0 0 0 0 -130.60368748147448 40.896667698023521 0 40.896667698023521 -2.8825452717828739 0 0 0 0 -35.10916674019245 19.77319345889191 0 19.77319345889191 -56.610283070724108 0 0 0 0 -130.90061823354336 26.761959873760134 0 26.761959873760134 -28.61527890463185 0 0 0 0 54.850670377214556 35.859264646898737 0 35.859264646898737 -79.084650761320518 0 0 0 0 -19.976994995813584 51.851361071492647 0 51.851361071492647 10.465315336849073 0 0 0 0 52.638803062145598 67.972415151851237 0 67.972415151851237 44.164105820651457 0 0 0 0 10.654412200245133 108.88672047113141 0 108.88672047113141 5.4266435263125459 0 0 0 0 12.989987519518763 89.239714529114281 0 89.239714529114281 -158.62629190364532 0 0 0 0 -102.13813627327909 75.172646741950757 0 75.172646741950757 -41.016511411969987 0 0 0 0 -23.270783442771062 76.318047642457714 0 76.318047642457714 292.86837692526751 0 0 0 0 -119.67696873890236 297.3539466512957 0 297.3539466512957 -10.938694369587438 0 0 0 0 -4.1378464792890952 6.4367205956199935 0 6.4367205956199935 -3.2782580939303791 0 0 0 0 -35.994921086300295 28.04254698687825 0 28.04254698687825 -8.4655024239269281 0 0 0 0 14.887237669887327 72.219564869655642 0 72.219564869655642 -19.510291449640135 0 0 0 0 -14.388014374140766 175.84537976282354 0 175.84537976282354 57.71374338335977 0 0 0 0 1337.6977695525129 96.812813592843668 0 96.812813592843668 -316.92738121978982 0 0 0 0 0.60902173802865711 3.879356520445512 0 3.879356520445512 -8.1850038475308224 0 0 0 0 -152.75592568608408 387.75226035196829 0 387.75226035196829 -425.35198426337206 0 0 0 0 -33.96730726370879 183.79952158442575 0 183.79952158442575 -252.17295845576155 0 0 0 0 0.47667582357826177 122.53756609180346 0 122.53756609180346 34.401725428575446 0 0 0 0 275.75148747602361 18.354006215697154 0 18.354006215697154 -397.20716473662014 0 0 0 0 184.05150328662421 157.74285690946272 0 157.74285690946272 137.9862382923784 0 0 0 0 437.2148114098527 -316.95121359048426 0 -316.95121359048426 298.35040910116368 0 0 0 0 -524.80345407960704 287.18467132988371 0 287.18467132988371 30.513490552330722 0 0 0 0 -1184.5390992175599 407.63816351602054 0 407.63816351602054 45.907308232690411 0 0 0 0 -509.04787102743285 397.14904976032085 0 397.14904976032085 218.99852358580642 0 0 0 0 -658.07173938250344 165.52439543057881 0 165.52439543057881 258.72202754534374 0 0 0 0 -113.60626819227809 218.33569127554188 0 218.33569127554188 -175.6989845232747 0 0 0 0 -673.98245656210929 54.300829155346946 0 54.300829155346946 63.77888164019032 0 0 0 0 -468.50749181749961 476.62431432304084 0 476.62431432304084 -600.06088318122056 0 0 0 0 -381.96391090238467 120.24905843118904 0 120.24905843118904 -134.46280296310397 0 0 0 0 -124.85956034484298 164.29030837339906 0 164.29030837339906 -298.90361452710931 0 0 0 0 -274.95239942235639 -72.159859021237935 0 -72.159859021237935 -190.81553690585679 0 0 0 0 -307.10505740414374 -125.2095157842632 0 -125.2095157842632 -549.54510386957941 0 0 0 0 -403.83350134878128 351.7748844865564 0 351.7748844865564 -150.40969061637225 0 0 0 0 1401.555775613846 -87.629154960456617 0 -87.629154960456617 -751.29094288576016 0 0 0 0 1.7711106505495664 2.0733921148198391 0 2.0733921148198391 -3.7877977770252187 0 0 0 0 -462.82125005741545 -97.686649058246985 0 -97.686649058246985 458.68914940552713 0 0 0 0 -387.59487612586236 245.77824391485365 0 245.77824391485365 -121.23655421478907 0 0 0 0 2.6821677955095709 4.8796608970408357 0 4.8796608970408357 -5.8009247644789781 0 0 0 0 -49.652347028131771 197.5190921466301 0 197.5190921466301 -22.667004911036202 0 0 0 0 -170.56236057578644 332.53233434292633 0 332.53233434292633 182.94872861444492 0 0 0 0 -122.68212504517578 59.519756006424359 0 59.519756006424359 -77.38780787804717 0 0 0 0 -328.89809945545676 76.214483403709892 0 76.214483403709892 8.3792606906936271 0 0 0 0 -226.0777480515826 116.3336860355339 0 116.3336860355339 6.236797226744784 0 0 0 0 -274.65969148544173 163.32987160453922 0 163.32987160453922 12.184230914041109 0 0 0 0 -259.15127190453495 62.494730108375734 0 62.494730108375734 -8.1626665098010562 0 0 0 0 -180.59618998548467 110.26531137685288 0 110.26531137685288 5.6571318291753414 0 0 0 0 -77.623169196362142 121.58643399251378 0 121.58643399251378 -34.17258461971096 0 0 0 0 -161.20428744274068 159.55437781894625 0 159.55437781894625 -0.92694544469850371 0 0 0 0 -107.14965599037532 89.540949297195766 0 89.540949297195766 -15.449533813276503 0 0 0 0 -294.23287457440892 70.429393556782088 0 70.429393556782088 -85.562606379731733 0 0 0 0 -204.5121466273049 210.65957327898832 0 210.65957327898832 -55.457159165764097 0 0 0 0 50.329435523579377 146.79763615297179 0 146.79763615297179 -66.035521904646885 0 0 0 0 6.6800816255781683 64.306071155604513 0 64.306071155604513 -35.087831654336696 0 0 0 0 -55.718047776230378 75.583939973729684 0 75.583939973729684 -65.541898682979081 0 0 0 0 -77.196710134936438 108.34002868040079 0 108.34002868040079 -54.47472329831362 0 0 0 0 -228.95957239731069 74.709535112750018 0 74.709535112750018 -64.68103962654277 0 0 0 0 -58.844432121804857 165.59826875963154 0 165.59826875963154 -224.96376027981023 0 0 0 0 -48.304497566139617 99.859963126698858 0 99.859963126698858 -107.67128170655633 0 0 0 0 10.093012095399899 85.831084697934784 0 85.831084697934784 -119.86604138403345 0 0 0 0 18.261452510706476 117.33924354131636 0 117.33924354131636 -110.91772195398153 0 0 0 0 20.001582434653756 70.527840398884564 0 70.527840398884564 -108.94774567437344 0 0 0 0 14.743127675885262 91.74016100638346 0 91.74016100638346 -163.28372162227606 0 0 0 0 10.442839364899555 45.120815330341429 0 45.120815330341429 -85.959181208564587 0 0 0 0 3.0590315730660222 12.818653293623356 0 12.818653293623356 -89.885870851310756 0 0 0 0 -70.739614605343377 99.550529471451227 0 99.550529471451227 -145.25348176567059 0 0 0 0 4.1044264379888773 92.937489580308466 0 92.937489580308466 -179.09110666593915 0 0 0 0 -9.8363570262736175 48.257641545787919 0 48.257641545787919 -84.601242206389543 0 0 0 0 0.016675220511388034 91.4544975313338 0 91.4544975313338 -54.305792379233026 0 0 0 0 22.445026093577326 83.055999194966716 0 83.055999194966716 -81.0713213181225 0 0 0 0 19.060083690137617 88.154396488402654 0 88.154396488402654 -76.870527398175909 0 0 0 0 34.2701628565992 116.5405662151552 0 116.5405662151552 -80.916314377011759 0 0 0 0 0.048723870830144733 118.29466099163528 0 118.29466099163528 -44.769010191037523 0 0 0 0 28.655202597365133 102.30739818464644 0 102.30739818464644 -89.494703377393307 0 0 0 0 28.043853668761585 135.42990805018962 0 135.42990805018962 -9.2029577572575363 0 0 0 0 38.291077231624513 152.5423985077814 0 152.5423985077814 -31.504923850709929 0 0 0 0 -0.0015408904373421183 138.12823430023045 0 138.12823430023045 17.405281643696071 0 0 0 0 23.169222580567293 174.25981105075152 0 174.25981105075152 62.18177325656643 0 0 0 0 0.019774064028752036 138.01289186049871 0 138.01289186049871 72.278516660877358 0 0 0 0 36.528489276162873 188.22302552139445 0 188.22302552139445 159.0295551786694 0 0 0 0 38.21406523432961 153.03297669071435 0 153.03297669071435 54.721479742067459 0 0 0 0 67.993696701392764 151.3349391834272 0 151.3349391834272 -4.1189836245648621 0 0 0 0 49.729786899391911 129.86039502909716 0 129.86039502909716 24.406866766068561 0 0 0 0 123.49988171048608 80.563733812867213 0 80.563733812867213 -33.305540395450407 0 0 0 0 46.595002751411812 56.301847838072717 0 56.301847838072717 -1.882270270070876 0 0 0 0 2.1669796757881272 5.0543624473720712 0 5.0543624473720712 -2.4327372724892484 0 0 0 0 -466.29036852687932 257.11332079014028 0 257.11332079014028 -34.28406499918492 0 0 0 0 1.1476610924067856 2.7978643471135598 0 2.7978643471135598 -0.68989688216497314 0 0 0 0 542.26568249568663 122.63937764333059 0 122.63937764333059 -16.48333181794078 0 0 0 0 -635.5924117772538 472.71483519338153 0 472.71483519338153 526.17117488542135 0 0 0 0 211.22420846483146 21.080499272866291 0 21.080499272866291 3.3226662592805951 0 0 0 0 217.10222776102455 203.7255608635096 0 203.7255608635096 53.071964892445976 0 0 0 0 137.37855953382677 146.94714768559788 0 146.94714768559788 86.636213609412152 0 0 0 0 315.49716687198452 315.670789102036 0 315.670789102036 136.94719400322356 0 0 0 0 111.05630929485415 32.264579898774628 0 32.264579898774628 -35.577953335792699 0 0 0 0 55.048999506980181 186.34296133833777 0 186.34296133833777 270.9907499503588 0 0 0 0 80.831257649526378 71.903473185871462 0 71.903473185871462 52.256744591191818 0 0 0 0 -130.35764419895713 319.65227861248786 0 319.65227861248786 300.5720472309622 0 0 0 0 -123.2135417531681 322.19283869333958 0 322.19283869333958 -98.443509864271618 0 0 0 0 42.888596406759461 212.71486077500231 0 212.71486077500231 -57.430754952958523 0 0 0 0 -28.09312275742559 138.66856838634703 0 138.66856838634703 -134.32019844658498 0 0 0 0 -87.996155946806539 246.1913225438584 0 246.1913225438584 -136.80909780871536 0 0 0 0 15.106387392435863 132.19338792860617 0 132.19338792860617 -179.88171399633575 0 0 0 0 -33.141708170762286 214.7716319514293 0 214.7716319514293 -198.38439628067863 0 0 0 0 88.681199472161097 150.0069496200158 0 150.0069496200158 -187.06452201618958 0 0 0 0 -0.62555104290368035 154.93111221879371 0 154.93111221879371 -42.851681359081113 0 0 0 0 49.52829056076007 124.69767637052792 0 124.69767637052792 -171.68876589784168 0 0 0 0 27.051280043389852 93.617835831185403 0 93.617835831185403 -40.431737313068879 0 0 0 0 -10.416673521522171 112.83634613123286 0 112.83634613123286 -22.521621517877065 0 0 0 0 -0.19018426928960253 149.76191318633209 0 149.76191318633209 -144.96779330587924 0 0 0 0 0.016890605959813749 149.53313551021805 0 149.53313551021805 45.232379893946927 0 0 0 0 15.857046968238137 108.51910809255787 0 108.51910809255787 -21.81735668213696 0 0 0 0 58.94180038626655 128.9339103881357 0 128.9339103881357 -34.463014672039208 0 0 0 0 -1.5512776813811797 109.5755366588528 0 109.5755366588528 75.510289950798324 0 0 0 0 -77.169061149725167 218.57086640501257 0 218.57086640501257 -207.21361281476584 0 0 0 0 -172.12721755318489 219.28489298895147 0 219.28489298895147 -174.84771992687092 0 0 0 0 -77.450066965255246 216.55616393974105 0 216.55616393974105 -202.29991954934758 0 0 0 0 -87.08969946106663 248.31511333968592 0 248.31511333968592 -157.41226191985061 0 0 0 0 0.021196896468609339 235.0626044884466 0 235.0626044884466 -210.09692212598338 0 0 0 0 -101.29889001564152 221.94492462444578 0 221.94492462444578 -182.65927151351025 0 0 0 0 -246.21776719124318 257.81326755166447 0 257.81326755166447 -139.34595095600343 0 0 0 0 -233.24644090562651 216.59300085206905 0 216.59300085206905 -154.27163233675492 0 0 0 0 -176.29686251614476 258.7530160053293 0 258.7530160053293 -130.695159299632 0 0 0 0 -250.99116222485918 228.17786964600123 0 228.17786964600123 -142.3219548283123 0 0 0 0 -251.51797146129684 233.02990740340579 0 233.02990740340579 -183.18067858958239 0 0 0 0 -246.59043168030621 297.29627006995634 0 297.29627006995634 -321.76432315592683 0 0 0 0 -0.82237095424136442 -0.33658542476307574 0 -0.33658542476307574 -1.459312139313333 0 0 0 0 -170.98592495921912 243.10395044958022 0 243.10395044958022 -185.13157926043368 0 0 0 0 -284.47119424926495 229.71057876537452 0 229.71057876537452 -155.72415559886758 0 0 0 0 -162.54825744897971 214.76981970231282 0 214.76981970231282 -210.01998107473082 0 0 0 0 -177.16602266074187 13.443535618441729 0 13.443535618441729 156.63869447716206 0 0 0 0 -269.78286432885579 208.31393300349282 0 208.31393300349282 -64.353656889077683 0 0 0 0 -18.022585113190871 -14.327339819646113 0 -14.327339819646113 80.935206593747353 0 0 0 0 7.4038375053787604 41.233721226173657 0 41.233721226173657 120.90699312260767 0 0 0 0 0.17042027099881807 1.5674304450383261 0 1.5674304450383261 -1.4728481500807575 0 0 0 0 47.695602200343274 25.294450350196712 0 25.294450350196712 -64.9386486964504 0 0 0 0 -0.63701229931029957 79.709225068659634 0 79.709225068659634 19.482584197518008 0 0 0 0 4.545484680988011 35.352049180874474 0 35.352049180874474 -126.14382389981438 0 0 0 0 -0.69165132138689955 -0.78374805217925214 0 -0.78374805217925214 -0.051446992598627617 0 0 0 0 -11.680945332984265 24.097085329389301 0 24.097085329389301 -34.993717506347821 0 0 0 0 -52.485779043345246 69.316251667853066 0 69.316251667853066 -78.39188858837224 0 0 0 0 -67.376639513786358 40.3565159431746 0 40.3565159431746 -61.346880616561975 0 0 0 0 -96.784220714700496 162.44744361035055 0 162.44744361035055 -274.18312692493237 0 0 0 0 -0.24903149204797614 -0.56310879689300819 0 -0.56310879689300819 -0.24157983773715053 0 0 0 0 -98.855326542914554 201.43976980014395 0 201.43976980014395 -157.81603335084037 0 0 0 0 -162.3651385573877 209.4877427007938 0 209.4877427007938 -155.8706600622736 0 0 0 0 -0.052637674452853389 189.61491066245526 0 189.61491066245526 -195.67466461621098 0 0 0 0 -93.797349748851957 170.52428089637408 0 170.52428089637408 -112.22894202695716 0 0 0 0 -37.15721763610054 169.1959801996727 0 169.1959801996727 -113.86584232675659 0 0 0 0 -0.082461310550570488 106.42086806374664 0 106.42086806374664 -15.25200926040452 0 0 0 0 -37.955566458287649 44.520587386889019 0 44.520587386889019 184.64828408951007 0 0 0 0 -56.893694370402955 111.61059777248192 0 111.61059777248192 68.792993058330467 0 0 0 0 7.8133607760755694 63.243181734078462 0 63.243181734078462 25.978743365024457 0 0 0 0 -21.747783326272611 81.008555987668444 0 81.008555987668444 15.69917427281689 0 0 0 0 -22.92940319286572 101.05059154488481 0 101.05059154488481 -14.918599583932519 0 0 0 0 -0.0074115294009970967 91.070086694995553 0 91.070086694995553 -14.160561747037718 0 0 0 0 5.7635898128210101 69.466271334069461 0 69.466271334069461 -15.52476221085999 0 0 0 0 0.2435484538145829 75.839802497312348 0 75.839802497312348 -20.774629030998767 0 0 0 0 0.56281284614033211 75.981257609152181 0 75.981257609152181 -39.841893453616649 0 0 0 0 68.2243031339749 85.017312178955763 0 85.017312178955763 -12.356788366423643 0 0 0 0 -7.9632515436678659 82.008812308030429 0 82.008812308030429 7.866238494287245 0 0 0 0 22.180008506147715 69.956436508075058 0 69.956436508075058 -23.052522433988088 0 0 0 0 8.4627620436440338 54.458748075989206 0 54.458748075989206 -66.67213876166079 0 0 0 0 0.9113447904237546 68.737104213020757 0 68.737104213020757 -19.179216270389588 0 0 0 0 2.162457942700712 78.700431264239342 0 78.700431264239342 9.1198198309193685 0 0 0 0 81.060955605957133 78.855994308521986 0 78.855994308521986 -5.4933521877574094 0 0 0 0 16.449649015625255 87.701901175554895 0 87.701901175554895 13.897746634429495 0 0 0 0 24.970047634541146 76.792913980240684 0 76.792913980240684 3.5811819407790608 0 0 0 0 52.140455248460057 66.472755187840448 0 66.472755187840448 -1.402326730210234 0 0 0 0 24.98142329511964 75.49308651096726 0 75.49308651096726 4.6047592848226486 0 0 0 0 3.7736715589489904 80.585260530870073 0 80.585260530870073 23.129730004981866 0 0 0 0 8.039830816538597 39.691340140490865 0 39.691340140490865 45.406192284655845 0 0 0 0 9.549058073447668 41.467290828330988 0 41.467290828330988 31.565680893005037 0 0 0 0 5.3797796238359297 27.074296233903624 0 27.074296233903624 -8.4849676737030677 0 0 0 0 15.338427684127964 13.706819026919675 0 13.706819026919675 -25.702984478368307 0 0 0 0 -17.419586367766897 15.993834253386012 0 15.993834253386012 -14.802631437656601 0 0 0 0 -20.057648789891573 27.699931868076732 0 27.699931868076732 -26.64596573034305 0 0 0 0 -5.5873636770993471 24.485850725004639 0 24.485850725004639 -26.242931987867451 0 0 0 0 0.19898153558812837 9.5551974689899879 0 9.5551974689899879 -26.623209640611229 0 0 0 0 -13.572921029997218 2.5138911448286656 0 2.5138911448286656 -0.085381460311499069 0 0 0 0 -918.02242989106162 144.16337666280651 0 144.16337666280651 321.56500433451401 0 0 0 0 40.531379414038383 16.458692453437834 0 16.458692453437834 -45.036568140689269 0 0 0 0 -1.0398547270607423 3.5061582899658639 0 3.5061582899658639 -8.6169719086702656 0 0 0 0 45.389553279121174 60.115658628152232 0 60.115658628152232 2.8321315025150398 0 0 0 0 76.25569355427433 53.229648686041401 0 53.229648686041401 -17.296543056287192 0 0 0 0 -0.58471832211482777 5.4978986950701341 0 5.4978986950701341 -25.964390062419326 0 0 0 0 776.68887668896923 -428.27681683519711 0 -428.27681683519711 -961.25957809574356 0 0 0 0 -505.3866141851322 864.91724544603039 0 864.91724544603039 39.5118760601963 0 0 0 0 124.76515996511353 525.66969700467507 0 525.66969700467507 -157.48862542646384 0 0 0 0 1.4687476009860951 6.7113706538900004 0 6.7113706538900004 -21.746888774617986 0 0 0 0 313.86297434278458 123.96088994899287 0 123.96088994899287 -39.076202076066693 0 0 0 0 70.735944420724991 128.41782434080415 0 128.41782434080415 26.142829604961662 0 0 0 0 178.38952112098923 101.85463173807148 0 101.85463173807148 -25.769652568578749 0 0 0 0 210.01186509332911 50.525677494400952 0 50.525677494400952 -22.620294105581706 0 0 0 0 -7.642086070492951 -18.316433340886761 0 -18.316433340886761 -200.18944227078464 0 0 0 0 21.681301329434334 20.202092366129044 0 20.202092366129044 6.4881324913407425 0 0 0 0 21.331929224901614 -54.328361690403085 0 -54.328361690403085 -450.53705112496937 0 0 0 0 7.5396482074429514 38.354246898489691 0 38.354246898489691 -728.12980015873109 0 0 0 0 -245.31154755418538 286.80425700724481 0 286.80425700724481 15.512931914205183 0 0 0 0 -4.4917862992594166 11.078048707130364 0 11.078048707130364 -6.2037010754243518 0 0 0 0 -1062.4734124116731 105.41671799921551 0 105.41671799921551 83.725976271412947 0 0 0 0 -501.20839573758713 624.11696435140038 0 624.11696435140038 -496.92474418013444 0 0 0 0 -200.56569394786493 449.99539166976137 0 449.99539166976137 -813.14295040357638 0 0 0 0 -26.454585279810999 199.32775639465217 0 199.32775639465217 -454.37555849157616 0 0 0 0 15.283577658265131 248.0031416577549 0 248.0031416577549 -430.82597847563306 0 0 0 0 -7.9808077133493498 182.25948955777062 0 182.25948955777062 -274.81738862147722 0 0 0 0 13.397546573327418 209.49670637675626 0 209.49670637675626 -288.89007159571338 0 0 0 0 -71.38787461604079 284.48285689595559 0 284.48285689595559 -110.53192521723577 0 0 0 0 -74.910249212160124 315.96878814722095 0 315.96878814722095 -164.48437312331498 0 0 0 0 -468.44108491651423 -192.28193114257465 0 -192.28193114257465 398.50663052438472 0 0 0 0 17.845811283696094 152.0541141407266 0 152.0541141407266 -92.921625665164356 0 0 0 0 -385.51451317682222 457.05327848363049 0 457.05327848363049 -264.51893518978432 0 0 0 0 3.4611487672109433 28.434357540911719 0 28.434357540911719 -39.583330648021729 0 0 0 0 -12.190540025781473 1.085684856660027 0 1.085684856660027 5.1372067326977948 0 0 0 0 -100.27477843624365 246.80130029138945 0 246.80130029138945 -96.887730751360323 0 0 0 0 -117.89003562119615 -6.0167680727954576 0 -6.0167680727954576 -12.140153464799369 0 0 0 0 3.7597976065517287 28.926247254158625 0 28.926247254158625 -62.612832378616076 0 0 0 0 68.844771421852784 17.769337037468631 0 17.769337037468631 -21.981033220363315 0 0 0 0 60.253091618855251 38.929648440215942 0 38.929648440215942 -61.304469175258419 0 0 0 0 -0.24128843978770753 -0.90275624760418793 0 -0.90275624760418793 -0.95749367794997653 0 0 0 0 62.727295456654247 5.3998212754734141 0 5.3998212754734141 -0.91894617168873083 0 0 0 0 -235.22150559528836 96.398959765697782 0 96.398959765697782 49.538412220226746 0 0 0 0 13.150588134900318 5.7022752025604859 0 5.7022752025604859 6.6097573961833405 0 0 0 0 18.729218043066794 28.677748831920781 0 28.677748831920781 14.130228567484664 0 0 0 0 -3.5979112255445216 12.224473557951569 0 12.224473557951569 15.036194713391524 0 0 0 0 16.987771518943191 20.174298756428243 0 20.174298756428243 -3.6947892954158306 0 0 0 0 16.970469230727758 13.553414074591274 0 13.553414074591274 -73.758872689068539 0 0 0 0 -0.016997557460086909 0.39926563309444596 0 0.39926563309444596 0.13825965918389471 0 0 0 0 -9.5971442826776183 11.249263661959958 0 11.249263661959958 -46.606158561018674 0 0 0 0 -0.093315138408797793 19.421336898087247 0 19.421336898087247 -34.387343184037491 0 0 0 0 -1.0583036846401228 21.481704031771187 0 21.481704031771187 -36.52936566221797 0 0 0 0 1.0455851055375724 9.9643425471197702 0 9.9643425471197702 -18.849300496023979 0 0 0 0 -10.305792245271732 14.049132431146063 0 14.049132431146063 -6.7897724999752427 0 0 0 0 -0.95769049833788245 4.6732927212985871 0 4.6732927212985871 -3.5567894015517529 0 0 0 0 -4.8351793191541219 33.361672068323969 0 33.361672068323969 -38.666589141301301 0 0 0 0 -13.0604212512917 12.938871592832584 0 12.938871592832584 -11.681360891458098 0 0 0 0 -1.895630259168513 2.8824150848603356 0 2.8824150848603356 -3.43053559083096 0 0 0 0 -18.231884217755578 10.996333414093897 0 10.996333414093897 -3.4636943689829423 0 0 0 0 -13.954954138898756 17.876055219588125 0 17.876055219588125 -1.1099256633751793 0 0 0 0 -2.7544586527001229 10.348596801838539 0 10.348596801838539 -6.0750417512826971 0 0 0 0 0.81123944792468627 9.4631329004871674 0 9.4631329004871674 -8.8985978772928434 0 0 0 0 -0.71859420807265906 11.228519610292111 0 11.228519610292111 -1.2814184286929304 0 0 0 0 -5.8934826301929206 17.876561243471997 0 17.876561243471997 1.7329247215420764 0 0 0 0 -1.2277843618048507 8.122481395809432 0 8.122481395809432 3.3719546370987885 0 0 0 0 2.6350638545441143 2.5706636235002094 0 2.5706636235002094 -3.4928567489772675 0 0 0 0 -11.741011374775553 10.727010961955784 0 10.727010961955784 -1.8270833358469645 0 0 0 0 -9.2230875365340523 2.3566958942071636 0 2.3566958942071636 0.93076199576918128 0 0 0 0 -25.371407894883305 17.098056304042075 0 17.098056304042075 20.540923798821495 0 0 0 0 -12.525766523158836 15.321950870192268 0 15.321950870192268 -1.8094393313203909 0 0 0 0 3.2785341688213521 5.735371875396595 0 5.735371875396595 -12.594685480777116 0 0 0 0 -1.1410149985077656 8.9567692710581639 0 8.9567692710581639 -3.8246401667557066 0 0 0 0 2.4463693313737167 12.322754251904826 0 12.322754251904826 -6.269115348154628 0 0 0 0 7.2734842468566114 9.6825946297052035 0 9.6825946297052035 3.0643427987717526 0 0 0 0 2.6279388555412879 16.62670131497498 0 16.62670131497498 7.2233017102314534 0 0 0 0 15.301661455467638 14.984740199085309 0 14.984740199085309 -8.9879307738447096 0 0 0 0 0.32537659769049831 1.7037041046606731 0 1.7037041046606731 -3.6388250683299503 0 0 0 0 15.253074256317632 11.081280923952363 0 11.081280923952363 -19.272861575836941 0 0 0 0 -2.1280052566762606 17.605198228382505 0 17.605198228382505 -2.8495765089519409 0 0 0 0 0.80846671283507021 20.563322388041342 0 20.563322388041342 -6.5207133108642665 0 0 0 0 -49.807303903100546 31.549483114446957 0 31.549483114446957 3.7943108564377326 0 0 0 0 -41.270646985543863 58.030145638486829 0 58.030145638486829 -20.43907183565625 0 0 0 0 -36.081351147292025 30.102872193260964 0 30.102872193260964 1.9038644899010251 0 0 0 0 -60.858485034195837 45.859757474027333 0 45.859757474027333 -17.560770441024943 0 0 0 0 -7.2766454801539737 4.0803823421777317 0 4.0803823421777317 2.5852671980798565 0 0 0 0 -44.459699402046681 49.359582033074275 0 49.359582033074275 -40.087240544320593 0 0 0 0 -61.869740915128205 115.80272309921384 0 115.80272309921384 -138.24945597862643 0 0 0 0 -120.09116975826328 63.109272996711297 0 63.109272996711297 78.202310816228874 0 0 0 0 -13.294970856364671 39.155140953324462 0 39.155140953324462 -144.67108955464937 0 0 0 0 -72.489915672954567 2.1913171541341399 0 2.1913171541341399 38.753915313711332 0 0 0 0 -50.250619757625827 -43.217995803413032 0 -43.217995803413032 87.267491981025159 0 0 0 0 5.5028927647363162 30.284691886628025 0 30.284691886628025 -14.790665159753189 0 0 0 0 -4.2454148078336971 2.0560722933884303 0 2.0560722933884303 2.7944021461471671 0 0 0 0 -200.07682371875853 220.94672275136509 0 220.94672275136509 -322.74538458923053 0 0 0 0 -106.50347157934448 259.39121526256531 0 259.39121526256531 -411.13853458044287 0 0 0 0 -195.64068813093536 144.95252236418332 0 144.95252236418332 -313.37004271518526 0 0 0 0 -16.843889069750503 -267.68119130907007 0 -267.68119130907007 -291.09076973685842 0 0 0 0 -81.422821544467297 199.63847489820182 0 199.63847489820182 -346.26202593823837 0 0 0 0 -118.07027664518682 102.27910880962554 0 102.27910880962554 -212.4422572929094 0 0 0 0 -160.77297872665076 179.03534970081046 0 179.03534970081046 -265.85726906134369 0 0 0 0 -124.93184775718692 221.44509285148388 0 221.44509285148388 -226.6561611582456 0 0 0 0 -118.33395604736143 137.92178523775692 0 137.92178523775692 -380.21042559847319 0 0 0 0 -80.115381367722875 230.98881282887396 0 230.98881282887396 -371.63612139811084 0 0 0 0 -24.256722892176185 -20.254184300601082 0 -20.254184300601082 51.49896131348487 0 0 0 0 -8.4018405917514372 1.9686870567461661 0 1.9686870567461661 3.6795876068238478 0 0 0 0 -20.050636740281334 50.831761219294549 0 50.831761219294549 15.444936867648721 0 0 0 0 -137.69346895381022 5.2992882295275194 0 5.2992882295275194 3.3787523672963289 0 0 0 0 -51.623925243358826 40.962496154484143 0 40.962496154484143 -30.876241115731318 0 0 0 0 20.844878258067183 35.433367670817461 0 35.433367670817461 -46.438037244477528 0 0 0 0 -86.963293568034715 171.17480468669328 0 171.17480468669328 -20.482570409387336 0 0 0 0 -47.48909874738456 120.53843254736785 0 120.53843254736785 -342.3635889359748 0 0 0 0 -156.2086754705997 165.41258779793634 0 165.41258779793634 -187.67093658153499 0 0 0 0 -109.74902110875701 172.33058423239072 0 172.33058423239072 -180.14480750919392 0 0 0 0 -38.22277967903392 97.003508299374516 0 97.003508299374516 -161.13585637831056 0 0 0 0 -0.32222524936979369 1.2809030681236706 0 1.2809030681236706 1.3554246438529525 0 0 0 0 -169.90550712513505 189.4168389900633 0 189.4168389900633 -197.15225458780765 0 0 0 0 13.033821461925982 247.50348092581953 0 247.50348092581953 -155.1432367111147 0 0 0 0 -70.230901583832292 296.7263280733348 0 296.7263280733348 -158.61458157808374 0 0 0 0 -27.328989983783686 163.50391515855426 0 163.50391515855426 -136.16446198797121 0 0 0 0 18.834782890198426 11.383918460679249 0 11.383918460679249 7.5511569839898023 0 0 0 0 -32.945131645283254 97.547115332898102 0 97.547115332898102 -86.332948154409507 0 0 0 0 4.5892522351196021 248.73072117983736 0 248.73072117983736 -210.72798382624933 0 0 0 0 -38.719714121667494 64.510018332974141 0 64.510018332974141 -4.5353407418133429 0 0 0 0 -13.913229375772062 68.911133792864348 0 68.911133792864348 -84.470773860849135 0 0 0 0 -44.588437710597645 77.431909772990366 0 77.431909772990366 -32.580897352634565 0 0 0 0 -32.22017473329106 64.318613323559475 0 64.318613323559475 -30.917706227468443 0 0 0 0 -14.770485157278017 70.545875339614213 0 70.545875339614213 -18.156673364808285 0 0 0 0 -15.523430605484236 52.282769757864401 0 52.282769757864401 -47.171486741772242 0 0 0 0 -29.740821748364397 47.624021064661974 0 47.624021064661974 -7.3135721520093284 0 0 0 0 5.0532899837265575 5.3498293618982089 0 5.3498293618982089 -2.6227659897778182 0 0 0 0 -19.634094546956476 12.272656496972559 0 12.272656496972559 11.059429532098875 0 0 0 0 -39.478914087405428 49.344698163578869 0 49.344698163578869 -8.671001250622794 0 0 0 0 -41.364789831277449 83.741483611878721 0 83.741483611878721 -61.902205303269511 0 0 0 0 -72.613052081651404 76.915719117503613 0 76.915719117503613 -12.359630415963693 0 0 0 0 -58.86088481803381 121.64169244859659 0 121.64169244859659 -149.19996715569323 0 0 0 0 -48.704561607599317 82.492608860793553 0 82.492608860793553 -62.103135634346472 0 0 0 0 -139.37145941924246 71.845255444799477 0 71.845255444799477 -14.104860085547898 0 0 0 0 -43.294777612843973 31.824537310724509 0 31.824537310724509 -25.728182215672859 0 0 0 0 -222.12739589131161 155.73160953454772 0 155.73160953454772 -99.049221518425838 0 0 0 0 -0.37778355269877117 -0.50900198139353137 0 -0.50900198139353137 -1.2540638652316716 0 0 0 0 -74.642041805476765 98.627969767141622 0 98.627969767141622 -274.37521333417681 0 0 0 0 -96.09565349498007 121.29470579813096 0 121.29470579813096 -148.71178763463831 0 0 0 0 10.346670352701935 7.9082460366003602 0 7.9082460366003602 4.8237363160520559 0 0 0 0 -53.387227646133397 101.89467338751183 0 101.89467338751183 -313.45434926159214 0 0 0 0 -161.81892692326733 52.402302462172258 0 52.402302462172258 -256.03930685312662 0 0 0 0 1.6274091703636486 2.2405470859500838 0 2.2405470859500838 1.3253565033648229 0 0 0 0 -30.754522574614384 30.883921669124902 0 30.883921669124902 -254.99355239657598 0 0 0 0 -72.377383167855442 171.47796155918422 0 171.47796155918422 -281.13434701812912 0 0 0 0 63.682915946948924 573.53107824656581 0 573.53107824656581 98.926517006755603 0 0 0 0 134.92531106603565 100.59604052013856 0 100.59604052013856 -313.95019639847783 0 0 0 0 1.8685319277901726 220.18524835224025 0 220.18524835224025 -202.25076122436803 0 0 0 0 2.9743243234700429 3.0462854118026854 0 3.0462854118026854 2.0908305166337904 0 0 0 0 14.40389449770737 203.68587514957107 0 203.68587514957107 -172.80240491081213 0 0 0 0 -240.53810823661479 194.28025890518165 0 194.28025890518165 78.947648420322366 0 0 0 0 -153.2583030485257 362.22688561010364 0 362.22688561010364 -182.70178039458096 0 0 0 0 -11.225703664444154 132.68353481774102 0 132.68353481774102 -197.06423128892311 0 0 0 0 16.837925603220356 160.97465739568725 0 160.97465739568725 -168.70260851508283 0 0 0 0 -9.6505084786331281 223.16711729554572 0 223.16711729554572 131.09541175968479 0 0 0 0 4.6783841409633169 229.8392227074346 0 229.8392227074346 -71.475368019083589 0 0 0 0 37.027111446324852 113.21981249350574 0 113.21981249350574 -60.56993512479562 0 0 0 0 -12.161678113927337 84.010435785811751 0 84.010435785811751 73.990821768627939 0 0 0 0 13.322295936057344 88.176851288882972 0 88.176851288882972 -16.853053095364885 0 0 0 0 20.848988709436526 90.011980581307398 0 90.011980581307398 -85.228061054542195 0 0 0 0 15.13582215133647 29.681643317096132 0 29.681643317096132 -13.718294087331742 0 0 0 0 7.0269638083846075 41.487366367524373 0 41.487366367524373 -27.074982547192576 0 0 0 0 142.91789466714886 15.648817312196201 0 15.648817312196201 -125.06244942548437 0 0 0 0 -237.00465919973794 151.9585415932761 0 151.9585415932761 -193.33988586404666 0 0 0 0 49.950122153371922 117.36292737273106 0 117.36292737273106 -218.87393682563834 0 0 0 0 83.480978487277753 57.756424917373806 0 57.756424917373806 -146.39962047165318 0 0 0 0 32.596359774230223 71.324281620371949 0 71.324281620371949 -58.312875636864192 0 0 0 0 32.871829727126169 27.925227734529471 0 27.925227734529471 -69.567395049929928 0 0 0 0 26.881850481629954 28.78269005310176 0 28.78269005310176 27.496570542829431 0 0 0 0 57.196913772721018 -11.748295930653512 0 -11.748295930653512 -6.2790332399745239 0 0 0 0 23.162158080522204 14.264343203412864 0 14.264343203412864 -19.961209796587355 0 0 0 0 1.635631814970111 29.394730643497496 0 29.394730643497496 -13.64486695924279 0 0 0 0 -2.2023566434418171 43.645929112366503 0 43.645929112366503 -11.050269106506676 0 0 0 0 18.795243971754644 11.302894695088227 0 11.302894695088227 6.9557389764544837 0 0 0 0 194.6085206278949 81.492531625561242 0 81.492531625561242 -74.303932461985823 0 0 0 0 -14.695501880574739 26.537904289578364 0 26.537904289578364 -7.5035321013856446 0 0 0 0 305.31262491342204 -85.574170564279484 0 -85.574170564279484 -235.87021451540932 0 0 0 0 4.6578712177870329 11.610875516142187 0 11.610875516142187 -14.612668353838671 0 0 0 0 -81.46372480426362 -40.51128336142574 0 -40.51128336142574 -28.57317710074858 0 0 0 0 -105.76236441404808 125.61363270188008 0 125.61363270188008 29.934232595427602 0 0 0 0 143.9517013430559 114.56324387090172 0 114.56324387090172 12.412358172645327 0 0 0 0 379.60951166532686 161.90857306275757 0 161.90857306275757 -144.35614233094384 0 0 0 0 151.88285773312964 107.33052151861557 0 107.33052151861557 -7.4334773793088971 0 0 0 0 84.13049843985209 56.330181140689092 0 56.330181140689092 -17.803884495464445 0 0 0 0 129.3606187218611 116.62314747429627 0 116.62314747429627 17.619052767535322 0 0 0 0 8.4485421773788403 101.42216223060313 0 101.42216223060313 40.084344271010195 0 0 0 0 7.1364089020680694 89.398364971909359 0 89.398364971909359 -31.087578268372454 0 0 0 0 50.371494044842166 53.920385768860342 0 53.920385768860342 -6.7535208181288908 0 0 0 0 44.096777756458323 45.458495049034354 0 45.458495049034354 -17.504512244569923 0 0 0 0 25.212003832613703 21.420800319853299 0 21.420800319853299 12.362689407882726 0 0 0 0 -59.916335352194437 155.8200343139215 0 155.8200343139215 -42.398589390209963 0 0 0 0 57.285792650767689 -38.248873947827633 0 -38.248873947827633 1.2123630236828831 0 0 0 0 177.45940704091845 120.16046376650229 0 120.16046376650229 52.377465862104145 0 0 0 0 212.74835527817049 239.49176744123724 0 239.49176744123724 154.78642814173145 0 0 0 0 207.46440395453101 93.221334234194728 0 93.221334234194728 -6.5906339825378382 0 0 0 0 164.00922049579822 79.397997790325462 0 79.397997790325462 13.184868975586141 0 0 0 0 214.89205882038368 -130.95338701600122 0 -130.95338701600122 -479.05921725359349 0 0 0 0 0.20843556646404693 -2.6331984614340556 0 -2.6331984614340556 1.1962065406728435 0 0 0 0 -96.981267798280896 34.377451914036101 0 34.377451914036101 -76.359234050280065 0 0 0 0 423.26756309125267 -181.81906641345358 0 -181.81906641345358 -7.345329719961228 0 0 0 0 -21.647565540776668 6.9883208918299715 0 6.9883208918299715 297.29467371174724 0 0 0 0 6.6211387421246712 3.3678700358843319 0 3.3678700358843319 1.781870135161526 0 0 0 0 9.6668157574495126 48.353286495660996 0 48.353286495660996 -9.6880475919988385 0 0 0 0 -26.715966894931626 45.368268851604626 0 45.368268851604626 10.516051859325671 0 0 0 0 -1.5540387254623056 177.85542579563116 0 177.85542579563116 -14.672100022045925 0 0 0 0 -33.479008059141051 181.2234406671887 0 181.2234406671887 57.585949336591284 0 0 0 0 -1.6988177308230661 261.62926603594133 0 261.62926603594133 266.60154564788331 0 0 0 0 410.17041873244307 244.26081771846657 0 244.26081771846657 -68.318667686744448 0 0 0 0 -46.056022221016974 108.86283061357972 0 108.86283061357972 -80.427240081957279 0 0 0 0 -56.019874227513355 271.76817174912821 0 271.76817174912821 -241.90511459731715 0 0 0 0 -44.239644606728689 268.18060327853436 0 268.18060327853436 -248.04752540853951 0 0 0 0 88.454528157688401 234.24056155054996 0 234.24056155054996 -252.11430360279155 0 0 0 0 -11.838155817858933 145.79693893293279 0 145.79693893293279 -16.006772965605705 0 0 0 0 225.84374541257421 43.092413926002337 0 43.092413926002337 -610.06460231579149 0 0 0 0 -42.461041376474896 -13.899000254416023 0 -13.899000254416023 186.06145223715066 0 0 0 0 -6.4913235750937019 164.09758638002313 0 164.09758638002313 -229.58073226479246 0 0 0 0 136.26772277380951 -135.31996577636983 0 -135.31996577636983 -366.01046568931633 0 0 0 0 -363.81861377006862 321.37799571696087 0 321.37799571696087 160.9631420665537 0 0 0 0 -279.90431196751888 477.10433908698906 0 477.10433908698906 -90.572860261523601 0 0 0 0 -123.01420052756293 159.5788475757372 0 159.5788475757372 -308.04311065571892 0 0 0 0 3.5674405420224247 2.6755062505587013 0 2.6755062505587013 1.2118338313316244 0 0 0 0 1.3552808654268915 1.1869168259000666 0 1.1869168259000666 0.41399163197109701 0 0 0 0 83.827051520129316 -14.96466630174109 0 -14.96466630174109 -142.94665237844492 0 0 0 0 -466.99049240036402 429.42323461296291 0 429.42323461296291 155.35160653715161 0 0 0 0 -25.978248923100182 144.6628285380375 0 144.6628285380375 -420.8955608630913 0 0 0 0 -85.570197823864873 200.03992837316764 0 200.03992837316764 -300.03997629700916 0 0 0 0 126.25042764868704 212.11891515542993 0 212.11891515542993 -397.19356584587149 0 0 0 0 -73.552085139064729 229.42377646973637 0 229.42377646973637 -136.60328982003921 0 0 0 0 117.57801981389639 365.60213097137193 0 365.60213097137193 -574.43944842134806 0 0 0 0 7.6944721755686203 4.0013204304500398 0 4.0013204304500398 0.27562183498393011 0 0 0 0 10.825162301051023 260.76764169469971 0 260.76764169469971 -425.0199286139632 0 0 0 0 109.07568257898674 132.39118620365298 0 132.39118620365298 -393.24002993517206 0 0 0 0 34.244508255404071 170.16928996251045 0 170.16928996251045 -290.87037356373185 0 0 0 0 31.748703227873193 107.76350209043812 0 107.76350209043812 -432.74025199483822 0 0 0 0 34.531431553673428 156.14590678771438 0 156.14590678771438 -400.80131967558555 0 0 0 0 27.030961791146183 221.97671295139321 0 221.97671295139321 -329.6846787542454 0 0 0 0 31.092259178694803 242.28040325385518 0 242.28040325385518 -264.77848087520852 0 0 0 0 53.617865722917486 208.63030039324076 0 208.63030039324076 -424.85108116310585 0 0 0 0 657.24845434018061 153.67683076995309 0 153.67683076995309 401.13621549324307 0 0 0 0 -1.235452115138969 1.0809455424377674 0 1.0809455424377674 1.2650178303967152 0 0 0 0 -80.202343030499378 -78.644561493840342 0 -78.644561493840342 410.21391303594464 0 0 0 0 -10.786197299115884 285.03775422698891 0 285.03775422698891 260.0092784049798 0 0 0 0 4.1004463767263246 2.1267865703918218 0 2.1267865703918218 2.1006133648935688 0 0 0 0 -490.17300609671656 -139.80868963930152 0 -139.80868963930152 351.48862841430173 0 0 0 0 108.96408930637699 -116.85740545294357 0 -116.85740545294357 -78.678999139410735 0 0 0 0 297.65486363894161 136.15815720155069 0 136.15815720155069 -108.67935893357571 0 0 0 0 7.2502376278862357 194.59566570818879 0 194.59566570818879 -135.05216509362981 0 0 0 0 -11.17596105231496 -80.508078863722403 0 -80.508078863722403 115.62977212746955 0 0 0 0 180.26610798665206 163.79231583046931 0 163.79231583046931 -260.56642810717858 0 0 0 0 19.235551138663141 10.087148930894728 0 10.087148930894728 -120.98240335139758 0 0 0 0 443.79794032260543 -30.448475629180393 0 -30.448475629180393 -117.43106616829709 0 0 0 0 2.983489503925469 1.7201915702040633 0 1.7201915702040633 0.39823342723893873 0 0 0 0 315.1756459745302 -545.70049512118749 0 -545.70049512118749 -555.31416337805103 0 0 0 0 -138.15784831359315 387.50420023547139 0 387.50420023547139 -255.35835992405373 0 0 0 0 -149.63705032150028 226.15425842758941 0 226.15425842758941 95.514393414408914 0 0 0 0 -205.08634503903158 38.564150721405895 0 38.564150721405895 -139.91417925132009 0 0 0 0 36.229167443056213 -44.505856618639882 0 -44.505856618639882 18.047061687325368 0 0 0 0 -84.054853922119946 25.155154115212099 0 25.155154115212099 62.030282143046861 0 0 0 0 -16.881461304594268 -8.8306443859205501 0 -8.8306443859205501 -6.7447165301582572 0 0 0 0 35.63995759475074 63.884939266265974 0 63.884939266265974 21.659945057143887 0 0 0 0 -8.451958378929703 80.339409683214853 0 80.339409683214853 -53.239696010823536 0 0 0 0 9.4100899690638613 10.46714067583439 0 10.46714067583439 4.5803911219014317 0 0 0 0 15.256818355835094 109.74744806534306 0 109.74744806534306 -141.23931985303716 0 0 0 0 4.2590556789791663 129.24669730521259 0 129.24669730521259 100.74710553931436 0 0 0 0 137.60275001910122 55.682950050737873 0 55.682950050737873 -502.73372895443026 0 0 0 0 39.851240245768167 285.31805370654206 0 285.31805370654206 -353.34280904499792 0 0 0 0 -78.247530569926312 -3.9292555758929666 0 -3.9292555758929666 -159.98998922014925 0 0 0 0 -20.177989655440797 68.672915426283453 0 68.672915426283453 251.24539330028165 0 0 0 0 -41.53364741480982 29.287372702706762 0 29.287372702706762 370.76687723454711 0 0 0 0 1.2417915740076069 0.94045235536553329 0 0.94045235536553329 0.27026287799313131 0 0 0 0 -4.7289296268680232 1.7340941824722407 0 1.7340941824722407 0.025652947948685778 0 0 0 0 178.36650979367914 107.17141619755466 0 107.17141619755466 -613.34971189842872 0 0 0 0 -0.75447854582515106 0.96265844043488347 0 0.96265844043488347 -0.024108156255493007 0 0 0 0 -101.39618164005515 -8.77914925088362 0 -8.77914925088362 -217.5819808163842 0 0 0 0 410.61254246457975 94.493883472460766 0 94.493883472460766 -201.60467037651642 0 0 0 0 90.496928778984511 258.05734084936864 0 258.05734084936864 -416.38502570460969 0 0 0 0 -93.788855940561916 170.46198190797259 0 170.46198190797259 16.719654478337361 0 0 0 0 -66.801897216791986 59.316747245228726 0 59.316747245228726 -112.65481365356572 0 0 0 0 79.557528100496711 102.04442789814266 0 102.04442789814266 60.492266757863945 0 0 0 0 -8.9732660720219428 8.0242667714792333 0 8.0242667714792333 -6.169504595156468 0 0 0 0 -28.81452637858456 4.6910790894999082 0 4.6910790894999082 2.7625813745480627 0 0 0 0 -23.855739441540209 119.99993170154539 0 119.99993170154539 -111.31156840759377 0 0 0 0 -13.432768856364703 3.8280435609218992 0 3.8280435609218992 2.567245573771884 0 0 0 0 -73.435946652239181 161.64445825972291 0 161.64445825972291 102.66191682791577 0 0 0 0 -70.953960163016745 191.26554836419655 0 191.26554836419655 77.700928770882456 0 0 0 0 -70.340646967776138 145.85535366756551 0 145.85535366756551 30.37690581653078 0 0 0 0 -73.722625656038872 150.37581580356527 0 150.37581580356527 105.12835516587347 0 0 0 0 -70.86755310715489 162.0540552332817 0 162.0540552332817 68.741497801383957 0 0 0 0 -113.73529934822272 150.06761043541997 0 150.06761043541997 275.38143404571838 0 0 0 0 -40.054349852392079 29.515739526104085 0 29.515739526104085 258.92519755934336 0 0 0 0 -52.010347538638598 106.523284654073 0 106.523284654073 77.72199935659637 0 0 0 0 -71.48234099405272 120.33219481616106 0 120.33219481616106 70.992788921326792 0 0 0 0 34.671405074067934 -2.1712698307379696 0 -2.1712698307379696 -13.167735532944789 0 0 0 0 0.0071462366263688182 0.79371741326040279 0 0.79371741326040279 1.2668649761439497 0 0 0 0 52.736170689679966 65.533198807761323 0 65.533198807761323 -21.583094844347215 0 0 0 0 2.6285349767786101 16.968087849073981 0 16.968087849073981 -11.589989605105075 0 0 0 0 -33.878118146672932 55.681964946924381 0 55.681964946924381 -12.774930013746598 0 0 0 0 -0.1986953458545031 12.727232618953167 0 12.727232618953167 -15.741945083638711 0 0 0 0 -0.68037359671143349 10.328936170701127 0 10.328936170701127 -17.556489329397664 0 0 0 0 -262.19605555933231 -8.5361007042201891 0 -8.5361007042201891 410.1582076972129 0 0 0 0 0.87764369095210526 7.5757653688981179 0 7.5757653688981179 12.956185604796161 0 0 0 0 -115.57870289055609 -132.23478691161881 0 -132.23478691161881 -128.00655422071668 0 0 0 0 -121.88881842042247 55.807878029645053 0 55.807878029645053 152.69440909691275 0 0 0 0 38.027458745953481 35.843777135686651 0 35.843777135686651 -74.073544003507777 0 0 0 0 372.75365484681242 426.10534529788401 0 426.10534529788401 288.95246093048388 0 0 0 0 339.30464954607305 178.6298452013425 0 178.6298452013425 -16.378861204673967 0 0 0 0 238.31898934923629 248.78692073878256 0 248.78692073878256 265.55374549020962 0 0 0 0 1.2258287437429232 1.9563608185752557 0 1.9563608185752557 5.6708376999556478 0 0 0 0 -66.729592484192835 -43.324629766713315 0 -43.324629766713315 188.18793381114756 0 0 0 0 19.448887526727049 344.42468259395491 0 344.42468259395491 100.96752083042838 0 0 0 0 58.055328392247247 -150.3896160491181 0 -150.3896160491181 178.47956634873572 0 0 0 0 -49.83343029304524 -1.1126496417277849 0 -1.1126496417277849 84.510507016698739 0 0 0 0 -5.1918058035553258 102.97876483176879 0 102.97876483176879 -21.458632870001566 0 0 0 0 8.4744702484274796 9.0248798239550609 0 9.0248798239550609 8.4971532396962175 0 0 0 0 34.624210220525129 -0.72812480895026965 0 -0.72812480895026965 -8.4294547931331181 0 0 0 0 495.43101124515761 151.01151990796484 0 151.01151990796484 -60.053658198178709 0 0 0 0 3.0608269816894307 3.4553798381567162 0 3.4553798381567162 3.735102201069104 0 0 0 0 -167.27086042203882 365.08853252438757 0 365.08853252438757 -82.654534668283304 0 0 0 0 -230.20764723415414 23.195219897492734 0 23.195219897492734 201.15162427783548 0 0 0 0 -2.0868011794317738 6.7176161139995614 0 6.7176161139995614 1.2226248706246139 0 0 0 0 -166.19554862923906 254.03589977480897 0 254.03589977480897 627.56133438159577 0 0 0 0 -2.4058869581286615 7.4579798402221691 0 7.4579798402221691 0.52404459873893783 0 0 0 0 -218.62523890407829 147.00439977800534 0 147.00439977800534 417.8875753756347 0 0 0 0 723.10949864560826 297.40164051507054 0 297.40164051507054 -150.41207503107853 0 0 0 0 -1.3225254176237513 2.808260798495716 0 2.808260798495716 0.49207936747300707 0 0 0 0 -162.44646787688544 27.486891835256301 0 27.486891835256301 917.32197175360545 0 0 0 0 33.076679601512296 102.48094435056214 0 102.48094435056214 68.395290859262786 0 0 0 0 -154.38827537592624 121.87228428877323 0 121.87228428877323 98.541554995169463 0 0 0 0 -133.07319445627945 292.38405341219755 0 292.38405341219755 170.29086500558242 0 0 0 0 -14.623847159477009 66.893528617508309 0 66.893528617508309 -17.43281894697634 0 0 0 0 -101.04822904237517 182.36572586363081 0 182.36572586363081 -154.49501586707538 0 0 0 0 16.814450191312062 168.06044074725173 0 168.06044074725173 -226.00794869988022 0 0 0 0 12.453960779141411 11.736211578267252 0 11.736211578267252 10.256385241697551 0 0 0 0 -80.602508911237237 258.01643798774421 0 258.01643798774421 -228.37745456458606 0 0 0 0 -45.719783000575262 40.805782793985145 0 40.805782793985145 -1.1610294985421206 0 0 0 0 -51.112508999969577 165.88350105610971 0 165.88350105610971 -172.20687251336858 0 0 0 0 -22.259400608592841 191.86016522488899 0 191.86016522488899 -154.54357561142115 0 0 0 0 44.155997788693639 209.89508479750702 0 209.89508479750702 -187.51006073605458 0 0 0 0 -4.0052543386846082 168.29809768184441 0 168.29809768184441 -221.04680150787226 0 0 0 0 28.474710478920315 13.927493288255164 0 13.927493288255164 -173.35350394288355 0 0 0 0 -7.565668550603732 24.031619709426195 0 24.031619709426195 11.057563449434383 0 0 0 0 12.796551143852071 14.211462526161164 0 14.211462526161164 11.927578727812506 0 0 0 0 3.7926554959551435 2.4491943692975724 0 2.4491943692975724 -2.579902246606288 0 0 0 0 -3.5226089090792811 23.503101759689343 0 23.503101759689343 9.5847994820524036 0 0 0 0 -5.8359048877900932 25.179041487848281 0 25.179041487848281 10.737487445754596 0 0 0 0 -3.0159356744825345 24.476230912581059 0 24.476230912581059 5.8459421321513219 0 0 0 0 -4.2697674502996961 22.521634406286466 0 22.521634406286466 10.858648831399478 0 0 0 0 -2.4261479493725346 21.974944965975737 0 21.974944965975737 7.2722600298957332 0 0 0 0 5.152920136712055 16.819643691248984 0 16.819643691248984 8.3801715712552323 0 0 0 0 -7.2209395494674027 16.598353003151658 0 16.598353003151658 12.884789546009415 0 0 0 0 21.101372380740941 -34.613364799499323 0 -34.613364799499323 16.018112236083653 0 0 0 0 0.35840738718798093 2.6751955436357093 0 2.6751955436357093 -31.713613053620065 0 0 0 0 40.902245002584095 -24.772133032689908 0 -24.772133032689908 -119.70557238728634 0 0 0 0 -32.9772140510795 55.274406540626842 0 55.274406540626842 -43.143795885374857 0 0 0 0 15.662036701989564 28.76664874331118 0 28.76664874331118 -28.995828199747848 0 0 0 0 17.527470408222143 40.816513370548819 0 40.816513370548819 -3.0640315962523346 0 0 0 0 -7.8344507974306907 28.37136318722537 0 28.37136318722537 30.569535960630674 0 0 0 0 -3.4830903896872769 27.700946156127429 0 27.700946156127429 29.937862046120244 0 0 0 0 -4.2895383042705362 4.2442819712796336 0 4.2442819712796336 148.52785815271363 0 0 0 0 29.126491472910857 90.406660772241594 0 90.406660772241594 79.826416171923483 0 0 0 0 0.88357937798647868 3.2208281031635133 0 3.2208281031635133 1.413425678870631 0 0 0 0 -2.1938630690992511 3.3025017248002291 0 3.3025017248002291 1.8913100005269587 0 0 0 0 -9.3978855885325174 10.421534361317299 0 10.421534361317299 52.481475283665077 0 0 0 0 -9.0349593246685345 11.510707512673378 0 11.510707512673378 13.613805878288076 0 0 0 0 -16.860835794788727 14.756253102263145 0 14.756253102263145 13.962878488173146 0 0 0 0 -5.5554927517914621 26.58697445819007 0 26.58697445819007 14.054788017991996 0 0 0 0 -3.3876797223056201 28.867135353399135 0 28.867135353399135 8.5718498087858279 0 0 0 0 19.218720673154166 17.854334928454591 0 17.854334928454591 -5.1909108526931504 0 0 0 0 7.9098910312409316 14.97642311909263 0 14.97642311909263 -5.9200853515394556 0 0 0 0 4.9334565520184697 22.81993163144989 0 22.81993163144989 -0.14879595637012244 0 0 0 0 7.3362832598140812 21.162906291720901 0 21.162906291720901 0.44223809684808657 0 0 0 0 9.0371398859101646 19.703865414492526 0 19.703865414492526 -2.0757954510445416 0 0 0 0 1.5357155785771948 13.301556514577605 0 13.301556514577605 5.9979579069347615 0 0 0 0 -3.5127353986026719 16.76608126111023 0 16.76608126111023 -2.2647993736500212 0 0 0 0 3.2707142002229137 7.8522358146168187 0 7.8522358146168187 -4.7839700863187815 0 0 0 0 1.5775485732585537 3.4019937903501898 0 3.4019937903501898 -2.0476736571226297 0 0 0 0 -10.418449083081214 16.875567780883102 0 16.875567780883102 -5.214510873459858 0 0 0 0 -338.12335177111675 228.49862210837389 0 228.49862210837389 -79.737317822351542 0 0 0 0 -337.08116159170163 186.05144764472254 0 186.05144764472254 -84.462207366050279 0 0 0 0 -390.72059357906528 227.49893984970521 0 227.49893984970521 -78.964162820857382 0 0 0 0 -383.71955948246887 181.09587175291171 0 181.09587175291171 -82.568708444710865 0 0 0 0 4.2220746526263326 7.5500700879899298 0 7.5500700879899298 2.3061167611658604 0 0 0 0 -446.40062205088907 196.8303764047173 0 196.8303764047173 -78.047968008942917 0 0 0 0 1.9610994509245341 3.118805600788221 0 3.118805600788221 -9.2803017810520139 0 0 0 0 41.882059943758577 -30.03923457040429 0 -30.03923457040429 -45.978063810300227 0 0 0 0 5.0999124449263036 46.034958933801533 0 46.034958933801533 -20.614519887603819 0 0 0 0 -1021.6306682653594 431.18884147838889 0 431.18884147838889 -160.40764096980274 0 0 0 0 -0.47503271828363935 1.0007287991340235 0 1.0007287991340235 -3.2323657280537859 0 0 0 0 -392.40825244165535 338.98424837325092 0 338.98424837325092 -269.58050409045882 0 0 0 0 -565.37314100607909 183.74420965778609 0 183.74420965778609 -68.805261159246584 0 0 0 0 -247.9584680337648 198.22431195339072 0 198.22431195339072 -269.03713070855338 0 0 0 0 -343.18182658511068 150.27998517327478 0 150.27998517327478 -234.48161797978946 0 0 0 0 -462.32321344147567 391.2951892213157 0 391.2951892213157 -512.15231315606707 0 0 0 0 -445.42292862185423 91.301683526719899 0 91.301683526719899 -313.57950105128702 0 0 0 0 3.9742941686516815 2.857451837975546 0 2.857451837975546 -0.21930283729626154 0 0 0 0 152.07578932022443 -32.299016876116184 0 -32.299016876116184 -34.91796359458931 0 0 0 0 -20.581974016615277 114.00456774111194 0 114.00456774111194 -341.32696860116084 0 0 0 0 -414.22446204365406 357.86570305956729 0 357.86570305956729 -252.9214084089017 0 0 0 0 65.430036607591319 -9.0321373897795638 0 -9.0321373897795638 10.534752086005028 0 0 0 0 13.229939308384928 27.801238379378447 0 27.801238379378447 -1.3627872440702049 0 0 0 0 -41.516102309798953 11.851172881231832 0 11.851172881231832 11.116756746385363 0 0 0 0 -45.590171215320879 55.789706399990337 0 55.789706399990337 6.3906582746703862 0 0 0 0 2.9628894527467384 12.992008756272419 0 12.992008756272419 10.606080497271378 0 0 0 0 35.001926467539306 69.718108576447094 0 69.718108576447094 -14.169643478940998 0 0 0 0 23.165981073158036 47.867657434457215 0 47.867657434457215 -52.17488291256268 0 0 0 0 -4.8200909165617674 0.17375794497252173 0 0.17375794497252173 3.8426067568745843 0 0 0 0 -205.5615602011394 6.5641031876880902 0 6.5641031876880902 94.110321471611314 0 0 0 0 -131.5353871786574 87.856121154699395 0 87.856121154699395 153.92832954251662 0 0 0 0 -158.23038186899794 151.30290223265683 0 151.30290223265683 -84.851150059812426 0 0 0 0 1.647010133965523 14.498594768534531 0 14.498594768534531 -40.495074815728913 0 0 0 0 6.9653185004135594 24.145803185234399 0 24.145803185234399 -33.520196989297347 0 0 0 0 161.79556030644744 91.265524071681284 0 91.265524071681284 -43.557300582666358 0 0 0 0 -295.87735704713486 390.80060635410791 0 390.80060635410791 -348.45660465632227 0 0 0 0 1.192140330320143 0.84839821964469309 0 0.84839821964469309 -1.0530482774606398 0 0 0 0 337.3140339101883 -231.4632062381902 0 -231.4632062381902 -334.50006524365108 0 0 0 0 -232.30926033533979 288.34927648804728 0 288.34927648804728 -230.42996781544298 0 0 0 0 -280.85364601204128 284.71465493926848 0 284.71465493926848 -221.00721394460106 0 0 0 0 -197.43656264311267 168.54738528660357 0 168.54738528660357 -74.038797399534815 0 0 0 0 -277.21487557549699 234.03278395790903 0 234.03278395790903 -96.376823410170346 0 0 0 0 -107.80059539692593 214.58481210715672 0 214.58481210715672 -356.08448869607548 0 0 0 0 -119.97626739294446 99.346093487531846 0 99.346093487531846 -153.60051651001413 0 0 0 0 -135.52508753886286 226.29526806348889 0 226.29526806348889 19.922206615412506 0 0 0 0 -205.60395292856265 254.81259580075539 0 254.81259580075539 11.991157984597066 0 0 0 0 -179.54145366410376 239.18126980884244 0 239.18126980884244 3.8644144510471961 0 0 0 0 -204.28974615890183 221.59305910141256 0 221.59305910141256 111.71010472078342 0 0 0 0 -164.97393611871667 138.552089148189 0 138.552089148189 -41.254674708741732 0 0 0 0 -153.72497627184202 223.74439809382829 0 223.74439809382829 123.25367465510567 0 0 0 0 -242.1369838131759 124.59578059265846 0 124.59578059265846 56.656533533571746 0 0 0 0 -208.1518251899106 156.1047931610567 0 156.1047931610567 -51.60952541075676 0 0 0 0 -235.49215811595877 73.29315239957009 0 73.29315239957009 7.6745428818057917 0 0 0 0 -260.70168215517151 50.062487664833327 0 50.062487664833327 -124.78768936520737 0 0 0 0 -293.33848799624684 192.94226072409401 0 192.94226072409401 -46.460445250564987 0 0 0 0 -336.45196591549029 124.06971318707019 0 124.06971318707019 -137.80008947202623 0 0 0 0 -327.07715953372826 227.56691935018353 0 227.56691935018353 -193.91823508555808 0 0 0 0 -366.96467827901597 99.824380723995205 0 99.824380723995205 -106.01670270961313 0 0 0 0 -87.340614373475546 115.02602709051007 0 115.02602709051007 -125.9360032717168 0 0 0 0 -106.61816241237466 1.3603876868121461 0 1.3603876868121461 -68.073269319707833 0 0 0 0 -3.3134324596976512 42.585910428079615 0 42.585910428079615 -68.771831376618138 0 0 0 0 -196.69376918638591 45.361313353359947 0 45.361313353359947 -8.1640857418215091 0 0 0 0 -177.32019769804174 118.62349783364289 0 118.62349783364289 -73.062560225793277 0 0 0 0 -96.23212537107247 77.620452410697681 0 77.620452410697681 -11.654097298187025 0 0 0 0 -42.475135709904862 -11.256652967799255 0 -11.256652967799255 25.957995710408568 0 0 0 0 -22.584088599052848 26.440554934692564 0 26.440554934692564 40.985088760019295 0 0 0 0 4.2281337234402514 7.2193957040629542 0 7.2193957040629542 9.2314720609879188 0 0 0 0 -6.096012824378505 -4.4050124056214237 0 -4.4050124056214237 1.1975784998263974 0 0 0 0 -124.61755919456482 95.558172824250732 0 95.558172824250732 -5.5680520729263208 0 0 0 0 5.6648386624292471 410.95264619737713 0 410.95264619737713 1109.7966798440391 0 0 0 0 -36.412937362983939 -1.9050281073272401 0 -1.9050281073272401 124.03995811006769 0 0 0 0 -1.3454826494483996 -2.436017517746631 0 -2.436017517746631 0.26681209520137533 0 0 0 0 -16.169285952317296 38.588040430852516 0 38.588040430852516 64.120031541071739 0 0 0 0 6.9375929052839638 -20.231999279171418 0 -20.231999279171418 22.673691054318397 0 0 0 0 -8.5411870708339848 48.511938800516646 0 48.511938800516646 -13.136194681817415 0 0 0 0 -15.547060713972314 32.41314697209782 0 32.41314697209782 -31.386048350785131 0 0 0 0 3.1023066415806539 4.3257485479574669 0 4.3257485479574669 6.4834325522963674 0 0 0 0 0.069633837752917316 32.384200983584719 0 32.384200983584719 16.997614741379039 0 0 0 0 -18.315655432441417 15.154081034273304 0 15.154081034273304 11.086599664708956 0 0 0 0 -3.0134219060491887 5.5218351921720341 0 5.5218351921720341 -22.868762701458763 0 0 0 0 -23.566282012834563 40.917967193452569 0 40.917967193452569 -39.337194178979871 0 0 0 0 -0.05075045651756227 20.448219893841269 0 20.448219893841269 -23.332218755484973 0 0 0 0 1.033275073619123 2.4221421104541889 0 2.4221421104541889 -0.9628939959275904 0 0 0 0 1.0268592372361098 -0.37931116809910748 0 -0.37931116809910748 -0.1888551459246095 0 0 0 0 -0.32743094429315533 -50.105537960140282 0 -50.105537960140282 26.066241938209714 0 0 0 0 -59.946923373609025 9.4927273583280112 0 9.4927273583280112 -27.801329090694708 0 0 0 0 -2.1006820302354754 4.4367365120829163 0 4.4367365120829163 11.099125180200645 0 0 0 0 42.78536785723918 32.274380236579645 0 32.274380236579645 -57.176410207615163 0 0 0 0 0.63331712744099278 2.4717545319575578 0 2.4717545319575578 4.9784661760763633 0 0 0 0 -0.0077053097125068769 1.9939157085190224 0 1.9939157085190224 0.62788446149352239 0 0 0 0 -73.210046481748577 75.68930288669435 0 75.68930288669435 4.0702328627303359 0 0 0 0 0.40463818928616746 1.512963345810391 0 1.512963345810391 1.2511084796066712 0 0 0 0 0.0011880296806339175 2.0221219263394232 0 2.0221219263394232 0.67744666899761796 0 0 0 0 -114.19581508243937 117.09962481975754 0 117.09962481975754 -37.753430349984228 0 0 0 0 -195.73805942377658 115.77647209986162 0 115.77647209986162 -83.3255496920101 0 0 0 0 -191.35372450569412 102.62775578286028 0 102.62775578286028 -195.58866813065561 0 0 0 0 -327.80266792378097 225.88826895951229 0 225.88826895951229 -118.47141422103959 0 0 0 0 -201.70187956261361 243.42045174516579 0 243.42045174516579 -199.57039752269259 0 0 0 0 -94.54236906751612 135.20393156645241 0 135.20393156645241 -142.96140287298613 0 0 0 0 -212.01349326008494 179.60850748540997 0 179.60850748540997 -58.363932664956337 0 0 0 0 -240.51397247755085 214.28630414823101 0 214.28630414823101 -89.750984523863735 0 0 0 0 -194.36587901751773 250.86772315874987 0 250.86772315874987 -96.831836182880124 0 0 0 0 -295.3985808931393 272.87632178890181 0 272.87632178890181 -123.65032837645936 0 0 0 0 -276.14927588043065 242.91924533109614 0 242.91924533109614 -112.62022741536202 0 0 0 0 -279.95171205107908 224.180611676843 0 224.180611676843 -142.79265513014843 0 0 0 0 -194.85262225096812 229.81825155232309 0 229.81825155232309 -127.26298739780759 0 0 0 0 -225.7569058415902 269.05668619829612 0 269.05668619829612 -108.25152753696875 0 0 0 0 -129.92974708777183 291.68732975250759 0 291.68732975250759 -74.493737453036374 0 0 0 0 -70.682634793076431 234.28474608489068 0 234.28474608489068 -156.93011014766529 0 0 0 0 -0.29749307022338761 307.00530548473648 0 307.00530548473648 -83.18195652875329 0 0 0 0 -142.97509370328044 248.75509613299437 0 248.75509613299437 94.000120165641874 0 0 0 0 -153.46252206947975 202.48393169904216 0 202.48393169904216 -67.890483201364987 0 0 0 0 15.751459734824167 12.93854254934061 0 12.93854254934061 2.051430693465786 0 0 0 0 11.969873886151618 -28.426855088573802 0 -28.426855088573802 79.315362008723241 0 0 0 0 22.430128819672973 37.501838582037635 0 37.501838582037635 -20.243480377900596 0 0 0 0 -104.14997931459948 -103.0255921260059 0 -103.0255921260059 -44.820351489045152 0 0 0 0 11.461363640750193 15.771051346139274 0 15.771051346139274 -24.46188389104525 0 0 0 0 -39.315969499433777 142.15371361129473 0 142.15371361129473 198.50791209732051 0 0 0 0 58.867021179014046 44.710022859824221 0 44.710022859824221 25.306539685974712 0 0 0 0 15.801637943760397 -14.510937485983959 0 -14.510937485983959 -39.315090199575934 0 0 0 0 -204.25568333387491 -160.84919116219862 0 -160.84919116219862 233.76750544484935 0 0 0 0 26.948352734895252 24.740038846679795 0 24.740038846679795 -258.94388917986362 0 0 0 0 -55.758852033693984 151.2097958232398 0 151.2097958232398 -169.7564048442182 0 0 0 0 20.052671336368803 97.035640243871057 0 97.035640243871057 -145.74705705167798 0 0 0 0 -24.410931206351961 81.156472714841584 0 81.156472714841584 -123.80035963852606 0 0 0 0 36.628126377270746 64.418263278551649 0 64.418263278551649 -139.22836670638571 0 0 0 0 -1.269478404916299 85.790634156948727 0 85.790634156948727 27.958190893657047 0 0 0 0 45.514388875435543 118.72381352806542 0 118.72381352806542 -126.01815089156298 0 0 0 0 48.095669870934216 -14.679928905888119 0 -14.679928905888119 -7.9150967826659269 0 0 0 0 -237.62380271974689 147.18009654012531 0 147.18009654012531 423.12764364165378 0 0 0 0 4.8128864713102644 3.2353584659011041 0 3.2353584659011041 3.5138147291149515 0 0 0 0 -54.896241770798952 47.01162108386734 0 47.01162108386734 -6.0263239934747617 0 0 0 0 -41.510717552266215 140.04752848670705 0 140.04752848670705 -119.97503733558733 0 0 0 0 20.601492167988908 42.460481871815318 0 42.460481871815318 -127.9220967361598 0 0 0 0 20.874736144201961 26.052951608817239 0 26.052951608817239 -76.691415225994206 0 0 0 0 -63.665932176454589 28.764479330018958 0 28.764479330018958 -14.791298261292468 0 0 0 0 -359.21167452934787 201.73260597494709 0 201.73260597494709 30.007471329749023 0 0 0 0 -41.521077821627841 214.73478090374556 0 214.73478090374556 -283.94079255491306 0 0 0 0 -170.23702772441902 169.62395124374234 0 169.62395124374234 -104.93407383990154 0 0 0 0 -72.227674337700591 313.86265455109242 0 313.86265455109242 -221.73603210111378 0 0 0 0 1.374210597339939 1.786045193235239 0 1.786045193235239 1.9997082707851099 0 0 0 0 -138.95199429577769 393.97671398134821 0 393.97671398134821 -308.59009490818516 0 0 0 0 19.690236313159403 -308.58988338598647 0 -308.58988338598647 -574.98989438764943 0 0 0 0 -3.8898019311073995 3.5421884301482152 0 3.5421884301482152 -4.0050926015471049 0 0 0 0 8.4836336132357246 47.85512004352222 0 47.85512004352222 -993.2042258670981 0 0 0 0 -501.52916782709872 441.8975892166718 0 441.8975892166718 42.814216750954074 0 0 0 0 55.026466864403119 128.24059973388194 0 128.24059973388194 -138.02010261635314 0 0 0 0 -43.390321247577958 14.713703157243344 0 14.713703157243344 -134.17110703319122 0 0 0 0 20.28729609943548 -17.62592387032646 0 -17.62592387032646 -254.47751616853157 0 0 0 0 -8.740928170875705 13.088473382659235 0 13.088473382659235 -8.7036247303019199 0 0 0 0 -40.050068050681148 99.783715900522111 0 99.783715900522111 -69.307932802065807 0 0 0 0 -2.8958299382910724 2.960234577170656 0 2.960234577170656 -5.0943704089174942 0 0 0 0 65.275624523387705 131.10467568137216 0 131.10467568137216 -111.75900397291753 0 0 0 0 225.47086964080154 275.59133516583097 0 275.59133516583097 -10.706362523123062 0 0 0 0 152.02117768978496 30.097698596025566 0 30.097698596025566 -44.511303347997455 0 0 0 0 18.262348174543149 139.46750953759761 0 139.46750953759761 -98.410500047732967 0 0 0 0 20.719116582684364 158.49228891495181 0 158.49228891495181 -63.680874786138702 0 0 0 0 -85.828268084353112 105.1241821502681 0 105.1241821502681 -34.361182940723666 0 0 0 0 -72.80226732054507 64.016815487250824 0 64.016815487250824 -51.692850719392027 0 0 0 0 -6.0169066403377656 145.89750582429406 0 145.89750582429406 34.448777919265012 0 0 0 0 150.96258262879564 57.503357941272725 0 57.503357941272725 -63.003545009369077 0 0 0 0 -1.7187346901765466 1.2916242760365506 0 1.2916242760365506 5.8672420130453418 0 0 0 0 -3.2209218628595409 -1.648339409983123 0 -1.648339409983123 263.39547807940198 0 0 0 0 -5.5747181969654775 -35.707169871635529 0 -35.707169871635529 -42.3769164181615 0 0 0 0 168.15807826536548 180.97662436972632 0 180.97662436972632 -126.73652188740402 0 0 0 0 -7.8645922960986354 194.83815656817478 0 194.83815656817478 210.19034630550323 0 0 0 0 -49.395093719823308 93.490533016833069 0 93.490533016833069 22.70644680575424 0 0 0 0 -8.9889734208575529 13.508365013254133 0 13.508365013254133 24.088315308881814 0 0 0 0 -83.772170057183757 43.180675550028354 0 43.180675550028354 10.3748198866233 0 0 0 0 -29.897134488952361 11.988301069967747 0 11.988301069967747 11.077912795946304 0 0 0 0 2.2213151117431593 4.7905442191687619 0 4.7905442191687619 11.207010972394286 0 0 0 0 0.95745817560278113 10.34228555958561 0 10.34228555958561 32.712257842962252 0 0 0 0 -123.75872081223679 74.715791899993519 0 74.715791899993519 34.439696828370529 0 0 0 0 -101.94791709630476 45.265432691440083 0 45.265432691440083 -151.1179213964806 0 0 0 0 12.569094314723316 117.64576249400443 0 117.64576249400443 -134.05600708883867 0 0 0 0 -140.51946216356191 180.08500014926904 0 180.08500014926904 -52.635268242072925 0 0 0 0 3.4906275686339114 -0.099730766367756019 0 -0.099730766367756019 -3.6719814932490564 0 0 0 0 -173.30457980360552 20.319674749020123 0 20.319674749020123 -4.4026439999797731 0 0 0 0 72.796749683377357 50.166910029735845 0 50.166910029735845 -86.063620009732404 0 0 0 0 -117.52240954985973 107.4842862733276 0 107.4842862733276 -21.68698323692297 0 0 0 0 -201.36172557509485 122.58876171178463 0 122.58876171178463 -22.928163079193837 0 0 0 0 -82.08078907628078 -22.311980780177691 0 -22.311980780177691 2.6512454013852675 0 0 0 0 -113.85332890513018 -2.9800597895446117 0 -2.9800597895446117 1.3370427604452289 0 0 0 0 -68.307832792204863 73.514834958605206 0 73.514834958605206 -13.240188597734232 0 0 0 0 -166.92698429916527 72.378564789205484 0 72.378564789205484 2.4997675318663823 0 0 0 0 -138.50748091447167 113.80630307182946 0 113.80630307182946 -19.890559593284706 0 0 0 0 -173.61226032478044 169.47282600152221 0 169.47282600152221 -59.715705538532347 0 0 0 0 -70.700601774333336 107.29966434519793 0 107.29966434519793 -75.269918091980799 0 0 0 0 -101.36998131930977 179.13444462021266 0 179.13444462021266 -155.65008269986356 0 0 0 0 -109.34762438252528 144.90984044839593 0 144.90984044839593 -101.99470913079858 0 0 0 0 -34.672063643098227 76.308318304226304 0 76.308318304226304 -111.77263699535979 0 0 0 0 -59.338944091993653 70.577939589420112 0 70.577939589420112 -102.83483446747414 0 0 0 0 -23.93499437432547 52.315618624299532 0 52.315618624299532 -72.148129503606469 0 0 0 0 -35.691664842855971 28.460971898889511 0 28.460971898889511 -34.628700908750034 0 0 0 0 -55.279184514307417 84.621532177690824 0 84.621532177690824 -62.639927558131603 0 0 0 0 -92.399583655806055 93.837695831339261 0 93.837695831339261 -51.467126019771968 0 0 0 0 -46.922733148032421 39.141154617058419 0 39.141154617058419 -1.0534897968282166 0 0 0 0 -74.225448744495225 60.916174080126439 0 60.916174080126439 -9.9342589649204456 0 0 0 0 -52.930599318431632 34.593957963268622 0 34.593957963268622 -9.151242244110108 0 0 0 0 -10.880545411822823 19.056212259678432 0 19.056212259678432 -17.529384183610091 0 0 0 0 21.603358289029529 -12.526208235153717 0 -12.526208235153717 1.8468397073775122 0 0 0 0 -14.870749842899386 15.268388840402622 0 15.268388840402622 -0.56934758679926745 0 0 0 0 48.295426044075612 -2.6382424567350427 0 -2.6382424567350427 -10.58480141032851 0 0 0 0 -52.46381881846537 20.325876936980421 0 20.325876936980421 19.56068837390012 0 0 0 0 218.88425788887253 5.028746687875838 0 5.028746687875838 -214.84022999774419 0 0 0 0 311.43254898992018 -87.876927987710573 0 -87.876927987710573 -122.90864250752827 0 0 0 0 -151.40909019744868 7.3677438542188156 0 7.3677438542188156 98.624628768973707 0 0 0 0 21.116362184358877 -157.92782526964061 0 -157.92782526964061 256.04242390483387 0 0 0 0 1.0136440645453817 15.259655334408919 0 15.259655334408919 33.492181767481405 0 0 0 0 -49.610192641675894 213.56873544066752 0 213.56873544066752 28.993634238953462 0 0 0 0 162.78447011133903 230.23852089306587 0 230.23852089306587 36.577683333852349 0 0 0 0 -79.879074170781678 45.421615085209169 0 45.421615085209169 -69.946363143728377 0 0 0 0 -145.47217165148413 226.4865882610045 0 226.4865882610045 -132.96333512948877 0 0 0 0 -52.10017712568515 171.96978614296859 0 171.96978614296859 -271.17017054794269 0 0 0 0 -346.57749458571197 216.86998020065948 0 216.86998020065948 -75.763020122278249 0 0 0 0 -62.696526846659253 23.912758717109682 0 23.912758717109682 -303.25580110933515 0 0 0 0 -45.564143300754949 59.692764538565825 0 59.692764538565825 -264.06587753989879 0 0 0 0 -65.04830404335371 69.002587588229289 0 69.002587588229289 -115.59631494542191 0 0 0 0 -45.384623653671952 107.86356687524085 0 107.86356687524085 -200.33142880479136 0 0 0 0 23.730695772901527 -72.926345017785934 0 -72.926345017785934 182.01304235595126 0 0 0 0 71.681070895043376 34.889243268757127 0 34.889243268757127 25.975869147572666 0 0 0 0 4.8657170884952379 2.1854745941668128 0 2.1854745941668128 -5.6705934704383054 0 0 0 0 315.69618830035324 -445.33115499983978 0 -445.33115499983978 66.788415812743551 0 0 0 0 -193.73563723140978 -14.394595160141762 0 -14.394595160141762 -198.43538974240073 0 0 0 0 -163.82740635387017 256.11561840427385 0 256.11561840427385 -316.76809386338664 0 0 0 0 51.939344826765591 61.567920243344815 0 61.567920243344815 -149.42897829466528 0 0 0 0 203.80503018209129 -72.08485369553091 0 -72.08485369553091 -371.40115564197913 0 0 0 0 110.61023897885752 240.72776959331532 0 240.72776959331532 15.272079788432166 0 0 0 0 93.715555336355465 81.674360931647243 0 81.674360931647243 -167.72139966219856 0 0 0 0 113.5922392202483 49.847835445491 0 49.847835445491 -170.92578329076423 0 0 0 0 52.662801281378051 -75.063143876527192 0 -75.063143876527192 -198.12701590959801 0 0 0 0 10.545756042331149 15.344718132614716 0 15.344718132614716 -25.151772263942103 0 0 0 0 141.83020494994707 64.365824251228332 0 64.365824251228332 -163.62690252729226 0 0 0 0 133.04440611925384 50.403865104803117 0 50.403865104803117 -175.40537956789922 0 0 0 0 129.49660667852731 138.08678472930114 0 138.08678472930114 -87.13160653898467 0 0 0 0 195.01367676806694 149.95351047352597 0 149.95351047352597 -220.04643549871253 0 0 0 0 102.68249120409746 59.845150494589689 0 59.845150494589689 -109.61294163061757 0 0 0 0 107.48062796909653 50.423889152316406 0 50.423889152316406 -159.14375736936381 0 0 0 0 216.23661061462917 292.48525649981821 0 292.48525649981821 -215.88102420050564 0 0 0 0 254.23969830463102 274.52057623354267 0 274.52057623354267 -412.80191683803423 0 0 0 0 184.83098999825597 109.29672218247288 0 109.29672218247288 -375.33313886450924 0 0 0 0 143.15582848446502 47.249584434117423 0 47.249584434117423 -280.74389989824704 0 0 0 0 -156.79722910711189 103.65181373132566 0 103.65181373132566 -59.858642672379574 0 0 0 0 98.687008641283683 21.772105103811555 0 21.772105103811555 -143.44789429882849 0 0 0 0 96.093774465722163 25.690861225817343 0 25.690861225817343 -52.871038340998894 0 0 0 0 -1.5982619828672604 0.39826511930787234 0 0.39826511930787234 -4.7917155333481354 0 0 0 0 59.308421329722478 12.949858121335183 0 12.949858121335183 18.195463707538693 0 0 0 0 42.030959747331508 68.964976481768645 0 68.964976481768645 -37.550852256841608 0 0 0 0 91.999359217934398 53.065988741975161 0 53.065988741975161 -170.03815209009554 0 0 0 0 17.318236724240705 124.35141361457318 0 124.35141361457318 -153.30153868896571 0 0 0 0 -87.91259713890031 56.936096938295123 0 56.936096938295123 4.9694161519291811 0 0 0 0 -37.073982220832477 78.967363129713704 0 78.967363129713704 148.51017424276961 0 0 0 0 -141.12065050737874 55.848432733480877 0 55.848432733480877 -124.79248214941981 0 0 0 0 -35.011043506994611 4.8117985230655904 0 4.8117985230655904 -143.9426711302699 0 0 0 0 -36.259384204531671 79.563152493632515 0 79.563152493632515 -125.19641371415628 0 0 0 0 0.42607558096466391 -35.779758855825932 0 -35.779758855825932 65.613172776578722 0 0 0 0 7.1084844938013703 101.46387433680638 0 101.46387433680638 14.856060437475435 0 0 0 0 -3.1872061073991063 21.884973605284358 0 21.884973605284358 27.038650207808587 0 0 0 0 -2.9349084991554264 26.961585440587442 0 26.961585440587442 30.051254155506285 0 0 0 0 -2.6714839781138764 21.116986743945979 0 21.116986743945979 -4.363309416183883 0 0 0 0 0.056736262504273327 -12.203332042168768 0 -12.203332042168768 2.0409571728869196 0 0 0 0 18.483420175030915 23.800799203363567 0 23.800799203363567 -8.1730518213807954 0 0 0 0 -14.820776147608644 13.04692576505213 0 13.04692576505213 14.005572436495104 0 0 0 0 3.3527947748443836 2.5292650430885502 0 2.5292650430885502 0.62841322076422657 0 0 0 0 -7.1778154832936707 1.1466431791759533 0 1.1466431791759533 77.403043511641954 0 0 0 0 8.3747105092988932 1.2052799552238866 0 1.2052799552238866 28.868372880312336 0 0 0 0 4.7421562330091547 -5.3241341150378503 0 -5.3241341150378503 10.072450675703294 0 0 0 0 9.6095188862736904 4.6370066138606489 0 4.6370066138606489 29.600663036901096 0 0 0 0 -8.5060926684054721 0.53616571389284218 0 0.53616571389284218 -12.587996312676523 0 0 0 0 -16.237251714687773 16.258249299199406 0 16.258249299199406 32.442233065226901 0 0 0 0 6.0036256165712985 -9.6896669203395049 0 -9.6896669203395049 38.284122883962596 0 0 0 0 7.3584936569714046 41.559787186048197 0 41.559787186048197 67.15542406624968 0 0 0 0 -25.909629306852366 40.016009901267353 0 40.016009901267353 -23.315507861301739 0 0 0 0 -23.887110399435187 -15.495808748950367 0 -15.495808748950367 19.400803453628214 0 0 0 0 -24.996770393445331 55.180797007392357 0 55.180797007392357 -2.9554476374578371 0 0 0 0 -80.498320011643955 31.670991101175787 0 31.670991101175787 -11.311328564166615 0 0 0 0 -59.155932360576116 35.698463088566768 0 35.698463088566768 175.86896285212561 0 0 0 0 -6.6381040724668097 19.203452868673455 0 19.203452868673455 -5.5321896150902496 0 0 0 0 -10.813029821360033 24.585580886429852 0 24.585580886429852 33.813569206031616 0 0 0 0 -7.6096048663621332 23.550470775614485 0 23.550470775614485 93.546982575698848 0 0 0 0 -16.96540517450012 33.970778813956713 0 33.970778813956713 18.104285786777837 0 0 0 0 -8.1672027822803948 22.165862462166768 0 22.165862462166768 2.9689690841887888 0 0 0 0 -1.5534721805152003 33.194297247526265 0 33.194297247526265 6.1201413029957621 0 0 0 0 -11.496498581866035 25.960471477057581 0 25.960471477057581 18.876244666285857 0 0 0 0 -3.905936352816525 36.063695215340431 0 36.063695215340431 8.9396967195207253 0 0 0 0 8.5877225145613671 18.002127837989459 0 18.002127837989459 17.593220766937794 0 0 0 0 0.79624627295907757 18.458947779805371 0 18.458947779805371 23.286349937836867 0 0 0 0 -18.57002820319083 13.78332093115305 0 13.78332093115305 -0.098293169059132879 0 0 0 0 -6.3207408168273105 24.265485571836507 0 24.265485571836507 12.871196468457129 0 0 0 0 -16.429435412892417 37.722201466113347 0 37.722201466113347 7.3296129572122481 0 0 0 0 -12.315499949663263 24.909959800380079 0 24.909959800380079 16.880270234014461 0 0 0 0 -50.969036702324956 25.762551557141705 0 25.762551557141705 15.555598901892154 0 0 0 0 -15.082751016434486 52.740813397840611 0 52.740813397840611 4.1335919832563377 0 0 0 0 10.158477926369267 19.915664105843703 0 19.915664105843703 27.123554379223336 0 0 0 0 -0.90780172109771229 27.032284171344145 0 27.032284171344145 18.291122747355985 0 0 0 0 -10.998297334746894 36.969798307784004 0 36.969798307784004 19.238820099923032 0 0 0 0 -10.61902022485145 25.733647694062562 0 25.733647694062562 12.726993549082231 0 0 0 0 -0.45002987469251821 37.584572929086789 0 37.584572929086789 18.794581807407667 0 0 0 0 -2.1728638891779699 0.29289888719139157 0 0.29289888719139157 5.2807929345435127 0 0 0 0 -13.818562896057017 8.4322718781251425 0 8.4322718781251425 0.11573091682220138 0 0 0 0 89.555800975802413 62.807923583551883 0 62.807923583551883 42.286302691489254 0 0 0 0 -30.660833299847582 8.3994408958660642 0 8.3994408958660642 15.696179094529725 0 0 0 0 -2.5543174868707865 26.418024564668485 0 26.418024564668485 17.056135365624868 0 0 0 0 -22.493248560029315 38.991326726368243 0 38.991326726368243 17.793839310010299 0 0 0 0 -15.476483165271475 8.3319624118420279 0 8.3319624118420279 0.39406943914946169 0 0 0 0 -46.228292378648803 -2.9397272011865994 0 -2.9397272011865994 2.0504049953415233 0 0 0 0 336.72770070517799 68.624850142737614 0 68.624850142737614 33.801977844486828 0 0 0 0 119.66992090179338 61.030977772922597 0 61.030977772922597 66.182790214247689 0 0 0 0 79.621464884909074 137.42353167762758 0 137.42353167762758 78.445230746572634 0 0 0 0 -6.027122601881274 92.525532618678426 0 92.525532618678426 88.351144923715765 0 0 0 0 41.143460271486219 108.55965249623682 0 108.55965249623682 72.445820563087182 0 0 0 0 40.854772216463971 110.09331614595919 0 110.09331614595919 64.385958220389512 0 0 0 0 32.574788474506931 113.93430768525013 0 113.93430768525013 75.058779645922186 0 0 0 0 35.069740162427479 108.08248916484354 0 108.08248916484354 84.925924343833685 0 0 0 0 65.210610855199775 81.349292516678361 0 81.349292516678361 61.289796101592401 0 0 0 0 39.459490619839926 108.35800688069867 0 108.35800688069867 72.55851207758792 0 0 0 0 58.956654811187036 72.397597473172937 0 72.397597473172937 48.826667791752698 0 0 0 0 23.972213584675046 80.007059244498691 0 80.007059244498691 50.517431048996514 0 0 0 0 31.270569789197907 53.568701226180565 0 53.568701226180565 18.326370025376491 0 0 0 0 -32.651219814910291 26.523389949230477 0 26.523389949230477 55.23402587178407 0 0 0 0 25.939235793059197 106.2715829738795 0 106.2715829738795 152.25688654065743 0 0 0 0 21.403896541869472 70.406269124563551 0 70.406269124563551 77.313042042833786 0 0 0 0 -9.9588733796848743 4.3582583350528736 0 4.3582583350528736 -1.1078209141538133 0 0 0 0 67.463096223633329 47.395392261179495 0 47.395392261179495 -256.92019361218718 0 0 0 0 0.72088885066705188 57.164471359040931 0 57.164471359040931 -140.10364203348763 0 0 0 0 -16.454583532749865 8.3407732212935919 0 8.3407732212935919 -0.83413524204754275 0 0 0 0 1.2313848887388303 61.147053419617237 0 61.147053419617237 -112.06511906117521 0 0 0 0 -92.040902741879108 51.215575785949113 0 51.215575785949113 -25.91615587617639 0 0 0 0 -34.338710158353933 154.21597123642005 0 154.21597123642005 341.36461627492713 0 0 0 0 -2.994182088827074 2.4274475066017267 0 2.4274475066017267 -0.57371136806369449 0 0 0 0 53.178469290700377 0.17366265927421409 0 0.17366265927421409 -307.7159190027869 0 0 0 0 44.51048245266702 82.45160833997079 0 82.45160833997079 103.03502289503649 0 0 0 0 -39.907704469202145 217.54805996039022 0 217.54805996039022 22.702010895600324 0 0 0 0 -14.106317455596582 136.38905950309436 0 136.38905950309436 110.80369209279343 0 0 0 0 35.996900715133961 88.522732169580649 0 88.522732169580649 41.02899613513182 0 0 0 0 17.524900278571295 83.951206182623537 0 83.951206182623537 79.391802368518256 0 0 0 0 30.751470235234592 89.330108648796795 0 89.330108648796795 60.084038236953347 0 0 0 0 22.222247336187138 104.09509500655349 0 104.09509500655349 94.705889874998093 0 0 0 0 19.621902234977824 69.542310178762591 0 69.542310178762591 20.718468110686445 0 0 0 0 2.2678553649257083 64.027928946450743 0 64.027928946450743 33.026906510332992 0 0 0 0 3.0857019759350806 82.031598347542968 0 82.031598347542968 71.602040516143461 0 0 0 0 9.5428960683093464 65.564509418818943 0 65.564509418818943 45.492473382308845 0 0 0 0 21.781482220769249 61.062421944194739 0 61.062421944194739 -12.782788364317639 0 0 0 0 17.130976785721941 70.179714432437322 0 70.179714432437322 18.429708932389985 0 0 0 0 18.030399818169826 86.718669406412118 0 86.718669406412118 9.0575551995079877 0 0 0 0 33.383191063054255 51.769136865497671 0 51.769136865497671 -37.974955095126461 0 0 0 0 8.0531453425974178 30.736752073436492 0 30.736752073436492 -54.161017164030454 0 0 0 0 46.469500797978981 31.656976604423107 0 31.656976604423107 -58.388723015059441 0 0 0 0 24.876367401495372 16.423288326699094 0 16.423288326699094 -52.36143645842094 0 0 0 0 34.031166354347079 39.384315056671767 0 39.384315056671767 -41.321118337616099 0 0 0 0 22.106689462649229 55.202514082972812 0 55.202514082972812 -21.058378731629091 0 0 0 0 64.3349563980737 75.739580602094065 0 75.739580602094065 -22.029057315161424 0 0 0 0 50.685853756702272 69.945713871833505 0 69.945713871833505 -21.237247348744859 0 0 0 0 82.335249009098334 77.558048765656167 0 77.558048765656167 -24.766025275210268 0 0 0 0 40.653903066078783 34.841567129781652 0 34.841567129781652 -34.42896527818084 0 0 0 0 112.50441294803022 35.610958715044035 0 35.610958715044035 -35.420372820999091 0 0 0 0 43.762113912936911 34.347691681979995 0 34.347691681979995 -40.567718961990977 0 0 0 0 62.37717768071343 36.493071056249619 0 36.493071056249619 -45.156285927540011 0 0 0 0 121.20260084455367 4.9428821728897674 0 4.9428821728897674 -11.489767497237864 0 0 0 0 38.682796514109214 8.004950208009177 0 8.004950208009177 -11.36934797291633 0 0 0 0 94.922272549869376 41.42516258055457 0 41.42516258055457 -13.1267004745132 0 0 0 0 177.97966652261675 70.822051540995744 0 70.822051540995744 -25.171984629356075 0 0 0 0 71.815759624905695 73.518180359402322 0 73.518180359402322 -24.218470590922152 0 0 0 0 73.075420655830385 148.37255828351044 0 148.37255828351044 -21.741062031025649 0 0 0 0 -42.950395659376227 161.37755271681817 0 161.37755271681817 23.248556788425958 0 0 0 0 55.933601693632227 126.39235867009393 0 126.39235867009393 34.967600167741693 0 0 0 0 42.151198330393527 102.01391613511169 0 102.01391613511169 12.652628164420094 0 0 0 0 44.29568065937201 76.215823642609394 0 76.215823642609394 21.092791099905298 0 0 0 0 -19.551995172361785 97.908817086304225 0 97.908817086304225 149.39939381176555 0 0 0 0 -10.805369431327563 43.610885639520347 0 43.610885639520347 40.573200712950438 0 0 0 0 86.173503284459002 -132.05421253739314 0 -132.05421253739314 355.67146639092971 0 0 0 0 424.12401975117245 -111.18531798214462 0 -111.18531798214462 -328.34455126413468 0 0 0 0 49.667019741966214 256.9311065528891 0 256.9311065528891 -204.9179585792599 0 0 0 0 105.64432993132232 81.675088839421164 0 81.675088839421164 1.807963262015619 0 0 0 0 46.644432607379713 117.32897390089738 0 117.32897390089738 30.735217599427415 0 0 0 0 125.73766523507584 143.9954032029998 0 143.9954032029998 -42.555553520054673 0 0 0 0 -13.736861254175892 167.77231062855026 0 167.77231062855026 -11.036786909920011 0 0 0 0 36.378285998503998 98.916069388455981 0 98.916069388455981 -2.2611702956455701 0 0 0 0 42.554382444541261 79.069638310709706 0 79.069638310709706 -10.788944546162384 0 0 0 0 70.794119082462203 102.17058611832385 0 102.17058611832385 7.4156290165483369 0 0 0 0 165.85028979878552 -6.7984720507411112 0 -6.7984720507411112 -335.98801558313062 0 0 0 0 -30.432781876192166 166.30430825022495 0 166.30430825022495 -140.14306612170731 0 0 0 0 3.9192291509783814 2.2260556963022111 0 2.2260556963022111 -2.1608651047422285 0 0 0 0 3.9491505378628062 35.1846288391489 0 35.1846288391489 4.9622884883428924 0 0 0 0 11.248556466282082 34.927984143516326 0 34.927984143516326 -18.02191054803928 0 0 0 0 7.689002248171164 29.254771152844114 0 29.254771152844114 -70.350086549853586 0 0 0 0 5.2393511947302613 13.309053442263576 0 13.309053442263576 -79.467745646733874 0 0 0 0 19.263727543184686 -0.26771919947147182 0 -0.26771919947147182 -33.257277508395177 0 0 0 0 -74.268091683727107 107.06164539599376 0 107.06164539599376 -105.63108112670943 0 0 0 0 19.164117908745538 2.0070374613842432 0 2.0070374613842432 -58.242493525430291 0 0 0 0 -5.8595520218004822 18.525998444443758 0 18.525998444443758 -48.190875165525995 0 0 0 0 16.20234902934618 3.6809101985335353 0 3.6809101985335353 -21.757439390884848 0 0 0 0 6.960820695113874 -1.4531160365248397 0 -1.4531160365248397 -5.1086123407782864 0 0 0 0 -3.6792812762978429 16.947755026991217 0 16.947755026991217 -57.073324862734808 0 0 0 0 -0.88499456900899531 15.432921275745684 0 15.432921275745684 -57.599608815231477 0 0 0 0 5.0667788294449565 20.848660448879855 0 20.848660448879855 -63.366289005480212 0 0 0 0 20.069955817624759 7.2711599850379116 0 7.2711599850379116 -84.339463977498781 0 0 0 0 25.323310001302161 19.894327712451741 0 19.894327712451741 -63.428913809199003 0 0 0 0 14.272160101521877 28.519496079377859 0 28.519496079377859 -56.004709917649166 0 0 0 0 3.6412901981530013 9.5549809871813522 0 9.5549809871813522 -56.911611907054976 0 0 0 0 10.616609909176987 11.443669520304582 0 11.443669520304582 -16.670260757306096 0 0 0 0 23.101207216237526 11.715456362024725 0 11.715456362024725 -24.056843916105208 0 0 0 0 12.504322160959418 23.257748795651423 0 23.257748795651423 -16.062192726646117 0 0 0 0 3.3757396371921118 2.136147569690138 0 2.136147569690138 1.3459761368855006 0 0 0 0 -13.389371633282281 10.344977539234606 0 10.344977539234606 11.876829609135712 0 0 0 0 -12.0879945267734 -1.587210462663279 0 -1.587210462663279 -22.064391277815048 0 0 0 0 1.4914814996850509 29.374950105120739 0 29.374950105120739 -6.7097219472761935 0 0 0 0 -6.7823172940956624 14.567726652163891 0 14.567726652163891 -18.351666602631241 0 0 0 0 2.7543217470809935 5.8397025026718623 0 5.8397025026718623 -1.1318841477368764 0 0 0 0 1.2943116568058031 20.378626381744652 0 20.378626381744652 -17.392153391027023 0 0 0 0 -18.586401799020678 17.981720813261745 0 17.981720813261745 -13.361515973683709 0 0 0 0 -135.69307767662394 156.40511110816806 0 156.40511110816806 -16.58764013716609 0 0 0 0 -298.1511654572605 -35.368834919282563 0 -35.368834919282563 30.924359885971853 0 0 0 0 -202.44121677070871 155.87155267246544 0 155.87155267246544 340.21040145518054 0 0 0 0 235.49957291893952 -339.21755716482676 0 -339.21755716482676 23.940592808407018 0 0 0 0 198.75312478917112 305.09290432122134 0 305.09290432122134 37.934145276700292 0 0 0 0 -1.6433253551513332 2.6148713243523218 0 2.6148713243523218 -4.9541289738509242 0 0 0 0 -359.43708041694481 385.51025517641574 0 385.51025517641574 -601.98484702859059 0 0 0 0 -311.65236362979886 -2.7195706921770579 0 -2.7195706921770579 -180.19871464944663 0 0 0 0 92.208438835681591 40.074517300367006 0 40.074517300367006 -844.44273774261467 0 0 0 0 -373.65602427624981 617.39799522953399 0 617.39799522953399 -905.51590576180706 0 0 0 0 10.714913448973675 153.83354895764387 0 153.83354895764387 -761.8968491409687 0 0 0 0 98.595804913963775 -197.26396658334673 0 -197.26396658334673 -424.52292218614457 0 0 0 0 213.88320892633419 11.588407810491844 0 11.588407810491844 -185.58206989965583 0 0 0 0 -322.61904334486462 -233.78567762916009 0 -233.78567762916009 23.209337473906999 0 0 0 0 -13.112790420179863 -19.742366259480406 0 -19.742366259480406 -37.053992194754755 0 0 0 0 -7.1725128021845279 8.253507228249191 0 8.253507228249191 -10.721742269191896 0 0 0 0 -8.5661588362600014 46.937403133134467 0 46.937403133134467 111.30006149798282 0 0 0 0 11.47725612047725 -75.80043246034711 0 -75.80043246034711 -370.4289449703665 0 0 0 0 6.6515089128779437 -101.06496322073167 0 -101.06496322073167 -130.84963907806741 0 0 0 0 -33.671215768277762 -203.95294562086201 0 -203.95294562086201 68.163937495087112 0 0 0 0 10.159071948044584 -30.903687240534055 0 -30.903687240534055 -315.96643791513998 0 0 0 0 42.159318716883718 -32.936922013951516 0 -32.936922013951516 -118.76429407384785 0 0 0 0 43.081635927919706 -61.049318959423545 0 -61.049318959423545 -271.86090188068374 0 0 0 0 37.230955346785777 -38.414323901370153 0 -38.414323901370153 -122.08451355209581 0 0 0 0 65.632561290494777 -19.106138813571306 0 -19.106138813571306 -171.27463867652114 0 0 0 0 0.87966260550547304 -37.965466981788381 0 -37.965466981788381 -102.08037679633526 0 0 0 0 0.37281577975591063 4.2677919937618753 0 4.2677919937618753 -43.856627833181847 0 0 0 0 -2.4644349565496668 -28.938230798410586 0 -28.938230798410586 -29.178897593946203 0 0 0 0 -0.93719691545857131 16.260907233009732 0 16.260907233009732 -113.64020643034928 0 0 0 0 -15.343773748660169 0.47455625198381313 0 0.47455625198381313 -96.004333584281085 0 0 0 0 55.377677404445421 -1.6517044149395588 0 -1.6517044149395588 -100.51304060922303 0 0 0 0 34.262041738977132 -18.815421577791994 0 -18.815421577791994 -104.8904680362939 0 0 0 0 87.838497660020948 22.334420461233094 0 22.334420461233094 -104.31628928970338 0 0 0 0 109.72367090677108 16.054247534470619 0 16.054247534470619 -115.92630083438053 0 0 0 0 112.13468618498155 75.652236053039815 0 75.652236053039815 -82.976608281469453 0 0 0 0 98.887325958608926 33.572319843344985 0 33.572319843344985 -150.35069001597731 0 0 0 0 168.65191148834856 56.773266096380212 0 56.773266096380212 -98.71115847297915 0 0 0 0 271.64636908326793 99.032411723788755 0 99.032411723788755 -102.08187591432761 0 0 0 0 126.43750158157127 111.86161325144678 0 111.86161325144678 -65.169221830010429 0 0 0 0 133.19007328062526 86.22491713729687 0 86.22491713729687 -134.44690100927255 0 0 0 0 19.164834073235397 90.124163842760026 0 90.124163842760026 -62.020200212908094 0 0 0 0 29.655976834575995 148.66156931362457 0 148.66156931362457 -77.03846176396155 0 0 0 0 -87.824373015406309 125.5002254112851 0 125.5002254112851 -78.650273764127633 0 0 0 0 -136.62332363584574 171.13948597983108 0 171.13948597983108 -72.914506199874495 0 0 0 0 -18.525829258484009 146.74934646953443 0 146.74934646953443 -139.94732841527002 0 0 0 0 -4.5437664751079865 91.713422295124474 0 91.713422295124474 -127.3740437272927 0 0 0 0 12.338792393158656 98.955281477979952 0 98.955281477979952 -182.68484609178086 0 0 0 0 -61.238407385702885 154.75960148744343 0 154.75960148744343 -197.46967031823442 0 0 0 0 -3.777109907954582 83.100426669716398 0 83.100426669716398 -197.61635854865017 0 0 0 0 55.927336170250783 82.588283783366933 0 82.588283783366933 -111.62536502198236 0 0 0 0 55.529183904713136 89.136595261266848 0 89.136595261266848 -186.53313975062338 0 0 0 0 57.608244070179353 47.185687339955621 0 47.185687339955621 -142.5683322729401 0 0 0 0 50.53879766233149 24.43962717854447 0 24.43962717854447 -208.47345225370009 0 0 0 0 4.4821745190856745 66.618400971561641 0 66.618400971561641 -245.50422754095371 0 0 0 0 -5.8111485691260896 50.315920063094381 0 50.315920063094381 -270.89594357993337 0 0 0 0 -163.59761830605567 162.43153097433606 0 162.43153097433606 -290.18091294654369 0 0 0 0 -57.108544641247136 154.78161250949415 0 154.78161250949415 -440.9637637501919 0 0 0 0 -167.98555933426542 232.46654233046866 0 232.46654233046866 -321.31699245192067 0 0 0 0 -324.61925742409949 211.58537478959624 0 211.58537478959624 -163.20803787272234 0 0 0 0 -150.49548535713257 169.05704141426395 0 169.05704141426395 -200.93354341727536 0 0 0 0 -59.981460573457298 156.80962390643253 0 156.80962390643253 -293.70042600955821 0 0 0 0 -92.593701074933051 135.82012297269011 0 135.82012297269011 -181.97274437332089 0 0 0 0 -155.98699869014672 199.56723641291956 0 199.56723641291956 -154.57647968493802 0 0 0 0 -161.40806761046406 141.39599769481083 0 141.39599769481083 -41.81505434036626 0 0 0 0 -208.69903778037406 182.55447283590911 0 182.55447283590911 -75.874471090967745 0 0 0 0 -265.42905115125905 129.99642687079722 0 129.99642687079722 -19.697548092557554 0 0 0 0 -223.97137285083591 163.49670328397224 0 163.49670328397224 -79.249122515296676 0 0 0 0 -266.7518674013445 229.27518768754726 0 229.27518768754726 -162.27297197043299 0 0 0 0 -491.67813942688736 253.16398273697996 0 253.16398273697996 -103.79452012474212 0 0 0 0 -426.83053101487167 144.64238544773252 0 144.64238544773252 -23.080096000765479 0 0 0 0 -289.86740335563081 -11.346472855704633 0 -11.346472855704633 -0.13132992348892003 0 0 0 0 -260.87963147200935 133.56180261325244 0 133.56180261325244 -32.276393280645607 0 0 0 0 -625.48067369143973 -6.6281905880878185 0 -6.6281905880878185 32.259688881618786 0 0 0 0 -0.45985007880656026 0.8856762232088613 0 0.8856762232088613 -3.5696172163435236 0 0 0 0 -955.14881364654718 350.80194702121378 0 350.80194702121378 -88.965055070759263 0 0 0 0 650.4234734107813 111.98973509888037 0 111.98973509888037 -997.56337712078675 0 0 0 0 597.76898255436117 333.31172604747667 0 333.31172604747667 205.35020872758469 0 0 0 0 -708.29801925877109 323.17329470774166 0 323.17329470774166 -211.61689607391781 0 0 0 0 -463.94681120164751 224.36097996295211 0 224.36097996295211 -183.90935876912408 0 0 0 0 -396.63172485298128 311.28249414648781 0 311.28249414648781 -253.01032746619603 0 0 0 0 -450.27270083113399 277.26402630295706 0 277.26402630295706 -257.35547697137326 0 0 0 0 -213.18150205988786 235.58285994680955 0 235.58285994680955 -452.93139275515568 0 0 0 0 -214.81165376163699 320.25009849362414 0 320.25009849362414 -521.0416478145853 0 0 0 0 -202.51554063485855 370.14696802774779 0 370.14696802774779 -631.63281271306914 0 0 0 0 -519.22717445325179 517.33177012854321 0 517.33177012854321 -468.50228622533905 0 0 0 0 -733.63868561307754 612.37658860590273 0 612.37658860590273 -449.21117764661176 0 0 0 0 2.1223139832855367 0.44242832347642391 0 0.44242832347642391 -2.4854475447266005 0 0 0 0 -251.74079222307773 581.33368541158234 0 581.33368541158234 -317.54403768470365 0 0 0 0 -204.64399792067707 308.71239255034743 0 308.71239255034743 -173.63527277576941 0 0 0 0 -217.34717617818387 286.77634651332482 0 286.77634651332482 -131.88785952122271 0 0 0 0 -241.77245281513751 242.30107689184115 0 242.30107689184115 -119.01205880866473 0 0 0 0 -136.96768847721978 209.4335792206748 0 209.4335792206748 -112.31401246845553 0 0 0 0 -160.75176382745849 310.26483687103428 0 310.26483687103428 -122.9974566008168 0 0 0 0 -115.02604853417142 340.12375312367658 0 340.12375312367658 -151.12358341267009 0 0 0 0 -175.99636777135311 354.3959621774884 0 354.3959621774884 -144.68188369251402 0 0 0 0 -18.773273005423107 438.12567563500761 0 438.12567563500761 -326.66651735029154 0 0 0 0 -44.80236246662389 341.57182521960931 0 341.57182521960931 -182.85296632514473 0 0 0 0 -136.66854137876362 436.22339647705303 0 436.22339647705303 -268.61742490031975 0 0 0 0 -172.28531101968838 452.69987725467945 0 452.69987725467945 -230.59664449840056 0 0 0 0 -160.21103252854664 512.30517343523979 0 512.30517343523979 -254.12908174462791 0 0 0 0 -203.58918525131048 390.48141708671824 0 390.48141708671824 -189.19990156483254 0 0 0 0 -206.49158856030408 478.30429544617073 0 478.30429544617073 -248.90173153456271 0 0 0 0 -290.1791851632006 392.5079738717759 0 392.5079738717759 -174.99657362598737 0 0 0 0 468.10807626831229 -140.26790225415607 0 -140.26790225415607 26.560892594148754 0 0 0 0 -349.05356639939419 508.42268491438517 0 508.42268491438517 -233.1766690068589 0 0 0 0 -504.36342422434245 444.91342000597433 0 444.91342000597433 -210.28372526101157 0 0 0 0 -603.95646619607578 336.35542356285441 0 336.35542356285441 -202.85352331311151 0 0 0 0 -535.20534683461301 364.91247437719721 0 364.91247437719721 -202.58695281495602 0 0 0 0 -441.44684774066263 276.83483192366657 0 276.83483192366657 -199.39092988646735 0 0 0 0 -478.41910421977082 231.64336223373266 0 231.64336223373266 -235.85138235685736 0 0 0 0 -364.78152262832737 367.79837792634498 0 367.79837792634498 -203.11112862436858 0 0 0 0 -327.03762517575524 305.17927651176069 0 305.17927651176069 -170.03533425248861 0 0 0 0 -405.52726263796649 392.90385728001365 0 392.90385728001365 -184.78270727305062 0 0 0 0 -289.68737227632664 408.27762328133758 0 408.27762328133758 -204.58453627514245 0 0 0 0 -298.41912870869601 196.71917360909129 0 196.71917360909129 -194.07786324307381 0 0 0 0 -264.53204995913256 301.77174306174857 0 301.77174306174857 -200.08246493869956 0 0 0 0 -335.33481329644201 153.36918480382428 0 153.36918480382428 -277.41272702732385 0 0 0 0 -366.60949783489923 275.43303641579041 0 275.43303641579041 -221.29511147149606 0 0 0 0 -498.89433896361152 244.62937103678996 0 244.62937103678996 -239.57927173315693 0 0 0 0 -59.663133082271088 202.33340620765466 0 202.33340620765466 -227.42362343997047 0 0 0 0 -168.23836680375098 127.91812491857536 0 127.91812491857536 -278.30602413525412 0 0 0 0 -218.27777591715858 222.39231734453097 0 222.39231734453097 -241.62305955975535 0 0 0 0 -55.015532176934357 222.55674746513614 0 222.55674746513614 -253.87854051606291 0 0 0 0 -28.275898774656525 104.42953455051793 0 104.42953455051793 -206.79527729487791 0 0 0 0 -59.037900996336248 154.48516117925283 0 154.48516117925283 -106.1621221511582 0 0 0 0 -141.81374447891722 232.17705213082809 0 232.17705213082809 -186.43952771110162 0 0 0 0 -161.00532486436714 181.81036981614307 0 181.81036981614307 -109.15687840376268 0 0 0 0 -114.02182442293633 257.77963856367705 0 257.77963856367705 -35.286045863620529 0 0 0 0 56.726635356026236 59.58273602641566 0 59.58273602641566 -81.119395082068877 0 0 0 0 -1.863557702396065 247.86664187051792 0 247.86664187051792 40.561490516363847 0 0 0 0 190.40636155013635 152.50308453184607 0 152.50308453184607 -17.811153957040005 0 0 0 0 7.4410935377272835 264.50446821623791 0 264.50446821623791 323.91932467367587 0 0 0 0 -58.685553747076483 111.66468351347976 0 111.66468351347976 106.44766918071173 0 0 0 0 -29.330759876127559 186.04203451996455 0 186.04203451996455 38.330748060223414 0 0 0 0 -96.236023753423069 216.14948803228253 0 216.14948803228253 94.027583756498643 0 0 0 0 -66.41968299135624 186.86637021761271 0 186.86637021761271 35.924057607784562 0 0 0 0 -108.77672466573131 175.50131817302463 0 175.50131817302463 40.737204110500898 0 0 0 0 -147.47535266916384 262.13175749198126 0 262.13175749198126 -50.354969921430893 0 0 0 0 -110.75315867423001 265.33697048102943 0 265.33697048102943 -52.005049666102423 0 0 0 0 -50.38125644390675 283.49460718242881 0 283.49460718242881 -81.924346595259863 0 0 0 0 -121.44465717831918 323.25561255058528 0 323.25561255058528 -83.435535297165188 0 0 0 0 -28.535137335507898 242.81376397687836 0 242.81376397687836 -9.7966523358154518 0 0 0 0 63.7418833867996 200.05383404760687 0 200.05383404760687 2.1584886903292499 0 0 0 0 89.858714701636927 162.19361724291593 0 162.19361724291593 -23.096840595824688 0 0 0 0 486.40558439441611 -144.7608045193528 0 -144.7608045193528 -23.590494104179015 0 0 0 0 274.5642189978098 208.62268190126088 0 208.62268190126088 -94.254086441658728 0 0 0 0 533.64203003693365 226.76429752521665 0 226.76429752521665 -347.68937419137364 0 0 0 0 239.32424658254604 455.77383829667451 0 455.77383829667451 -525.85011241198117 0 0 0 0 56.904607682474307 334.96166984127922 0 334.96166984127922 -188.75557172070239 0 0 0 0 107.28486673064617 311.06851031902806 0 311.06851031902806 -197.46155367228857 0 0 0 0 163.18508227610437 214.28496160569011 0 214.28496160569011 -93.817363223314715 0 0 0 0 809.99806101780268 -82.787048773940114 0 -82.787048773940114 -67.388095310709105 0 0 0 0 1.19816636814231 0.8350797803037544 0 0.8350797803037544 0.55659438265527683 0 0 0 0 -69.010724067898991 47.640595821310399 0 47.640595821310399 -66.809228898424408 0 0 0 0 240.01441783263544 -16.446676626508406 0 -16.446676626508406 9.9513015348820772 0 0 0 0 13.341648471441658 262.86623650982506 0 262.86623650982506 -157.31431471983524 0 0 0 0 16.707651086087935 74.591404439715461 0 74.591404439715461 -75.791572126086976 0 0 0 0 423.56188879279216 219.81388331839662 0 219.81388331839662 -157.81446314074492 0 0 0 0 225.57257340657088 208.89557225941644 0 208.89557225941644 -53.509654330919147 0 0 0 0 374.03601380084729 85.532680488682672 0 85.532680488682672 -85.334655675676913 0 0 0 0 153.83410469631781 61.234955701002946 0 61.234955701002946 -88.833586454485157 0 0 0 0 562.33312863752872 -125.29730277693761 0 -125.29730277693761 8.482968993987015 0 0 0 0 36.552843277226202 583.44923300068331 0 583.44923300068331 -447.54777824893245 0 0 0 0 694.65211185533917 1.8461023117629338 0 1.8461023117629338 40.499845154028662 0 0 0 0 643.40310703252908 108.28541777069586 0 108.28541777069586 -175.53944224256702 0 0 0 0 593.81323030400381 -84.340621978204581 0 -84.340621978204581 -26.916815060394583 0 0 0 0 603.71403366001505 -81.216668133055009 0 -81.216668133055009 -31.646111881243996 0 0 0 0 601.18565086011222 -71.327884105495286 0 -71.327884105495286 -56.613938569294987 0 0 0 0 577.51997460873099 -50.934355899513321 0 -50.934355899513321 -10.418650813422573 0 0 0 0 539.37743198768294 -131.28639671661495 0 -131.28639671661495 -34.554919412978052 0 0 0 0 306.84510584981035 61.143647129857527 0 61.143647129857527 -41.347933859722872 0 0 0 0 470.52602006203233 -11.82182120701691 0 -11.82182120701691 -37.792738410349557 0 0 0 0 428.5716121146761 -94.884561236882291 0 -94.884561236882291 19.950877488779952 0 0 0 0 430.94236278038443 22.337529618094777 0 22.337529618094777 -62.239606892422557 0 0 0 0 443.46135207212774 112.2392788917407 0 112.2392788917407 -107.90287864520724 0 0 0 0 272.46835958490192 96.738710985410762 0 96.738710985410762 -51.032263096716633 0 0 0 0 121.48476477634949 87.340027916153304 0 87.340027916153304 -48.516422203803813 0 0 0 0 245.14731342839514 134.75887089633306 0 134.75887089633306 -90.180632583172155 0 0 0 0 251.73810296308147 150.1803502849516 0 150.1803502849516 10.503267892632721 0 0 0 0 335.57029903629882 98.45910777863719 0 98.45910777863719 -65.676774569168629 0 0 0 0 38.185914088870049 -26.79359583666519 0 -26.79359583666519 -38.178882420065293 0 0 0 0 3.6536343211787567 2.2313631560826011 0 2.2313631560826011 -12.248745868534073 0 0 0 0 7.7002320471401617 -1.4292836035851906 0 -1.4292836035851906 -49.696687413242898 0 0 0 0 337.89700541382081 -35.287122169660506 0 -35.287122169660506 2.5121174224441347 0 0 0 0 -312.45954796679143 91.539017186023557 0 91.539017186023557 -460.39577629400992 0 0 0 0 -542.30469765493763 67.553954172453814 0 67.553954172453814 -376.94981028971233 0 0 0 0 -379.95003530349641 135.65000401538782 0 135.65000401538782 -352.82227820678963 0 0 0 0 -346.77398697522585 188.56929416629282 0 188.56929416629282 -283.88267077064211 0 0 0 0 -658.55048943369184 282.44325891148765 0 282.44325891148765 -229.17062225862173 0 0 0 0 -697.16877257981105 201.03761213330654 0 201.03761213330654 -250.99342163756955 0 0 0 0 -625.18231565985479 188.05522204816225 0 188.05522204816225 -260.90175557080511 0 0 0 0 437.22274237978854 -117.48152774663868 0 -117.48152774663868 49.698788089299342 0 0 0 0 -99.76644648878937 279.82025576860815 0 279.82025576860815 -453.04139832171222 0 0 0 0 -74.095689277168276 331.2022169749107 0 331.2022169749107 -350.48225217382696 0 0 0 0 4.7449937715547748 6.1381784626947997 0 6.1381784626947997 3.1723949676475947 0 0 0 0 -63.484601700569328 177.89510162010083 0 177.89510162010083 -370.0237731528141 0 0 0 0 -122.01754375775636 221.09586158214006 0 221.09586158214006 -322.19001639624275 0 0 0 0 -182.28103546742204 128.84138606338547 0 128.84138606338547 -451.15617306339846 0 0 0 0 9.9252948718894913 8.6483953963561362 0 8.6483953963561362 -59.767124891985532 0 0 0 0 11.807671642672176 14.482824615789411 0 14.482824615789411 -63.187209632162194 0 0 0 0 28.398850301987295 -64.802408409996701 0 -64.802408409996701 -44.83990944800189 0 0 0 0 114.13985669446265 31.760387827454906 0 31.760387827454906 -47.392882008162985 0 0 0 0 95.33517473304164 1.0300502908171438 0 1.0300502908171438 -80.713817432219003 0 0 0 0 25.197804146977433 7.2517923839932337 0 7.2517923839932337 -80.503131267387289 0 0 0 0 19.359852861001855 44.657191112554756 0 44.657191112554756 58.844271434623806 0 0 0 0 2.4468452579716526 1.0842267257334655 0 1.0842267257334655 -9.614015485112386 0 0 0 0 -43.663097416148958 -50.187863500738786 0 -50.187863500738786 -38.069849402551881 0 0 0 0 230.427220934449 62.454802284283232 0 62.454802284283232 73.987978449678849 0 0 0 0 486.92811289809106 214.51282784361592 0 214.51282784361592 -31.737424864613786 0 0 0 0 142.55267618735888 134.43294128881007 0 134.43294128881007 -28.225807023077323 0 0 0 0 -40.296986506003122 10.908519045838148 0 10.908519045838148 -11.308992341278099 0 0 0 0 -14.846189336207317 100.72844824136109 0 100.72844824136109 29.01771060864121 0 0 0 0 1.0106742967018079 0.58734959427590638 0 0.58734959427590638 -3.6812933925639655 0 0 0 0 -159.24700124921856 -233.15219054407476 0 -233.15219054407476 -197.38269933733864 0 0 0 0 194.61351240206568 4.206942928771241 0 4.206942928771241 -398.91379092996976 0 0 0 0 114.67018453075434 428.59883123107102 0 428.59883123107102 -114.95051384313047 0 0 0 0 59.34510188556078 67.324615461294059 0 67.324615461294059 199.22248188587764 0 0 0 0 234.23288702341961 87.27970735879353 0 87.27970735879353 183.93050003890312 0 0 0 0 144.53040420611069 157.83017392454894 0 157.83017392454894 2.5819142410382483 0 0 0 0 67.969076601691995 231.73294262973718 0 231.73294262973718 145.46392824346549 0 0 0 0 98.501062892966729 167.55160061857077 0 167.55160061857077 169.12976641055866 0 0 0 0 102.0585240073633 247.31467116562408 0 247.31467116562408 224.1929557299045 0 0 0 0 143.91592340883835 253.9350682412005 0 253.9350682412005 281.3814123659904 0 0 0 0 223.71916384744691 266.63262058269902 0 266.63262058269902 203.6090464746876 0 0 0 0 24.268295228435818 26.392276404670611 0 26.392276404670611 235.16886193878781 0 0 0 0 81.318085958431766 169.85080106977421 0 169.85080106977421 169.7881845713955 0 0 0 0 161.8515820454777 203.45544038896605 0 203.45544038896605 92.375881458818185 0 0 0 0 99.918391642378992 103.22462931105747 0 103.22462931105747 54.21990700845754 0 0 0 0 2.1007408961297767 16.945715923059232 0 16.945715923059232 1.2827837003824527 0 0 0 0 -26.828041533135547 13.01136858911832 0 13.01136858911832 21.62787697918975 0 0 0 0 -5.7037183741678916 2.5961186968888086 0 2.5961186968888086 -0.30321508740229319 0 0 0 0 -165.49854625672015 109.4668749942839 0 109.4668749942839 -39.047564201182922 0 0 0 0 -209.97480633533996 103.27198762498301 0 103.27198762498301 -33.831580251848209 0 0 0 0 1.9242968308584614 4.2935938939716181 0 4.2935938939716181 -10.295069040434392 0 0 0 0 -148.63090387658599 58.423313065442386 0 58.423313065442386 -45.888259543407912 0 0 0 0 -191.39706000672595 120.68234858006235 0 120.68234858006235 -19.507891034267232 0 0 0 0 -205.03163840639718 153.95364082715378 0 153.95364082715378 -27.582277356050326 0 0 0 0 -141.33938539552037 149.15405359609213 0 149.15405359609213 -44.426169722799386 0 0 0 0 -165.37634062658952 134.35394325013215 0 134.35394325013215 -52.898269255978448 0 0 0 0 -126.55394457685179 255.37906355410905 0 255.37906355410905 -216.69571340807943 0 0 0 0 -0.36091921798025339 -0.19782416532423852 0 -0.19782416532423852 -0.20381104937576566 0 0 0 0 87.561168238570644 92.599224597944158 0 92.599224597944158 -68.546100767005555 0 0 0 0 -144.62567972785473 209.66518418704618 0 209.66518418704618 -6.3416691126437854 0 0 0 0 14.700097699933394 82.813102559911385 0 82.813102559911385 -28.99679318653034 0 0 0 0 -139.16933741739012 157.18030169133613 0 157.18030169133613 -21.926318424948477 0 0 0 0 -46.282297109260981 101.54929730937874 0 101.54929730937874 -32.193368335023479 0 0 0 0 94.655869756665197 178.10472404261691 0 178.10472404261691 -16.5207452068978 0 0 0 0 94.355856959009543 74.003005267527442 0 74.003005267527442 -1.2984954537951126 0 0 0 0 126.48340979863133 264.57326130839829 0 264.57326130839829 141.50236867660146 0 0 0 0 494.84401234851248 389.55559761411223 0 389.55559761411223 -61.073483213790496 0 0 0 0 199.8307499446455 101.30620460454088 0 101.30620460454088 -269.71214878548926 0 0 0 0 3.0589276866820398 1.4709540286255347 0 1.4709540286255347 0.76333038888242299 0 0 0 0 40.061603445727087 92.095469760632113 0 92.095469760632113 -268.90079116258994 0 0 0 0 121.81002423131213 117.99381588929373 0 117.99381588929373 -286.31886415626923 0 0 0 0 82.676780526975563 -54.394526624815171 0 -54.394526624815171 319.26097830921572 0 0 0 0 -66.043946089681413 6.3977924261234875 0 6.3977924261234875 602.6518439193901 0 0 0 0 121.28108259556575 222.30190585124637 0 222.30190585124637 -100.95119221311688 0 0 0 0 -74.82072307796625 79.900361545946907 0 79.900361545946907 -204.3016143284367 0 0 0 0 -22.71817830317741 -16.895829724046052 0 -16.895829724046052 100.19486538372803 0 0 0 0 -85.494170352581023 91.206989556098733 0 91.206989556098733 28.977010703920314 0 0 0 0 -22.050193408732582 33.376904203572167 0 33.376904203572167 -11.406256072656106 0 0 0 0 -59.66020934558037 42.526337036188124 0 42.526337036188124 287.62068629201622 0 0 0 0 2.2561950183153385 71.459037582027122 0 71.459037582027122 -70.138256687557259 0 0 0 0 8.9382147810204913 6.5908766365653744 0 6.5908766365653744 0.71869117160080176 0 0 0 0 -32.333219040519907 98.496206475970212 0 98.496206475970212 254.07907952784717 0 0 0 0 -43.374093873193488 73.369584817680789 0 73.369584817680789 216.5620476689619 0 0 0 0 -7.8305663736100541 0.80951707208259904 0 0.80951707208259904 221.79009761016312 0 0 0 0 -28.586890532231337 93.666649759774373 0 93.666649759774373 161.93363376926573 0 0 0 0 -60.962920872756513 97.850239022058304 0 97.850239022058304 217.50505384660062 0 0 0 0 -11.113493233424379 66.555557340294399 0 66.555557340294399 47.068701708540971 0 0 0 0 -23.601590959937312 147.63201243079493 0 147.63201243079493 49.378365854681761 0 0 0 0 -47.697770654558553 122.97027020700261 0 122.97027020700261 125.32085961005123 0 0 0 0 9.2540934833523352 22.922564629639965 0 22.922564629639965 149.57190960504522 0 0 0 0 -99.745252019027248 61.91146340911655 0 61.91146340911655 113.57156421858963 0 0 0 0 173.47068757354282 175.82050723675275 0 175.82050723675275 33.41242617451644 0 0 0 0 -7.4768493307492463 39.752455772052144 0 39.752455772052144 156.06899040627468 0 0 0 0 85.559665319335181 27.583753308619634 0 27.583753308619634 116.49645915186557 0 0 0 0 -0.18604318930748753 2.6170507764162849 0 2.6170507764162849 -0.021854301398576581 0 0 0 0 -13.488144725404709 18.973233977992095 0 18.973233977992095 -15.815364466947358 0 0 0 0 -48.782373885653215 -5.8641091514537038 0 -5.8641091514537038 4.0150822320265434 0 0 0 0 -21.322479365080653 25.306791131085447 0 25.306791131085447 10.687522339154384 0 0 0 0 -0.70430196661338007 15.940227476305566 0 15.940227476305566 3.5290948718412736 0 0 0 0 -9.8486914735403843 17.468112096754339 0 17.468112096754339 -19.534033029705824 0 0 0 0 -49.865606927909539 182.64175493430594 0 182.64175493430594 26.356712851507837 0 0 0 0 -46.678258323132468 103.01347009818346 0 103.01347009818346 2.4192317509264285 0 0 0 0 -73.60998388047301 187.33328938608975 0 187.33328938608975 80.121201369754999 0 0 0 0 -62.665351717332669 177.89312391825115 0 177.89312391825115 82.328058462776426 0 0 0 0 -66.134498456711299 166.89585012821226 0 166.89585012821226 132.20864422205113 0 0 0 0 -56.758164519953425 148.76648720497064 0 148.76648720497064 102.07754137919801 0 0 0 0 -68.742331445260788 204.93033384680984 0 204.93033384680984 114.29411676763539 0 0 0 0 -76.34452764265734 121.34649522748396 0 121.34649522748396 233.50667198717929 0 0 0 0 -37.441295775313847 153.93664631907995 0 153.93664631907995 12.208150287669923 0 0 0 0 -62.495027018150722 186.74154302507031 0 186.74154302507031 3.862591328920189 0 0 0 0 -372.60359998923377 235.49667295835479 0 235.49667295835479 93.676058403701518 0 0 0 0 -310.90270888537634 -10.135899342043558 0 -10.135899342043558 108.4544597818126 0 0 0 0 -59.933893912699659 -73.491815457769974 0 -73.491815457769974 104.29332559630893 0 0 0 0 -97.638240710977698 202.34752022561133 0 202.34752022561133 61.139439359733387 0 0 0 0 -98.99684136988526 66.871241603769136 0 66.871241603769136 222.17402965342626 0 0 0 0 -38.454695862194058 143.29575493290758 0 143.29575493290758 293.84062823818635 0 0 0 0 162.14428264056914 160.79974738388137 0 160.79974738388137 416.99765961957928 0 0 0 0 233.41565885913951 86.185783843780882 0 86.185783843780882 183.04913008496442 0 0 0 0 6.1790157659443139 -34.278059446483326 0 -34.278059446483326 232.80538070508737 0 0 0 0 170.50013720831339 -46.439307992478462 0 -46.439307992478462 89.477097657774721 0 0 0 0 132.58702557330253 64.102533825230239 0 64.102533825230239 184.21992265916651 0 0 0 0 416.06313921783294 -11.207949345718589 0 -11.207949345718589 -20.496274662909855 0 0 0 0 209.31515810849942 21.833223150986441 0 21.833223150986441 -397.06510958951912 0 0 0 0 251.49512777700329 195.24921659215875 0 195.24921659215875 177.96528179422603 0 0 0 0 236.34925766496781 449.21907067252914 0 449.21907067252914 163.44000788500125 0 0 0 0 191.79920403860524 575.39230932770397 0 575.39230932770397 -169.21324418947029 0 0 0 0 -27.719073588072206 20.306109196917532 0 20.306109196917532 -8.6928394411224872 0 0 0 0 3.2477082162342441 3.9462806981185654 0 3.9462806981185654 -1.015766945590892 0 0 0 0 -2.1603617215692736 3.9603490422720569 0 3.9603490422720569 -2.5145240915242084 0 0 0 0 1.4044289238081547 14.352254510205057 0 14.352254510205057 -425.51940293345319 0 0 0 0 -82.768968835534906 298.93211417844168 0 298.93211417844168 -330.76766417536965 0 0 0 0 -14.801619023965031 72.360830326463656 0 72.360830326463656 552.44497488935576 0 0 0 0 -1.5663672076388906 9.2127571009712312 0 9.2127571009712312 -8.468465482932011 0 0 0 0 -0.69045077534246957 10.305669991959803 0 10.305669991959803 -13.681021161377203 0 0 0 0 -2.0785178910373361 11.251229127174156 0 11.251229127174156 -13.839532809379079 0 0 0 0 0.778831648195208 2.5985386013598273 0 2.5985386013598273 -0.78477049118929187 0 0 0 0 2.2564402140033053 33.511904355356819 0 33.511904355356819 -134.50969216950762 0 0 0 0 -6.3502630157418025 131.24277857414199 0 131.24277857414199 -178.46454291187456 0 0 0 0 -8.9577894240137539 30.18367742261762 0 30.18367742261762 -20.031306360685448 0 0 0 0 322.55861440344597 256.93565491698973 0 256.93565491698973 190.54941772063103 0 0 0 0 -1.6084216147908847 3.9779949269641151 0 3.9779949269641151 -2.5113703042644282 0 0 0 0 173.52410682089976 284.43075223361029 0 284.43075223361029 368.40808271495553 0 0 0 0 -11.043865509010743 2.8852794728873334 0 2.8852794728873334 -14.557330722822371 0 0 0 0 0.87222976903123595 4.688967185883488 0 4.688967185883488 1.4421024138654168 0 0 0 0 -3.9733988095031236 9.7224279673037017 0 9.7224279673037017 -3.8370184335290105 0 0 0 0 103.56350094254412 89.193403800560645 0 89.193403800560645 124.17865575132419 0 0 0 0 -6.7815049674127437 8.5044460860014794 0 8.5044460860014794 -3.8512249549789423 0 0 0 0 -1.4585186932017677 11.499173280426476 0 11.499173280426476 -3.1923381896694991 0 0 0 0 154.66428676695523 204.91857868573288 0 204.91857868573288 140.83117810946715 0 0 0 0 184.27868746180866 284.42952555922739 0 284.42952555922739 223.90094902318378 0 0 0 0 242.73324444754689 283.64450978678178 0 283.64450978678178 221.24936315306604 0 0 0 0 -75.393506170999899 178.78627864907594 0 178.78627864907594 478.26971696951296 0 0 0 0 -0.58412298423068876 1.4365020899403014 0 1.4365020899403014 -0.7841196500487726 0 0 0 0 140.29363022754114 242.09710649540466 0 242.09710649540466 387.01622669188509 0 0 0 0 257.7183493851544 192.28207457080214 0 192.28207457080214 295.62663357204656 0 0 0 0 141.05443999793351 271.51830866951605 0 271.51830866951605 245.11378074156892 0 0 0 0 144.29352228113567 236.65724336454696 0 236.65724336454696 180.44988967798213 0 0 0 0 147.81198465890111 186.88327378859657 0 186.88327378859657 268.15512880025926 0 0 0 0 128.68275186230312 148.93266607997248 0 148.93266607997248 195.32875918417358 0 0 0 0 157.92637487845786 199.5011789558539 0 199.5011789558539 245.21908829668064 0 0 0 0 205.6203877448861 215.22078059320665 0 215.22078059320665 227.65402194974104 0 0 0 0 144.89243190043635 264.66250506457618 0 264.66250506457618 348.67740293424322 0 0 0 0 164.44525876209082 251.9145241326878 0 251.9145241326878 278.88953253019417 0 0 0 0 109.24795474665007 105.48058377000507 0 105.48058377000507 206.19858210924031 0 0 0 0 179.08416948261583 181.63071893102097 0 181.63071893102097 197.30576062272485 0 0 0 0 265.83314263312786 146.27323315841386 0 146.27323315841386 211.56020639852795 0 0 0 0 222.73402289221121 74.523284669836357 0 74.523284669836357 198.73437440897578 0 0 0 0 272.73878460010746 64.974172108491985 0 64.974172108491985 190.38496460316219 0 0 0 0 316.35513371182606 107.18818566951904 0 107.18818566951904 41.246493869019105 0 0 0 0 382.59149096864894 271.10286856536345 0 271.10286856536345 234.40851787499741 0 0 0 0 162.62467401320464 430.34231159983847 0 430.34231159983847 120.78363899915894 0 0 0 0 738.65059616282088 513.42520928120393 0 513.42520928120393 -71.67799694122732 0 0 0 0 761.00645739332685 10.362399780438864 0 10.362399780438864 73.322713699733868 0 0 0 0 429.33561564337288 135.47684997597389 0 135.47684997597389 44.464910187838541 0 0 0 0 3.4186198316601804 62.439890568532974 0 62.439890568532974 -174.84175403510562 0 0 0 0 152.48471217598126 250.44891696529476 0 250.44891696529476 356.63478418728118 0 0 0 0 163.03680564000388 413.7734685100213 0 413.7734685100213 505.29621346155454 0 0 0 0 -0.20980551635841493 1.7713549783018578 0 1.7713549783018578 -1.1618236300658005 0 0 0 0 2.72621950835007 3.2903335206953805 0 3.2903335206953805 3.8001217144064228 0 0 0 0 -80.739961992407189 113.01580912083455 0 113.01580912083455 -84.625648512605039 0 0 0 0 -82.953218295497209 167.31945135229944 0 167.31945135229944 288.93772738703183 0 0 0 0 352.72590243778177 480.52990919056629 0 480.52990919056629 -71.198417306714873 0 0 0 0 318.15380114271466 85.81692860682233 0 85.81692860682233 352.06226768525812 0 0 0 0 2.1183750329291797 24.926610816114589 0 24.926610816114589 17.956515960323486 0 0 0 0 488.32934838391066 193.42297382792469 0 193.42297382792469 -58.164567906635966 0 0 0 0 -45.687417636481769 73.931736761942375 0 73.931736761942375 -50.276571255719318 0 0 0 0 -26.47887014855587 75.030607046936893 0 75.030607046936893 -50.219750329604551 0 0 0 0 7.5868055517722297 8.7763476299489618 0 8.7763476299489618 10.236310100074547 0 0 0 0 -1.9921361128779154 16.28111781754194 0 16.28111781754194 -49.752806903157762 0 0 0 0 -32.265535597263806 71.512826103835323 0 71.512826103835323 -69.333946285340971 0 0 0 0 -31.158110011456301 38.785969367711914 0 38.785969367711914 -21.143593466364109 0 0 0 0 -33.32942796579664 41.464175258704017 0 41.464175258704017 -14.247072951620794 0 0 0 0 -28.831824846689415 42.654988448045515 0 42.654988448045515 -27.549602547234826 0 0 0 0 -110.90947946943925 54.187125651087626 0 54.187125651087626 -19.82485174739486 0 0 0 0 38.233412298359326 14.97401862407969 0 14.97401862407969 -0.71401174934180744 0 0 0 0 4.4152241281684272 -0.23408607857526675 0 -0.23408607857526675 -1.9555316950466661 0 0 0 0 18.708594592448208 1.7851282548144809 0 1.7851282548144809 27.961682364798889 0 0 0 0 15.32796055990184 3.8455966414894647 0 3.8455966414894647 28.777808475439087 0 0 0 0 24.720185881429643 23.216324396915297 0 23.216324396915297 -1.0971940480289959 0 0 0 0 80.075431701450725 -12.710234123322152 0 -12.710234123322152 1.7828231950124973 0 0 0 0 0.024078861859880618 2.5180653128804273 0 2.5180653128804273 0.30448471066094385 0 0 0 0 -80.240326962662039 14.447949143771893 0 14.447949143771893 9.5853169713227544 0 0 0 0 -41.291084661848323 18.597975337378525 0 18.597975337378525 4.9976511851584355 0 0 0 0 3.4828719047654886 27.015048740480211 0 27.015048740480211 -28.750606173240158 0 0 0 0 15.140139108743625 16.511781851994122 0 16.511781851994122 -1.7394706021922133 0 0 0 0 -29.480736247402092 51.638500564215065 0 51.638500564215065 -18.024529676965813 0 0 0 0 -30.557574948918045 32.581249768897578 0 32.581249768897578 -5.0505731821153859 0 0 0 0 -1.961597733446979 37.677548504905644 0 37.677548504905644 -15.52026541113446 0 0 0 0 -52.040562210024291 31.686649630959892 0 31.686649630959892 -3.8959231365624873 0 0 0 0 -29.054128072937601 38.376349347166069 0 38.376349347166069 -7.8144327681866343 0 0 0 0 -30.953820883612934 43.761629036041995 0 43.761629036041995 -21.058054117507709 0 0 0 0 -2.0023113656316127 33.726644040181782 0 33.726644040181782 -11.189431582767611 0 0 0 0 18.367524177926597 13.687609280065939 0 13.687609280065939 -0.47785646467903931 0 0 0 0 -4.9282674299847713 27.681581606157124 0 27.681581606157124 -10.381161870755022 0 0 0 0 32.535404008354817 39.903009684887365 0 39.903009684887365 -56.121166106065175 0 0 0 0 10.703592546381515 54.427384954858553 0 54.427384954858553 -37.892887158790472 0 0 0 0 -12.784226911623886 36.913619720823789 0 36.913619720823789 -8.2331902204829568 0 0 0 0 36.240961076348867 44.180113237689056 0 44.180113237689056 -40.581343372236006 0 0 0 0 -58.362945285463866 43.253788226887991 0 43.253788226887991 -23.069137496280746 0 0 0 0 3.0610378481396765 19.357595064790075 0 19.357595064790075 24.412442545399244 0 0 0 0 22.61656718407221 36.221311282727584 0 36.221311282727584 -10.979906941361151 0 0 0 0 -3.5818186803699064 108.95701326872222 0 108.95701326872222 25.336568950772744 0 0 0 0 -36.105935117188892 30.162366474026157 0 30.162366474026157 -2.3047847457219177 0 0 0 0 -30.379717279278339 29.472075698519802 0 29.472075698519802 -5.852919074408419 0 0 0 0 -11.986510896400869 34.723211069865918 0 34.723211069865918 -4.9981290945814827 0 0 0 0 -26.355884516884544 78.470084203867827 0 78.470084203867827 -8.9815087217080247 0 0 0 0 -281.46079608537548 61.144296150013361 0 61.144296150013361 33.81430729878457 0 0 0 0 -8.5500874311201187 29.434875555971757 0 29.434875555971757 -7.770687263153377 0 0 0 0 5.4384647783131506 11.795080342712147 0 11.795080342712147 -5.7929862057847075 0 0 0 0 -33.052920360902135 33.435196449326213 0 33.435196449326213 -3.2541063551107072 0 0 0 0 -23.804737458005548 29.894987168325315 0 29.894987168325315 -4.1822744039145618 0 0 0 0 -23.07873067170658 32.033283960680819 0 32.033283960680819 -6.0306684128299821 0 0 0 0 -31.253009294738817 20.766518664687961 0 20.766518664687961 -10.248293765500915 0 0 0 0 -25.527120248863866 33.234011998092683 0 33.234011998092683 -3.932142846942952 0 0 0 0 -22.661678504829979 30.028297619287514 0 30.028297619287514 -6.0671443442777218 0 0 0 0 -29.96791381816729 31.512181551322556 0 31.512181551322556 -4.357392806748976 0 0 0 0 -8.936211252341236 14.705687558886552 0 14.705687558886552 -5.5089788027414315 0 0 0 0 -5.5800865974663525 1.2595827826248893 0 1.2595827826248893 4.3968953747010602 0 0 0 0 -27.320747208519151 -17.179588025378223 0 -17.179588025378223 76.408252612738579 0 0 0 0 307.50718667973706 284.8105739385187 0 284.8105739385187 177.64726419331419 0 0 0 0 -16.197537034819106 275.46093148232376 0 275.46093148232376 308.39479224420347 0 0 0 0 -72.341611189433024 115.00624713927209 0 115.00624713927209 330.97512230096095 0 0 0 0 -30.710275333820391 33.244611527256779 0 33.244611527256779 63.18855572242137 0 0 0 0 -32.623920983457538 31.445805673939503 0 31.445805673939503 6.9610455580082089 0 0 0 0 -28.380874723873802 22.181952880702038 0 22.181952880702038 -12.734305094403863 0 0 0 0 -29.685353043926796 34.377149155854113 0 34.377149155854113 0.43088716516555436 0 0 0 0 -126.59592642741245 69.858438905879098 0 69.858438905879098 -27.653447524529838 0 0 0 0 -25.296384752662966 4.5572832673508437 0 4.5572832673508437 1.336439240137576 0 0 0 0 -216.36178026840025 46.755921876397679 0 46.755921876397679 17.853404038675762 0 0 0 0 -369.90029709735973 127.51546906831845 0 127.51546906831845 229.74571880810254 0 0 0 0 -242.95670930743017 93.933441087751362 0 93.933441087751362 22.09586821888297 0 0 0 0 -14.630581700338812 2.2771269164250114 0 2.2771269164250114 -2.5356802483930423 0 0 0 0 -216.22700185474241 3.6240472719218815 0 3.6240472719218815 -24.269077999785623 0 0 0 0 -30.432140253451863 6.6045455876309944 0 6.6045455876309944 9.8917935518754803 0 0 0 0 134.81287541406891 218.57879391492725 0 218.57879391492725 84.977937056579322 0 0 0 0 -85.576388507825641 38.232294535825304 0 38.232294535825304 -3.0470707940550739 0 0 0 0 -23.776131539940252 226.81702799123013 0 226.81702799123013 147.72240937082915 0 0 0 0 80.138415485627775 174.1566065158986 0 174.1566065158986 167.82013537680086 0 0 0 0 75.694810162138964 260.46362810692119 0 260.46362810692119 125.1945731655851 0 0 0 0 75.69192510278674 263.69747148308221 0 263.69747148308221 51.328485310436008 0 0 0 0 71.298207919644483 328.36086621280629 0 328.36086621280629 49.432486655827461 0 0 0 0 71.346400872883976 324.67768673658452 0 324.67768673658452 133.21345228842074 0 0 0 0 0.20473749055288337 -0.82592386409050533 0 -0.82592386409050533 3.5073960177137167 0 0 0 0 586.16963660630063 -47.193913642757252 0 -47.193913642757252 -379.4424159891696 0 0 0 0 -394.43299452473821 66.849930055352388 0 66.849930055352388 125.12272784643574 0 0 0 0 366.17977244688245 475.8909871078796 0 475.8909871078796 100.77768961858601 0 0 0 0 -79.251359348902042 404.72505044003719 0 404.72505044003719 95.804789728033938 0 0 0 0 64.864857228723849 291.97752161959215 0 291.97752161959215 266.53887807268984 0 0 0 0 62.342288513363201 221.08437469605394 0 221.08437469605394 -239.05910727259288 0 0 0 0 -136.02092047292899 125.53286969553301 0 125.53286969553301 161.41716599353958 0 0 0 0 -1.2196821669165132 0.31547728667465691 0 0.31547728667465691 1.3493255704100378 0 0 0 0 -12.539900058727653 109.25585856133142 0 109.25585856133142 -118.44751032185195 0 0 0 0 36.932632146912511 -22.003064357066251 0 -22.003064357066251 -105.46548596848874 0 0 0 0 180.87691089173677 7.6393229599466395 0 7.6393229599466395 59.925322269984463 0 0 0 0 170.67825173506327 274.55585607717455 0 274.55585607717455 124.72595647591061 0 0 0 0 -95.619619091271488 206.92738967810658 0 206.92738967810658 126.63642570345473 0 0 0 0 -73.464165389615843 27.941985841080403 0 27.941985841080403 -6.2247492741683015 0 0 0 0 -89.758966742507255 70.140247189492129 0 70.140247189492129 138.40735577469923 0 0 0 0 -77.66437091370608 79.262534871633761 0 79.262534871633761 12.613971562514962 0 0 0 0 -48.590876125130308 49.285072840360044 0 49.285072840360044 6.6550932548634592 0 0 0 0 -87.445688333620637 41.525269809051224 0 41.525269809051224 339.62603511689667 0 0 0 0 -17.809728903623991 9.113008882462676 0 9.113008882462676 -0.73445665850610453 0 0 0 0 -11.297178256962788 17.160281629291955 0 17.160281629291955 12.950707174870509 0 0 0 0 -62.036104754719418 35.31486966972443 0 35.31486966972443 0.98203902606474003 0 0 0 0 -53.680999785604044 29.151874336513771 0 29.151874336513771 -3.6122766796199421 0 0 0 0 -86.767136356054834 44.980884552508385 0 44.980884552508385 -21.646425909852951 0 0 0 0 -85.480339942892897 78.089001943828407 0 78.089001943828407 12.520015081419842 0 0 0 0 -73.495544801440701 65.768914240245977 0 65.768914240245977 1.3203001244328334 0 0 0 0 -77.944544748574572 49.340366568431023 0 49.340366568431023 20.797166038990326 0 0 0 0 -106.95960672619913 71.158615635846218 0 71.158615635846218 10.386563895602421 0 0 0 0 -102.33887980471263 85.774711611617931 0 85.774711611617931 54.909606952227477 0 0 0 0 -202.22718940461709 224.22981827876993 0 224.22981827876993 251.07164336672122 0 0 0 0 -101.34437522380904 33.806345846570366 0 33.806345846570366 -18.443113306560917 0 0 0 0 -231.32695013839111 -11.066868487113425 0 -11.066868487113425 -36.263044275619905 0 0 0 0 -188.61327720893314 61.560548719251528 0 61.560548719251528 57.69370196194518 0 0 0 0 -174.72924215065723 29.179707014407541 0 29.179707014407541 34.466326986079366 0 0 0 0 -198.6763640230638 78.480351019166847 0 78.480351019166847 -47.831102639983101 0 0 0 0 -87.483127267189047 53.688417817451409 0 53.688417817451409 59.699924851068317 0 0 0 0 -92.314382408789243 67.497052453441029 0 67.497052453441029 24.881854077610569 0 0 0 0 -81.690917641488696 30.019303567009082 0 30.019303567009082 -10.129616702518678 0 0 0 0 -78.357534380291327 113.54653854275739 0 113.54653854275739 79.42944480922506 0 0 0 0 -75.446773119109821 138.59105280153949 0 138.59105280153949 107.43264579918832 0 0 0 0 -58.301722260002862 101.68146606030768 0 101.68146606030768 10.107545682006275 0 0 0 0 -88.446343781298381 33.80057226250743 0 33.80057226250743 -9.0067251609943906 0 0 0 0 -224.94843971719092 69.700305014832338 0 69.700305014832338 47.331163437800569 0 0 0 0 -37.940944762064646 121.00756046721062 0 121.00756046721062 20.31214901623207 0 0 0 0 -49.112199494351444 131.52587671229458 0 131.52587671229458 13.355663746858227 0 0 0 0 -32.548976998697981 159.64635530592022 0 159.64635530592022 53.273577022106565 0 0 0 0 -100.65805080845166 189.37814423570399 0 189.37814423570399 113.9450046588006 0 0 0 0 -51.442134793361674 190.13625213046475 0 190.13625213046475 4.1790639507025844 0 0 0 0 -58.157921562238698 97.740754914664649 0 97.740754914664649 162.51375439932872 0 0 0 0 -21.440461881362552 196.9279012035586 0 196.9279012035586 174.26416139995672 0 0 0 0 -68.712920544439385 177.84906148390075 0 177.84906148390075 29.193015974554328 0 0 0 0 -79.676662976729858 129.04363250768029 0 129.04363250768029 108.19025513354563 0 0 0 0 -80.043567475949203 166.6953359998538 0 166.6953359998538 8.8436985234670829 0 0 0 0 -68.989897451920115 154.91242833524348 0 154.91242833524348 -242.35243966435837 0 0 0 0 -277.26309312164426 180.57849077753019 0 180.57849077753019 32.387146371928793 0 0 0 0 233.64107242652699 171.11602681773411 0 171.11602681773411 -39.509386568485752 0 0 0 0 1.3195227573867472 -0.37718812406046354 0 -0.37718812406046354 0.83484661166876251 0 0 0 0 -3.6991566015949502 125.2519786583498 0 125.2519786583498 13.435253655536144 0 0 0 0 -8.6670381155054201 161.52693096649364 0 161.52693096649364 -11.335860000912362 0 0 0 0 15.590449268782322 110.28077861652093 0 110.28077861652093 -177.70459032365852 0 0 0 0 3.8772733961286576 106.33510743106172 0 106.33510743106172 36.175372319180951 0 0 0 0 30.375844276617954 93.945559810629675 0 93.945559810629675 -74.58695783229723 0 0 0 0 -23.551705071700781 16.898440092700184 0 16.898440092700184 -116.66217174353187 0 0 0 0 -2.7036884563181189 1.6311658474028334 0 1.6311658474028334 -0.3984740297210525 0 0 0 0 -2.5950553759457762 22.891055744850746 0 22.891055744850746 -84.470785829515137 0 0 0 0 14.86325187567536 26.480980011442171 0 26.480980011442171 -147.51229325436543 0 0 0 0 -226.42784897525416 43.043715611078824 0 43.043715611078824 -155.41393190198232 0 0 0 0 -0.93294657938016456 1.7359747201798328 0 1.7359747201798328 -0.47517709144805131 0 0 0 0 -52.177013134034951 87.64734317352179 0 87.64734317352179 -284.64458575250319 0 0 0 0 -129.90516500832746 31.217083578982056 0 31.217083578982056 136.74840529354913 0 0 0 0 4.813943254053811 -9.3525258530962674 0 -9.3525258530962674 30.016929302441895 0 0 0 0 5.8273321338974711 15.116591341482945 0 15.116591341482945 -25.924414727357544 0 0 0 0 -41.612661800037131 8.5922315847069513 0 8.5922315847069513 25.168164961347429 0 0 0 0 -105.82800574836892 72.237175765060101 0 72.237175765060101 -19.968642373279181 0 0 0 0 -3.890001802583356 2.6252711842444114 0 2.6252711842444114 41.375433693979176 0 0 0 0 -22.556623293628945 39.575060157143525 0 39.575060157143525 117.96652890695555 0 0 0 0 28.547523707802156 35.8315377341969 0 35.8315377341969 18.28506892945552 0 0 0 0 -9.1878089895435551 14.72015517050022 0 14.72015517050022 13.156333174016481 0 0 0 0 -16.753640731776613 14.401010159619545 0 14.401010159619545 -32.86950139243072 0 0 0 0 9.2324978160813771 20.678660869652049 0 20.678660869652049 -32.846170393098873 0 0 0 0 -33.666002239318914 58.388301067450129 0 58.388301067450129 -90.80580154962081 0 0 0 0 -31.320495177827581 80.142950051608864 0 80.142950051608864 -31.588047299737809 0 0 0 0 -8.3877138114535228 49.409644078188194 0 49.409644078188194 -11.786634375825088 0 0 0 0 -51.262429066297045 37.727736222080239 0 37.727736222080239 -14.051759204857262 0 0 0 0 -44.795185334552116 36.819887374802875 0 36.819887374802875 -15.869254152221401 0 0 0 0 -0.56800213861190585 0.84360023351722901 0 0.84360023351722901 2.1731516518281886 0 0 0 0 -16.18963450809224 43.098932042003071 0 43.098932042003071 -45.105916905342156 0 0 0 0 -10.521368696758643 2.8846354904655129 0 2.8846354904655129 10.811288427672201 0 0 0 0 -36.810797802031246 31.861077535521602 0 31.861077535521602 28.527344333692781 0 0 0 0 -36.731468419678095 2.6522295166405456 0 2.6522295166405456 15.310857599379688 0 0 0 0 -32.400265542943998 35.134749649650985 0 35.134749649650985 -29.163169520772499 0 0 0 0 -25.913805146686173 43.58508057048698 0 43.58508057048698 -18.313720705805281 0 0 0 0 -23.812107161322274 21.304678676761796 0 21.304678676761796 -26.787753935114551 0 0 0 0 -18.258646623186905 24.060538903069414 0 24.060538903069414 -26.486206388844948 0 0 0 0 -22.698276634724607 20.92743899332072 0 20.92743899332072 -15.53039008138694 0 0 0 0 -14.112942762414605 27.011614911970355 0 27.011614911970355 -31.103104445666986 0 0 0 0 -13.457120179666163 21.995503942339383 0 21.995503942339383 -20.380518922169358 0 0 0 0 -4.4772487600580888 10.731169958863576 0 10.731169958863576 -1.6496046470196077 0 0 0 0 -19.300284579555409 25.592430481264273 0 25.592430481264273 -2.2929458216131025 0 0 0 0 29.550109509610593 82.926978783088998 0 82.926978783088998 161.07905480947647 0 0 0 0 -10.239346968319296 25.975973476433865 0 25.975973476433865 -17.860995360001198 0 0 0 0 -0.042005926025858287 1.3089836390068079 0 1.3089836390068079 -2.4090735996079626 0 0 0 0 -14.497877226869605 16.270305721529439 0 16.270305721529439 235.76406027852681 0 0 0 0 35.40039662935942 79.484200789524834 0 79.484200789524834 162.30316495966508 0 0 0 0 40.304421345493211 58.972596251264747 0 58.972596251264747 160.16484214703178 0 0 0 0 30.486696673294773 78.873913296016667 0 78.873913296016667 158.52372049793667 0 0 0 0 -2.5305832412948348 -0.0099203209224985045 0 -0.0099203209224985045 2.6130700986953341 0 0 0 0 1.0035757280220423 46.768927718909708 0 46.768927718909708 133.97235043394221 0 0 0 0 -0.37507316984101635 24.524923544144258 0 24.524923544144258 127.70182768754603 0 0 0 0 9.3171569893165724 44.566521652797746 0 44.566521652797746 129.51893023270577 0 0 0 0 -5.1811268870345799 5.7490880359264693 0 5.7490880359264693 12.24599705630885 0 0 0 0 -6.537325304638216 2.9104014263423323 0 2.9104014263423323 15.211818164591477 0 0 0 0 -12.160328833080712 16.411896446322316 0 16.411896446322316 -15.753371424179619 0 0 0 0 -6.2939889194640273 2.0880610583724319 0 2.0880610583724319 9.5691414341049494 0 0 0 0 -73.94693166034358 -26.436077804009471 0 -26.436077804009471 10.478069013601726 0 0 0 0 -0.9749353971606638 0.014252848827939424 0 0.014252848827939424 -0.18547772398038553 0 0 0 0 -13.109044431294024 75.595667917121773 0 75.595667917121773 -0.95672307152858593 0 0 0 0 9.5012219575983181 6.9720556680622394 0 6.9720556680622394 76.893894369518875 0 0 0 0 9.2999445020382154 99.714014411981339 0 99.714014411981339 -24.481418832275267 0 0 0 0 -62.699928903966793 90.416521158339492 0 90.416521158339492 -16.672867063764897 0 0 0 0 1.370632164138442 74.950259050848274 0 74.950259050848274 41.444274028153814 0 0 0 0 -103.98490044374921 81.96400622415058 0 81.96400622415058 13.682665394517244 0 0 0 0 -117.84923495866678 84.016322025499903 0 84.016322025499903 -2.0770388372723119 0 0 0 0 -130.74998106052374 56.295852882404915 0 56.295852882404915 -10.058198929906212 0 0 0 0 -95.033004301654728 52.052787523504776 0 52.052787523504776 -80.99884109598861 0 0 0 0 -63.776505769337746 82.029007172256115 0 82.029007172256115 -65.879018220271973 0 0 0 0 -129.664562746093 64.050110091778151 0 64.050110091778151 -34.668675673987309 0 0 0 0 -35.637028737284709 220.00432657061583 0 220.00432657061583 -88.188353896605463 0 0 0 0 -1.8990496950327298 2.2309112973915823 0 2.2309112973915823 -0.72440471450373778 0 0 0 0 -14.045928068975627 12.578709117838798 0 12.578709117838798 196.65243066986568 0 0 0 0 -34.899449018219457 107.82224833654618 0 107.82224833654618 -128.12920301353734 0 0 0 0 9.0279953223689517 123.35843156831061 0 123.35843156831061 17.153877271578494 0 0 0 0 -11.779919305070507 159.05212442195625 0 159.05212442195625 -42.053375491553879 0 0 0 0 -36.525280387912062 209.25485424851695 0 209.25485424851695 58.890634854504015 0 0 0 0 34.017513370979941 136.88965660363056 0 136.88965660363056 72.7440515092635 0 0 0 0 28.620653466921794 126.2445678885806 0 126.2445678885806 85.159051943429404 0 0 0 0 46.910579340865297 137.30693233332295 0 137.30693233332295 92.26001971503274 0 0 0 0 32.586016266875959 140.93078146450216 0 140.93078146450216 105.33020938843163 0 0 0 0 42.085810517619393 110.48550395648863 0 110.48550395648863 97.192205054256419 0 0 0 0 37.513811324015478 120.09872701617428 0 120.09872701617428 139.54700202868662 0 0 0 0 31.344765296697005 88.426725986621477 0 88.426725986621477 112.64297355003009 0 0 0 0 27.878041531985218 72.97836540732942 0 72.97836540732942 95.285417735836745 0 0 0 0 35.911330674049168 122.31721374800122 0 122.31721374800122 74.6023764171332 0 0 0 0 23.714537357976951 87.416387349159777 0 87.416387349159777 48.284947612220094 0 0 0 0 27.520111616167924 135.14839487493282 0 135.14839487493282 18.446298292967185 0 0 0 0 14.579841982248581 42.847293831357888 0 42.847293831357888 -4.6536308369468316 0 0 0 0 -9.488544503254321 32.583547702299093 0 32.583547702299093 -4.59261972602126 0 0 0 0 -6.9666782512388181 45.607744603412243 0 45.607744603412243 -13.222690579560549 0 0 0 0 -13.011591396237236 31.355029893780056 0 31.355029893780056 15.047441601796891 0 0 0 0 106.95079788652015 73.034176550547414 0 73.034176550547414 -1.1156949011237884 0 0 0 0 -15.412589836458503 40.473059871079812 0 40.473059871079812 2.4777879362695998 0 0 0 0 11.192768889271974 37.116829868312379 0 37.116829868312379 4.8864953650804637 0 0 0 0 106.57393321382551 105.87452057427004 0 105.87452057427004 -8.0169397443614798 0 0 0 0 71.081555987708271 111.72615331351062 0 111.72615331351062 0.4333579756121253 0 0 0 0 78.357432396482182 111.43931379121295 0 111.43931379121295 -15.054889336404813 0 0 0 0 80.503288667590823 103.39246151393672 0 103.39246151393672 12.560918570272406 0 0 0 0 54.56845086679823 125.3902155676742 0 125.3902155676742 -7.1429417338185885 0 0 0 0 78.328338181469007 86.116857285039487 0 86.116857285039487 5.8364164554504896 0 0 0 0 -21.923579855523879 39.600344000245926 0 39.600344000245926 4.6849355160201434 0 0 0 0 -2.4482193252206343 51.511823519724373 0 51.511823519724373 3.5386677766591674 0 0 0 0 -32.574288519404945 76.631629167707842 0 76.631629167707842 41.20926497795304 0 0 0 0 19.142467673736974 83.850062151180509 0 83.850062151180509 9.884174951558407 0 0 0 0 -11.543951730845947 40.31121518967359 0 40.31121518967359 8.5528698741710514 0 0 0 0 -12.205948692246544 33.373580560824912 0 33.373580560824912 14.681165619981282 0 0 0 0 -27.497648438394265 23.689812181136883 0 23.689812181136883 -0.14651046621826946 0 0 0 0 -0.32195513563544864 45.084704547969977 0 45.084704547969977 26.983450765025282 0 0 0 0 -12.81286625102075 14.066224852344476 0 14.066224852344476 54.419400668816479 0 0 0 0 -19.499182653927946 8.2504487120016297 0 8.2504487120016297 -4.1203373925061229 0 0 0 0 13.179007346073924 6.2127396350851285 0 6.2127396350851285 1.4709796227319814 0 0 0 0 -11.996474064661925 35.094038909096753 0 35.094038909096753 2.1561965454583287 0 0 0 0 -131.15523246324892 49.55240955695389 0 49.55240955695389 -37.956689316263692 0 0 0 0 -129.44027869368142 65.262787414209242 0 65.262787414209242 -31.730107816072632 0 0 0 0 -9.0156429408789336 29.29712271328242 0 29.29712271328242 -14.283405975775622 0 0 0 0 -7.668765025312041 50.680119391532202 0 50.680119391532202 -18.456907785684415 0 0 0 0 16.484416990206395 18.980102977601064 0 18.980102977601064 4.6703935770244707 0 0 0 0 -18.750010821348496 48.080507888462478 0 48.080507888462478 -7.6409501471466683 0 0 0 0 -22.97549792738937 64.013001029795305 0 64.013001029795305 -67.662528856039444 0 0 0 0 -31.955105611896215 25.170425314493968 0 25.170425314493968 21.504082893662144 0 0 0 0 -121.59091348677794 65.408426490268312 0 65.408426490268312 4.4134186918245177 0 0 0 0 8.8505994259661378 65.9790528571001 0 65.9790528571001 42.321970748171225 0 0 0 0 -32.408061330328465 25.709084537117963 0 25.709084537117963 -10.863019200771916 0 0 0 0 -15.823889508463253 80.922597094407138 0 80.922597094407138 -10.54773689124994 0 0 0 0 -6.3895124491900788 23.301173637576539 0 23.301173637576539 8.501057875701008 0 0 0 0 -3.0362899350730004 18.667815884273296 0 18.667815884273296 4.7729443181160605 0 0 0 0 -4.6622615312735434 36.420225305021631 0 36.420225305021631 -4.2576720950892195 0 0 0 0 3.0127381760101439 31.983429343625943 0 31.983429343625943 4.7839818523713298 0 0 0 0 9.7192769781250732 23.006180504149341 0 23.006180504149341 -4.0510987477259235 0 0 0 0 -29.446757048371637 73.353327107857695 0 73.353327107857695 137.72506979084937 0 0 0 0 -25.805187750343066 121.93668056857223 0 121.93668056857223 48.119104189194331 0 0 0 0 -21.901838429749628 7.2917365572062529 0 7.2917365572062529 3.7030746536023074 0 0 0 0 -42.27171024057148 40.289765774605186 0 40.289765774605186 10.205207093141269 0 0 0 0 -2.9659718477932984 98.045504186022299 0 98.045504186022299 72.861625794866995 0 0 0 0 -6.4014029805834198 5.864395335809931 0 5.864395335809931 -4.6081090657495274 0 0 0 0 87.95755971767403 28.336441105256199 0 28.336441105256199 -37.041519525222611 0 0 0 0 -11.405851223405193 41.282705205597949 0 41.282705205597949 -17.299850627833166 0 0 0 0 25.202914799264619 37.797784764377681 0 37.797784764377681 -21.422767695113574 0 0 0 0 -9.5344552781026159 29.41410832026574 0 29.41410832026574 2.7607753227227292 0 0 0 0 12.82984817130091 41.159155920999865 0 41.159155920999865 -3.4118819027225982 0 0 0 0 -32.107498503296895 45.144177785824695 0 45.144177785824695 16.66331075999824 0 0 0 0 5.2358786046024761 30.539515245021903 0 30.539515245021903 12.799223100422751 0 0 0 0 89.859407198707231 36.859977067811997 0 36.859977067811997 -151.51120789151901 0 0 0 0 37.392925104638039 33.37395939286273 0 33.37395939286273 -3.2886961781798671 0 0 0 0 101.95026443770621 55.623751587810602 0 55.623751587810602 -34.05567693645844 0 0 0 0 93.978141457770107 78.300327904622236 0 78.300327904622236 -28.636161001748405 0 0 0 0 100.79352402320364 67.219155774354931 0 67.219155774354931 -16.558238420089765 0 0 0 0 118.21696975720261 94.03111664541666 0 94.03111664541666 23.08540844705567 0 0 0 0 97.179832481429912 67.86633434678015 0 67.86633434678015 4.8747239467375039 0 0 0 0 21.759153332432945 7.2152584489104115 0 7.2152584489104115 -7.7962855155663817 0 0 0 0 83.456460326633533 52.872136892589424 0 52.872136892589424 -7.8380685739048204 0 0 0 0 18.547808906400505 18.52931700509729 0 18.52931700509729 5.6143586754813661 0 0 0 0 113.7160139096668 -19.996382130203074 0 -19.996382130203074 0.48951512714756973 0 0 0 0 -5.1395150737225777 34.786900102766595 0 34.786900102766595 -9.0196216603890207 0 0 0 0 -6.0185310118031339 29.686776300806741 0 29.686776300806741 -4.9423622710661448 0 0 0 0 -6.1902412398985689 28.729659730699723 0 28.729659730699723 -10.235545079203803 0 0 0 0 -6.8788169625324755 14.55444227603904 0 14.55444227603904 13.366792926110048 0 0 0 0 -15.738426127736602 7.6753372422945176 0 7.6753372422945176 1.2732569738527673 0 0 0 0 -58.285297843009175 51.600148087520438 0 51.600148087520438 -2.815263156169749 0 0 0 0 -76.209799812283521 41.071905689618774 0 41.071905689618774 -0.82977399282162878 0 0 0 0 66.452480594084818 46.217724409104449 0 46.217724409104449 -22.116935673149783 0 0 0 0 16.250756656857106 42.153997776970982 0 42.153997776970982 -4.2059249616377201 0 0 0 0 -6.9304310340405362 22.091712227206596 0 22.091712227206596 -6.5765471655807275 0 0 0 0 6.7924381802664691 24.584842214180568 0 24.584842214180568 -13.038574685760608 0 0 0 0 -13.398936003627789 24.246550527091934 0 24.246550527091934 -11.028591500340212 0 0 0 0 3.5306535668694563 18.634155165260943 0 18.634155165260943 -12.650178869486588 0 0 0 0 21.352301217128115 112.07678339118593 0 112.07678339118593 27.917720245086457 0 0 0 0 83.094339779669099 18.363534948820416 0 18.363534948820416 -9.0705880505411187 0 0 0 0 4.440885446821774 11.348842669052715 0 11.348842669052715 17.106395303543579 0 0 0 0 -52.774853879323928 47.044773999039535 0 47.044773999039535 -4.9862699065561173 0 0 0 0 -41.490052657456545 26.047882254816614 0 26.047882254816614 33.088805183288059 0 0 0 0 -29.233953752202364 19.946400851337245 0 19.946400851337245 -7.0658705954114236 0 0 0 0 9.1312073400850977 51.962274119401627 0 51.962274119401627 9.6842593462088189 0 0 0 0 38.633122703028675 79.293540837381443 0 79.293540837381443 17.071755706037948 0 0 0 0 28.370895911960247 39.142991615800383 0 39.142991615800383 -17.757532659768003 0 0 0 0 26.994011507638106 34.454384288247638 0 34.454384288247638 -13.412698462342632 0 0 0 0 -12.43311834697343 44.75761643596752 0 44.75761643596752 1.1486771215024874 0 0 0 0 4.8778235020499778 44.630118753473653 0 44.630118753473653 1.0544673451622657 0 0 0 0 14.421966426615839 13.722148052477657 0 13.722148052477657 5.1811919043196468 0 0 0 0 11.39765903147611 26.319457186820955 0 26.319457186820955 -13.484584748165616 0 0 0 0 2.805595028873995 43.345190609591555 0 43.345190609591555 -20.441351534906062 0 0 0 0 15.595826935392331 15.342280388703172 0 15.342280388703172 3.6641825784154385 0 0 0 0 13.40440564879782 24.764019818846464 0 24.764019818846464 -21.313039105257303 0 0 0 0 -4.6198959319758295 18.754398075642122 0 18.754398075642122 -1.7333459224825063 0 0 0 0 -4.1835534317614105 52.867583831524414 0 52.867583831524414 -0.77067284067708153 0 0 0 0 -30.870872488889177 48.649928549023898 0 48.649928549023898 -1.893898925746079 0 0 0 0 -18.250394153285015 31.418107649384183 0 31.418107649384183 4.8327064832574251 0 0 0 0 -1.6255610692520222 8.1844268366384121 0 8.1844268366384121 -1.6592856858769895 0 0 0 0 -31.587430264673003 61.56573650366181 0 61.56573650366181 30.382101036139829 0 0 0 0 16.86161408881685 39.228517823670245 0 39.228517823670245 -38.300986008560358 0 0 0 0 -121.99914516271747 -15.521190545081481 0 -15.521190545081481 18.968906193662406 0 0 0 0 -57.05057071637566 137.13898489150051 0 137.13898489150051 -127.87315487145452 0 0 0 0 0.34047488307656693 4.8354689537096718 0 4.8354689537096718 3.9240360671038772 0 0 0 0 41.354984427398449 37.474794893839317 0 37.474794893839317 -12.937986693204039 0 0 0 0 -153.48186208149309 100.36037658024566 0 100.36037658024566 88.56622932566097 0 0 0 0 157.3292046757997 -62.36882414957654 0 -62.36882414957654 -313.22150285305361 0 0 0 0 40.694630541123843 30.610923821858705 0 30.610923821858705 -7.9297823619344854 0 0 0 0 -6.3034203182330737 21.369893902463204 0 21.369893902463204 -14.183523039282953 0 0 0 0 -101.7360934827193 17.284177531709247 0 17.284177531709247 40.336929787979898 0 0 0 0 0.69395546604201197 21.76490672545513 0 21.76490672545513 -9.9478441548902268 0 0 0 0 208.48291944015727 46.910781033857347 0 46.910781033857347 -120.50861443020403 0 0 0 0 140.35166507551912 -83.615422401540854 0 -83.615422401540854 169.71792677621124 0 0 0 0 2.9709138020916868 12.103214887655129 0 12.103214887655129 -3.4211161512302812 0 0 0 0 22.805823728287578 8.5362613816694193 0 8.5362613816694193 13.887355094018858 0 0 0 0 209.73555798115558 17.259147521966952 0 17.259147521966952 -67.468753528441084 0 0 0 0 7.1758656128348548 34.552859892763237 0 34.552859892763237 -10.281943039665121 0 0 0 0 -13.145665068343078 32.62642916914956 0 32.62642916914956 -7.2397052480519051 0 0 0 0 -12.871138070255256 27.120249434305151 0 27.120249434305151 -2.7664701721587335 0 0 0 0 2.960194546170924 20.15841851098801 0 20.15841851098801 -10.609285125792489 0 0 0 0 14.029480140019587 -3.220039272342774 0 -3.220039272342774 49.459932638397731 0 0 0 0 8.1551812653269735 38.581412749187621 0 38.581412749187621 30.509090964955249 0 0 0 0 -5.6643500435748138 31.449813576447923 0 31.449813576447923 121.22685903611273 0 0 0 0 13.445536962826736 -6.0190480442543048 0 -6.0190480442543048 46.860479196420783 0 0 0 0 69.494086897328089 -70.997384812484597 0 -70.997384812484597 98.554260047218122 0 0 0 0 119.30385041902628 46.367764553696361 0 46.367764553696361 -33.149286240641231 0 0 0 0 -0.17404060009693989 -0.94000009235581672 0 -0.94000009235581672 -0.82972314770125877 0 0 0 0 -7.8869119101564138 155.35216780195606 0 155.35216780195606 -122.1624647402241 0 0 0 0 -44.773618213068403 105.23630931739035 0 105.23630931739035 -63.867593041488362 0 0 0 0 -13.817365606515068 -2.4943944116710099 0 -2.4943944116710099 -28.261334787821397 0 0 0 0 -229.98345542071092 109.07099799140622 0 109.07099799140622 6.4801102571182128 0 0 0 0 9.1791637261173662 14.281248189944389 0 14.281248189944389 15.638204407628393 0 0 0 0 6.2795591926587804 103.26510042771042 0 103.26510042771042 -196.52780216067185 0 0 0 0 -44.610276174164028 30.081106834191814 0 30.081106834191814 30.423638202850725 0 0 0 0 -20.129138171541854 23.181045286896733 0 23.181045286896733 26.309923379828888 0 0 0 0 1.068228087737225 2.0380647741676512 0 2.0380647741676512 24.158512523230002 0 0 0 0 -41.93725729723019 1.6801739301340604 0 1.6801739301340604 31.953100798766172 0 0 0 0 -75.852036672826216 87.34618052750784 0 87.34618052750784 36.122477966985571 0 0 0 0 -24.72080843825097 4.008183844949599 0 4.008183844949599 18.028314126837586 0 0 0 0 143.57808393016603 109.13582564440458 0 109.13582564440458 42.027736158176594 0 0 0 0 11.059908340463153 -69.338743346982483 0 -69.338743346982483 46.887992809997741 0 0 0 0 -62.959745965718867 80.006333067900982 0 80.006333067900982 181.78754701239086 0 0 0 0 -14.654122737785656 -27.386705438486388 0 -27.386705438486388 56.978675096197094 0 0 0 0 -45.974060727914548 2.7372139171753815 0 2.7372139171753815 37.332349482536301 0 0 0 0 -56.059355781400882 4.5847976862293649 0 4.5847976862293649 1.7559337306638554 0 0 0 0 1.0500291125784997 -1.9426326218560632 0 -1.9426326218560632 1.5434126097384677 0 0 0 0 -0.56672569106638093 -0.54655249180331467 0 -0.54655249180331467 0.21782536381540041 0 0 0 0 -54.519799779227469 -88.221531157258141 0 -88.221531157258141 -59.914165071535535 0 0 0 0 -62.492525882291375 -25.398005908686628 0 -25.398005908686628 48.85247250678276 0 0 0 0 -0.36502883550629406 -0.57203870487941799 0 -0.57203870487941799 0.88023525059901253 0 0 0 0 -97.614232132073084 257.53441897392349 0 257.53441897392349 279.66297373793168 0 0 0 0 77.917234676398948 119.12851263766856 0 119.12851263766856 -153.9613263142237 0 0 0 0 24.000062762015659 37.166278269588247 0 37.166278269588247 -219.82811332653182 0 0 0 0 -18.831052118715888 70.814976686447153 0 70.814976686447153 305.92649443115897 0 0 0 0 -172.36457539217372 -145.94012456713926 0 -145.94012456713926 124.80219817086981 0 0 0 0 4.0838553687790409 -9.8860532592798336 0 -9.8860532592798336 -111.91610948291691 0 0 0 0 -79.727960368792992 -120.60642065674256 0 -120.60642065674256 86.889473547646958 0 0 0 0 11.92813560581483 4.3091977177164686 0 4.3091977177164686 2.3906083581387776 0 0 0 0 10.345593534315412 -153.08086000750882 0 -153.08086000750882 81.667643500581107 0 0 0 0 1.0192603293362481 19.717269868307994 0 19.717269868307994 0.57614136908887303 0 0 0 0 -0.58925218008062075 17.829358328049011 0 17.829358328049011 0.56618169730609225 0 0 0 0 -1.2979364516068017 19.667550258108349 0 19.667550258108349 0.58983126183375134 0 0 0 0 0.3944813688776776 17.819533435465246 0 17.819533435465246 0.54786705854257889 0 0 0 0 -7.0147675084745202 4.8425126332405384 0 4.8425126332405384 3.6862628965782083 0 0 0 0 87.176297966114362 238.01067666469589 0 238.01067666469589 301.96688312128373 0 0 0 0 82.758181124881958 236.00402958502809 0 236.00402958502809 346.3443524256927 0 0 0 0 71.429583563745837 229.21484630088526 0 229.21484630088526 329.77882378520553 0 0 0 0 62.964016446196638 175.80197573080116 0 175.80197573080116 255.32463784647371 0 0 0 0 0.038377401503694841 2.2064158826222364 0 2.2064158826222364 -2.2288295745611344 0 0 0 0 64.215971638863266 193.20029432470733 0 193.20029432470733 444.37018231313959 0 0 0 0 69.043855818934389 248.42805885081452 0 248.42805885081452 338.66782849237097 0 0 0 0 42.308092940904316 23.033502330486954 0 23.033502330486954 -8.9699352148527396 0 0 0 0 70.55090213305084 238.66789363954285 0 238.66789363954285 351.72343509136954 0 0 0 0 96.215973858321377 272.77095651764193 0 272.77095651764193 324.04993514662328 0 0 0 0 92.185260708447458 238.57790702335114 0 238.57790702335114 247.36401221661072 0 0 0 0 81.948497307224898 191.28954493288074 0 191.28954493288074 211.15998846753882 0 0 0 0 148.7695049062113 224.24178862317194 0 224.24178862317194 187.29773609430777 0 0 0 0 85.853302169634844 312.38348431705708 0 312.38348431705708 493.95590520990572 0 0 0 0 221.27041062990247 347.50047404872748 0 347.50047404872748 334.93319263410649 0 0 0 0 346.10964713295834 148.0967099394029 0 148.0967099394029 107.84499068914556 0 0 0 0 99.409222178685013 164.57286263864398 0 164.57286263864398 429.21274029902133 0 0 0 0 45.106858288043441 85.519786695284893 0 85.519786695284893 168.60945161871268 0 0 0 0 94.225530533893107 68.753092222780424 0 68.753092222780424 40.572984778311366 0 0 0 0 -109.82231704118749 4.9650026239633007 0 4.9650026239633007 70.706214683093094 0 0 0 0 13.680242832109798 50.335851006280791 0 50.335851006280791 -13.47910373564082 0 0 0 0 -20.005204943387071 91.203923560222393 0 91.203923560222393 -27.650970566725846 0 0 0 0 6.9533344217056765 97.614468227248267 0 97.614468227248267 37.643277091994605 0 0 0 0 25.063582642615074 95.095458220564069 0 95.095458220564069 40.131058906183171 0 0 0 0 50.992585675994633 56.85694464988228 0 56.85694464988228 -57.523264079260116 0 0 0 0 157.77619614054493 146.53585704979878 0 146.53585704979878 74.692193040299571 0 0 0 0 23.799386493563361 70.461617900021338 0 70.461617900021338 73.091378861053272 0 0 0 0 112.85208246060938 192.78315705722616 0 192.78315705722616 135.53160538850716 0 0 0 0 70.103613233062788 195.81957910661913 0 195.81957910661913 255.54116581928292 0 0 0 0 58.887753207367496 117.95766673901653 0 117.95766673901653 139.3731096269733 0 0 0 0 112.18319084705945 121.57620420257808 0 121.57620420257808 24.946483206856101 0 0 0 0 74.045561348887531 51.929166992560738 0 51.929166992560738 -46.524574245213444 0 0 0 0 66.310509902250487 86.726924514745406 0 86.726924514745406 65.105993760003912 0 0 0 0 78.806585326608911 104.07072264627186 0 104.07072264627186 -12.283576228906895 0 0 0 0 86.57832942569803 160.80744951316615 0 160.80744951316615 138.7169187289237 0 0 0 0 95.288169641986315 84.790836367671545 0 84.790836367671545 63.116338484755033 0 0 0 0 80.769882274624251 77.331057651757419 0 77.331057651757419 81.662900535686276 0 0 0 0 102.40290984111834 132.20254826298043 0 132.20254826298043 88.788531163534572 0 0 0 0 100.64615466749092 84.742277478534561 0 84.742277478534561 177.16972916719556 0 0 0 0 103.48662562970276 164.39202761737442 0 164.39202761737442 192.44938807411745 0 0 0 0 64.979782025693567 126.45582460288733 0 126.45582460288733 205.64356434781803 0 0 0 0 88.112498463084194 203.98778457376102 0 203.98778457376102 226.17633974066484 0 0 0 0 64.935364231190761 189.55946843515994 0 189.55946843515994 302.20550372008438 0 0 0 0 82.900944487337256 218.11380910538128 0 218.11380910538128 332.38227270637435 0 0 0 0 31.723904470039997 42.230493249046049 0 42.230493249046049 -94.150687037177704 0 0 0 0 81.369045237415776 40.527703730428357 0 40.527703730428357 -108.67745018110145 0 0 0 0 53.837330670463416 13.652646405248333 0 13.652646405248333 -113.07587702859382 0 0 0 0 68.127267810690682 48.061131720884077 0 48.061131720884077 -93.933461112303121 0 0 0 0 70.128090912861808 42.212849651416946 0 42.212849651416946 -87.780848944039462 0 0 0 0 67.812144033065124 63.806204456541309 0 63.806204456541309 -53.098638402665529 0 0 0 0 101.09629789253449 61.335385343645157 0 61.335385343645157 -53.780072119690885 0 0 0 0 75.354298793314229 82.987715201868923 0 82.987715201868923 5.5924873883795954 0 0 0 0 98.446713194614858 89.043043323025813 0 89.043043323025813 -9.9098292679118458 0 0 0 0 68.130485900677741 65.618820374065763 0 65.618820374065763 -2.8144689036730597 0 0 0 0 46.608446401303809 49.573970192727757 0 49.573970192727757 -60.181581540722618 0 0 0 0 94.727550478335615 43.885655598826816 0 43.885655598826816 -63.756115399004557 0 0 0 0 29.033705956746417 66.551855687152965 0 66.551855687152965 -50.693387997200261 0 0 0 0 57.987330553970423 8.7621000075756683 0 8.7621000075756683 -135.59216183336866 0 0 0 0 31.120840375755506 -44.379146896391831 0 -44.379146896391831 -203.60163376664514 0 0 0 0 -4.1709564541371975 3.5132142042138312 0 3.5132142042138312 -2.5767952381545012 0 0 0 0 13.883741141260543 8.6859057827969082 0 8.6859057827969082 -89.242966354174314 0 0 0 0 23.62779187590786 32.352764851274515 0 32.352764851274515 -151.78538298288822 0 0 0 0 -40.295320556142542 -19.080860640345691 0 -19.080860640345691 -140.5110455097365 0 0 0 0 45.683947208268364 37.014282140721889 0 37.014282140721889 -160.46645876201546 0 0 0 0 -11.59242661078315 69.537346721717768 0 69.537346721717768 -58.053036687281292 0 0 0 0 -23.140697166294558 57.205879236311375 0 57.205879236311375 -212.80873751226363 0 0 0 0 6.478379878855776 13.105052706279253 0 13.105052706279253 -176.26599445404099 0 0 0 0 -510.63122798290715 72.986000774663808 0 72.986000774663808 -323.25123945025507 0 0 0 0 -5.8328676817488798 3.3704870283637725 0 3.3704870283637725 -2.4311259405646499 0 0 0 0 5.7338798360069632 -72.341667996365572 0 -72.341667996365572 -348.41347584027335 0 0 0 0 37.294196142609508 62.698949693676354 0 62.698949693676354 71.506916142439422 0 0 0 0 55.620624330887949 40.816662702327903 0 40.816662702327903 56.213891403378511 0 0 0 0 24.665117173623003 34.867204318668428 0 34.867204318668428 58.94056732131412 0 0 0 0 13.811365097772068 54.022976399866906 0 54.022976399866906 102.83728846860447 0 0 0 0 20.888076781164273 53.741204009561201 0 53.741204009561201 63.598367281584444 0 0 0 0 32.786580590523954 42.354710816561237 0 42.354710816561237 65.125506211552874 0 0 0 0 1.2616176906685723 46.187287259122584 0 46.187287259122584 39.94154242960326 0 0 0 0 21.910241958921688 52.896251135967375 0 52.896251135967375 51.903108755386313 0 0 0 0 1.5009055407099368 49.205400531932582 0 49.205400531932582 68.459332364014244 0 0 0 0 15.623778228633455 56.860676634062656 0 56.860676634062656 70.392715515418331 0 0 0 0 211.77664392189035 -371.9895932911586 0 -371.9895932911586 -561.23889134321189 0 0 0 0 -222.15673406910901 1.9889919564759566 0 1.9889919564759566 -316.83964568591182 0 0 0 0 -11.19619951889625 7.3874220396948331 0 7.3874220396948331 -5.0396822722098715 0 0 0 0 24.077332911234407 -145.72789941187602 0 -145.72789941187602 -426.95093661394412 0 0 0 0 -23.52906903133362 14.175059435742455 0 14.175059435742455 -9.1096946921803497 0 0 0 0 -8.589612056966871 51.163293692992511 0 51.163293692992511 47.429414347584043 0 0 0 0 -24.24653718593072 50.547265314388213 0 50.547265314388213 10.797954108193608 0 0 0 0 -34.184418195265152 25.612860562244222 0 25.612860562244222 -8.3178240206986747 0 0 0 0 -98.835881046390568 127.47397788255785 0 127.47397788255785 -257.29951205701582 0 0 0 0 -19.163439256586571 37.874368858372335 0 37.874368858372335 30.728466078624166 0 0 0 0 9.6247906783173676 71.777360414897885 0 71.777360414897885 -58.6943701950986 0 0 0 0 8.5195228986740403 -119.94816573646926 0 -119.94816573646926 -449.45063933341044 0 0 0 0 -1.0119992766635733 1.8168215370064047 0 1.8168215370064047 -1.5873629659685964 0 0 0 0 36.925803796286345 27.69284526487354 0 27.69284526487354 -74.335639470846218 0 0 0 0 21.920672833628487 154.89483826216474 0 154.89483826216474 -200.54393612180914 0 0 0 0 30.517054689466022 181.61008124506861 0 181.61008124506861 -121.33960532034052 0 0 0 0 60.815384057248593 108.53512870418217 0 108.53512870418217 -147.2467841888656 0 0 0 0 60.981305038060782 104.94406380038939 0 104.94406380038939 -78.797354732520034 0 0 0 0 61.506275744148297 135.82114220299172 0 135.82114220299172 -99.608028136864959 0 0 0 0 82.841390392874018 107.91100464126566 0 107.91100464126566 -101.89717273295628 0 0 0 0 63.364917068582145 124.33123185079421 0 124.33123185079421 -30.558942750162259 0 0 0 0 103.34253306072787 85.059058295157229 0 85.059058295157229 -76.748397239893166 0 0 0 0 125.38573201446707 1.5318445993843852 0 1.5318445993843852 -110.99717433196383 0 0 0 0 93.210747756966157 39.324051564831279 0 39.324051564831279 -138.44210597370511 0 0 0 0 52.130505656976311 -14.211198554808107 0 -14.211198554808107 -206.66587135114344 0 0 0 0 -452.89402843687276 -231.11534516260781 0 -231.11534516260781 -219.01575081631199 0 0 0 0 -249.89297278246886 291.24275525222515 0 291.24275525222515 -214.60729646792606 0 0 0 0 47.918134195133462 38.901529309456464 0 38.901529309456464 -488.78568042933148 0 0 0 0 -3.2949288203072342 0.89590003647732885 0 0.89590003647732885 -0.93955070216424019 0 0 0 0 57.81672886403976 -66.247994775070765 0 -66.247994775070765 -737.57673975368107 0 0 0 0 -90.432740660551644 -31.600936753723545 0 -31.600936753723545 -199.72892976877051 0 0 0 0 493.15267336774923 -569.28927037565654 0 -569.28927037565654 -618.26977423028711 0 0 0 0 -629.09500502170704 319.64166041968747 0 319.64166041968747 -348.27540017351112 0 0 0 0 -97.478884604679479 86.7159159603425 0 86.7159159603425 114.24779517850993 0 0 0 0 -3.8085301261213971 1.2529109203540045 0 1.2529109203540045 -0.997290631711099 0 0 0 0 -171.60117236149017 194.40461122992474 0 194.40461122992474 -12.235682298606662 0 0 0 0 -11.684250604357658 91.664849586568607 0 91.664849586568607 -219.31306522742489 0 0 0 0 -68.919689053516777 152.06298892886161 0 152.06298892886161 -282.64728041980106 0 0 0 0 -86.304389693352277 48.395509076703092 0 48.395509076703092 -410.74218606090017 0 0 0 0 -101.10469965638185 263.75024097649884 0 263.75024097649884 -273.99400213691297 0 0 0 0 -72.479223290472873 141.97366351732217 0 141.97366351732217 -63.597224807928797 0 0 0 0 -68.338540291093523 219.68843031083816 0 219.68843031083816 -145.73143353705973 0 0 0 0 -9.2697507115226472 145.64223504726533 0 145.64223504726533 -65.822113435554911 0 0 0 0 -121.30873943396 170.34358884436597 0 170.34358884436597 -20.031420000483195 0 0 0 0 -54.05575488213799 97.351068018928117 0 97.351068018928117 47.433894824249819 0 0 0 0 -44.465364783478435 112.35944415172071 0 112.35944415172071 65.790629176105995 0 0 0 0 -59.753292091229014 165.53656471263622 0 165.53656471263622 14.526588815332616 0 0 0 0 22.966569607429847 13.475216187053093 0 13.475216187053093 68.984486347022539 0 0 0 0 -90.527418093048254 65.465300773835111 0 65.465300773835111 67.009022352711327 0 0 0 0 -38.343815266758611 46.847424999790292 0 46.847424999790292 77.822774409525664 0 0 0 0 -48.210871011215204 73.622229692985002 0 73.622229692985002 53.050762084436883 0 0 0 0 -38.429162334294233 27.56849194670076 0 27.56849194670076 77.048032791466085 0 0 0 0 21.973111882118246 38.209048313518224 0 38.209048313518224 68.697724784945422 0 0 0 0 1.6007929908741971 70.869250265975836 0 70.869250265975836 91.250663201997668 0 0 0 0 4.098374462184438 35.517345772212195 0 35.517345772212195 74.774144276398772 0 0 0 0 -15.185996486903605 61.688879190070054 0 61.688879190070054 127.08146516268937 0 0 0 0 16.000806321404525 75.931369498109746 0 75.931369498109746 87.209265316261792 0 0 0 0 3.3384512295524473 133.16964732666622 0 133.16964732666622 87.232973563374401 0 0 0 0 3.342245351166639 109.69953372331429 0 109.69953372331429 61.443768808979712 0 0 0 0 32.3685846017529 86.28878588542436 0 86.28878588542436 154.5735390958032 0 0 0 0 27.081223597473581 161.59913990719429 0 161.59913990719429 89.701223608002238 0 0 0 0 -19.556187888752902 136.90985426686251 0 136.90985426686251 102.64846754718235 0 0 0 0 23.499357642208452 182.99311076826743 0 182.99311076826743 67.320558765434726 0 0 0 0 31.943526541841493 142.30386186655252 0 142.30386186655252 52.850581678088929 0 0 0 0 10.346937306385371 174.3824125112601 0 174.3824125112601 27.854513386310828 0 0 0 0 18.623798038185441 176.31088815510057 0 176.31088815510057 10.78327989488389 0 0 0 0 19.857084030976694 148.91878049091792 0 148.91878049091792 -12.352159179908995 0 0 0 0 37.379780034112628 157.34647990106737 0 157.34647990106737 -35.766022854078983 0 0 0 0 -19.599905655288239 175.84785429816873 0 175.84785429816873 -28.924421758644712 0 0 0 0 63.539214287156938 131.15603184718702 0 131.15603184718702 -36.941251381570055 0 0 0 0 36.804953454280621 154.83197846836174 0 154.83197846836174 -34.409867419644115 0 0 0 0 37.46204478296022 149.32110546851135 0 149.32110546851135 0.19915066242265311 0 0 0 0 35.237152084810077 140.82666234735916 0 140.82666234735916 8.5514408046392418 0 0 0 0 39.132927030877909 127.76399299780405 0 127.76399299780405 19.094517839292166 0 0 0 0 12.523258235771209 136.09624147270608 0 136.09624147270608 54.400244739223581 0 0 0 0 10.928106564475456 124.50058553596023 0 124.50058553596023 23.394084979914624 0 0 0 0 11.307632074422145 149.6364368739537 0 149.6364368739537 24.128304022692191 0 0 0 0 12.125087637643446 154.23075786936283 0 154.23075786936283 32.772104928707222 0 0 0 0 -17.498025238823175 135.08450667109418 0 135.08450667109418 98.154987536993872 0 0 0 0 -33.640407442930155 107.56432140707011 0 107.56432140707011 51.402586287443924 0 0 0 0 -42.682903563392756 44.892869769182887 0 44.892869769182887 21.428106571854471 0 0 0 0 -64.286595442346879 62.817027197510242 0 62.817027197510242 143.62618836106478 0 0 0 0 -50.494976520390651 20.460641426400333 0 20.460641426400333 0.41230212597571292 0 0 0 0 -54.205583854770339 24.371422818901351 0 24.371422818901351 -1.3799471700494905 0 0 0 0 -68.102374079093352 50.187392941416874 0 50.187392941416874 15.367827621061224 0 0 0 0 17.508840388924 11.327341516342813 0 11.327341516342813 -33.196636479075096 0 0 0 0 -3.8219000235038543 28.194099052773794 0 28.194099052773794 -6.0237204611251727 0 0 0 0 -62.724986252229428 42.601916527827598 0 42.601916527827598 -0.29102338496977609 0 0 0 0 132.18038156931925 181.74808460376866 0 181.74808460376866 179.68558034977923 0 0 0 0 -9.2020173980468662 5.9455030452894775 0 5.9455030452894775 -0.22589518730612101 0 0 0 0 -79.851259892275266 11.071837716706469 0 11.071837716706469 237.70111695445743 0 0 0 0 -54.70204815631493 17.883519867045869 0 17.883519867045869 -0.70090418471999349 0 0 0 0 -31.073705330847588 37.23613619629765 0 37.23613619629765 48.379911919962296 0 0 0 0 49.028447136559407 211.23976777592503 0 211.23976777592503 174.75666551253357 0 0 0 0 130.57556592782203 106.11298155934264 0 106.11298155934264 114.06863463442558 0 0 0 0 63.69356557809806 58.264432421596041 0 58.264432421596041 165.97637378310014 0 0 0 0 31.053327746209106 147.8552218220093 0 147.8552218220093 238.76282378866745 0 0 0 0 10.13739903410351 98.069000020406861 0 98.069000020406861 169.67375681917656 0 0 0 0 4.6514890161706717 86.508625332958331 0 86.508625332958331 167.8118718115004 0 0 0 0 35.320858986742678 100.24015721355431 0 100.24015721355431 137.080571525219 0 0 0 0 -3.8441525066757407 -0.25971477653223651 0 -0.25971477653223651 0.71558515121786481 0 0 0 0 -34.474263751846593 168.96331834481657 0 168.96331834481657 326.88061619235077 0 0 0 0 54.069242272322299 83.017940922390608 0 83.017940922390608 164.10006369869052 0 0 0 0 -6.4561041492343065 28.468781882236726 0 28.468781882236726 -35.444206695251069 0 0 0 0 -5.8337596044096216 5.5150996874983438 0 5.5150996874983438 -2.4975497749850173 0 0 0 0 69.803114717593417 140.81861271244634 0 140.81861271244634 155.67416859248988 0 0 0 0 65.416437605388637 134.5575797636036 0 134.5575797636036 180.87218116907695 0 0 0 0 -3.0508424958243268 18.888779926815005 0 18.888779926815005 -52.393718914691362 0 0 0 0 -15.127999086209456 69.422248925795429 0 69.422248925795429 -90.703190616135544 0 0 0 0 -115.22165168020365 272.59011800460439 0 272.59011800460439 -142.02006886256095 0 0 0 0 8.4079841031343676 49.334618532199215 0 49.334618532199215 -333.22205737558124 0 0 0 0 -107.10352266165046 102.43589035957325 0 102.43589035957325 108.75850544037803 0 0 0 0 -111.2161831452031 38.953477109279447 0 38.953477109279447 79.963731518816076 0 0 0 0 -51.320120063734066 58.908251592521083 0 58.908251592521083 24.371787864323323 0 0 0 0 -99.02201550601967 118.14237251171858 0 118.14237251171858 -23.814603118632476 0 0 0 0 -8.6132203015913547 51.804219604612172 0 51.804219604612172 -23.375046309291065 0 0 0 0 6.3976420205637679 26.556908983746148 0 26.556908983746148 -10.825938719200465 0 0 0 0 -51.914980660643778 48.321130354355773 0 48.321130354355773 -9.234138604088912 0 0 0 0 -196.7281859770228 -107.4497179728578 0 -107.4497179728578 -28.43714114259501 0 0 0 0 -106.88265797185886 88.6313811968339 0 88.6313811968339 -61.382821428973557 0 0 0 0 -3.0372352895860963 9.1619050011103802 0 9.1619050011103802 1.5544803965005691 0 0 0 0 -188.89857033769113 25.973751849999417 0 25.973751849999417 16.432317041450915 0 0 0 0 -106.93227972799059 4.3755225082105653 0 4.3755225082105653 -8.8575185239096754 0 0 0 0 -91.713088719759071 59.850231107270247 0 59.850231107270247 -2.6980712617150857 0 0 0 0 -41.395835012919633 27.508458591832095 0 27.508458591832095 -35.659164472275734 0 0 0 0 -17.283365058524623 46.001864999972724 0 46.001864999972724 -9.8220585295466663 0 0 0 0 5.6164541111582196 6.1918566434222164 0 6.1918566434222164 6.5522815765427662 0 0 0 0 -27.671092472803139 56.649565428787241 0 56.649565428787241 -6.5715991720876445 0 0 0 0 -9.1435763283261622 71.422871753449272 0 71.422871753449272 -36.003277614210219 0 0 0 0 14.649311474548679 24.137918574270365 0 24.137918574270365 -0.23692070632159812 0 0 0 0 -49.087166374654771 51.126437942307689 0 51.126437942307689 14.501649844177109 0 0 0 0 -17.739316059730299 57.033956448313006 0 57.033956448313006 -8.0522474342819805 0 0 0 0 -20.030484034054098 55.316350491974418 0 55.316350491974418 10.890436111075132 0 0 0 0 -1.9216307557217078 58.353356353215815 0 58.353356353215815 8.2527408522446422 0 0 0 0 -1.5707605860006879 62.376288468930625 0 62.376288468930625 39.006602952355664 0 0 0 0 36.371414621669828 78.307464384124671 0 78.307464384124671 7.5243536909499653 0 0 0 0 35.199432054709177 16.392264246301693 0 16.392264246301693 -80.306667007987471 0 0 0 0 -25.000735022982553 62.484487674860247 0 62.484487674860247 -6.5317872726691348 0 0 0 0 15.531980862437194 53.769510305426365 0 53.769510305426365 -13.290554095321568 0 0 0 0 197.08145504508866 118.65492392346732 0 118.65492392346732 -35.810074758307906 0 0 0 0 32.612603683402995 93.225342556951318 0 93.225342556951318 -26.873310387798142 0 0 0 0 17.744609977493383 112.94010295260939 0 112.94010295260939 28.052222103437771 0 0 0 0 8.5931557973985946 72.277550871759843 0 72.277550871759843 68.754097368501107 0 0 0 0 8.9454672074934933 72.715976833746709 0 72.715976833746709 7.4108131856967248 0 0 0 0 19.459625104413135 81.651851798366138 0 81.651851798366138 88.796495664035035 0 0 0 0 12.216788978177647 98.551179722856304 0 98.551179722856304 136.76255753679976 0 0 0 0 -53.229925106297742 243.43069617810784 0 243.43069617810784 70.274020478082548 0 0 0 0 67.936462907426176 258.34771936033962 0 258.34771936033962 -145.52383007766639 0 0 0 0 -169.53060998488399 137.3898426127268 0 137.3898426127268 314.44638132895125 0 0 0 0 259.7902262824864 27.811352747733054 0 27.811352747733054 154.19621667622687 0 0 0 0 -116.49756567319855 43.476912131519384 0 43.476912131519384 112.96925657180509 0 0 0 0 -111.7716177351831 20.412316593801734 0 20.412316593801734 210.19166282793913 0 0 0 0 260.533434322213 223.5899755567325 0 223.5899755567325 126.99434800872586 0 0 0 0 359.6053524033523 250.26414595673532 0 250.26414595673532 131.66657816228144 0 0 0 0 193.28120525634586 188.13008467195505 0 188.13008467195505 223.40567514233771 0 0 0 0 5.2204510275073233 0.032913365893467272 0 0.032913365893467272 -1.3156831746285764 0 0 0 0 81.933751775635756 102.30442933344602 0 102.30442933344602 282.06295643058365 0 0 0 0 255.69661817630367 -14.518410637309898 0 -14.518410637309898 -78.612052071881408 0 0 0 0 364.57118663891015 211.63113166173798 0 211.63113166173798 -166.81809451580216 0 0 0 0 -10.517824557535278 -47.556269854517723 0 -47.556269854517723 101.39011706020483 0 0 0 0 214.15232219397876 145.20235153951398 0 145.20235153951398 27.999652121294503 0 0 0 0 -2.2955707360215456 -66.569209305959021 0 -66.569209305959021 120.11361907413266 0 0 0 0 2.1984119204353192 18.059617467934913 0 18.059617467934913 27.040094594017319 0 0 0 0 -52.572863047564169 7.0454468305701994 0 7.0454468305701994 41.647518392376696 0 0 0 0 -42.460845904370217 50.674201811203602 0 50.674201811203602 52.915505724658942 0 0 0 0 3.0007679814769119 13.610520356131815 0 13.610520356131815 29.878527439672535 0 0 0 0 -23.895476641785535 97.914412458560491 0 97.914412458560491 62.308610865207811 0 0 0 0 3.8897807778248534 190.33956399742749 0 190.33956399742749 40.368797457284018 0 0 0 0 -79.657592258423392 5.830963070692178 0 5.830963070692178 -39.682127888099558 0 0 0 0 32.514748475827218 -178.76869658272608 0 -178.76869658272608 428.66689291944203 0 0 0 0 425.36720006917494 253.26626175531032 0 253.26626175531032 82.789607860790966 0 0 0 0 1.1995020996335626 2.7765427339301851 0 2.7765427339301851 12.210918967952495 0 0 0 0 232.93443842206398 -606.06038372512694 0 -606.06038372512694 54.951806537441371 0 0 0 0 818.3724655301703 -19.665613180255605 0 -19.665613180255605 -152.42761022288687 0 0 0 0 293.95111261359125 638.1518860372471 0 638.1518860372471 881.65841602282853 0 0 0 0 421.55133505370759 651.49946108974655 0 651.49946108974655 -191.41461197083117 0 0 0 0 -230.4022944881799 -540.76967911772135 0 -540.76967911772135 46.391864928485575 0 0 0 0 -341.91433657952439 164.65604799863559 0 164.65604799863559 -181.27946900362258 0 0 0 0 9.9357009566584082 10.676757732619073 0 10.676757732619073 -5.8683564334292351 0 0 0 0 166.62972280607937 -427.27964339315986 0 -427.27964339315986 -495.61849344049915 0 0 0 0 -83.399028430823819 127.18336863026707 0 127.18336863026707 -118.86762831164651 0 0 0 0 1.0119245078221866 -1.3498487834849584 0 -1.3498487834849584 27.29666930332678 0 0 0 0 -111.84399169571407 35.974675528656462 0 35.974675528656462 198.79485344076329 0 0 0 0 52.135505964593904 228.08765990016036 0 228.08765990016036 770.50656978434699 0 0 0 0 -116.17052939926361 -18.4588953676448 0 -18.4588953676448 139.74828488149387 0 0 0 0 -23.978276669698971 -20.877648452292306 0 -20.877648452292306 40.077745005675752 0 0 0 0 -199.36390112408299 -11.402641155541232 0 -11.402641155541232 41.050056145306371 0 0 0 0 47.068225891819566 61.027116935297954 0 61.027116935297954 275.05253238772821 0 0 0 0 28.830864803760051 47.869876680381822 0 47.869876680381822 374.82679311683751 0 0 0 0 21.231378141608729 -7.2519731578859137 0 -7.2519731578859137 4.8939211090109893 0 0 0 0 33.325906958132691 -15.53325681096976 0 -15.53325681096976 8.911769107672626 0 0 0 0 14.095779240476986 1.2193920482591238 0 1.2193920482591238 -3.1502195900266088 0 0 0 0 18.305236900814634 23.508133938661558 0 23.508133938661558 -95.770109669694648 0 0 0 0 8.1894676044696837 3.361389571854815 0 3.361389571854815 1.0816939314052938 0 0 0 0 17.580743688355142 22.616795521276799 0 22.616795521276799 -95.857964905735116 0 0 0 0 -0.40765177102730377 98.060852945858642 0 98.060852945858642 407.87453570650632 0 0 0 0 42.614130567213579 86.989903219395273 0 86.989903219395273 297.32757554642376 0 0 0 0 15.394279475330734 4.1156720148279469 0 4.1156720148279469 0.58162814277444053 0 0 0 0 10.078240051494504 124.26378665169068 0 124.26378665169068 375.52743364931939 0 0 0 0 33.560076415262301 65.233379637131293 0 65.233379637131293 326.6616263211472 0 0 0 0 12.580497817107243 143.63502021424392 0 143.63502021424392 324.02448880374595 0 0 0 0 151.21644787558762 168.17278091250955 0 168.17278091250955 335.80201512494932 0 0 0 0 230.6793549012873 -243.08915776173671 0 -243.08915776173671 599.541652858421 0 0 0 0 2.2144513114709383 0.18139158507194253 0 0.18139158507194253 -0.0094279350909332038 0 0 0 0 -293.27051625333479 -77.707761601854145 0 -77.707761601854145 1163.1147802264404 0 0 0 0 -3.1830065537214978 8.8411696350030979 0 8.8411696350030979 -47.265445521068614 0 0 0 0 10.062650223678872 3.6512195975070849 0 3.6512195975070849 -0.066842573381416415 0 0 0 0 16.759762110668817 24.240157762998024 0 24.240157762998024 -71.891799942663056 0 0 0 0 12.374594922221149 1.5501257842406631 0 1.5501257842406631 -89.290296639726876 0 0 0 0 -1.4628172970406013 -14.494415245118944 0 -14.494415245118944 -62.252919302280134 0 0 0 0 9.2418586697240244 4.7463062147044184 0 4.7463062147044184 -75.079738879863726 0 0 0 0 7.043577189266216 -8.8115475589038397 0 -8.8115475589038397 -94.516161830277269 0 0 0 0 10.480809043961926 -13.146670370711945 0 -13.146670370711945 -83.597623436058711 0 0 0 0 -3.5533976666774834 4.1828209087325376 0 4.1828209087325376 -92.892743818760209 0 0 0 0 65.823037436188315 221.42055460775009 0 221.42055460775009 351.06663956652028 0 0 0 0 0.72586554115378021 -0.4258970073376247 0 -0.4258970073376247 -3.3983766508500608 0 0 0 0 245.16345499348972 103.62425120143416 0 103.62425120143416 -566.08883422517647 0 0 0 0 109.15826269846002 134.34567802038873 0 134.34567802038873 180.83210689109364 0 0 0 0 21.386243574509777 12.717912644315161 0 12.717912644315161 -3.6359530848183557 0 0 0 0 33.088726987574773 105.63237391097391 0 105.63237391097391 572.17490710527636 0 0 0 0 -9.3217798572346346 3.133947654147363 0 3.133947654147363 5.4957426203922637 0 0 0 0 -36.638042930994189 19.595954142189164 0 19.595954142189164 -4.328118449914804 0 0 0 0 -51.432238839632191 -67.6404543384524 0 -67.6404543384524 322.75604595524419 0 0 0 0 248.17801862793385 -256.15223169263936 0 -256.15223169263936 350.08874459480285 0 0 0 0 167.85951315435886 -148.47494507708507 0 -148.47494507708507 333.63953421482438 0 0 0 0 221.28290608407406 -187.6780839546991 0 -187.6780839546991 306.91030692256027 0 0 0 0 28.918813386088004 -115.92159363488827 0 -115.92159363488827 333.72773867468442 0 0 0 0 -85.793013623173465 -139.39193899300881 0 -139.39193899300881 370.90740144709707 0 0 0 0 -86.270560827374538 -70.770627558276288 0 -70.770627558276288 345.49825007967593 0 0 0 0 -211.08717957480985 -71.632182343411841 0 -71.632182343411841 359.87602301866355 0 0 0 0 -162.23281617437533 -58.261249162915192 0 -58.261249162915192 335.40000107199012 0 0 0 0 -131.09724839778937 -123.99782403142308 0 -123.99782403142308 356.38723091346037 0 0 0 0 -190.01720403022773 -70.876764031410858 0 -70.876764031410858 375.22889564072648 0 0 0 0 -93.676467125857016 -90.992113158768916 0 -90.992113158768916 371.30866807473967 0 0 0 0 17.901396626832138 -177.33572464214376 0 -177.33572464214376 383.85451414041745 0 0 0 0 35.897336002308293 -159.55048973786324 0 -159.55048973786324 362.33969374027629 0 0 0 0 158.0118057374566 -233.64843353235119 0 -233.64843353235119 366.23199946461682 0 0 0 0 -189.6571089699064 -379.82068998328759 0 -379.82068998328759 -447.31731667353461 0 0 0 0 231.12443917395285 -139.118875300951 0 -139.118875300951 179.62046727051347 0 0 0 0 234.4490754348335 273.86228374161692 0 273.86228374161692 239.83805774157349 0 0 0 0 425.18024816201068 552.77033156210382 0 552.77033156210382 111.62999662539369 0 0 0 0 531.35933284836392 286.68258970265924 0 286.68258970265924 -103.07019738132658 0 0 0 0 174.13961243139056 -46.1150407358964 0 -46.1150407358964 -6.3133275882573798 0 0 0 0 -2.8043715862883012 6.7963069858771448 0 6.7963069858771448 3.5198423484668027 0 0 0 0 -255.34402004302683 544.4385127599453 0 544.4385127599453 293.66190530185304 0 0 0 0 -622.82420138864472 101.99484601763061 0 101.99484601763061 238.6952623223151 0 0 0 0 1.7787020281613497 26.978972426403004 0 26.978972426403004 -14.744486443887027 0 0 0 0 -47.044760629600205 36.583227064754908 0 36.583227064754908 3.9267100185843447 0 0 0 0 35.265671685991947 84.574172459197598 0 84.574172459197598 -70.073091356491204 0 0 0 0 3.5912148307766074 6.7588763284584097 0 6.7588763284584097 -3.5770517474323835 0 0 0 0 -48.448097569635138 33.48448669338859 0 33.48448669338859 0.63424584107815463 0 0 0 0 -42.658277471149631 23.850870361660782 0 23.850870361660782 16.6600686621573 0 0 0 0 -83.819377403946419 38.523376908273349 0 38.523376908273349 13.60158802163096 0 0 0 0 -57.621647327789105 -4.6349657888722504 0 -4.6349657888722504 7.1711709780820456 0 0 0 0 -110.47516674943472 -20.826690777605108 0 -20.826690777605108 30.762951264548974 0 0 0 0 -84.367128829122521 28.491116453208633 0 28.491116453208633 79.339204873378549 0 0 0 0 -79.927131276395812 -69.898731475946533 0 -69.898731475946533 -55.92797787318068 0 0 0 0 -13.957166444037284 171.17075134380502 0 171.17075134380502 342.92563510830769 0 0 0 0 -13.706752051896018 13.455129453697664 0 13.455129453697664 -5.2535661461093941 0 0 0 0 4.5062262287892736 202.87264219466647 0 202.87264219466647 179.34851616872766 0 0 0 0 -203.82324989119661 17.685956747205637 0 17.685956747205637 338.44720876090287 0 0 0 0 30.511934470922824 6.2573261379941414 0 6.2573261379941414 297.81804023458244 0 0 0 0 -201.94427317567897 118.68813182810118 0 118.68813182810118 273.88547009453032 0 0 0 0 -268.53320111885114 -35.550800045708456 0 -35.550800045708456 347.91701386251225 0 0 0 0 -191.2672731349885 -31.187689346552361 0 -31.187689346552361 351.46471307349566 0 0 0 0 -235.73853484334541 -12.615964840864763 0 -12.615964840864763 363.25817106163231 0 0 0 0 -247.4655003683323 1.8207285761533853 0 1.8207285761533853 278.88717446613009 0 0 0 0 -246.40679489421018 -63.230869473554776 0 -63.230869473554776 343.0840533372866 0 0 0 0 -341.19326225233817 20.533865075309222 0 20.533865075309222 284.54255415734224 0 0 0 0 -278.41134556078759 -61.795440059115208 0 -61.795440059115208 260.33975771619589 0 0 0 0 -260.12958654031172 37.367403347673644 0 37.367403347673644 163.33903045364423 0 0 0 0 -261.49135936154926 -4.2033475975513284 0 -4.2033475975513284 -160.12177022040123 0 0 0 0 -682.0384568181762 915.36355841755721 0 915.36355841755721 -379.79577143746428 0 0 0 0 -1039.5934553965635 -48.791914673653082 0 -48.791914673653082 -7.9063331444376672 0 0 0 0 -476.98241398211394 41.078491603828297 0 41.078491603828297 167.33243873239553 0 0 0 0 -404.27760065888287 56.80531622919807 0 56.80531622919807 9.4703841662485502 0 0 0 0 -508.02869980409741 74.311845370863011 0 74.311845370863011 199.27151184889954 0 0 0 0 -381.59403277284582 158.1125600413543 0 158.1125600413543 231.29550503411156 0 0 0 0 -303.58093091184855 -1.1916307830033475 0 -1.1916307830033475 174.70160343210682 0 0 0 0 -340.12624168358161 115.71724431234179 0 115.71724431234179 274.39012090216966 0 0 0 0 -51.624867041504331 135.58019373460957 0 135.58019373460957 250.04276245188157 0 0 0 0 -83.759100620125537 59.652361443088012 0 59.652361443088012 85.272284427432169 0 0 0 0 -156.39713331651728 449.37548347783923 0 449.37548347783923 -218.36403558980965 0 0 0 0 -315.03570029741968 243.91389091358724 0 243.91389091358724 -41.72193581587635 0 0 0 0 -275.18721313378774 332.1335987493112 0 332.1335987493112 -77.919765058737539 0 0 0 0 -276.82523727434454 176.49894177025635 0 176.49894177025635 -62.861527303326511 0 0 0 0 -211.28738527459063 126.11592793112322 0 126.11592793112322 -76.614837338864163 0 0 0 0 -1244.4148670838331 66.1972987067129 0 66.1972987067129 -74.480586953504826 0 0 0 0 -416.10809953161515 148.6600848722519 0 148.6600848722519 -129.97404743045627 0 0 0 0 -316.43567441822233 42.035873006469046 0 42.035873006469046 -497.93147733226942 0 0 0 0 1.1560196076224543 7.7227301825697019 0 7.7227301825697019 -0.36126216059431737 0 0 0 0 21.876267471154279 120.49360954660006 0 120.49360954660006 212.74218942087737 0 0 0 0 42.700121771500562 5.7656492633741436 0 5.7656492633741436 -10.773346422415443 0 0 0 0 34.386148996797502 2.0199946361377119 0 2.0199946361377119 -2.0139672917020333 0 0 0 0 42.045512566131947 -5.5205548186004307 0 -5.5205548186004307 -2.3484517819364328 0 0 0 0 25.660223536275225 2.2517134819158855 0 2.2517134819158855 -2.6651870903624513 0 0 0 0 37.087949134715018 40.559696989667827 0 40.559696989667827 -20.971143790160568 0 0 0 0 52.935195400863449 0.35002657250879565 0 0.35002657250879565 -10.805401978823284 0 0 0 0 13.784735440694206 23.354643263778904 0 23.354643263778904 9.6664178167538353 0 0 0 0 -328.71153849415714 257.7876267085976 0 257.7876267085976 32.297327515323559 0 0 0 0 -334.73351632054619 120.81586595498266 0 120.81586595498266 1.3330274425770767 0 0 0 0 41.218008908155753 205.68880492360222 0 205.68880492360222 -44.068041758371692 0 0 0 0 -202.06769102683757 206.01273191623477 0 206.01273191623477 9.7606493193998176 0 0 0 0 -13.112147387386358 165.72637882376603 0 165.72637882376603 -2.4634915202659613 0 0 0 0 -287.58531335640146 305.72219721303463 0 305.72219721303463 10.799095691174443 0 0 0 0 -161.7035734433266 242.26345143978051 0 242.26345143978051 8.6491300486886757 0 0 0 0 -157.52990544916247 245.33290634357036 0 245.33290634357036 -24.402569398855121 0 0 0 0 -157.67824756904156 131.35206054477749 0 131.35206054477749 174.01777008371573 0 0 0 0 -23.309364496250055 242.47149156411251 0 242.47149156411251 -12.91564558742175 0 0 0 0 -8.6140120039053727 197.49649584904546 0 197.49649584904546 -30.816544868532219 0 0 0 0 36.752033229404333 257.64039128104105 0 257.64039128104105 -18.440707585265045 0 0 0 0 134.78806760532461 170.63953776562266 0 170.63953776562266 -49.62083023766354 0 0 0 0 -122.21320217408356 598.77184555385247 0 598.77184555385247 -20.237143911035673 0 0 0 0 238.52966681803809 237.27774607327228 0 237.27774607327228 -200.04470933278208 0 0 0 0 -34.978893322913791 324.97040450810891 0 324.97040450810891 148.97763952068271 0 0 0 0 -23.911132760063992 213.11805767820417 0 213.11805767820417 7.2232898553629639 0 0 0 0 135.29952411214617 -315.2988879575687 0 -315.2988879575687 551.41007239387545 0 0 0 0 -79.512927795805808 342.08710104894817 0 342.08710104894817 683.21574153124675 0 0 0 0 -88.743537754956378 -12.451698260457761 0 -12.451698260457761 362.20102301129373 0 0 0 0 -108.10723017983219 -110.93494621309242 0 -110.93494621309242 853.34589869700721 0 0 0 0 -120.28923139017206 -34.736775182582278 0 -34.736775182582278 290.13754711917136 0 0 0 0 -135.46004915679805 -70.862779362381843 0 -70.862779362381843 469.5985429882785 0 0 0 0 -193.42490967885533 22.20633876622378 0 22.20633876622378 144.1514453780037 0 0 0 0 -205.51967145872186 -9.3781112896540435 0 -9.3781112896540435 325.37773269341051 0 0 0 0 -199.20996193771134 -28.01698712228972 0 -28.01698712228972 273.17856608790316 0 0 0 0 -161.41944630513171 165.88738229369119 0 165.88738229369119 -48.827281039382797 0 0 0 0 -144.77018302706711 105.54527672714175 0 105.54527672714175 500.58673475311298 0 0 0 0 -133.16674006504581 127.56542977830304 0 127.56542977830304 159.18849401973421 0 0 0 0 893.37960994865716 361.21590443116293 0 361.21590443116293 -18.867635725546279 0 0 0 0 -689.77351371021359 -166.24630934900597 0 -166.24630934900597 999.30716697910611 0 0 0 0 -0.48953578384739238 1.6122179896543614 0 1.6122179896543614 1.8862815304485849 0 0 0 0 106.57105799062629 389.86496384584552 0 389.86496384584552 546.77053177973153 0 0 0 0 57.948317454929565 -9.3964415559232748 0 -9.3964415559232748 70.794737266682205 0 0 0 0 247.1429537825752 -281.53607216453747 0 -281.53607216453747 392.80900325221683 0 0 0 0 136.26823526604312 38.103786510856935 0 38.103786510856935 -46.052129528103251 0 0 0 0 482.80738651502543 32.076643076693472 0 32.076643076693472 -143.17967000578574 0 0 0 0 172.30248718777148 87.601181266491039 0 87.601181266491039 -116.74708698968971 0 0 0 0 6.5060271109105088 75.423732025165009 0 75.423732025165009 -96.653521475753223 0 0 0 0 163.30599416897894 -115.4456710669856 0 -115.4456710669856 21.383065148271271 0 0 0 0 -24.737409703480807 19.760496628699912 0 19.760496628699912 -66.66370247530358 0 0 0 0 -16.06574930628085 53.737487394940302 0 53.737487394940302 48.703157374856957 0 0 0 0 -8.5711580274745582 51.82893700116464 0 51.82893700116464 38.742935550865774 0 0 0 0 -301.99266058487001 -32.719072145677956 0 -32.719072145677956 77.978172730585356 0 0 0 0 -98.840657947868749 -208.71105791511491 0 -208.71105791511491 45.717443437981274 0 0 0 0 110.87469989622468 -217.43683160098294 0 -217.43683160098294 -57.747267496954009 0 0 0 0 -14.266808709842735 52.940360132358478 0 52.940360132358478 44.226345390188953 0 0 0 0 17.069982704504127 49.049454980454136 0 49.049454980454136 36.698998691881911 0 0 0 0 -444.5668725833475 87.377180878677336 0 87.377180878677336 340.66691308895133 0 0 0 0 -8.8968649119566017 52.79285241445946 0 52.79285241445946 45.219484747452917 0 0 0 0 142.99771855906511 305.08365442248578 0 305.08365442248578 -93.840464762198962 0 0 0 0 233.83872673567339 -136.13181046518571 0 -136.13181046518571 -95.745832439130027 0 0 0 0 236.13658534787464 275.31355360564157 0 275.31355360564157 -172.64756237606935 0 0 0 0 17.152103499083751 61.872445017133828 0 61.872445017133828 38.086146167556763 0 0 0 0 -13.679712723598641 65.663131513717531 0 65.663131513717531 40.530855078855211 0 0 0 0 -207.90665482811164 175.12669340901039 0 175.12669340901039 143.4839003688312 0 0 0 0 -8.9590325665428274 54.507328257730478 0 54.507328257730478 43.791358416887263 0 0 0 0 44.867319270115331 80.297320968693867 0 80.297320968693867 21.777587550718636 0 0 0 0 28.168189155757318 51.046755795799868 0 51.046755795799868 35.654191982789143 0 0 0 0 56.930886534380988 84.264805257477178 0 84.264805257477178 22.972479186566943 0 0 0 0 16.290009564097204 58.724906673458364 0 58.724906673458364 40.057753776947266 0 0 0 0 45.632206780966953 56.712385356379173 0 56.712385356379173 28.600764328032767 0 0 0 0 50.514254002977395 42.833761865084384 0 42.833761865084384 64.822756863328777 0 0 0 0 89.886984078337264 69.616645328993741 0 69.616645328993741 26.996010571610952 0 0 0 0 64.191914650744366 75.874492332799832 0 75.874492332799832 39.0631600007477 0 0 0 0 104.23881079121338 99.320947287832141 0 99.320947287832141 10.907001290273797 0 0 0 0 75.239198934107662 93.649884658032704 0 93.649884658032704 12.70802963953156 0 0 0 0 66.260163047832975 70.722231803194518 0 70.722231803194518 16.734065292735245 0 0 0 0 93.323164122908565 70.17057904664199 0 70.17057904664199 16.694359178005129 0 0 0 0 0.065614595230435668 0.1490586347594185 0 0.1490586347594185 -0.0075126465961512512 0 0 0 0 46.002172299713493 61.535342858195634 0 61.535342858195634 -149.12854783135975 0 0 0 0 76.318192523106518 95.30684559885799 0 95.30684559885799 0.70633475858221573 0 0 0 0 25.66310168371183 26.076481074776154 0 26.076481074776154 -21.077740751162992 0 0 0 0 42.085764636625754 81.368913445216549 0 81.368913445216549 122.36019356457192 0 0 0 0 52.388525306416341 109.98341281640523 0 109.98341281640523 6.6881239310225737 0 0 0 0 75.466837110116103 96.99893402371697 0 96.99893402371697 3.6348999130661923 0 0 0 0 74.687328447467735 101.76771274916757 0 101.76771274916757 6.2120119842188615 0 0 0 0 73.479342362494208 104.06852588069614 0 104.06852588069614 1.8539458671043008 0 0 0 0 78.755067739291917 103.53661330876173 0 103.53661330876173 -2.8734705985675646 0 0 0 0 83.734758519214665 91.224443523357536 0 91.224443523357536 7.3643023028801053 0 0 0 0 68.062575667066994 95.153103426940788 0 95.153103426940788 8.237661851301425 0 0 0 0 54.447662880229473 97.483161043901191 0 97.483161043901191 13.536946878410618 0 0 0 0 66.559084607026307 107.06034715397448 0 107.06034715397448 20.069832921538818 0 0 0 0 53.493990768860385 119.4346179134331 0 119.4346179134331 55.994409552785328 0 0 0 0 51.339649799969266 104.15116744809905 0 104.15116744809905 28.075293804945431 0 0 0 0 16.116683345366255 98.910915441950465 0 98.910915441950465 59.821873883940384 0 0 0 0 51.865398272596394 101.87878787678596 0 101.87878787678596 33.150941682133634 0 0 0 0 69.216337953498623 125.02787926244713 0 125.02787926244713 -14.897406041908198 0 0 0 0 66.955756371502048 108.70422183455952 0 108.70422183455952 3.673187900146786 0 0 0 0 70.074135213953923 119.18477371691927 0 119.18477371691927 22.770716199989693 0 0 0 0 54.179845962669788 123.35321566020275 0 123.35321566020275 21.968543983055042 0 0 0 0 52.896936468308922 145.93016364395885 0 145.93016364395885 20.493377358369798 0 0 0 0 58.744048227932581 136.65190679992247 0 136.65190679992247 22.070820521870246 0 0 0 0 49.03877537209155 136.41534850299934 0 136.41534850299934 61.566521729303531 0 0 0 0 33.247298307946039 132.47995601558614 0 132.47995601558614 63.540823188515787 0 0 0 0 -1.2611142907644535 144.63843674773068 0 144.63843674773068 128.89489277551684 0 0 0 0 22.599043427342622 154.58876504634395 0 154.58876504634395 89.126291425514864 0 0 0 0 37.386299446484372 116.54922314914631 0 116.54922314914631 100.63683534838947 0 0 0 0 34.944519022447821 149.54987988925097 0 149.54987988925097 97.216026398797112 0 0 0 0 34.632106790444595 146.59680282150885 0 146.59680282150885 82.090317287992093 0 0 0 0 12.62027975210458 87.934560049062952 0 87.934560049062952 54.469166564008447 0 0 0 0 45.837568078190088 110.34457811903735 0 110.34457811903735 60.309904174463895 0 0 0 0 29.253344907451265 125.76954690763432 0 125.76954690763432 140.18145614962896 0 0 0 0 -30.461735889934062 51.129497126640445 0 51.129497126640445 98.649489307942986 0 0 0 0 10.130276687918467 91.22358497945271 0 91.22358497945271 59.553351266984919 0 0 0 0 -16.937988492762088 81.175890953544922 0 81.175890953544922 56.156062600154655 0 0 0 0 -29.26596831504321 50.884057279158327 0 50.884057279158327 30.697777033211423 0 0 0 0 68.470011563618755 66.626206608973007 0 66.626206608973007 23.95248218329607 0 0 0 0 -19.815628404678137 94.871511256784601 0 94.871511256784601 58.930905300384268 0 0 0 0 24.675842138161514 38.043222890806554 0 38.043222890806554 -0.35204298134398204 0 0 0 0 -66.467114878547363 19.405067686141138 0 19.405067686141138 22.498441097809291 0 0 0 0 97.671106722506011 106.19978580401516 0 106.19978580401516 31.662603341307658 0 0 0 0 -10.431891884025742 13.042937631057228 0 13.042937631057228 1.5402714619165039 0 0 0 0 -69.778480961782407 56.158878336464682 0 56.158878336464682 53.460703826293411 0 0 0 0 -13.97994683892648 64.659180936973826 0 64.659180936973826 28.136542499406005 0 0 0 0 -10.393301732461321 57.141155132596595 0 57.141155132596595 27.200373462803661 0 0 0 0 -45.728214578882557 72.438746212488795 0 72.438746212488795 44.451941798834468 0 0 0 0 42.974359389258098 33.003996775076757 0 33.003996775076757 60.730507600763985 0 0 0 0 -8.6606345818897594 55.193965686223777 0 55.193965686223777 36.58578377523186 0 0 0 0 216.45200740418295 194.33799316732473 0 194.33799316732473 -3.5704119697802525 0 0 0 0 235.46610540064194 -99.90578508697331 0 -99.90578508697331 45.723660494100841 0 0 0 0 2.0799657486932119 63.962913533041046 0 63.962913533041046 35.572088707849389 0 0 0 0 11.622493535021931 92.494794192246104 0 92.494794192246104 38.166163190408952 0 0 0 0 25.056231219659821 85.477282173814046 0 85.477282173814046 25.966884059114022 0 0 0 0 18.416013256457745 84.841832628493222 0 84.841832628493222 34.452008693489461 0 0 0 0 11.538572978111915 85.367722735024472 0 85.367722735024472 -88.82919798672765 0 0 0 0 -17.256599285341508 102.78950647436614 0 102.78950647436614 -92.239364114362729 0 0 0 0 -0.019036599249375286 123.38876491507517 0 123.38876491507517 -24.803412867996485 0 0 0 0 1.0451462157652713 95.037575404961899 0 95.037575404961899 -26.855298702716937 0 0 0 0 -0.94357034658969496 135.44940464468664 0 135.44940464468664 -69.122090909497274 0 0 0 0 -43.208743782917736 119.52176532172234 0 119.52176532172234 -57.837357718568455 0 0 0 0 -22.074263510890887 130.28570928647696 0 130.28570928647696 -11.715660496232886 0 0 0 0 -4.0819549899970298 136.44839558353578 0 136.44839558353578 -51.385534405912949 0 0 0 0 -37.395060414091859 141.58673553949848 0 141.58673553949848 -78.408267871318458 0 0 0 0 -27.58916499184852 132.4361737191648 0 132.4361737191648 -119.08611992902843 0 0 0 0 -0.35092452476237668 100.1321400503989 0 100.1321400503989 -105.7684041241464 0 0 0 0 -31.47418990751612 128.42933950255269 0 128.42933950255269 -119.77179378819164 0 0 0 0 -22.829037578674615 104.9972936394106 0 104.9972936394106 -161.74974866017783 0 0 0 0 -36.572584246403494 141.05594968707783 0 141.05594968707783 -157.40835049280395 0 0 0 0 -52.367574942163628 143.02302498868539 0 143.02302498868539 -195.66374305088539 0 0 0 0 -38.441819058038163 116.15364024432552 0 116.15364024432552 -207.11811403866704 0 0 0 0 -15.490314914783085 112.9125714857978 0 112.9125714857978 -211.21606396655261 0 0 0 0 -43.228377615792851 133.48409999146224 0 133.48409999146224 -176.36356800113981 0 0 0 0 -28.231374009399588 119.98203960565957 0 119.98203960565957 -163.1381073401808 0 0 0 0 4.8760480191158422 104.14541257112137 0 104.14541257112137 -158.95776868592384 0 0 0 0 0.016800133245851612 119.745987674763 0 119.745987674763 -151.16653926108847 0 0 0 0 0.0097908427778747864 117.15473836230035 0 117.15473836230035 -208.85231083443455 0 0 0 0 -5.2792555006562907 89.035678746343592 0 89.035678746343592 -176.4112828165562 0 0 0 0 -33.562115310141962 93.187415388515319 0 93.187415388515319 -224.91405874656812 0 0 0 0 -0.098768828251195373 98.679919031194117 0 98.679919031194117 -242.02174109488453 0 0 0 0 1.3274312802263637 -0.061612411496696495 0 -0.061612411496696495 -0.95628905169452372 0 0 0 0 -72.015109163228772 -53.217704389161099 0 -53.217704389161099 103.60438615616897 0 0 0 0 31.069626938951842 -243.48674246646465 0 -243.48674246646465 776.12269689208131 0 0 0 0 2.5545704817240562 6.4079743426231275 0 6.4079743426231275 10.96377613464346 0 0 0 0 60.409404246798658 61.508112410811009 0 61.508112410811009 -4.5250172037740413 0 0 0 0 -2.6953359595318034 -245.09630658402591 0 -245.09630658402591 781.54685166699346 0 0 0 0 1.4251264902793821 1.7080548059690912 0 1.7080548059690912 4.5687495183556823 0 0 0 0 0.067178989462263416 116.31252095477527 0 116.31252095477527 -5.161933551998473 0 0 0 0 220.8882916417806 -714.51924693521823 0 -714.51924693521823 1578.6341844976764 0 0 0 0 69.30464613858112 -180.66451126799979 0 -180.66451126799979 640.31692678337777 0 0 0 0 -0.68166798179404964 1.4442052620464922 0 1.4442052620464922 2.945860860084704 0 0 0 0 17.660156418780389 -143.7041468339246 0 -143.7041468339246 823.81152405915327 0 0 0 0 53.647095925058238 -141.61390710981505 0 -141.61390710981505 797.01044416100922 0 0 0 0 -16.396808207442518 -213.03676420686384 0 -213.03676420686384 940.4182366919224 0 0 0 0 143.215790472761 -262.58678715632141 0 -262.58678715632141 375.42174244045918 0 0 0 0 23.896517906665395 -289.21435650052217 0 -289.21435650052217 648.39481839618179 0 0 0 0 178.96933191730204 -150.21507919027727 0 -150.21507919027727 628.20455870982926 0 0 0 0 88.87044066656108 -70.568378253468069 0 -70.568378253468069 -2.9305262916677748 0 0 0 0 1.3131173613934379 1.3722155706932284 0 1.3722155706932284 3.6848440137927456 0 0 0 0 5.2756628364796825 9.9380183197130876 0 9.9380183197130876 11.156135483936843 0 0 0 0 -8.2577556494143209 154.54154803479992 0 154.54154803479992 354.81802292166503 0 0 0 0 -37.305329801958578 -20.736536527093676 0 -20.736536527093676 54.923660174067891 0 0 0 0 -34.527513954422091 139.22185995084962 0 139.22185995084962 -249.83839706050367 0 0 0 0 -48.898233967469423 110.68433598307001 0 110.68433598307001 -210.99084508874751 0 0 0 0 -44.935782052387367 162.65846818523391 0 162.65846818523391 -263.831368080846 0 0 0 0 -72.994799101623357 147.62731813201162 0 147.62731813201162 -215.44617841176034 0 0 0 0 8.5294476728054178 14.133278173231119 0 14.133278173231119 12.878281846269804 0 0 0 0 39.374505396022869 -5.3801698587201372 0 -5.3801698587201372 -8.7886194381467249 0 0 0 0 5.8128770649124135 5.2475156912775915 0 5.2475156912775915 4.5297986783358404 0 0 0 0 -113.94805676275428 -23.144938136781548 0 -23.144938136781548 339.88946955086544 0 0 0 0 27.48666185516413 10.954150298487804 0 10.954150298487804 24.117094449016577 0 0 0 0 73.34885779029355 -136.59778970913226 0 -136.59778970913226 372.93020994941799 0 0 0 0 -20.728698281483958 -64.589530984248313 0 -64.589530984248313 348.30607045034685 0 0 0 0 36.774155960076314 -229.03416037599641 0 -229.03416037599641 687.32043732894522 0 0 0 0 1.9515667392784337 1.4776754006241148 0 1.4776754006241148 1.8789269041004699 0 0 0 0 137.13351565613448 -81.390293380670869 0 -81.390293380670869 571.9493039717313 0 0 0 0 -93.846494110614003 -83.600370944069027 0 -83.600370944069027 518.86484199708684 0 0 0 0 -120.82050487428205 64.890903779538576 0 64.890903779538576 263.2862694807111 0 0 0 0 -102.00700642028914 137.84161605750643 0 137.84161605750643 356.22408921501028 0 0 0 0 -72.665804012933222 -16.399634624999862 0 -16.399634624999862 699.78869928562199 0 0 0 0 -163.58961956700659 165.78040255471387 0 165.78040255471387 109.97613848271698 0 0 0 0 -177.81088860355339 195.48330639421511 0 195.48330639421511 189.88542850455724 0 0 0 0 -70.876088416400307 -5.2378605867670558 0 -5.2378605867670558 184.28838870989944 0 0 0 0 -147.07807262314236 13.833348093720929 0 13.833348093720929 366.94429506069082 0 0 0 0 -193.08138205594514 6.6753368398449311 0 6.6753368398449311 285.11797833145329 0 0 0 0 -50.301614911279103 -13.666444943880549 0 -13.666444943880549 281.48343050271251 0 0 0 0 235.71401795237034 -155.22235272334001 0 -155.22235272334001 346.49599029483625 0 0 0 0 -103.75972420883772 -106.52979533344478 0 -106.52979533344478 373.03877034451864 0 0 0 0 -103.64931326462101 -117.92362037611019 0 -117.92362037611019 400.2453175028495 0 0 0 0 -161.85435629107451 -71.513181561830379 0 -71.513181561830379 426.13603006153608 0 0 0 0 -153.15802679573244 -74.880608233841485 0 -74.880608233841485 402.76223633121481 0 0 0 0 68.129668341825891 289.86545947042168 0 289.86545947042168 -0.43447849888639212 0 0 0 0 23.674336935182509 -96.775294582563447 0 -96.775294582563447 147.05039435308572 0 0 0 0 8.7603677011492209 7.2758499152961242 0 7.2758499152961242 5.1877500356963697 0 0 0 0 55.466883042405243 59.058821465983328 0 59.058821465983328 -20.736556031226428 0 0 0 0 10.341407033748823 17.604902669932713 0 17.604902669932713 15.01090579303434 0 0 0 0 173.34783777069242 -107.9468184828936 0 -107.9468184828936 -76.989197471259558 0 0 0 0 -35.990559052952449 112.5306566688987 0 112.5306566688987 -193.44643686693234 0 0 0 0 -53.146482427458977 135.73116381710042 0 135.73116381710042 -154.81543026539839 0 0 0 0 -59.047371860317071 105.14186933404926 0 105.14186933404926 -146.93500227351433 0 0 0 0 -48.246242312758113 145.50671635358685 0 145.50671635358685 -195.2971376512541 0 0 0 0 -56.332071667624405 122.64343534151794 0 122.64343534151794 -149.23425532705005 0 0 0 0 -62.313565824180841 145.49450746401999 0 145.49450746401999 -163.95752448849271 0 0 0 0 -71.180617098347284 130.23901948899675 0 130.23901948899675 -176.71757288134359 0 0 0 0 -63.626025780260534 112.84661053366358 0 112.84661053366358 -203.89580735771779 0 0 0 0 -75.96087992284447 56.864084412897455 0 56.864084412897455 172.13262577911337 0 0 0 0 -42.603369392309105 151.78742143263116 0 151.78742143263116 -247.12601191413705 0 0 0 0 9.444027658932896 15.692615496919565 0 15.692615496919565 12.983701678826261 0 0 0 0 64.224197739167721 -78.263934094673687 0 -78.263934094673687 17.288696471230168 0 0 0 0 -57.835279369406635 159.90187741723548 0 159.90187741723548 -208.19663465550911 0 0 0 0 -69.944343359937193 130.71182699731708 0 130.71182699731708 -192.63161813204715 0 0 0 0 -48.314221426844597 122.93777075619346 0 122.93777075619346 -241.33396982302384 0 0 0 0 -45.936664587905398 120.94406471763432 0 120.94406471763432 -185.56683161166484 0 0 0 0 -55.82827066329628 123.92082429767652 0 123.92082429767652 -120.62563238228176 0 0 0 0 -57.292132166428928 148.07973715772732 0 148.07973715772732 -173.19808996131178 0 0 0 0 -39.032547535738559 126.98990953331213 0 126.98990953331213 -167.21051050324422 0 0 0 0 -65.447554498703539 121.07689480311001 0 121.07689480311001 -166.18967433382386 0 0 0 0 -59.033532994235429 131.8426203989502 0 131.8426203989502 -114.34960074299488 0 0 0 0 -49.161223655180947 137.923622947078 0 137.923622947078 -155.25630044237278 0 0 0 0 -51.082343045673042 130.19003070236204 0 130.19003070236204 -190.33768642528958 0 0 0 0 -69.934708958520787 126.63902691001749 0 126.63902691001749 -99.116514111294236 0 0 0 0 -62.004271834193787 122.56784129539483 0 122.56784129539483 -74.428811524274352 0 0 0 0 -64.295046325860312 119.57243556170852 0 119.57243556170852 -99.582272133478909 0 0 0 0 -64.186088634923181 140.29248146376642 0 140.29248146376642 -57.491418451048958 0 0 0 0 -43.802759528756724 144.50085693343408 0 144.50085693343408 -108.32015725567999 0 0 0 0 -54.34045423479256 123.19263553756537 0 123.19263553756537 -84.838363166978525 0 0 0 0 -22.961004404030973 131.57337126553011 0 131.57337126553011 -82.971517626376226 0 0 0 0 -54.47905893440111 149.85133909905107 0 149.85133909905107 -40.401726377085652 0 0 0 0 -66.850687459911569 128.87766820939032 0 128.87766820939032 -29.744566238669904 0 0 0 0 -66.976192848334904 147.7347789419091 0 147.7347789419091 -8.4138520890774089 0 0 0 0 -78.000566154427361 112.42275564377451 0 112.42275564377451 -37.833671256372327 0 0 0 0 -68.138127766884281 118.29707115227438 0 118.29707115227438 -61.090866695041768 0 0 0 0 -81.70506231476611 107.43783655754578 0 107.43783655754578 -9.5349788400957323 0 0 0 0 -89.029136663099052 98.594379673984804 0 98.594379673984804 -8.7113956262531929 0 0 0 0 -59.074036497668203 102.32136049547103 0 102.32136049547103 -67.458979829585587 0 0 0 0 -56.864576741616474 94.066602267327653 0 94.066602267327653 -71.09924334650168 0 0 0 0 -63.323805523861665 107.87303899022118 0 107.87303899022118 -71.639988649718191 0 0 0 0 -52.417277108739654 112.63765668294582 0 112.63765668294582 -114.28172259665735 0 0 0 0 -49.796696728277311 122.38802083848668 0 122.38802083848668 -136.53509529128132 0 0 0 0 -46.816706603116472 100.73136453580628 0 100.73136453580628 -123.17732423323559 0 0 0 0 -57.059250017011436 103.5812689154975 0 103.5812689154975 -128.37792383756096 0 0 0 0 -56.100160328438506 121.27610954912052 0 121.27610954912052 -116.78540134554896 0 0 0 0 -62.509414816431672 108.05742277043623 0 108.05742277043623 -97.751173603503048 0 0 0 0 -60.853691331882146 138.52385228387448 0 138.52385228387448 -129.68213283876139 0 0 0 0 -70.759305353218224 128.73168868508401 0 128.73168868508401 -63.253092526106229 0 0 0 0 -40.9795834519864 81.165462618640049 0 81.165462618640049 -131.4088558666117 0 0 0 0 -49.268897940342868 108.85022263357587 0 108.85022263357587 -116.64149586042549 0 0 0 0 -21.581069617022877 99.247839639234371 0 99.247839639234371 -165.65792628909981 0 0 0 0 -44.247576412639319 114.98932970656028 0 114.98932970656028 -120.65176176826208 0 0 0 0 -45.643713739424129 87.734104881782514 0 87.734104881782514 -79.139330787113067 0 0 0 0 -35.302768580208067 99.606745602974115 0 99.606745602974115 -123.1619800602075 0 0 0 0 -42.701341767256963 92.441244475513031 0 92.441244475513031 -85.153935284386534 0 0 0 0 -31.902632901561446 98.291968015011662 0 98.291968015011662 -117.90474685630215 0 0 0 0 -32.868780602992047 89.153964001552595 0 89.153964001552595 -84.50373078405346 0 0 0 0 -41.97827465802402 93.173610277219268 0 93.173610277219268 -62.578870723638829 0 0 0 0 -50.441268454145757 69.807907424573386 0 69.807907424573386 -24.711920456657026 0 0 0 0 -69.196775396281737 91.709464830419165 0 91.709464830419165 -17.854257808132843 0 0 0 0 -23.383989059031592 60.091556805846267 0 60.091556805846267 -34.039914239559039 0 0 0 0 -30.566986150777666 75.705318519678258 0 75.705318519678258 -88.933346503405119 0 0 0 0 -9.8434609651449136 77.306978092701684 0 77.306978092701684 -87.695318628328096 0 0 0 0 -13.584515077829565 103.22079262180887 0 103.22079262180887 -122.22711774619529 0 0 0 0 -6.0174154793930938 56.238257968738253 0 56.238257968738253 -27.095061108968366 0 0 0 0 -23.542156434694419 95.619726875693445 0 95.619726875693445 -66.29836708903531 0 0 0 0 4.5318941248697229 94.605904620113506 0 94.605904620113506 -47.579046444810047 0 0 0 0 -11.550913767132442 62.999226962232569 0 62.999226962232569 -68.155473976665235 0 0 0 0 -36.168650988402078 121.31993645469447 0 121.31993645469447 -71.539937912853929 0 0 0 0 9.4161551784200128 94.418998217402986 0 94.418998217402986 -98.508228731829149 0 0 0 0 -52.308713043094031 72.716284142796212 0 72.716284142796212 -105.35715964368046 0 0 0 0 -5.9720532830397133 103.50444841177114 0 103.50444841177114 -111.2601908095603 0 0 0 0 0.71952315537782852 70.781502693681432 0 70.781502693681432 -158.92730397626474 0 0 0 0 22.391895591464134 26.180966299444936 0 26.180966299444936 21.875368162685724 0 0 0 0 314.10888950982553 101.13474564827061 0 101.13474564827061 -27.801938083449386 0 0 0 0 -3.4259248448724975 142.80993797139854 0 142.80993797139854 -97.742285996939245 0 0 0 0 -58.600125421842677 109.74146579462831 0 109.74146579462831 -77.321849753752758 0 0 0 0 17.635246806670693 24.550289537816461 0 24.550289537816461 20.033101565893396 0 0 0 0 -6.9648755958551192 125.41241484554303 0 125.41241484554303 -168.54880763459732 0 0 0 0 -1.1877976018440677 -61.960314401894721 0 -61.960314401894721 214.37434818101974 0 0 0 0 -172.03527910192861 -99.249623694464844 0 -99.249623694464844 316.73426829860432 0 0 0 0 2.588188971838548 2.0637877299701302 0 2.0637877299701302 1.6368155924088885 0 0 0 0 -22.227405824001835 40.978547340051136 0 40.978547340051136 -130.30777543724071 0 0 0 0 95.444296604786359 198.29109661700932 0 198.29109661700932 -239.15692098878844 0 0 0 0 16.476036732400104 13.804617207787281 0 13.804617207787281 10.138671056937351 0 0 0 0 -60.295639963016583 168.10961265229889 0 168.10961265229889 -77.836202875237632 0 0 0 0 -107.79028526968614 110.10961271754513 0 110.10961271754513 151.40530868155747 0 0 0 0 -71.806070719492709 60.152672050238834 0 60.152672050238834 17.357953812299002 0 0 0 0 -75.310391790684662 46.314535136633367 0 46.314535136633367 177.02217218000442 0 0 0 0 9.4205649337737185 8.3992553655639242 0 8.3992553655639242 6.8578805767662914 0 0 0 0 4.9872016637873458 105.53770432296795 0 105.53770432296795 -202.98131394928578 0 0 0 0 -17.809077812162286 62.818518784914659 0 62.818518784914659 -157.92849219486379 0 0 0 0 185.2100337077718 -58.314977046521562 0 -58.314977046521562 25.605199872250523 0 0 0 0 -8.0008001060050447 -66.45457901363352 0 -66.45457901363352 209.98965972381757 0 0 0 0 27.750368884837371 48.216834057397591 0 48.216834057397591 81.451506101334985 0 0 0 0 -36.431999291016837 126.2241330774923 0 126.2241330774923 -163.38049921681522 0 0 0 0 7.2587774260233857 5.8012982942064681 0 5.8012982942064681 4.0488741496197722 0 0 0 0 13.128244754945058 20.553308477123132 0 20.553308477123132 17.366945377247895 0 0 0 0 -122.73906415615056 25.366282736879839 0 25.366282736879839 244.26188208246197 0 0 0 0 -14.752729510131758 -10.013983470879111 0 -10.013983470879111 -74.398071457866081 0 0 0 0 2.7183647770838775 2.7006380002668244 0 2.7006380002668244 2.8239860544346023 0 0 0 0 -99.862236068374841 63.697945922638382 0 63.697945922638382 168.08804119000979 0 0 0 0 -11.707522764125315 -152.52189312781411 0 -152.52189312781411 546.5960745491102 0 0 0 0 -167.6478059547444 64.57197600615018 0 64.57197600615018 279.95216953703857 0 0 0 0 -75.321009394629073 175.77962674925539 0 175.77962674925539 106.63919665017056 0 0 0 0 -46.318924926526961 232.76961885083847 0 232.76961885083847 426.54655822429072 0 0 0 0 46.253737423168786 202.19155189459775 0 202.19155189459775 118.05856104141367 0 0 0 0 -248.1666380414099 93.438572186301826 0 93.438572186301826 78.574252431057175 0 0 0 0 -63.163033905155316 287.83213267240149 0 287.83213267240149 -95.339069025014851 0 0 0 0 -110.5912792081217 124.68947650500263 0 124.68947650500263 -181.50835445547455 0 0 0 0 0.61557230142352637 302.36605609223079 0 302.36605609223079 -830.11103078692702 0 0 0 0 -247.66931806375214 422.35399619584382 0 422.35399619584382 -171.91255241041563 0 0 0 0 -11.918736893505411 87.048183419438146 0 87.048183419438146 -137.53395719897935 0 0 0 0 -49.94668356208058 108.55328404317402 0 108.55328404317402 -43.680680349878457 0 0 0 0 -16.777321595778631 143.74690271100417 0 143.74690271100417 -324.22588753290762 0 0 0 0 -143.87528455473148 161.12486374120408 0 161.12486374120408 146.51560896908632 0 0 0 0 -111.68910153573961 129.4949240993983 0 129.4949240993983 78.511280516395345 0 0 0 0 -109.44288068456081 158.77904791815763 0 158.77904791815763 15.896025792364981 0 0 0 0 -64.786755589695531 102.24163690789874 0 102.24163690789874 -37.696163979183893 0 0 0 0 -136.7275759692784 141.30349384668511 0 141.30349384668511 179.26674943890703 0 0 0 0 -111.83450225876732 128.02834310959383 0 128.02834310959383 170.83061260713112 0 0 0 0 -120.55209916985768 200.07574033478886 0 200.07574033478886 170.55155530377169 0 0 0 0 -132.16737486609054 99.818741786265036 0 99.818741786265036 243.71197949268844 0 0 0 0 -143.53157070355883 128.74423509071949 0 128.74423509071949 170.10785195135395 0 0 0 0 -127.31593817760586 133.7571247915912 0 133.7571247915912 158.37216075411834 0 0 0 0 -113.40755983432246 143.45636420614255 0 143.45636420614255 163.31193145686848 0 0 0 0 -108.47887247968902 127.53217851303589 0 127.53217851303589 146.597512218171 0 0 0 0 54.837355702136847 138.26422995145276 0 138.26422995145276 122.77837386251633 0 0 0 0 -43.664260436959012 199.26500755144866 0 199.26500755144866 224.10324574761489 0 0 0 0 -105.86036704012076 84.612388242166617 0 84.612388242166617 253.43086732307643 0 0 0 0 -33.612152010420687 74.874373999639374 0 74.874373999639374 -20.353198598879317 0 0 0 0 -101.48765546636423 103.61308475339888 0 103.61308475339888 62.556154379767577 0 0 0 0 -66.185762078261178 87.926897446668249 0 87.926897446668249 62.60043488861993 0 0 0 0 -57.737245850577892 -1.2212434733460213 0 -1.2212434733460213 84.025364158620505 0 0 0 0 -38.055708959022013 61.799157863860728 0 61.799157863860728 54.266062872602561 0 0 0 0 -21.464855614987755 34.359099223305066 0 34.359099223305066 -3.381623219184803 0 0 0 0 -7.8703063157154816 6.7841265634590933 0 6.7841265634590933 4.7109725508946561 0 0 0 0 -32.264411261519854 27.815797501608813 0 27.815797501608813 6.4066803607186102 0 0 0 0 -23.196875807188917 27.17507640770873 0 27.17507640770873 -32.656484575565401 0 0 0 0 -2.96913675419637 5.5426698523333471 0 5.5426698523333471 6.4758601111843745 0 0 0 0 -1.5157299319835147 12.103967174497484 0 12.103967174497484 -12.900637468675995 0 0 0 0 0.079374463231943082 9.2114426842235844 0 9.2114426842235844 6.3724335209354876 0 0 0 0 -0.48485113346949049 9.0110135082734182 0 9.0110135082734182 -1.7227628070838357 0 0 0 0 -3.4334470178577448 3.3339462950459691 0 3.3339462950459691 0.56344344911476441 0 0 0 0 -2.5062302328300774 3.230360692550164 0 3.230360692550164 9.6172394629781337 0 0 0 0 -4.4610053000687913 8.0962890950104338 0 8.0962890950104338 4.4313278659203661 0 0 0 0 -3.3803784134511545 8.7532434630236864 0 8.7532434630236864 5.9428248485151762 0 0 0 0 -59.671495154150762 -20.209646985864083 0 -20.209646985864083 6.8819545241849482 0 0 0 0 -20.084371181361348 12.438051063346393 0 12.438051063346393 18.78695652413262 0 0 0 0 -0.87459502492006891 -0.54346667076188027 0 -0.54346667076188027 1.6736960363134621 0 0 0 0 110.61971940148214 258.725750526929 0 258.725750526929 583.70396778783379 0 0 0 0 484.24740007303262 372.39633827958232 0 372.39633827958232 206.10037887934959 0 0 0 0 174.91819367711287 186.17345835030756 0 186.17345835030756 197.76638203615948 0 0 0 0 -2.3079468675251462 3.0197526809597122 0 3.0197526809597122 0.36075235529524008 0 0 0 0 159.74135833855689 264.92092845799198 0 264.92092845799198 294.54077607401132 0 0 0 0 106.33182946118905 217.23464186479941 0 217.23464186479941 317.43302834251426 0 0 0 0 183.21867479036882 100.40021227303987 0 100.40021227303987 349.85490064417354 0 0 0 0 103.73774920126016 108.30660175586127 0 108.30660175586127 293.07200753852385 0 0 0 0 147.92325327557774 163.46569875513705 0 163.46569875513705 265.57766916291621 0 0 0 0 1.0713094478374359 -0.31665396808843127 0 -0.31665396808843127 0.89673052163321643 0 0 0 0 58.158169965616253 185.35079719179157 0 185.35079719179157 381.24172542618953 0 0 0 0 217.87054349226673 326.48658508131757 0 326.48658508131757 435.26771279357718 0 0 0 0 93.148420062629157 224.42806243581072 0 224.42806243581072 541.57570451002903 0 0 0 0 41.519764986035625 94.953229679560081 0 94.953229679560081 205.26275954408629 0 0 0 0 100.62150130792725 199.60803792141814 0 199.60803792141814 109.694440547044 0 0 0 0 120.98946351526683 146.31705468447944 0 146.31705468447944 142.23254523426658 0 0 0 0 197.04599427609355 142.80278651800745 0 142.80278651800745 137.97911116267096 0 0 0 0 133.7368052102247 87.669091037118051 0 87.669091037118051 234.98430179149864 0 0 0 0 103.74608967704989 149.19403234698621 0 149.19403234698621 138.81750058748412 0 0 0 0 146.6556047876511 84.565436645259979 0 84.565436645259979 82.678541618742202 0 0 0 0 86.907767366847111 124.08012275790907 0 124.08012275790907 59.137578626792674 0 0 0 0 128.40677223388047 84.879980579730727 0 84.879980579730727 3.6895185062930977 0 0 0 0 140.77323655982036 98.208106813090126 0 98.208106813090126 -3.2056995158891368 0 0 0 0 71.905782362189711 120.23617416645243 0 120.23617416645243 -9.0407443826516101 0 0 0 0 98.211075896142574 65.483728765467276 0 65.483728765467276 -55.145211864217345 0 0 0 0 65.507238099336973 85.958242139791764 0 85.958242139791764 -56.121870816652518 0 0 0 0 68.345486894825399 88.012503731740281 0 88.012503731740281 -68.138564797116487 0 0 0 0 45.277661401225487 130.97093684472566 0 130.97093684472566 -112.82176026745765 0 0 0 0 52.77359032631648 100.67288658926464 0 100.67288658926464 -162.27350774265688 0 0 0 0 41.43930035806261 62.081908330264923 0 62.081908330264923 -91.67544686158999 0 0 0 0 54.783767129098123 73.103835009171235 0 73.103835009171235 -120.8687465738185 0 0 0 0 80.180172707463498 142.07979458905993 0 142.07979458905993 -80.561577986703014 0 0 0 0 47.505062490203272 132.02768368981947 0 132.02768368981947 -139.52961139217769 0 0 0 0 51.416420914538321 129.82706769681954 0 129.82706769681954 -149.25537810260903 0 0 0 0 36.833827104790544 107.3659519135017 0 107.3659519135017 -105.9748530585839 0 0 0 0 88.240665140932833 104.2217410241783 0 104.2217410241783 62.758786480511844 0 0 0 0 17.312009401593969 152.81725473164215 0 152.81725473164215 15.15111284982595 0 0 0 0 52.40601937485917 125.87914210855251 0 125.87914210855251 17.768082426546243 0 0 0 0 -26.726215275190043 122.36811985796885 0 122.36811985796885 14.217243277691523 0 0 0 0 5.4977468781798962 188.22602799420292 0 188.22602799420292 133.76104026693065 0 0 0 0 -70.301915778582043 172.6671767818525 0 172.6671767818525 126.62783008669408 0 0 0 0 -84.794825186458183 118.64321255133473 0 118.64321255133473 1.4051472816354362 0 0 0 0 -93.930506046708615 144.16006392140116 0 144.16006392140116 6.4893623281933515 0 0 0 0 -34.758337625855347 91.568252080429829 0 91.568252080429829 -140.16999280635537 0 0 0 0 4.541910711399396 113.31371036632117 0 113.31371036632117 -57.904717852796239 0 0 0 0 2.3574746964950464 172.98725000834384 0 172.98725000834384 -14.414439788244636 0 0 0 0 -28.523013751782855 95.163294958613818 0 95.163294958613818 -154.28551677058203 0 0 0 0 -24.817987804388395 189.24234439029351 0 189.24234439029351 -178.22669592018815 0 0 0 0 -62.379667023054935 130.04157774152097 0 130.04157774152097 -75.724820757663565 0 0 0 0 -93.879956011216564 -4.9577732274874506 0 -4.9577732274874506 125.9346159341228 0 0 0 0 21.808507586810251 16.856918176271954 0 16.856918176271954 13.27618201945446 0 0 0 0 -38.365709250600048 33.01972332889909 0 33.01972332889909 23.139022759167801 0 0 0 0 -18.955183075799141 80.423699232770787 0 80.423699232770787 -20.522513431935749 0 0 0 0 15.06824585810682 79.451859761166816 0 79.451859761166816 -174.24219676480681 0 0 0 0 23.045899309414281 22.031882222053007 0 22.031882222053007 8.3933325856450729 0 0 0 0 14.600307186687132 28.098144682446218 0 28.098144682446218 -47.138009921889534 0 0 0 0 -24.932734614805668 -46.580069870328771 0 -46.580069870328771 -79.169622868557781 0 0 0 0 0.70476771106936553 2.0021332425109364 0 2.0021332425109364 -7.5468374586207183 0 0 0 0 34.791448016301729 56.610066761015332 0 56.610066761015332 -34.785603250304121 0 0 0 0 9.5974539240800283 37.96911223246552 0 37.96911223246552 -20.867511061864043 0 0 0 0 -1.620431872939875 12.690253864867628 0 12.690253864867628 -8.4943093377917549 0 0 0 0 -6.8730172431787651 67.094614613179147 0 67.094614613179147 -107.85285299284806 0 0 0 0 77.443454355845461 -11.41007302014259 0 -11.41007302014259 -178.9260000665181 0 0 0 0 90.505640132749249 -9.6475111436598127 0 -9.6475111436598127 -374.02661036828431 0 0 0 0 -42.460942015844921 128.94727681187851 0 128.94727681187851 -115.51628734991937 0 0 0 0 40.294177092757309 179.35319412985973 0 179.35319412985973 -354.4411156043476 0 0 0 0 55.898566505347844 127.66746930182671 0 127.66746930182671 -190.13227704357996 0 0 0 0 37.034378673582978 98.597577470244687 0 98.597577470244687 -197.0890913422736 0 0 0 0 29.292815229549888 81.532179123751121 0 81.532179123751121 -174.10519508898585 0 0 0 0 22.917451125147636 131.66373698067036 0 131.66373698067036 -138.86180475042465 0 0 0 0 54.533116190395958 87.836293905453203 0 87.836293905453203 -193.18486375826615 0 0 0 0 59.668600141056231 74.34938605231946 0 74.34938605231946 -282.9475830481224 0 0 0 0 -29.217723256544559 34.854261017215322 0 34.854261017215322 44.572421591194143 0 0 0 0 -30.450642605726898 64.514506866948068 0 64.514506866948068 -2.4282749493522715 0 0 0 0 -11.983400513617227 24.202229163771641 0 24.202229163771641 30.078505093475833 0 0 0 0 -35.748356894880999 58.736716986974898 0 58.736716986974898 19.781610785281373 0 0 0 0 -29.95012567655067 47.453691841217733 0 47.453691841217733 -21.49844912291428 0 0 0 0 -17.752317016915185 26.464975058917844 0 26.464975058917844 -5.1294379580840541 0 0 0 0 6.2165941193103649 30.255570480074603 0 30.255570480074603 10.672946532456235 0 0 0 0 -29.6070641859842 49.901679325767418 0 49.901679325767418 41.564723068362582 0 0 0 0 6.2418954449676676 52.072679401049754 0 52.072679401049754 8.0107583707485901 0 0 0 0 -9.6177524258237099 41.7914065054415 0 41.7914065054415 109.60087734874105 0 0 0 0 -23.499346803369406 26.41403450356465 0 26.41403450356465 5.5406603846642444 0 0 0 0 -15.158257851521967 59.925606858322638 0 59.925606858322638 30.26129444669732 0 0 0 0 -12.600525429664827 30.424073576568375 0 30.424073576568375 18.99107959399792 0 0 0 0 -12.884102629715926 60.136555371209056 0 60.136555371209056 30.246071867177307 0 0 0 0 18.988804324692779 33.756673144254449 0 33.756673144254449 17.336276781907184 0 0 0 0 -46.611018707539159 27.456957061996796 0 27.456957061996796 -0.77888535528206049 0 0 0 0 -8.5307517324763467 126.70318333223986 0 126.70318333223986 19.449052568867046 0 0 0 0 -24.426787232240258 37.793601458785474 0 37.793601458785474 58.086417878912471 0 0 0 0 -38.084996477831737 61.388246175885797 0 61.388246175885797 47.826824999200653 0 0 0 0 -27.624355429587013 29.69677782967301 0 29.69677782967301 1.4287898083284745 0 0 0 0 -13.787927168865281 34.169248997743125 0 34.169248997743125 60.207139588444079 0 0 0 0 -42.747671132277901 39.748179699386583 0 39.748179699386583 113.88978981616492 0 0 0 0 -36.643702983790718 23.280230484394451 0 23.280230484394451 187.63371520281635 0 0 0 0 -29.047810299451157 67.758219291718774 0 67.758219291718774 120.64543268522175 0 0 0 0 -28.765338742981839 44.506388195103682 0 44.506388195103682 114.7660332022167 0 0 0 0 -49.76454813275268 37.560898369373717 0 37.560898369373717 153.13357145642112 0 0 0 0 -42.033894468659128 16.669998738218055 0 16.669998738218055 104.43992722585972 0 0 0 0 -50.364936461231082 28.089861217900278 0 28.089861217900278 170.3626453572997 0 0 0 0 -31.256220058610779 47.027972150385722 0 47.027972150385722 46.276007042728452 0 0 0 0 -38.657973537941871 41.518730894558757 0 41.518730894558757 91.546172461641618 0 0 0 0 -21.214306230875081 34.826847724762047 0 34.826847724762047 35.170499166509217 0 0 0 0 -34.197542032474303 -5.0158176174932123 0 -5.0158176174932123 161.40161855248516 0 0 0 0 -83.673861146962736 10.053303257914195 0 10.053303257914195 158.49415951363926 0 0 0 0 -74.852896841690381 -47.127253164589092 0 -47.127253164589092 346.83341601408392 0 0 0 0 -75.660782593851764 27.844364523649801 0 27.844364523649801 189.87849082119828 0 0 0 0 -58.020215510026901 49.497497272561304 0 49.497497272561304 202.72703146493677 0 0 0 0 -1.8467992740479531 45.002408263423604 0 45.002408263423604 45.069072797232366 0 0 0 0 13.270085406511498 4.3367995121693639 0 4.3367995121693639 142.42639027948644 0 0 0 0 -56.389272401665949 46.754832828673898 0 46.754832828673898 168.76202633395769 0 0 0 0 -98.16870602673589 169.6708848643857 0 169.6708848643857 307.88104912513904 0 0 0 0 -67.499685942319047 99.658186919894433 0 99.658186919894433 151.10411410796314 0 0 0 0 -65.471127063787208 99.835294544154294 0 99.835294544154294 84.161732062013471 0 0 0 0 -82.022619526273047 109.06997752170491 0 109.06997752170491 81.903639557351653 0 0 0 0 -3.2623332329789889 4.8585934148630363 0 4.8585934148630363 2.1112489065498448 0 0 0 0 -27.337461882558273 108.42756631996735 0 108.42756631996735 11.543087274932077 0 0 0 0 20.668300525490906 16.926084364622547 0 16.926084364622547 5.907503423960069 0 0 0 0 2.2556392546030111 66.660307042371642 0 66.660307042371642 26.417440886172699 0 0 0 0 236.97575937086367 271.540647619011 0 271.540647619011 416.73910451314259 0 0 0 0 -8.5374586112375255 179.53328706110551 0 179.53328706110551 604.73058360814684 0 0 0 0 74.453366456353251 38.953905671824941 0 38.953905671824941 -107.22869184319643 0 0 0 0 173.5492907154694 138.52798454151707 0 138.52798454151707 -90.006022283898346 0 0 0 0 3.2038727186069877 1.793050140049818 0 1.793050140049818 -0.024138811059117415 0 0 0 0 -81.068893356929038 45.601034041000275 0 45.601034041000275 768.20953613729034 0 0 0 0 -18.977235924830893 25.881705798705298 0 25.881705798705298 -92.474689744998614 0 0 0 0 16.010805700265337 15.696073972927479 0 15.696073972927479 -116.38961798769697 0 0 0 0 -21.509855612937827 14.288646246910503 0 14.288646246910503 -94.672742834432029 0 0 0 0 0.46376995941318455 6.7462308998706249 0 6.7462308998706249 -94.972639715673722 0 0 0 0 -79.275954295677366 102.4629211536685 0 102.4629211536685 119.303348276625 0 0 0 0 -3.8738484676139251 2.8309353326669306 0 2.8309353326669306 -1.2042606907991242 0 0 0 0 -18.44061311757514 88.051725769663108 0 88.051725769663108 49.127102006455971 0 0 0 0 -24.733948555556708 70.611580596490967 0 70.611580596490967 136.35777752452486 0 0 0 0 6.6884473413474552 -37.252457497850259 0 -37.252457497850259 27.807193583133994 0 0 0 0 17.762253528111614 90.316933876149051 0 90.316933876149051 28.175727553634715 0 0 0 0 -20.066090530563088 -14.818292991043563 0 -14.818292991043563 223.24288209900988 0 0 0 0 51.015118345028895 77.086164669088248 0 77.086164669088248 -75.993696721857305 0 0 0 0 13.847303702447292 14.641502434033377 0 14.641502434033377 8.1573399497177554 0 0 0 0 -23.045536350706243 28.389848037204501 0 28.389848037204501 199.13325165611604 0 0 0 0 -15.757100625207386 28.271032676692812 0 28.271032676692812 165.51629044317997 0 0 0 0 16.729895435654726 7.3057353536455594 0 7.3057353536455594 175.21976011678817 0 0 0 0 -10.453873882720472 -42.058388372521677 0 -42.058388372521677 318.43723203937134 0 0 0 0 0.1253468243048701 31.175794640901586 0 31.175794640901586 195.37302014443867 0 0 0 0 -0.4474083181048627 -88.363655747913981 0 -88.363655747913981 451.19783108315642 0 0 0 0 -50.411335737234822 117.13636874006534 0 117.13636874006534 -150.7507723145427 0 0 0 0 7.344125515952328 11.273290121393153 0 11.273290121393153 6.4553758419914971 0 0 0 0 -57.701179321302334 49.751558593728078 0 49.751558593728078 -56.316519577322197 0 0 0 0 21.74154224105132 -2.397452498898943 0 -2.397452498898943 -23.74361456169936 0 0 0 0 -214.41634229012743 246.73768964067881 0 246.73768964067881 -99.516219469833231 0 0 0 0 -188.67266121196735 98.079557618951185 0 98.079557618951185 178.49517787404238 0 0 0 0 -1.663530694815563 2.1528261526177754 0 2.1528261526177754 -0.78158913042171463 0 0 0 0 -85.057094835967291 251.78842600667667 0 251.78842600667667 -334.8448439095223 0 0 0 0 -15.444302983749367 91.329194682579327 0 91.329194682579327 -104.65602422407574 0 0 0 0 -96.562318223062903 118.45922714169501 0 118.45922714169501 -55.525736773324752 0 0 0 0 -145.30821673683386 167.44160428457144 0 167.44160428457144 -82.237395130341611 0 0 0 0 -55.937147873162758 141.63034036055888 0 141.63034036055888 -133.54848194356782 0 0 0 0 -125.12717944159522 188.41750243987917 0 188.41750243987917 -209.26172672055236 0 0 0 0 -176.00880537713238 193.03477259545434 0 193.03477259545434 -64.503557281843314 0 0 0 0 -185.12859753199155 158.20059610368389 0 158.20059610368389 -113.23418195956583 0 0 0 0 -187.19941079704586 183.47614317836087 0 183.47614317836087 -82.741329402330393 0 0 0 0 -301.63922055809235 229.14089530430374 0 229.14089530430374 -150.22203218215782 0 0 0 0 -142.48456598950725 155.34428323626253 0 155.34428323626253 -166.50212513568385 0 0 0 0 1.8757482879223062 8.0288923123595026 0 8.0288923123595026 4.9730775492416672 0 0 0 0 -143.0522974024725 140.51023344353666 0 140.51023344353666 -346.36850446802964 0 0 0 0 -0.35150037787801125 3.5285276266528385 0 3.5285276266528385 2.1193781787962891 0 0 0 0 -191.37028200614441 574.77686577284112 0 574.77686577284112 -650.36338849344065 0 0 0 0 112.38480841324417 -10.139934189864107 0 -10.139934189864107 171.52109464523346 0 0 0 0 -118.11936179496479 -97.80044868233972 0 -97.80044868233972 813.24595643176508 0 0 0 0 40.721261514772777 87.024402806404396 0 87.024402806404396 112.33395436106184 0 0 0 0 -15.796897788437803 7.601918889579359 0 7.601918889579359 -3.211490337050197 0 0 0 0 -17.625865443122166 120.12754969665093 0 120.12754969665093 251.35760892017061 0 0 0 0 5.0571176190205733 -57.711879555605265 0 -57.711879555605265 153.12369718968876 0 0 0 0 -65.024853427632479 46.737507458863092 0 46.737507458863092 244.39563626044946 0 0 0 0 27.321362683820553 82.457108022083958 0 82.457108022083958 251.73744609123059 0 0 0 0 -16.439048748251935 3.4773119858527934 0 3.4773119858527934 180.89181868063497 0 0 0 0 -22.811741659403197 74.426911497362198 0 74.426911497362198 85.552816300587438 0 0 0 0 18.138086700218992 -5.4615540262329887 0 -5.4615540262329887 25.96454069869651 0 0 0 0 -26.355387268921021 13.178063050354933 0 13.178063050354933 -6.0101412722646792 0 0 0 0 6.1346059248389793 48.335664598595031 0 48.335664598595031 132.44022576517909 0 0 0 0 1.1453358560429479 150.16726991750829 0 150.16726991750829 214.72806596311057 0 0 0 0 5.3825133394639124 155.31413143491955 0 155.31413143491955 128.90693650456251 0 0 0 0 -36.964180309203982 18.506260399119597 0 18.506260399119597 -10.292828873729789 0 0 0 0 -10.181445138166055 2.9998033584636232 0 2.9998033584636232 -4.993627421255951 0 0 0 0 16.050427879927156 125.60456089275158 0 125.60456089275158 -96.562978197842938 0 0 0 0 43.257161681380239 78.065161915597855 0 78.065161915597855 -59.565002019819531 0 0 0 0 -24.952152644385933 60.992633526426289 0 60.992633526426289 33.271570023356617 0 0 0 0 4.1041256349271862 114.35452432297006 0 114.35452432297006 61.385332465181818 0 0 0 0 -23.448213327515987 86.855526977446061 0 86.855526977446061 16.401513116983551 0 0 0 0 10.63964537479842 46.226577295096831 0 46.226577295096831 42.704897067695128 0 0 0 0 -9.496427384117851 69.908929873436136 0 69.908929873436136 -30.685200108840945 0 0 0 0 -48.902046166815126 55.669935435428215 0 55.669935435428215 27.15175078698303 0 0 0 0 -53.810303573707642 66.23529864997181 0 66.23529864997181 48.681259383518409 0 0 0 0 -76.715743833701708 32.724043599730066 0 32.724043599730066 135.62175813414979 0 0 0 0 1.0770952297461918 49.546258682762527 0 49.546258682762527 53.685898113821167 0 0 0 0 48.203314396698261 68.262144132152116 0 68.262144132152116 122.72182942116342 0 0 0 0 -23.943835790742014 85.815395758511841 0 85.815395758511841 119.80635711538525 0 0 0 0 -129.43758672266995 148.89063658890791 0 148.89063658890791 110.58712866959104 0 0 0 0 -145.93952897645067 167.31644612423224 0 167.31644612423224 122.39599193351296 0 0 0 0 -138.17792588540033 86.256298984223577 0 86.256298984223577 111.05016116968636 0 0 0 0 -119.33272302527621 53.413536943990039 0 53.413536943990039 143.00213001561042 0 0 0 0 -101.38601205236046 67.865844772393757 0 67.865844772393757 93.367921161163395 0 0 0 0 -96.651319705186324 80.076378289033528 0 80.076378289033528 43.3149947853708 0 0 0 0 -93.118322814829298 66.700536207294135 0 66.700536207294135 93.517298115854828 0 0 0 0 -78.517672106205282 72.270370741314991 0 72.270370741314991 44.765759040870762 0 0 0 0 -102.28168490764801 120.3597018147866 0 120.3597018147866 64.408270013600486 0 0 0 0 -101.61824351900214 124.38810073689888 0 124.38810073689888 21.374837515802938 0 0 0 0 -151.30394618335777 117.07324494930072 0 117.07324494930072 65.847542070203417 0 0 0 0 -90.730138483373594 164.87226454362872 0 164.87226454362872 57.524358121338082 0 0 0 0 -102.137115449259 145.57786325213601 0 145.57786325213601 43.251786446058759 0 0 0 0 -38.718894152138091 162.08530474883446 0 162.08530474883446 2.0001439691259293 0 0 0 0 -48.683574655762641 127.7311787368734 0 127.7311787368734 -1.5512210938104545 0 0 0 0 -61.809877319818042 143.56209089664981 0 143.56209089664981 12.745804045709519 0 0 0 0 -32.787211439368548 176.29037311582033 0 176.29037311582033 49.607265392198315 0 0 0 0 12.045070964883053 141.20581327741002 0 141.20581327741002 1.4133831805647787 0 0 0 0 19.916620963289461 196.26468376859884 0 196.26468376859884 64.931650749287655 0 0 0 0 -55.800072451151209 161.19584233107435 0 161.19584233107435 58.439377576834431 0 0 0 0 -50.605525093029428 182.99458023144598 0 182.99458023144598 65.667843323713896 0 0 0 0 -129.48117714337423 219.97437187907281 0 219.97437187907281 98.585324840667454 0 0 0 0 -120.22576610575197 199.5407861599615 0 199.5407861599615 100.84913765985425 0 0 0 0 -10.822201724236947 243.08092750842752 0 243.08092750842752 75.139040896930965 0 0 0 0 3.2509932203247445 149.11515661158774 0 149.11515661158774 102.11943698865252 0 0 0 0 202.78332652990503 74.339662422296897 0 74.339662422296897 157.66317540071304 0 0 0 0 77.827923843321059 182.31559353895278 0 182.31559353895278 107.94463110136712 0 0 0 0 -33.40680962902843 113.24831221908607 0 113.24831221908607 64.320526481897559 0 0 0 0 -132.28567296309484 265.43153706454177 0 265.43153706454177 114.98802728040755 0 0 0 0 36.66569203425388 232.92839342954812 0 232.92839342954812 256.45212307917063 0 0 0 0 -151.36250996323361 259.76760065131748 0 259.76760065131748 -40.284278122322576 0 0 0 0 -325.95502863748698 293.11985880164684 0 293.11985880164684 -380.56664725363407 0 0 0 0 -773.02451530299732 -57.90692333984407 0 -57.90692333984407 19.677620633614424 0 0 0 0 -565.24922171950311 206.8802205479742 0 206.8802205479742 162.00623843663197 0 0 0 0 -297.25091914441873 173.88068940344419 0 173.88068940344419 85.793532969088119 0 0 0 0 -197.46071264497004 205.00221648927163 0 205.00221648927163 121.91917076794925 0 0 0 0 -214.86364911150667 114.61054272591764 0 114.61054272591764 180.4143082114806 0 0 0 0 -240.32476168018184 290.4080664615467 0 290.4080664615467 -34.913753429662393 0 0 0 0 -408.97761980742143 131.76086160743216 0 131.76086160743216 198.07789339073133 0 0 0 0 -263.32842347714177 187.81159168109662 0 187.81159168109662 132.36165483042532 0 0 0 0 -137.07658735591758 234.18511731464287 0 234.18511731464287 107.68652241826567 0 0 0 0 -245.32852345401625 81.599622447832189 0 81.599622447832189 166.3287977213904 0 0 0 0 -77.22811360261403 -55.132719028385509 0 -55.132719028385509 144.09853056745851 0 0 0 0 -337.16347195606795 -17.97714578896921 0 -17.97714578896921 180.00678240263369 0 0 0 0 12.731547041898011 357.04610647857044 0 357.04610647857044 -82.334658820236655 0 0 0 0 -5.5003886758145768 2.2822378757966213 0 2.2822378757966213 -0.66379247494412041 0 0 0 0 -838.75855419784784 340.44458390214095 0 340.44458390214095 355.41346801245527 0 0 0 0 -488.97938184545882 588.57934373516389 0 588.57934373516389 -51.146813298997586 0 0 0 0 -487.23145880425614 405.77754537621126 0 405.77754537621126 197.32509388132894 0 0 0 0 -261.10476738870784 392.69168855243333 0 392.69168855243333 -198.40102408924758 0 0 0 0 -291.40523245927398 4.8958918234600333 0 4.8958918234600333 122.21390942904327 0 0 0 0 -519.91790826032229 321.40143202903164 0 321.40143202903164 41.922712259689433 0 0 0 0 -248.10077036870643 138.60724059711174 0 138.60724059711174 82.278278853193115 0 0 0 0 -75.268331102532102 118.92435295494579 0 118.92435295494579 23.998188331668075 0 0 0 0 -82.12247283126635 -86.583034348897399 0 -86.583034348897399 187.11814452323961 0 0 0 0 -194.3513294449258 62.656672427521244 0 62.656672427521244 180.31279225589969 0 0 0 0 -59.816948320594747 44.710481667475506 0 44.710481667475506 -25.260263233929436 0 0 0 0 0.10327745876240613 -0.16036240276041269 0 -0.16036240276041269 2.6123273615431941 0 0 0 0 4.6866502239136025 45.413101453281342 0 45.413101453281342 180.99212815919554 0 0 0 0 -79.339568161623902 100.1383322805159 0 100.1383322805159 -75.237758640465472 0 0 0 0 -312.51003849612198 146.05239034701236 0 146.05239034701236 99.063434218251132 0 0 0 0 -237.44039444379814 55.743490844359712 0 55.743490844359712 29.030434373249591 0 0 0 0 -42.096192811673973 44.926898039517255 0 44.926898039517255 -76.096041824895281 0 0 0 0 -96.277485216836794 -21.228401556878453 0 -21.228401556878453 -9.7959829837327561 0 0 0 0 -1.4533898890601051 0.38834728206988167 0 0.38834728206988167 1.3398532215971386 0 0 0 0 35.127752276501269 -52.142688263542368 0 -52.142688263542368 28.937428681612801 0 0 0 0 -11.336650591809303 0.36024832739894919 0 0.36024832739894919 12.683014961643494 0 0 0 0 -7.421895412247963 0.39228715465647213 0 0.39228715465647213 7.8933469772199061 0 0 0 0 -9.8108134689335031 -2.5186320330299274 0 -2.5186320330299274 8.4367488276686515 0 0 0 0 -15.905543865599611 -2.9178745490407891 0 -2.9178745490407891 11.418919663857196 0 0 0 0 -10.623870739269478 0.59512806664861273 0 0.59512806664861273 6.3996905745980257 0 0 0 0 -12.795532325185917 -0.025641412382803708 0 -0.025641412382803708 4.1510924508099585 0 0 0 0 -14.395568318621542 2.5127735011719352 0 2.5127735011719352 5.4885179839832716 0 0 0 0 57.113294248862076 -50.977393154404126 0 -50.977393154404126 -21.176725321658523 0 0 0 0 -20.491624235748532 4.2363728688543461 0 4.2363728688543461 9.0433458743027586 0 0 0 0 -16.230421305263008 -4.7301160727911338 0 -4.7301160727911338 32.483436467486172 0 0 0 0 -91.070487824559677 52.00769027786373 0 52.00769027786373 2.0142165514816952 0 0 0 0 -4.7557051501736396 2.99102426115968 0 2.99102426115968 -0.94215265249133751 0 0 0 0 -19.978704095064643 0.91289489760892195 0 0.91289489760892195 8.074322404654545 0 0 0 0 -33.802517506643198 7.5302549986608938 0 7.5302549986608938 0.068854391989589203 0 0 0 0 -104.75037903569319 0.51187111547824315 0 0.51187111547824315 26.121849360797114 0 0 0 0 -13.192523038937676 5.4467135796237756 0 5.4467135796237756 10.639055121802997 0 0 0 0 -14.614480232150527 10.511935312269998 0 10.511935312269998 9.9433404033898114 0 0 0 0 -5.6369288505672728 5.3716736246924475 0 5.3716736246924475 1.2751816045401725 0 0 0 0 1.0972360094963278 14.358879660484831 0 14.358879660484831 21.712250031774602 0 0 0 0 -23.183987993201299 3.1837413356988691 0 3.1837413356988691 12.395692766499451 0 0 0 0 -24.718761487383745 3.0075577426541713 0 3.0075577426541713 12.415783058959732 0 0 0 0 -13.033621697293626 4.8501542843418779 0 4.8501542843418779 6.0144986067067663 0 0 0 0 -21.05361422916576 -0.58019373514559902 0 -0.58019373514559902 4.8548077738523716 0 0 0 0 -8.9622061227035204 5.2502223681328672 0 5.2502223681328672 7.3716330211327374 0 0 0 0 -0.27743367147695608 7.5014056279544548 0 7.5014056279544548 6.2180910485913046 0 0 0 0 -1.4775284650106641 7.3271289068338348 0 7.3271289068338348 4.1561034964772006 0 0 0 0 -6.9136137522873469 7.0363039436997497 0 7.0363039436997497 5.8443883195395756 0 0 0 0 -6.9569654721992435 1.8026980560210433 0 1.8026980560210433 3.7772914299259561 0 0 0 0 -7.375837684769067 6.7790159082196624 0 6.7790159082196624 6.1865718524513795 0 0 0 0 -11.900681281571451 1.6433529832520435 0 1.6433529832520435 12.560908680643479 0 0 0 0 -5.85009960734169 7.043587381253019 0 7.043587381253019 14.225713838375668 0 0 0 0 -10.169401951728446 8.6137028853463278 0 8.6137028853463278 5.9220414508062262 0 0 0 0 -10.148861553961495 0.52214642334995176 0 0.52214642334995176 6.3380871891991859 0 0 0 0 -10.474920946618269 3.258256411405668 0 3.258256411405668 9.4230522939752674 0 0 0 0 -21.674320368161716 -5.4635356424423662 0 -5.4635356424423662 24.024426636729913 0 0 0 0 -11.466776034751092 8.4906649229415052 0 8.4906649229415052 0.96980206504304078 0 0 0 0 -17.295466489929822 -4.9757021586920018 0 -4.9757021586920018 19.32733679512603 0 0 0 0 28.669017354870448 -16.865433920356736 0 -16.865433920356736 20.169489587366115 0 0 0 0 6.2063084063249789 -7.6695917242693383 0 -7.6695917242693383 37.33826442944337 0 0 0 0 -15.756373763535521 26.220391045990254 0 26.220391045990254 -16.926121670385328 0 0 0 0 0.26976695126476002 2.275586667469824 0 2.275586667469824 -0.13195830910448336 0 0 0 0 -6.704595954333854 10.036467276037456 0 10.036467276037456 4.4476939427404432 0 0 0 0 -2.4868768421636078 6.6147285486377143 0 6.6147285486377143 3.0515517848890283 0 0 0 0 4.6239730332951297 2.8766353914335951 0 2.8766353914335951 0.71641883333255407 0 0 0 0 61.475125448327162 53.680987302685935 0 53.680987302685935 72.32819287512757 0 0 0 0 -5.3705467428080738 -27.315317647509801 0 -27.315317647509801 -7.4647648690661299 0 0 0 0 7.3730067077840431 -33.009887112977225 0 -33.009887112977225 135.97092107119533 0 0 0 0 -38.965245502156904 25.262386716360197 0 25.262386716360197 11.593150146069092 0 0 0 0 1.2580171727674241 3.752507982511986 0 3.752507982511986 6.1530163451746063 0 0 0 0 -42.086140111663553 -5.4073990222223074 0 -5.4073990222223074 31.21521955908338 0 0 0 0 -46.26879782697506 13.600059209735264 0 13.600059209735264 22.134870435760376 0 0 0 0 -10.754354710748885 -53.977144425898587 0 -53.977144425898587 128.75416536978173 0 0 0 0 162.65071501074999 -257.13515416279097 0 -257.13515416279097 293.30173255429509 0 0 0 0 -63.770335052062364 -101.89070714644038 0 -101.89070714644038 434.56618651012104 0 0 0 0 -101.21900364046451 66.60735787570411 0 66.60735787570411 117.87037138042069 0 0 0 0 -4.8985115822342777 151.79525237659186 0 151.79525237659186 438.75707649951983 0 0 0 0 76.340676376843476 13.008948296355811 0 13.008948296355811 420.81616432537339 0 0 0 0 26.040145584804122 106.92055379229714 0 106.92055379229714 35.215324791290641 0 0 0 0 1.5087552319857025 1.277669299909391 0 1.277669299909391 1.4937799847835365 0 0 0 0 -9.3985279181069927 70.25576987862496 0 70.25576987862496 495.30767685802039 0 0 0 0 136.02244970710672 71.05072683121125 0 71.05072683121125 232.90714970882436 0 0 0 0 99.359558236043085 174.9505685132699 0 174.9505685132699 357.40432942004372 0 0 0 0 106.59578001185946 75.753869485876521 0 75.753869485876521 -47.386836251345812 0 0 0 0 2.6963682466400201 0.43580179918338047 0 0.43580179918338047 0.04956588186513855 0 0 0 0 -15.33304273783142 4.7585707741745864 0 4.7585707741745864 153.221164499304 0 0 0 0 -34.311069001438824 6.7385108346424758 0 6.7385108346424758 23.285164969849575 0 0 0 0 -34.249284993900801 20.823997590070576 0 20.823997590070576 11.771847033069207 0 0 0 0 -18.44441510575416 8.4778601990474272 0 8.4778601990474272 7.0859477325966509 0 0 0 0 -15.248837726874626 -6.6928260184358805 0 -6.6928260184358805 20.236007914261791 0 0 0 0 17.017037092919054 -20.237884746893542 0 -20.237884746893542 -4.8423012637886131 0 0 0 0 85.188761055957002 40.707810447757765 0 40.707810447757765 10.255432741996628 0 0 0 0 10.288258666798356 11.288856102883074 0 11.288856102883074 17.731822037215352 0 0 0 0 34.966583022753184 16.227683550319853 0 16.227683550319853 5.5211422941865749 0 0 0 0 0.89227353564638179 14.597878191501877 0 14.597878191501877 12.357527402651613 0 0 0 0 -13.717265128376312 -10.949235013733414 0 -10.949235013733414 -6.8857958496446372 0 0 0 0 -2.5056090763032017 -0.18725703405387861 0 -0.18725703405387861 2.5661966625134056 0 0 0 0 -9.1641369977151044 7.76481470962608 0 7.76481470962608 3.9734650773898466 0 0 0 0 -15.415485416539013 -4.6496844916691771 0 -4.6496844916691771 6.4829676443259814 0 0 0 0 -6.1350098431950926 2.8283929338854801 0 2.8283929338854801 -1.6547360319610611 0 0 0 0 -7.4734259835022385 1.7096202179818647 0 1.7096202179818647 10.937560468046286 0 0 0 0 -20.19508083841356 3.401532893665717 0 3.401532893665717 13.498815937033214 0 0 0 0 12.808417661000931 1.2349230905488184 0 1.2349230905488184 12.383950855062722 0 0 0 0 21.661007773094752 60.303503262788581 0 60.303503262788581 76.836361239708822 0 0 0 0 42.44952598504824 35.931330477409574 0 35.931330477409574 22.018898544436524 0 0 0 0 29.936311977588048 19.182201726145649 0 19.182201726145649 23.300184844865726 0 0 0 0 35.408261184562832 46.526234482268649 0 46.526234482268649 53.720990541882202 0 0 0 0 52.043983657946228 55.249898957647019 0 55.249898957647019 43.906332294677668 0 0 0 0 51.080172504132861 67.11280286420515 0 67.11280286420515 84.60764517010648 0 0 0 0 0.070092765876324847 47.214223440142632 0 47.214223440142632 83.099393693599723 0 0 0 0 33.993544588523946 121.8102670041817 0 121.8102670041817 223.41468109508969 0 0 0 0 157.9092821376762 224.17266969581283 0 224.17266969581283 178.98696835301962 0 0 0 0 22.341051465675264 53.711804479632519 0 53.711804479632519 428.7094581732199 0 0 0 0 -0.014603180556150619 71.682321861075252 0 71.682321861075252 232.09928638375663 0 0 0 0 17.723034261955036 92.032097496873575 0 92.032097496873575 255.24300887448226 0 0 0 0 58.755899721603782 66.492505358343351 0 66.492505358343351 139.94853076118306 0 0 0 0 -0.041238166766561335 83.323524160225134 0 83.323524160225134 256.55985098205019 0 0 0 0 34.165107190739946 77.80735257080687 0 77.80735257080687 236.42432286175426 0 0 0 0 48.219830443696992 101.52403517881885 0 101.52403517881885 226.52005974727035 0 0 0 0 40.520642860268708 81.861949989312052 0 81.861949989312052 250.05742543289125 0 0 0 0 91.432720107723526 71.347570327951871 0 71.347570327951871 164.56161341605184 0 0 0 0 56.003219545411412 145.73630181294175 0 145.73630181294175 102.63590634200045 0 0 0 0 81.425294992463023 124.86464010898726 0 124.86464010898726 157.26117188894386 0 0 0 0 56.102914764356683 79.038101784563878 0 79.038101784563878 121.02676700012125 0 0 0 0 12.856215133338992 123.60177883136566 0 123.60177883136566 95.186540023807083 0 0 0 0 14.506835130317995 115.04259597685723 0 115.04259597685723 80.385565430577117 0 0 0 0 56.790869692071283 130.08364038321179 0 130.08364038321179 32.307904179247089 0 0 0 0 -13.848565621905436 127.5322546301968 0 127.5322546301968 33.293219533556112 0 0 0 0 30.73473097373062 101.06320318778398 0 101.06320318778398 -25.647364262438714 0 0 0 0 24.253791502371314 140.26551386810752 0 140.26551386810752 -9.565936225320911 0 0 0 0 -8.6641944298244198 73.293731935616961 0 73.293731935616961 141.71774733982875 0 0 0 0 -5.2220831717750116 111.09006001172247 0 111.09006001172247 41.326244863063039 0 0 0 0 24.307379744874197 75.00927873796627 0 75.00927873796627 6.7866192063729613 0 0 0 0 0.061356346258421679 110.33739445657518 0 110.33739445657518 70.036439544861423 0 0 0 0 60.085170498448861 78.410056969964444 0 78.410056969964444 49.037727415818154 0 0 0 0 -127.26379547132092 702.58823441731511 0 702.58823441731511 -579.36838203479874 0 0 0 0 -133.68374008236424 684.63899211723401 0 684.63899211723401 -573.50008337802319 0 0 0 0 0.019513617920893012 827.1842255590509 0 827.1842255590509 -421.74187466592775 0 0 0 0 -228.34450335584734 772.84320169233342 0 772.84320169233342 -401.30491025181254 0 0 0 0 -348.49782729509752 669.92936127510984 0 669.92936127510984 -375.66212279021056 0 0 0 0 -473.07385976242949 521.92865271499068 0 521.92865271499068 -339.61053864020505 0 0 0 0 -289.86912948643294 672.04747324623895 0 672.04747324623895 -586.01985608723771 0 0 0 0 -306.62181240688369 694.83562864187115 0 694.83562864187115 -535.58161065793411 0 0 0 0 -323.71677797142183 652.08745136160906 0 652.08745136160906 -551.73103764023108 0 0 0 0 -313.87880106693774 625.72484701600479 0 625.72484701600479 -602.99556541960192 0 0 0 0 -250.76054055680288 704.47302773063529 0 704.47302773063529 -568.22247102274014 0 0 0 0 -351.81577401221148 627.76331816383026 0 627.76331816383026 -522.44899460022862 0 0 0 0 -396.813875662996 584.25337486282388 0 584.25337486282388 -541.46040083851767 0 0 0 0 -69.321074616214901 355.44995143220149 0 355.44995143220149 -546.52544128884256 0 0 0 0 -241.09279597268778 490.92654376604196 0 490.92654376604196 -381.64870479290767 0 0 0 0 -191.03876716623927 630.6675755299475 0 630.6675755299475 -642.65965552334637 0 0 0 0 -323.22849494083493 449.00949411854162 0 449.00949411854162 -794.06403512865108 0 0 0 0 -289.61703330141381 678.8638155973531 0 678.8638155973531 -653.33579746621763 0 0 0 0 -245.909486900915 618.47337363339648 0 618.47337363339648 -637.72767617773206 0 0 0 0 -72.077628063492739 627.01065619055225 0 627.01065619055225 -750.36927734595702 0 0 0 0 -0.27578744557831669 684.53485756608643 0 684.53485756608643 -710.99311116132958 0 0 0 0 0.29046706081897089 550.16252668804077 0 550.16252668804077 -992.86281457491714 0 0 0 0 61.464160418610845 512.39955233434011 0 512.39955233434011 -1072.4468157126903 0 0 0 0 -452.17371926510532 558.86824404529943 0 558.86824404529943 -345.43619565365589 0 0 0 0 -1.9572999579370105 2.2253461716878569 0 2.2253461716878569 -2.7581667389629274 0 0 0 0 51.44684246370889 -47.43383151040689 0 -47.43383151040689 -191.05731409054715 0 0 0 0 -8.6649493959412212 -132.84340708280979 0 -132.84340708280979 31.974974979846593 0 0 0 0 -5.4018448731803801 20.451426187000834 0 20.451426187000834 33.324757968992344 0 0 0 0 -2.1073728895886177 1.2438231332408378 0 1.2438231332408378 -0.96182052276994057 0 0 0 0 -59.449157913353702 251.05693684397556 0 251.05693684397556 -1007.8522416660628 0 0 0 0 -3.0808040775773406 24.340931930530132 0 24.340931930530132 12.478752195376728 0 0 0 0 0.022453665070125528 17.724434516478734 0 17.724434516478734 1.9644950306828832 0 0 0 0 21.127904188724642 21.520894068045891 0 21.520894068045891 -43.294183703466842 0 0 0 0 25.910162068154023 3.4532073216414574 0 3.4532073216414574 -16.319772094739164 0 0 0 0 18.924232346442295 -9.1826628031667497 0 -9.1826628031667497 -48.966030768620385 0 0 0 0 0.52798071613506181 66.334227034572905 0 66.334227034572905 73.54824021038803 0 0 0 0 -3.7698381928267537 3.0002615620047948 0 3.0002615620047948 -2.231245416787246 0 0 0 0 15.00391310989653 27.689194443034921 0 27.689194443034921 -6.90512756580938 0 0 0 0 -1.0579974799136949 -0.87562462818042164 0 -0.87562462818042164 0.91080612563732899 0 0 0 0 -32.322116901894333 -7.135174453844229 0 -7.135174453844229 15.813845969554677 0 0 0 0 1.4083558405691292 14.065578185907725 0 14.065578185907725 30.148025943666653 0 0 0 0 15.522595300208195 32.952604654157767 0 32.952604654157767 31.322755059933115 0 0 0 0 21.747597390254668 29.893501606631617 0 29.893501606631617 27.466080152098584 0 0 0 0 0.010181316077254214 32.294699198985889 0 32.294699198985889 40.952174350146379 0 0 0 0 21.318158862872224 34.593856406225314 0 34.593856406225314 8.8379311582029914 0 0 0 0 -2.7829393123101909 16.166154508551699 0 16.166154508551699 22.390551860744381 0 0 0 0 -1.0943396892616875 10.415520208380713 0 10.415520208380713 14.766651237663609 0 0 0 0 12.963424328510882 4.228806744897156 0 4.228806744897156 -15.560632782191533 0 0 0 0 -1.3694339886207842 -0.39133405282999867 0 -0.39133405282999867 0.030133897104391849 0 0 0 0 2.8281749903144373 28.209489691788576 0 28.209489691788576 37.622929178709455 0 0 0 0 -4.7428463181319103 3.1522309352271023 0 3.1522309352271023 -1.4818488492854271 0 0 0 0 20.318793641432421 -0.86353011439678085 0 -0.86353011439678085 -4.7122593974236224 0 0 0 0 -0.1817768873879686 11.574071312987144 0 11.574071312987144 -0.51172240004234482 0 0 0 0 -6.2757414640509523 12.376371650174406 0 12.376371650174406 11.293834700838488 0 0 0 0 -20.964205616852269 1.8452654870961851 0 1.8452654870961851 41.156848448124947 0 0 0 0 29.004596520819177 3.6661050085604074 0 3.6661050085604074 -8.2837886607230757 0 0 0 0 -1.6047627626427641 1.5804144728788856 0 1.5804144728788856 0.20124951780395861 0 0 0 0 -9.3682113453855607 3.1304484429662551 0 3.1304484429662551 7.3618389105543685 0 0 0 0 -0.11396047312882729 13.515683882789745 0 13.515683882789745 12.513916005000283 0 0 0 0 -6.1993421096646557 2.2071312381843526 0 2.2071312381843526 18.860970004770934 0 0 0 0 -5.5974664921959629 15.043942830841843 0 15.043942830841843 12.108111207995535 0 0 0 0 2.2221416855113603 8.7392339678202831 0 8.7392339678202831 4.3741271351103279 0 0 0 0 -9.3176385398255661 18.259376784044434 0 18.259376784044434 14.02393028595543 0 0 0 0 -36.804628442390822 -8.8688031245142156 0 -8.8688031245142156 61.45329585543368 0 0 0 0 7.2793511982017662 44.953012434478296 0 44.953012434478296 -49.429349176982214 0 0 0 0 1.9886319529250613 2.0017298351795034 0 2.0017298351795034 9.8219749121453788 0 0 0 0 3.6941361463268549 86.808343688088371 0 86.808343688088371 -125.34313517822011 0 0 0 0 -4.2856068956666178 7.0124421087993838 0 7.0124421087993838 -4.1865618751872375 0 0 0 0 94.008090058428934 175.19969330161803 0 175.19969330161803 -1106.3332887271572 0 0 0 0 -33.50555980434001 74.283353937837092 0 74.283353937837092 -127.78596393454245 0 0 0 0 -22.038549512792088 122.56707069533149 0 122.56707069533149 -374.58961598433962 0 0 0 0 -124.71350673069901 62.46752214490698 0 62.46752214490698 -38.800614841398783 0 0 0 0 40.527843911659147 49.614047448461861 0 49.614047448461861 -148.6372625866934 0 0 0 0 -220.27578788354731 226.64500203277385 0 226.64500203277385 -226.15686807835482 0 0 0 0 -17.724988631889573 -0.049357595438777935 0 -0.049357595438777935 -110.12039563974213 0 0 0 0 -8.6638290774571942 226.83655509783421 0 226.83655509783421 216.71933814918157 0 0 0 0 1.175934587040957 12.84797437005659 0 12.84797437005659 -54.203460197051925 0 0 0 0 159.47748519663946 295.40324232043656 0 295.40324232043656 -134.20703164159204 0 0 0 0 -13.090664017274662 36.561573000948428 0 36.561573000948428 47.55547047539968 0 0 0 0 77.020181618339848 -29.335097810457228 0 -29.335097810457228 203.32941705292615 0 0 0 0 6.9545526901253822 3.2771090639638061 0 3.2771090639638061 19.274901970764542 0 0 0 0 -18.719211701325548 14.719098928657331 0 14.719098928657331 52.845197066795663 0 0 0 0 -14.10798995388177 15.138165563281291 0 15.138165563281291 0.5434074924005472 0 0 0 0 -8.2150538880159729 31.840594575256546 0 31.840594575256546 40.644410348865222 0 0 0 0 -12.15722198234289 12.273081564379027 0 12.273081564379027 39.123340575867587 0 0 0 0 -10.567365399118358 15.811332556617785 0 15.811332556617785 -0.13879810002181614 0 0 0 0 -20.054129313990416 28.849881978292615 0 28.849881978292615 46.000920260943531 0 0 0 0 -6.7826756601789384 17.420769329612085 0 17.420769329612085 8.4706246324603853 0 0 0 0 -8.0362420345045393 -56.513216037626989 0 -56.513216037626989 67.11129744716709 0 0 0 0 36.29092937632231 -26.07710015802877 0 -26.07710015802877 55.041090113401879 0 0 0 0 -27.766221534991928 45.399531460798244 0 45.399531460798244 -1.653422368432075 0 0 0 0 -0.018821822533809041 1.5415998687421251 0 1.5415998687421251 -4.2118537901116753 0 0 0 0 -0.56213336405861014 6.1953284867272487 0 6.1953284867272487 5.1511829515771765 0 0 0 0 -7.3587340118829161 33.168352323642466 0 33.168352323642466 -57.418369126746256 0 0 0 0 -13.876953373906872 12.06984159978856 0 12.06984159978856 15.862718443320773 0 0 0 0 -5.3412734263547463 8.7873209530152963 0 8.7873209530152963 17.063922725559678 0 0 0 0 -0.25442372737817376 12.989777802348769 0 12.989777802348769 23.715411819725027 0 0 0 0 -10.211965989310556 27.454539212367308 0 27.454539212367308 31.011684393828546 0 0 0 0 -19.752414910944935 20.436355347112112 0 20.436355347112112 26.135394563090813 0 0 0 0 -28.605305805146145 9.5539904642710098 0 9.5539904642710098 24.467273799342365 0 0 0 0 -26.648854741601099 8.3351211826666258 0 8.3351211826666258 25.124002043085056 0 0 0 0 -3.2629759274350363 11.611735362403124 0 11.611735362403124 21.989635675473664 0 0 0 0 -7.180121212668837 3.2671109340442968 0 3.2671109340442968 8.8804151595256684 0 0 0 0 -8.9884668991323906 6.8374468529821684 0 6.8374468529821684 16.044789407285862 0 0 0 0 -2.8051637701560521 5.0259084065650228 0 5.0259084065650228 14.411922337976968 0 0 0 0 1.3004679694895458 -39.070664235810909 0 -39.070664235810909 98.944120149826631 0 0 0 0 -19.329967994563049 -1.0292090700604604 0 -1.0292090700604604 32.482934003187601 0 0 0 0 -24.053517668652603 4.8505139134852016 0 4.8505139134852016 26.785939033834438 0 0 0 0 -22.769218553003157 4.3115576957134181 0 4.3115576957134181 26.938654781962214 0 0 0 0 -25.935328225859848 13.327505743929578 0 13.327505743929578 42.423678375813324 0 0 0 0 -22.843170236774313 -0.84340887836424372 0 -0.84340887836424372 48.43959384417758 0 0 0 0 -30.901949618447361 19.45626904990803 0 19.45626904990803 61.997775770276348 0 0 0 0 -30.823231544549344 20.705286629619877 0 20.705286629619877 34.876219109144586 0 0 0 0 -21.29934232935193 29.321883933098434 0 29.321883933098434 42.576941421502852 0 0 0 0 -32.180616416713747 13.406016006500067 0 13.406016006500067 68.693204210121621 0 0 0 0 -36.687829985232383 18.774451417189084 0 18.774451417189084 86.948685392082552 0 0 0 0 -34.4184475610964 29.476444119105508 0 29.476444119105508 47.710278668117098 0 0 0 0 -40.33011675067246 32.29858339711609 0 32.29858339711609 49.408190345795447 0 0 0 0 -42.35806127008982 26.534096043575119 0 26.534096043575119 42.985579403633892 0 0 0 0 -40.980212552032754 44.136041916318163 0 44.136041916318163 30.692165663822379 0 0 0 0 -37.511588904031669 40.950809843077877 0 40.950809843077877 -1.9465148651324853 0 0 0 0 -57.133212816072046 46.915393766623311 0 46.915393766623311 32.950082130977535 0 0 0 0 -45.664790092436306 47.121043861608996 0 47.121043861608996 -7.5774347846381715 0 0 0 0 -16.333537754995632 33.679265683644189 0 33.679265683644189 24.903408120986569 0 0 0 0 -31.873391993773112 35.966482881658521 0 35.966482881658521 38.487926689784217 0 0 0 0 -31.797215641694493 29.854678872015938 0 29.854678872015938 47.351022949182152 0 0 0 0 -43.00378356060537 38.10665843062452 0 38.10665843062452 28.18646634459401 0 0 0 0 -15.595554062889278 34.557665477832415 0 34.557665477832415 -14.721827961671806 0 0 0 0 -8.8913411754911067 17.148303215646592 0 17.148303215646592 28.662635724829215 0 0 0 0 3.3498636473405838 3.9406518490823501 0 3.9406518490823501 2.2188879368233358 0 0 0 0 -35.146164411671634 58.205303133761845 0 58.205303133761845 -23.195869757767468 0 0 0 0 -42.980491725418688 -167.54566135659024 0 -167.54566135659024 179.11186351973447 0 0 0 0 -49.245176971126057 23.345827125857795 0 23.345827125857795 -26.769761763993301 0 0 0 0 -61.245488988264697 41.255547808947085 0 41.255547808947085 -1.8868767564094924 0 0 0 0 -228.74879509878156 -251.22522650420433 0 -251.22522650420433 429.33724443226674 0 0 0 0 101.47465761880449 57.172135510943917 0 57.172135510943917 226.23991582063672 0 0 0 0 -1028.2944333779669 912.31487734516486 0 912.31487734516486 -312.17669590789228 0 0 0 0 -18.160895812224155 31.611467898933228 0 31.611467898933228 53.322790929906631 0 0 0 0 -66.107347822726297 523.65214760573508 0 523.65214760573508 -496.62574254227002 0 0 0 0 0.42883427913546868 2.0643507624465087 0 2.0643507624465087 -11.941435775381251 0 0 0 0 -1688.304016653703 678.1173325019663 0 678.1173325019663 107.51378819504316 0 0 0 0 1664.5266001585551 -364.97300577617534 0 -364.97300577617534 -317.35117354227623 0 0 0 0 -185.91642038853752 -360.49781646758129 0 -360.49781646758129 -444.33613004724612 0 0 0 0 -335.34410369323086 443.09054461669484 0 443.09054461669484 75.772942367548239 0 0 0 0 0.16529802481410805 -0.39138714279177123 0 -0.39138714279177123 -33.824781902380522 0 0 0 0 427.79027893931925 306.4833660462773 0 306.4833660462773 -660.33553667119122 0 0 0 0 662.19423880048271 -59.933475054514929 0 -59.933475054514929 -147.16246240253508 0 0 0 0 -89.522252967202803 25.12406355314306 0 25.12406355314306 -42.483425210448331 0 0 0 0 -219.93080449260015 232.7851372616733 0 232.7851372616733 -229.66267638755016 0 0 0 0 -531.80379578873908 249.00354941516616 0 249.00354941516616 -65.921136344979459 0 0 0 0 -1291.3488498194783 687.66501783130116 0 687.66501783130116 -305.10754527667814 0 0 0 0 191.98889208514538 -496.50471512910138 0 -496.50471512910138 226.66612789878491 0 0 0 0 -166.09819143855293 1187.6331558314578 0 1187.6331558314578 -654.47786053188975 0 0 0 0 -0.51018835327586576 1.0664387062045932 0 1.0664387062045932 -11.529828381802488 0 0 0 0 -588.71443329302565 810.7919832140542 0 810.7919832140542 -808.82993943677138 0 0 0 0 -506.4631649796811 378.65074376121265 0 378.65074376121265 -873.62515904207612 0 0 0 0 -615.90673752690782 30.032137058729859 0 30.032137058729859 -152.89795255191711 0 0 0 0 2.3419473937940403 10.371417650399238 0 10.371417650399238 -27.562312622040906 0 0 0 0 1281.8097859899535 36.889223641581339 0 36.889223641581339 -306.21339209285361 0 0 0 0 -347.06452032808625 170.01190560299739 0 170.01190560299739 -98.012041111192957 0 0 0 0 -633.22057680798025 336.45498443271936 0 336.45498443271936 -86.306293626406386 0 0 0 0 -970.6532809534674 123.3730456903395 0 123.3730456903395 -135.94535791672752 0 0 0 0 -353.35756017079257 339.04021825190648 0 339.04021825190648 -45.154221019744 0 0 0 0 -16.323823026755036 31.739317042407009 0 31.739317042407009 50.681104254275674 0 0 0 0 -102.97515813785867 110.44664566049687 0 110.44664566049687 -54.206542858011744 0 0 0 0 -235.88234317737806 348.8255939594892 0 348.8255939594892 -200.1646569356426 0 0 0 0 -68.482107030544284 191.08005010226407 0 191.08005010226407 -252.05367928199666 0 0 0 0 -149.69670261658757 222.59271924667155 0 222.59271924667155 -42.1283907050165 0 0 0 0 -97.756407664534891 96.360922621216105 0 96.360922621216105 42.065331811532815 0 0 0 0 -140.92914228023074 208.9055476434005 0 208.9055476434005 -91.570091499124828 0 0 0 0 -69.600632161032991 150.50524177047828 0 150.50524177047828 -35.691868494193614 0 0 0 0 -166.01175682548637 158.40978403176268 0 158.40978403176268 16.071788393253883 0 0 0 0 -15.430450942226457 31.998566066207353 0 31.998566066207353 50.685462509104099 0 0 0 0 -101.05472594335151 43.292944983153575 0 43.292944983153575 108.90714873162597 0 0 0 0 -95.186130820231483 117.62919664507535 0 117.62919664507535 35.810493004919408 0 0 0 0 -38.331961825786493 69.261076317916377 0 69.261076317916377 -16.870195614175827 0 0 0 0 -74.163308822859108 139.64721757725692 0 139.64721757725692 -51.296270583665319 0 0 0 0 -57.844066338300763 34.369756735398369 0 34.369756735398369 99.891453480940982 0 0 0 0 -73.646681925041776 92.213084252456611 0 92.213084252456611 142.64343373074735 0 0 0 0 -105.3391914602762 20.382233948597786 0 20.382233948597786 115.41672892423048 0 0 0 0 -70.714850270818715 43.932161324064964 0 43.932161324064964 -36.415911788204539 0 0 0 0 -138.56451138665216 125.02030092617019 0 125.02030092617019 -103.49267384382256 0 0 0 0 -17.357575538613347 31.155502005601576 0 31.155502005601576 50.239550448413077 0 0 0 0 87.012093709527107 207.84062619017641 0 207.84062619017641 39.64141397894673 0 0 0 0 0.39013626272100055 1.5875610579403343 0 1.5875610579403343 1.6615479400679902 0 0 0 0 -35.413577391089348 126.00548831668129 0 126.00548831668129 -123.1973829106646 0 0 0 0 -60.770509571957518 120.44448063171967 0 120.44448063171967 50.635831298626726 0 0 0 0 -42.125362441103789 30.665447226658216 0 30.665447226658216 29.086630137548582 0 0 0 0 -42.00771138836717 20.862203184291047 0 20.862203184291047 116.14204224235436 0 0 0 0 -99.605571688302007 62.215737786221325 0 62.215737786221325 118.12216899348459 0 0 0 0 -32.867200031083485 -11.732039637197886 0 -11.732039637197886 89.192560183712203 0 0 0 0 -48.895334106819064 36.219415209805447 0 36.219415209805447 82.124632468927302 0 0 0 0 -63.659379390122922 37.887794257764654 0 37.887794257764654 57.650487218794296 0 0 0 0 -33.727292181931261 9.549560706864213 0 9.549560706864213 53.541467262885135 0 0 0 0 -47.518047066454528 13.491351318009492 0 13.491351318009492 70.816647807841946 0 0 0 0 -41.757903351302957 8.3497353827660845 0 8.3497353827660845 74.004298950258089 0 0 0 0 -19.120081821463828 12.207340319582727 0 12.207340319582727 69.043696215083401 0 0 0 0 -25.787194971613644 -9.6750467609781481 0 -9.6750467609781481 85.74244470589656 0 0 0 0 -22.431906452413386 -5.0354063627364667 0 -5.0354063627364667 85.566846123932919 0 0 0 0 -132.92452748199867 92.734539609842614 0 92.734539609842614 -89.405207594699732 0 0 0 0 -17.746289845497543 3.2102153488239153 0 3.2102153488239153 7.618505148730975 0 0 0 0 -26.120764563009288 -14.620722884350926 0 -14.620722884350926 94.083010054522674 0 0 0 0 -20.270421960238309 -7.6207472391988631 0 -7.6207472391988631 85.80709894917527 0 0 0 0 -52.095188912513549 45.280762740108912 0 45.280762740108912 4.1254104699378331 0 0 0 0 -0.40082141518114156 0.1369275484818786 0 0.1369275484818786 0.34709655004356676 0 0 0 0 -131.36888079783967 74.529595867065837 0 74.529595867065837 -167.36335322382888 0 0 0 0 -235.24163317711646 239.89657605264574 0 239.89657605264574 -214.35061042289453 0 0 0 0 -15.725175882231269 -42.446072578266467 0 -42.446072578266467 143.91979802816422 0 0 0 0 -156.15912051112355 246.10645122991536 0 246.10645122991536 -212.5571375172367 0 0 0 0 -12.783799887247724 4.5578714545411927 0 4.5578714545411927 7.7784072270785956 0 0 0 0 -158.51021220572875 239.11968333753339 0 239.11968333753339 -225.63249240536516 0 0 0 0 21.17116058560714 -46.977256814755492 0 -46.977256814755492 134.55403514097452 0 0 0 0 -57.058772292111826 12.655806350741841 0 12.655806350741841 118.78422305221147 0 0 0 0 -3.9793250153707049 -35.935900695205873 0 -35.935900695205873 118.44009594297677 0 0 0 0 -76.871130748329961 36.097049123412035 0 36.097049123412035 170.27040373803175 0 0 0 0 -27.694556969465339 -39.902640236842672 0 -39.902640236842672 174.47807361796913 0 0 0 0 29.8926974205242 -117.81429410677538 0 -117.81429410677538 216.68073556468607 0 0 0 0 -7.1633180701455927 5.5930896925619749 0 5.5930896925619749 7.2090304729823984 0 0 0 0 8.0512423603377101 -72.784824672588229 0 -72.784824672588229 169.78263645108018 0 0 0 0 -56.77032672995847 239.02267081142236 0 239.02267081142236 -418.76296737657231 0 0 0 0 -122.53335503822382 209.19665956774293 0 209.19665956774293 -220.49190473508679 0 0 0 0 15.968124658837041 135.2565623185701 0 135.2565623185701 -232.95011060910838 0 0 0 0 -24.227669847670768 160.95502289812703 0 160.95502289812703 46.417279746239103 0 0 0 0 7.9143957424239488 159.76923023213294 0 159.76923023213294 -258.9057295029379 0 0 0 0 -17.898992411479412 26.446376464863533 0 26.446376464863533 11.901582091674754 0 0 0 0 -20.458612144444487 17.320543258885664 0 17.320543258885664 -138.01520271239133 0 0 0 0 -35.741607137166284 26.23446250965344 0 26.23446250965344 -109.75717110796904 0 0 0 0 -23.10184636799022 0.12936335199765381 0 0.12936335199765381 -116.65690801456367 0 0 0 0 -7.8947206352968351 16.242524666502504 0 16.242524666502504 -107.37446315137277 0 0 0 0 50.913294691257761 45.392535886576297 0 45.392535886576297 -119.97520895423077 0 0 0 0 28.489964781125309 104.5422046104195 0 104.5422046104195 -177.16960345132975 0 0 0 0 17.120407590133254 83.966047337358759 0 83.966047337358759 -96.339592604205791 0 0 0 0 48.906641452784243 79.853972307120785 0 79.853972307120785 -151.43062149456455 0 0 0 0 -51.770227584711392 56.664539098699606 0 56.664539098699606 -121.18532150378223 0 0 0 0 -56.087647014101094 98.037783588110642 0 98.037783588110642 -283.72264867836566 0 0 0 0 -104.13125975745788 134.90117822203138 0 134.90117822203138 -176.99191218863547 0 0 0 0 -91.027902140340302 97.516090451450509 0 97.516090451450509 -208.67508044922397 0 0 0 0 -44.269199302680136 36.597227407100036 0 36.597227407100036 -182.40847874313113 0 0 0 0 -56.278522370077553 51.729560360288815 0 51.729560360288815 -149.63199560078647 0 0 0 0 -45.737446706710216 4.7503930088369088 0 4.7503930088369088 -134.10522457354818 0 0 0 0 -78.588329303626779 19.232072075488759 0 19.232072075488759 -161.72350912343609 0 0 0 0 -104.47317079747154 68.040247959363114 0 68.040247959363114 -243.50818773386345 0 0 0 0 -235.58643331860367 150.30838358506662 0 150.30838358506662 -319.90952957885474 0 0 0 0 -115.75733746838853 155.05367523488223 0 155.05367523488223 -333.61422988281993 0 0 0 0 -99.386362970471964 195.76628709373836 0 195.76628709373836 -327.18535272104054 0 0 0 0 -117.66031260565137 59.513360344649016 0 59.513360344649016 -225.42774473113241 0 0 0 0 -82.990458729829697 192.01434967350178 0 192.01434967350178 -419.9819973485246 0 0 0 0 -171.36453398956655 293.01019135891966 0 293.01019135891966 -437.18992322282952 0 0 0 0 -2.7548396990395077 5.4501839386052993 0 5.4501839386052993 5.965538980589848 0 0 0 0 90.213465155748054 7.9624269089893005 0 7.9624269089893005 347.34399169092103 0 0 0 0 -0.63824873082552358 2.5351225293207733 0 2.5351225293207733 2.8169046867575567 0 0 0 0 -105.89032549453987 479.62407905493092 0 479.62407905493092 -529.76771615707548 0 0 0 0 -106.15142172433116 121.82164809213828 0 121.82164809213828 -444.97155042315353 0 0 0 0 3.9643593151198786 3.1729886229341098 0 3.1729886229341098 0.33252886306845175 0 0 0 0 2.6408153275988298 8.5843469588235166 0 8.5843469588235166 -41.101412395542866 0 0 0 0 43.18163747159997 -17.13043080017178 0 -17.13043080017178 855.56241187320848 0 0 0 0 30.324292138910096 -89.762323688832112 0 -89.762323688832112 982.25435827997717 0 0 0 0 -41.827382974282955 -88.550357582251308 0 -88.550357582251308 1093.2432201552056 0 0 0 0 -10.859284201262199 21.558683538114565 0 21.558683538114565 -30.495826891365141 0 0 0 0 -5.2715774061216507 11.48088205644126 0 11.48088205644126 -13.473436129290349 0 0 0 0 -9.6933571397821652 22.237399334542715 0 22.237399334542715 -30.632234063997885 0 0 0 0 0.25143706748713157 46.769973380277406 0 46.769973380277406 -138.68609181869579 0 0 0 0 42.074614030774683 -120.89343511396783 0 -120.89343511396783 431.67260272411886 0 0 0 0 1.2035418428464482 1.1605119891379232 0 1.1605119891379232 0.44771593086939632 0 0 0 0 -29.099939294166688 53.73207619639652 0 53.73207619639652 795.33952422218681 0 0 0 0 40.621717731752142 72.219466475507033 0 72.219466475507033 323.00306581550012 0 0 0 0 -17.200651374416339 -20.932933943313856 0 -20.932933943313856 177.66759806084337 0 0 0 0 -46.399777048325632 165.38655629322056 0 165.38655629322056 174.20911644904095 0 0 0 0 50.394066835706326 113.80631950283441 0 113.80631950283441 -62.521038587925432 0 0 0 0 10.030396924012166 87.808735521884046 0 87.808735521884046 -52.675736360160954 0 0 0 0 -38.399624641300761 90.496397796739984 0 90.496397796739984 -40.847678957934477 0 0 0 0 33.117501696877298 83.527826041728986 0 83.527826041728986 -90.796381568443394 0 0 0 0 -14.078839211082467 31.902759550882891 0 31.902759550882891 50.623504374790727 0 0 0 0 18.734682331207296 88.074968582804104 0 88.074968582804104 -91.665994025846885 0 0 0 0 45.348687854493619 107.96481489901089 0 107.96481489901089 -149.20081931047389 0 0 0 0 -38.484192005249497 132.26592070371225 0 132.26592070371225 -85.616662034428373 0 0 0 0 -204.87062572813738 209.47303642797669 0 209.47303642797669 -25.712871940851983 0 0 0 0 -39.043745917384513 134.11087505626438 0 134.11087505626438 -24.537457922431713 0 0 0 0 -63.451142814541527 15.019348420075403 0 15.019348420075403 25.761275438750772 0 0 0 0 -257.56959829946572 35.054374868521336 0 35.054374868521336 23.740482201786108 0 0 0 0 -1.5759268133513302 2.4316453372701616 0 2.4316453372701616 -3.7699039229886893 0 0 0 0 -42.415405816216662 50.801476907206961 0 50.801476907206961 -31.106045435497322 0 0 0 0 17.269508693352691 33.71241269748316 0 33.71241269748316 -10.532858840371773 0 0 0 0 3.1796301779904752 35.117315470093672 0 35.117315470093672 -1.18478923280054 0 0 0 0 -14.814337250511016 18.637047521508975 0 18.637047521508975 -4.7338152126867499 0 0 0 0 -30.101241842661693 67.944728737687001 0 67.944728737687001 -8.9309734995586041 0 0 0 0 -118.85649760801243 106.67167659425695 0 106.67167659425695 -23.245068341046135 0 0 0 0 16.398057977650751 3.1641511869711394 0 3.1641511869711394 90.785136425765813 0 0 0 0 12.177258409090427 52.603529547861399 0 52.603529547861399 82.883190103202651 0 0 0 0 -14.305949048742647 17.397713446202758 0 17.397713446202758 5.2256485305322258 0 0 0 0 -16.031036321856334 45.126213102324023 0 45.126213102324023 17.648158966099203 0 0 0 0 -37.159703932673438 57.735855689737946 0 57.735855689737946 118.30906775034964 0 0 0 0 -9.4950815064514842 -0.46089337735109126 0 -0.46089337735109126 27.976408473635942 0 0 0 0 3.218183624401604 31.14338017331233 0 31.14338017331233 25.797875556886083 0 0 0 0 2.138530564661778 52.520794539763301 0 52.520794539763301 23.843625632991376 0 0 0 0 8.4489868159871548 70.68276919539494 0 70.68276919539494 24.042402650175859 0 0 0 0 -8.4854356472969812 90.885749299199233 0 90.885749299199233 100.70043801245083 0 0 0 0 -27.664781631743239 27.888411349967416 0 27.888411349967416 -2.2659166054529933 0 0 0 0 161.37815792200854 -166.21872312493088 0 -166.21872312493088 -167.02763282348678 0 0 0 0 -151.96932089972688 527.35773225506796 0 527.35773225506796 -35.625353709612682 0 0 0 0 -45.990969003309147 -95.432227481589507 0 -95.432227481589507 218.75287664195093 0 0 0 0 -11.45977375434839 12.822782535404521 0 12.822782535404521 11.659371422014374 0 0 0 0 89.113215069937723 -78.759789586410989 0 -78.759789586410989 -461.08935475733961 0 0 0 0 -8.7282091028027935 -82.215907048777353 0 -82.215907048777353 79.759681629122497 0 0 0 0 -13.717410292111268 34.05600120265396 0 34.05600120265396 50.401598200630879 0 0 0 0 -69.178798031989572 -10.492641388744232 0 -10.492641388744232 109.08130471515688 0 0 0 0 -20.058995634213716 44.863506723981118 0 44.863506723981118 44.111786466433841 0 0 0 0 -170.53544280013011 -11.283136745862066 0 -11.283136745862066 66.691268314392801 0 0 0 0 19.870660478864011 0.53193791688681813 0 0.53193791688681813 32.834494997347065 0 0 0 0 20.358646244072588 -17.204340442152898 0 -17.204340442152898 -20.858051079943834 0 0 0 0 90.810207098169485 75.449484648313955 0 75.449484648313955 82.45375227209297 0 0 0 0 1.7581773472013538 6.2153144481470264 0 6.2153144481470264 -5.2184052415683198 0 0 0 0 -3.0138196552143199 60.829622814064351 0 60.829622814064351 74.401016459345556 0 0 0 0 -15.200929414995059 1.5582893538897515 0 1.5582893538897515 7.8855808430282082 0 0 0 0 -18.333212945325613 -10.646315396173122 0 -10.646315396173122 2.0489124584710225 0 0 0 0 -84.777135018557601 63.576593092922849 0 63.576593092922849 63.171960804134869 0 0 0 0 -10.457263796048878 7.158748983728259 0 7.158748983728259 -1.7219083281532761 0 0 0 0 -2.822111949981263 -70.307306414020786 0 -70.307306414020786 177.50813417931204 0 0 0 0 -48.486434806498437 18.765033739689898 0 18.765033739689898 15.685206794631085 0 0 0 0 32.592092732200399 -5.1931077293120325 0 -5.1931077293120325 30.505275509101921 0 0 0 0 2.0156488041848348 -0.9903519405951684 0 -0.9903519405951684 1.8509774055956285 0 0 0 0 1.1340506080930197 0.85703183153701445 0 0.85703183153701445 0.69066696409520034 0 0 0 0 -55.06715151231765 -0.61005243572435575 0 -0.61005243572435575 332.39573775379176 0 0 0 0 123.1227448307618 101.63039338362432 0 101.63039338362432 -130.13560727425647 0 0 0 0 67.40846069507279 180.68604657426567 0 180.68604657426567 138.24595007356402 0 0 0 0 27.003956789405493 -13.25092822951774 0 -13.25092822951774 137.84526960488438 0 0 0 0 23.129966801523551 79.670793821460393 0 79.670793821460393 64.008600276472862 0 0 0 0 6.8641464100069243 25.758425726612586 0 25.758425726612586 -7.8631403930849046 0 0 0 0 -4.9693124895638903 17.259106907953537 0 17.259106907953537 49.034387608488032 0 0 0 0 -4.8514401866764274 76.552990887836586 0 76.552990887836586 6.3664823214930948 0 0 0 0 3.0022304414887913 42.519934682375606 0 42.519934682375606 92.993212589324685 0 0 0 0 -21.150071420939639 5.9894299237166706 0 5.9894299237166706 133.00245208874549 0 0 0 0 -42.101403603926883 13.866629977048433 0 13.866629977048433 26.605390218639513 0 0 0 0 -52.64292441543239 72.443627179563464 0 72.443627179563464 20.275809471946559 0 0 0 0 1.3535534923366583 5.3941572821266561 0 5.3941572821266561 1.0872867941172402 0 0 0 0 -24.122833817812193 8.8679840369357805 0 8.8679840369357805 0.12862269103892743 0 0 0 0 16.340761285850022 -67.660922739123635 0 -67.660922739123635 -2.7703992813403602 0 0 0 0 -20.846223988119164 -24.264260821601965 0 -24.264260821601965 -17.571371072815964 0 0 0 0 -104.73989319501197 87.8822379773992 0 87.8822379773992 -88.756542976909259 0 0 0 0 11.121316061890866 35.344382298881101 0 35.344382298881101 -102.63248597640631 0 0 0 0 -27.948082457186729 9.9363803276551153 0 9.9363803276551153 -17.390288156246243 0 0 0 0 -24.241495851892978 33.989882721347385 0 33.989882721347385 -70.239448205778899 0 0 0 0 -151.08258126847704 118.60066296662808 0 118.60066296662808 -0.11084261049836641 0 0 0 0 -16.174153752841448 58.255999145732858 0 58.255999145732858 -113.04113926989157 0 0 0 0 -42.745183079070557 19.604826185532147 0 19.604826185532147 -79.587440987830632 0 0 0 0 -513.09839181664393 383.23072141771263 0 383.23072141771263 -188.6465407625401 0 0 0 0 -18.033755409731384 124.24934237471825 0 124.24934237471825 -296.52688028636294 0 0 0 0 -191.86584090312863 352.51383189876469 0 352.51383189876469 -764.06750565503171 0 0 0 0 6.8369071681609057 -8.6156145545846812 0 -8.6156145545846812 -174.39749437428691 0 0 0 0 -84.171330770637724 73.719575800481834 0 73.719575800481834 -71.33350205860188 0 0 0 0 -18.445967128546243 7.5018294709418569 0 7.5018294709418569 -2.5213946238118581 0 0 0 0 29.310395239313948 125.98548129529081 0 125.98548129529081 174.94474862037168 0 0 0 0 147.30734114591905 168.1697455188405 0 168.1697455188405 12.085354299459141 0 0 0 0 79.554724639754568 111.87990038997668 0 111.87990038997668 2.5353672028286383 0 0 0 0 62.689165032314122 -46.907091599981868 0 -46.907091599981868 17.625035034623579 0 0 0 0 181.18591925406508 114.33948749397496 0 114.33948749397496 -42.789465092093451 0 0 0 0 107.44811745737934 50.438814842296779 0 50.438814842296779 -73.860997678260901 0 0 0 0 -592.78392521738715 60.490116068605857 0 60.490116068605857 91.947623244748684 0 0 0 0 -1241.1763038126555 318.47154261377 0 318.47154261377 231.14810738626147 0 0 0 0 -797.34186591423349 479.94451593854683 0 479.94451593854683 -0.91818441411123786 0 0 0 0 -550.15880604898121 119.77360786110512 0 119.77360786110512 128.48432763901292 0 0 0 0 -764.70024981127062 343.81219916306145 0 343.81219916306145 -25.944935015559167 0 0 0 0 -1194.3685501626946 556.86369757738748 0 556.86369757738748 -121.80187181582733 0 0 0 0 -496.05201176814808 414.28128424797615 0 414.28128424797615 -569.62118516164628 0 0 0 0 -7.4610397916631968 3.3368241067027213 0 3.3368241067027213 -1.2817451942342828 0 0 0 0 -683.59122800235855 -67.696756931167329 0 -67.696756931167329 248.75778700979936 0 0 0 0 -1240.8181791252828 366.81904660860164 0 366.81904660860164 -261.38466835923464 0 0 0 0 -555.0655793620067 282.54016319556126 0 282.54016319556126 -255.87552594955923 0 0 0 0 54.549109002422483 673.63176121472134 0 673.63176121472134 -561.75111608054794 0 0 0 0 -421.84835554254187 230.22740359285763 0 230.22740359285763 -239.51109079899834 0 0 0 0 -524.85267285982263 512.29052695994324 0 512.29052695994324 -46.983665044241206 0 0 0 0 -657.96353281366282 273.00339725282174 0 273.00339725282174 -113.54200398129615 0 0 0 0 4.4077974629744858 315.89983666008084 0 315.89983666008084 -77.488048736013297 0 0 0 0 -263.30333435917055 434.22405057625383 0 434.22405057625383 63.144569690142816 0 0 0 0 -288.35857875711372 377.63119997677313 0 377.63119997677313 27.795013995033514 0 0 0 0 -512.7133639823478 323.7129697226228 0 323.7129697226228 67.920880042060162 0 0 0 0 -430.33091305875132 460.64256364728863 0 460.64256364728863 45.527984530526737 0 0 0 0 -459.12134594027157 347.53091674220923 0 347.53091674220923 -2.1971755815484357 0 0 0 0 -191.31430717521653 538.50935330369794 0 538.50935330369794 -133.83788132754853 0 0 0 0 -549.00131666617744 450.29327900936914 0 450.29327900936914 -92.672161264657916 0 0 0 0 -1196.9963680941582 43.445812412988744 0 43.445812412988744 -203.40142442065553 0 0 0 0 -789.35130849063717 406.58979894570803 0 406.58979894570803 -245.2467203354754 0 0 0 0 -739.77341567032272 297.93012498357712 0 297.93012498357712 -11.526467110525118 0 0 0 0 -252.87897611979861 159.97505249280221 0 159.97505249280221 -14.24778000137303 0 0 0 0 -4.6340781234496831 1.8774532039440643 0 1.8774532039440643 -0.87575674105545431 0 0 0 0 -1566.3342551982641 566.79902438952558 0 566.79902438952558 223.01956006776891 0 0 0 0 -1199.8338963858077 200.91709918844208 0 200.91709918844208 86.372656825769809 0 0 0 0 -861.84469393154723 -293.06215364690433 0 -293.06215364690433 -61.362451541201153 0 0 0 0 -155.56702255695564 -182.2126580163058 0 -182.2126580163058 -64.193933852850023 0 0 0 0 -597.77841651987546 82.412781731029099 0 82.412781731029099 109.46512165580862 0 0 0 0 -643.06125007059381 42.932609648345533 0 42.932609648345533 112.25855331479397 0 0 0 0 -345.18328026794188 1.231942985443311 0 1.231942985443311 116.20275306676012 0 0 0 0 -450.06818304375338 218.75762967232731 0 218.75762967232731 120.98156810287583 0 0 0 0 -490.03581496516927 353.85480697607636 0 353.85480697607636 97.416445738195762 0 0 0 0 -567.72180446043785 389.14661128687294 0 389.14661128687294 3.0922915301098328 0 0 0 0 -747.75105827792868 278.37613652412074 0 278.37613652412074 109.0773203370336 0 0 0 0 -489.77956467385957 181.6698198827653 0 181.6698198827653 117.76164837750548 0 0 0 0 -200.673234759548 75.362283659337663 0 75.362283659337663 61.234681262911181 0 0 0 0 -260.62521007055329 153.74525780891054 0 153.74525780891054 102.41645732557208 0 0 0 0 -271.63491709542723 72.100595157433418 0 72.100595157433418 95.609493065854622 0 0 0 0 -57.410292182845751 72.93534314835324 0 72.93534314835324 35.701365497901861 0 0 0 0 -259.07313961104273 284.40372572291926 0 284.40372572291926 22.810768938419642 0 0 0 0 -280.88326100869881 167.76825173483076 0 167.76825173483076 95.782457462009916 0 0 0 0 -260.30865563513362 306.52652688738453 0 306.52652688738453 -19.938800431321397 0 0 0 0 -276.01681342853044 291.31609394101542 0 291.31609394101542 -23.026575693544146 0 0 0 0 -225.58411261250512 348.14931285600505 0 348.14931285600505 -18.545755018643831 0 0 0 0 -135.37834352828213 397.45492762796493 0 397.45492762796493 -26.645560888311593 0 0 0 0 -357.57294676742458 296.06700253444797 0 296.06700253444797 98.050485306750488 0 0 0 0 -336.79180476780493 378.20447653164911 0 378.20447653164911 47.272816953576694 0 0 0 0 328.5214380965358 460.61486238505381 0 460.61486238505381 -296.42007711833867 0 0 0 0 2.6346385438033995 14.763706033429195 0 14.763706033429195 -29.051766007318363 0 0 0 0 -132.38566017356425 209.6355600561983 0 209.6355600561983 -11.911208394813002 0 0 0 0 -186.18853743395448 258.70894073757518 0 258.70894073757518 -54.054257219839201 0 0 0 0 -474.45866625850249 478.65424108591469 0 478.65424108591469 -130.19360423022226 0 0 0 0 -375.58358277890511 672.10375727161227 0 672.10375727161227 -29.884761152844476 0 0 0 0 -729.28867919558979 581.46455070165939 0 581.46455070165939 -37.271926070649897 0 0 0 0 -750.00590754845325 759.19366312952479 0 759.19366312952479 -110.43498306276047 0 0 0 0 -435.52156545745675 285.74195651580885 0 285.74195651580885 -84.611676428743522 0 0 0 0 -621.87751421782377 635.19591976431821 0 635.19591976431821 -755.79679304433012 0 0 0 0 -914.2017181303554 1399.9592269770933 0 1399.9592269770933 -1222.8698888309082 0 0 0 0 0.66463807067836456 4.4573437033620564 0 4.4573437033620564 1.5720453804461982 0 0 0 0 -545.11495384875161 641.83412758261329 0 641.83412758261329 181.10629754208821 0 0 0 0 -774.74447582782204 885.68210853650589 0 885.68210853650589 -235.69669705525303 0 0 0 0 -1015.5997256964438 754.8286320136267 0 754.8286320136267 -282.18807247203222 0 0 0 0 1.6221762566444351 14.115739947062664 0 14.115739947062664 -21.798311956301205 0 0 0 0 490.36533244008615 212.66440549818981 0 212.66440549818981 -126.02230297950155 0 0 0 0 56.846058296683623 432.87994199164496 0 432.87994199164496 41.437757561287071 0 0 0 0 1131.2630817876197 40.08513941878482 0 40.08513941878482 -357.3439672135537 0 0 0 0 -0.54556989101411979 6.0833337870417665 0 6.0833337870417665 -8.1017907453771727 0 0 0 0 -1065.8400474129376 1359.1395803785126 0 1359.1395803785126 327.62208662948251 0 0 0 0 -3030.0647281800921 1315.5325760144024 0 1315.5325760144024 -113.57787904625729 0 0 0 0 -2014.1307403697792 744.63117530515228 0 744.63117530515228 -218.40802181142544 0 0 0 0 -1825.6531881019728 1523.8505993658582 0 1523.8505993658582 -727.71059233278356 0 0 0 0 -945.90670522597247 780.40791884626196 0 780.40791884626196 -354.93504082974596 0 0 0 0 -945.48537234428682 783.66967067766313 0 783.66967067766313 -623.17806804509019 0 0 0 0 -1189.1608858508425 790.73030891866256 0 790.73030891866256 -109.73657543875379 0 0 0 0 -672.38341152443536 1059.1859891594158 0 1059.1859891594158 -556.65605228963068 0 0 0 0 -896.35151832354677 812.80775533627639 0 812.80775533627639 -782.1483167562692 0 0 0 0 -690.2309197584982 1234.5197083896137 0 1234.5197083896137 -470.36340260051657 0 0 0 0 -685.9804218021236 1052.5641226835214 0 1052.5641226835214 21.7150277951514 0 0 0 0 -302.13493357658808 727.97380994452578 0 727.97380994452578 0.17291157891304465 0 0 0 0 -583.24897043178862 1164.3517371312009 0 1164.3517371312009 -496.93383881001864 0 0 0 0 -336.01650985370361 1074.2798649181823 0 1074.2798649181823 -486.82780355688374 0 0 0 0 -312.80764987058501 1176.6135755128707 0 1176.6135755128707 -558.63747539341421 0 0 0 0 -765.75479113246547 1388.8107406489835 0 1388.8107406489835 -773.1923713471806 0 0 0 0 -402.00178748386497 1090.4254713427345 0 1090.4254713427345 -543.15423710137111 0 0 0 0 -1.6221483366161351 3.9111986711770683 0 3.9111986711770683 -1.7934310856600675 0 0 0 0 -15.133504662895575 1081.0913320153031 0 1081.0913320153031 -1806.7382228612405 0 0 0 0 259.30172120446332 515.81757512661534 0 515.81757512661534 -657.22458191459373 0 0 0 0 -124.95274628151674 322.75532684467908 0 322.75532684467908 307.85702503520588 0 0 0 0 1.2361085702899031 1413.1046497572549 0 1413.1046497572549 -1043.4829095584937 0 0 0 0 -1.8632743437586043 3.2470536007402515 0 3.2470536007402515 -0.30303256700897663 0 0 0 0 -3.9601559413507061 6.193008361218709 0 6.193008361218709 -1.7104923101134375 0 0 0 0 65.657288183239871 840.86373143259334 0 840.86373143259334 403.42037935746703 0 0 0 0 -0.16638362685625907 836.50116961986714 0 836.50116961986714 1076.7466579239708 0 0 0 0 288.16942058057975 484.64493760136247 0 484.64493760136247 -178.32259658553085 0 0 0 0 -143.10313547698752 752.9814562132633 0 752.9814562132633 -134.44557366634399 0 0 0 0 156.10825364668926 929.6878518888625 0 929.6878518888625 -573.0956853660573 0 0 0 0 -420.87178203233634 965.83126102952519 0 965.83126102952519 -557.25401104951789 0 0 0 0 19.667432357335201 757.78227652478381 0 757.78227652478381 -852.1316805794886 0 0 0 0 0.19862672528688563 930.66989486098282 0 930.66989486098282 -558.88149953148968 0 0 0 0 -283.73236566797641 803.55451255642402 0 803.55451255642402 -859.00484493591284 0 0 0 0 -0.080571086151532245 798.78704557005449 0 798.78704557005449 -1213.8940952114353 0 0 0 0 -107.12942125375412 630.51849568885154 0 630.51849568885154 -1427.7296496759045 0 0 0 0 -417.0603556859096 612.58008081394291 0 612.58008081394291 -1075.4762025134805 0 0 0 0 -501.77962233353901 630.76658572245651 0 630.76658572245651 -716.09835588988062 0 0 0 0 -353.11966060920759 990.89970481866817 0 990.89970481866817 -1076.4052870075357 0 0 0 0 2.1863797003704093 7.9382468856630481 0 7.9382468856630481 3.9445105727493228 0 0 0 0 -611.05941602424718 790.19400165880324 0 790.19400165880324 -761.07483851602774 0 0 0 0 -407.31474775888637 490.26281278105853 0 490.26281278105853 -376.9712475214219 0 0 0 0 -721.74601291522958 610.31267279886561 0 610.31267279886561 -311.48856735770823 0 0 0 0 -602.90431052798522 526.23147509491173 0 526.23147509491173 -330.36091954997937 0 0 0 0 -701.48032379100187 573.27896308749587 0 573.27896308749587 -316.48759192155921 0 0 0 0 -503.77347481132347 718.55992150971542 0 718.55992150971542 -186.02960618225916 0 0 0 0 -193.72031237471674 837.6365151406153 0 837.6365151406153 -205.72368781718251 0 0 0 0 -161.43914853470778 725.26387248513856 0 725.26387248513856 -226.07258396623365 0 0 0 0 64.477134123095311 920.63302014769579 0 920.63302014769579 -94.758930178788432 0 0 0 0 -27.776492597258766 816.36449525429271 0 816.36449525429271 -1438.8527642454931 0 0 0 0 1.488424756993453 3.8059420841227052 0 3.8059420841227052 1.2963228052388303 0 0 0 0 -381.5564755738269 611.83289649411927 0 611.83289649411927 330.27643682580674 0 0 0 0 0.028765472830494358 582.37100447479702 0 582.37100447479702 142.64434589468874 0 0 0 0 -407.35329498415001 490.23186923678952 0 490.23186923678952 -2.7064163863615249 0 0 0 0 22.253087105964934 35.248138553661434 0 35.248138553661434 19.375337075385215 0 0 0 0 42.003897917017639 50.060509305058957 0 50.060509305058957 -4.541002584073567 0 0 0 0 45.067772900314594 56.414100132560066 0 56.414100132560066 -3.3105920141577485 0 0 0 0 59.863139064567804 46.891606374170692 0 46.891606374170692 -3.9889297274711453 0 0 0 0 50.316337406889943 61.120722205873562 0 61.120722205873562 -3.5410664957406652 0 0 0 0 39.037242001162667 57.930748571329673 0 57.930748571329673 -2.2596094116457834 0 0 0 0 36.618872945629391 64.729096178476851 0 64.729096178476851 -8.9886917838143745 0 0 0 0 19.464171454967072 54.87683113705981 0 54.87683113705981 3.1644828179883007 0 0 0 0 -2.8386125590889426 36.866000767600518 0 36.866000767600518 15.412262715717205 0 0 0 0 -19.168979447801121 60.969920764055132 0 60.969920764055132 11.402309832432366 0 0 0 0 -7.1769778132651254 62.093432990140172 0 62.093432990140172 -1.9147760425512388 0 0 0 0 17.855744070528242 38.029198814037187 0 38.029198814037187 27.908118568701603 0 0 0 0 6.0738115939952237 32.221808356827935 0 32.221808356827935 -10.785935355228546 0 0 0 0 -0.4589057150278677 38.847736661609815 0 38.847736661609815 13.841506075415055 0 0 0 0 -2.5645191546773134 48.524147559874109 0 48.524147559874109 -11.915167653288336 0 0 0 0 4.9299568334477311 29.768507656813895 0 29.768507656813895 13.135512348471693 0 0 0 0 17.439666910802316 61.73809529904247 0 61.73809529904247 7.2635763491252874 0 0 0 0 -4.1694159398070951 64.648939422964759 0 64.648939422964759 -36.731109300322714 0 0 0 0 15.926715789055985 32.918167920260686 0 32.918167920260686 20.07509867480962 0 0 0 0 35.853576801504595 28.456287758026988 0 28.456287758026988 9.7217651580150353 0 0 0 0 28.304117257689313 53.32215509533944 0 53.32215509533944 -14.752776645196718 0 0 0 0 26.466583116214224 43.876809163672078 0 43.876809163672078 -6.5567470995656549 0 0 0 0 37.927674810029202 60.824048334374311 0 60.824048334374311 -9.9894405210325203 0 0 0 0 5.0570191204361823 40.653487859775851 0 40.653487859775851 -3.83948968745608 0 0 0 0 -2.3970258142495382 18.764825848267403 0 18.764825848267403 9.5705515041324531 0 0 0 0 13.696045285278615 43.121079197442668 0 43.121079197442668 -4.1857741275453009 0 0 0 0 -106.12275648873037 24.19942763698964 0 24.19942763698964 -89.364575523592066 0 0 0 0 -43.772105601338808 220.72349359206964 0 220.72349359206964 -37.934529544902034 0 0 0 0 19.490620819856304 43.096680771255706 0 43.096680771255706 -15.619086835810776 0 0 0 0 27.159670261463361 51.456313166539985 0 51.456313166539985 -10.248797311127419 0 0 0 0 35.513963297270493 51.259365412975512 0 51.259365412975512 -17.02656214239687 0 0 0 0 38.78719668941298 25.480304066666481 0 25.480304066666481 4.7139125427804345 0 0 0 0 4.7638986449710501 63.149337059847312 0 63.149337059847312 -35.991418523421089 0 0 0 0 28.023178406142961 45.458260840820003 0 45.458260840820003 -27.09809836556542 0 0 0 0 21.102537372120537 28.23843793114429 0 28.23843793114429 3.1652420188474935 0 0 0 0 26.933643248746193 27.193180574664439 0 27.193180574664439 -16.8437159618843 0 0 0 0 25.435816230584692 24.69975868561712 0 24.69975868561712 13.383458633813234 0 0 0 0 13.075418964871915 54.677756142978978 0 54.677756142978978 -2.682418189735472 0 0 0 0 18.141958406105914 31.007232764643049 0 31.007232764643049 5.8522587566258153 0 0 0 0 17.250827612529292 24.590049376965908 0 24.590049376965908 8.6435076562847826 0 0 0 0 12.115171493123853 27.639525609271004 0 27.639525609271004 6.2295927387349366 0 0 0 0 16.987482890949877 26.466702746381998 0 26.466702746381998 -4.5669936157319171 0 0 0 0 24.013962136643386 33.738435106921315 0 33.738435106921315 -12.443595226603065 0 0 0 0 16.753521510863372 18.330098178084931 0 18.330098178084931 7.0604590407691816 0 0 0 0 22.697289804880256 44.019005228406968 0 44.019005228406968 -12.779966390426125 0 0 0 0 10.559272122262659 20.837771360255289 0 20.837771360255289 -4.3217849851572652 0 0 0 0 11.851797903538227 29.458173897161942 0 29.458173897161942 -7.7796785334867309 0 0 0 0 26.203037006388854 30.33736311461962 0 30.33736311461962 3.1992208979936549 0 0 0 0 -0.61753115179056906 17.241708879994455 0 17.241708879994455 -11.652834270797626 0 0 0 0 11.867762693693294 26.503178717357514 0 26.503178717357514 9.2922828652845055 0 0 0 0 26.161192043604387 30.226105591767919 0 30.226105591767919 4.4696586750214919 0 0 0 0 -2.2420183817141641 14.786044490159934 0 14.786044490159934 4.7943289242885925 0 0 0 0 21.945970536156892 28.735816000886189 0 28.735816000886189 10.576866192921443 0 0 0 0 20.793994627070767 18.39618272840265 0 18.39618272840265 5.2253465741697127 0 0 0 0 28.777921265838813 23.346630513061427 0 23.346630513061427 -22.384802788921206 0 0 0 0 8.4192357417814492 201.15198171222801 0 201.15198171222801 10.715072191814897 0 0 0 0 23.468351255418526 70.60133401032536 0 70.60133401032536 16.294859994046419 0 0 0 0 -7.5127516547308026 17.535016217384772 0 17.535016217384772 -3.6574153874803272 0 0 0 0 10.893302486671629 19.248804146608524 0 19.248804146608524 -4.3650513643952387 0 0 0 0 21.295171839512477 9.9583953894361912 0 9.9583953894361912 -12.196664511111521 0 0 0 0 1.5634648860160283 8.8984293474850986 0 8.8984293474850986 -3.0727855705310816 0 0 0 0 -46.297183013271933 27.770808667632082 0 27.770808667632082 38.875888954178663 0 0 0 0 75.649324152294867 -59.065467636819449 0 -59.065467636819449 -75.908931454576305 0 0 0 0 -38.431051571769672 78.609526713982291 0 78.609526713982291 56.784077590535162 0 0 0 0 27.499112590580808 25.270657150246734 0 25.270657150246734 -7.3791071016603382 0 0 0 0 23.202849097498984 15.47246489209283 0 15.47246489209283 4.9372554901501644 0 0 0 0 22.0439866033621 18.739381445429444 0 18.739381445429444 -3.8558353969783639 0 0 0 0 26.585638603013649 10.363459422500682 0 10.363459422500682 -5.3276427619675815 0 0 0 0 37.108183114572967 13.878478978705061 0 13.878478978705061 -19.072912037567221 0 0 0 0 27.124984614454661 8.1595064220437052 0 8.1595064220437052 1.0932366876027118 0 0 0 0 32.447715978868473 2.4024927270829721 0 2.4024927270829721 -32.791496067066873 0 0 0 0 -190.06846728200617 -23.479766678739907 0 -23.479766678739907 70.904656310747669 0 0 0 0 -1.7471668872600663 1.5926678035862842 0 1.5926678035862842 -1.3541307063364911 0 0 0 0 35.194934016957632 25.962512563337441 0 25.962512563337441 -7.8195843940848135 0 0 0 0 34.33552422019784 40.129010744433799 0 40.129010744433799 -18.373506530337636 0 0 0 0 2.0403172601179342 14.356020865266455 0 14.356020865266455 -22.759651952290064 0 0 0 0 36.349488985766335 16.466900576245859 0 16.466900576245859 -8.7794773660558683 0 0 0 0 34.375475139273476 19.412121454566659 0 19.412121454566659 -9.3296911316974729 0 0 0 0 14.731245023537781 40.015004466310103 0 40.015004466310103 -16.541223165702831 0 0 0 0 6.9246615081559781 11.467614531512837 0 11.467614531512837 0.57109407272953661 0 0 0 0 29.81325643843229 21.891710512803911 0 21.891710512803911 -10.477786981971576 0 0 0 0 13.386516439739353 23.617904910946891 0 23.617904910946891 -10.330242260357409 0 0 0 0 27.125640972274596 22.154153940223978 0 22.154153940223978 -7.4108718519382819 0 0 0 0 30.077148314518126 32.657938051710516 0 32.657938051710516 -16.076847710216271 0 0 0 0 30.685496213156512 30.519814965772639 0 30.519814965772639 0.17958357783936663 0 0 0 0 40.626566991393702 26.07263371992758 0 26.07263371992758 -7.5115674048625749 0 0 0 0 87.590837135228867 48.401128833959319 0 48.401128833959319 -25.399876431591679 0 0 0 0 48.503945233915147 35.771804663154853 0 35.771804663154853 -14.814975223794249 0 0 0 0 51.925680329370152 41.491035408700554 0 41.491035408700554 -7.8227562562051389 0 0 0 0 -0.057634053276942154 7.299993587247247 0 7.299993587247247 -23.256597029527594 0 0 0 0 54.335313832666088 53.634807231260247 0 53.634807231260247 -8.4529604281360093 0 0 0 0 13.832836755549124 -26.355308476357138 0 -26.355308476357138 -0.3180361812466046 0 0 0 0 -28.869404823890363 76.62015695314949 0 76.62015695314949 -4.6440778497048996 0 0 0 0 38.927754144508071 38.880680039471372 0 38.880680039471372 -68.971607109260731 0 0 0 0 38.909287824197236 33.293226770332694 0 33.293226770332694 -16.073684001720608 0 0 0 0 43.228135185185238 24.561334059156252 0 24.561334059156252 -2.4827421642776244 0 0 0 0 3.2689023503793564 7.0354759329926377 0 7.0354759329926377 -16.844405455516366 0 0 0 0 25.578564315077529 55.000409643138937 0 55.000409643138937 -2.3702043054677269 0 0 0 0 16.125911264387469 29.72529039436904 0 29.72529039436904 41.19209543084844 0 0 0 0 13.802757755680297 13.370501810936444 0 13.370501810936444 6.3629110648598228 0 0 0 0 -6.5818820752256215 14.36683660085248 0 14.36683660085248 13.829156636904713 0 0 0 0 -14.86559413075156 12.072113718108938 0 12.072113718108938 14.588633770392448 0 0 0 0 -24.151270099258909 20.331195677396522 0 20.331195677396522 18.396483693703317 0 0 0 0 -2.2016228970878728 19.649576926364887 0 19.649576926364887 18.368718979888058 0 0 0 0 3.5190017730201362 9.1922537500125827 0 9.1922537500125827 15.273941482032853 0 0 0 0 -11.691733590821968 16.202448025501212 0 16.202448025501212 19.486256410561623 0 0 0 0 -9.591297501578083 13.473442171072406 0 13.473442171072406 17.599662157595844 0 0 0 0 2.589900833887441 -13.188422274926324 0 -13.188422274926324 8.7310896966237124 0 0 0 0 3.6621335653217102 -6.7326833645193602 0 -6.7326833645193602 47.581055335470182 0 0 0 0 36.76958897356235 -11.111321821021193 0 -11.111321821021193 27.545722568323072 0 0 0 0 -0.29779411753299811 1.6828767231762498 0 1.6828767231762498 2.5958162987253055 0 0 0 0 2.2574770274550247 -14.48147764395123 0 -14.48147764395123 58.499791554465787 0 0 0 0 52.50068119079242 101.31932992563935 0 101.31932992563935 -3.6749058506554775 0 0 0 0 -12.900025610256307 23.388268072832886 0 23.388268072832886 87.463852015807333 0 0 0 0 -16.949289180485721 38.795254705505187 0 38.795254705505187 30.540804516055232 0 0 0 0 -31.030547857302736 12.402916403567815 0 12.402916403567815 -18.61598778998615 0 0 0 0 -11.48867567958041 39.403640544232331 0 39.403640544232331 2.9442230929413427 0 0 0 0 162.07127919692721 62.751157928647032 0 62.751157928647032 -22.767533918336184 0 0 0 0 98.93352471988419 116.41292608638038 0 116.41292608638038 72.618918092543112 0 0 0 0 22.072483420519347 28.183054956883353 0 28.183054956883353 138.35560708795634 0 0 0 0 2.2394340972038407 0.5832485320266807 0 0.5832485320266807 -2.0347524793370977 0 0 0 0 92.581760035775005 -10.649279354674775 0 -10.649279354674775 -13.572122694730197 0 0 0 0 116.10785990732802 134.45470210259441 0 134.45470210259441 93.10840178061153 0 0 0 0 172.66238589198474 55.263238483939233 0 55.263238483939233 29.484916866107582 0 0 0 0 82.431016027068836 28.034075195544062 0 28.034075195544062 119.89637717459948 0 0 0 0 15.501847192570494 58.369579038285913 0 58.369579038285913 64.218713665199672 0 0 0 0 60.807658016034111 68.346153103176903 0 68.346153103176903 46.65935709510395 0 0 0 0 43.915660100159585 87.826306095242444 0 87.826306095242444 46.560566425170684 0 0 0 0 37.269883533822394 50.817887925928211 0 50.817887925928211 49.473692448901303 0 0 0 0 64.516896485283723 69.494343389625342 0 69.494343389625342 11.574941834036565 0 0 0 0 58.994478965612871 71.34302803384594 0 71.34302803384594 10.961479147335979 0 0 0 0 26.283915595060535 66.901477775879499 0 66.901477775879499 22.716327941294395 0 0 0 0 47.750868412523687 59.406544851152034 0 59.406544851152034 -1.6659115646020837 0 0 0 0 40.580709330382888 72.46790836630808 0 72.46790836630808 17.555749579804456 0 0 0 0 -126.16092045269147 19.1546180535708 0 19.1546180535708 4.2151138069220906 0 0 0 0 12.785076263913652 72.118947963049152 0 72.118947963049152 22.295527041330161 0 0 0 0 21.627538641878346 70.305673738001445 0 70.305673738001445 21.807611110283204 0 0 0 0 -3.7816177166468687 55.2731943135284 0 55.2731943135284 16.919879387775246 0 0 0 0 24.065577406861848 72.292857820855033 0 72.292857820855033 23.399177434527132 0 0 0 0 -8.9931017109483786 50.951991818928441 0 50.951991818928441 27.603646495119161 0 0 0 0 -350.81746570066935 66.289229828878661 0 66.289229828878661 -13.147273740229139 0 0 0 0 -7.1126834580827563 58.593713503522039 0 58.593713503522039 45.642887061391178 0 0 0 0 -382.16430306453367 -68.736876750196643 0 -68.736876750196643 0.0020406422190717421 0 0 0 0 15.317944617813879 52.927245901789099 0 52.927245901789099 27.624042188712735 0 0 0 0 -88.224297188298806 -12.780091473290668 0 -12.780091473290668 -15.540643407777679 0 0 0 0 67.301357081203605 23.059623688941429 0 23.059623688941429 -80.26317244452548 0 0 0 0 85.797907476007822 19.106084896371613 0 19.106084896371613 -82.72644131503057 0 0 0 0 86.079578160554945 44.616097835290454 0 44.616097835290454 -102.69273094872915 0 0 0 0 36.037450843854458 49.736494808848875 0 49.736494808848875 -9.7223550401540706 0 0 0 0 10.758485007252602 88.587342741611792 0 88.587342741611792 -68.560510704857734 0 0 0 0 -5.5368511772176134 100.5492453358238 0 100.5492453358238 52.857404633628903 0 0 0 0 114.43279801446624 192.45265584090885 0 192.45265584090885 33.235166127876028 0 0 0 0 0.67401293868741163 -0.91999713789089199 0 -0.91999713789089199 -0.41326935660772435 0 0 0 0 330.07793383053286 149.82285350360144 0 149.82285350360144 -65.903295927382715 0 0 0 0 39.03957095608348 109.48298591472394 0 109.48298591472394 -0.20313011945927428 0 0 0 0 163.68060686790795 63.673998553205593 0 63.673998553205593 -43.739231156654569 0 0 0 0 216.76269685614534 -33.370245594577682 0 -33.370245594577682 18.733910793274845 0 0 0 0 15.950011990098659 26.741568246653614 0 26.741568246653614 17.567953500221932 0 0 0 0 -61.768723951277934 -37.165164004075677 0 -37.165164004075677 41.509573807865308 0 0 0 0 -13.155700015171533 51.280040208292121 0 51.280040208292121 181.71519162085315 0 0 0 0 -178.65958118987328 130.85949012100173 0 130.85949012100173 16.390860397830238 0 0 0 0 12.857537081154078 86.585283371136256 0 86.585283371136256 -126.60196994142279 0 0 0 0 0.52773071354977219 33.781559693897634 0 33.781559693897634 -118.90668194083628 0 0 0 0 145.1420584108746 -4.5289642880643441 0 -4.5289642880643441 -61.875938534350553 0 0 0 0 112.09027119712118 -75.136082209331107 0 -75.136082209331107 42.293478637994667 0 0 0 0 43.110647089291888 -6.0738155808930969 0 -6.0738155808930969 -14.105824006708644 0 0 0 0 1.5405051853605585 1.0918585762980939 0 1.0918585762980939 0.71770178252626593 0 0 0 0 -45.009456336903895 176.74641640785876 0 176.74641640785876 29.450359958553236 0 0 0 0 95.620441834740632 203.74009211062548 0 203.74009211062548 -10.491605958704895 0 0 0 0 -310.83696601245538 -145.35596974454347 0 -145.35596974454347 51.828213798544311 0 0 0 0 -2.5724470021783645 1.8861194822512068 0 1.8861194822512068 -1.3964749679205468 0 0 0 0 -289.77437503974215 -67.991709317335335 0 -67.991709317335335 72.548751540663943 0 0 0 0 93.179225704494456 55.998139784792329 0 55.998139784792329 -152.28334451112516 0 0 0 0 136.34215623378986 183.45998994092952 0 183.45998994092952 -145.62220335633356 0 0 0 0 -427.81345677220088 85.645246639331162 0 85.645246639331162 25.105047146535071 0 0 0 0 -142.62129778999952 72.590829415903499 0 72.590829415903499 18.175032806728268 0 0 0 0 45.425937022453581 149.69894283165559 0 149.69894283165559 -54.182796741099082 0 0 0 0 89.169379392100382 70.154117022924765 0 70.154117022924765 26.819993450500988 0 0 0 0 12.675422826459908 19.985787867540921 0 19.985787867540921 29.680404411421478 0 0 0 0 57.742736278334633 133.98449081048238 0 133.98449081048238 85.385445311414969 0 0 0 0 -6.8855424859358578 5.5245216239133157 0 5.5245216239133157 -4.5958697621685367 0 0 0 0 21.557288799715025 89.543782643498616 0 89.543782643498616 95.631996311141847 0 0 0 0 -213.37582759153884 47.483708293848395 0 47.483708293848395 37.491437808836054 0 0 0 0 21.875017237776774 4.2585118633014645 0 4.2585118633014645 -56.245995035260421 0 0 0 0 -173.96283921395661 -94.364277702361505 0 -94.364277702361505 2.5777297640306642 0 0 0 0 0.017336190951994013 -0.10979115484134638 0 -0.10979115484134638 -0.2698865797917307 0 0 0 0 -18.652814874760224 -41.915021500444709 0 -41.915021500444709 -30.188626278141783 0 0 0 0 -34.001336859124422 84.80092616147158 0 84.80092616147158 53.143859233189687 0 0 0 0 -90.936511905980296 19.829286826225143 0 19.829286826225143 17.503815044836301 0 0 0 0 141.79762185644358 67.213959849367484 0 67.213959849367484 -97.886484055601613 0 0 0 0 -43.315714701198885 136.7160257124001 0 136.7160257124001 81.544939232828256 0 0 0 0 -96.199134710928774 79.260654626354153 0 79.260654626354153 57.385769335447549 0 0 0 0 12.582920939200783 34.428091354964998 0 34.428091354964998 21.317453945086832 0 0 0 0 -25.618929240270518 61.486186128302506 0 61.486186128302506 60.583623516553416 0 0 0 0 -156.94806343286473 156.83761573603988 0 156.83761573603988 -46.390039344465549 0 0 0 0 14.431966201482282 90.313039994058272 0 90.313039994058272 -23.754025409340102 0 0 0 0 22.452133208959822 28.488131479979643 0 28.488131479979643 47.314173408401984 0 0 0 0 -26.576233136613155 56.08148587803953 0 56.08148587803953 95.18184675725206 0 0 0 0 -56.009451683959924 11.757512805972965 0 11.757512805972965 -18.518411711412227 0 0 0 0 7.0765105197716309 28.970178532901816 0 28.970178532901816 -12.278592053532897 0 0 0 0 -36.569903059214994 34.535486555023454 0 34.535486555023454 14.50692213376351 0 0 0 0 -30.017029117991179 12.315952342442756 0 12.315952342442756 15.709315265716521 0 0 0 0 -3.4473965639991206 2.1961336385482575 0 2.1961336385482575 -0.10079101680222102 0 0 0 0 157.96193722162207 148.68867211514043 0 148.68867211514043 -2.7589389129680058 0 0 0 0 -2.6769414403195988 1.4695083443843053 0 1.4695083443843053 2.8422708678967261 0 0 0 0 123.18992120901385 96.178506272838604 0 96.178506272838604 167.17801918204714 0 0 0 0 100.91136874703716 172.39730619290799 0 172.39730619290799 -78.485025154184768 0 0 0 0 -160.02175521687423 22.606194199914626 0 22.606194199914626 37.093437267841409 0 0 0 0 96.447405990677396 46.080369632463885 0 46.080369632463885 -145.82735195027999 0 0 0 0 95.525558732100762 95.366073012363813 0 95.366073012363813 118.54889792389804 0 0 0 0 -123.67183135521191 344.49428910958341 0 344.49428910958341 -164.42301510417383 0 0 0 0 117.31897539913916 192.44964803564517 0 192.44964803564517 -155.1295987797057 0 0 0 0 15.122323907533428 -11.525718111886817 0 -11.525718111886817 -137.10020905087003 0 0 0 0 -27.972541974879277 10.40463141807777 0 10.40463141807777 -125.86838209894995 0 0 0 0 -24.016942061578447 28.281317660117566 0 28.281317660117566 -166.59367650553031 0 0 0 0 -20.624976183440594 3.9501071880304153 0 3.9501071880304153 -112.88301481867529 0 0 0 0 -14.662232548347674 13.92846449118224 0 13.92846449118224 -132.09567596593115 0 0 0 0 -3.0384667825346696 0.30441967311344342 0 0.30441967311344342 -100.64526867617315 0 0 0 0 -0.23741222837998066 -5.5715365812702657 0 -5.5715365812702657 -112.57106183872747 0 0 0 0 -15.763978217641125 10.29437172138023 0 10.29437172138023 -104.84491487571722 0 0 0 0 4.0158984652225627 2.612969891191824 0 2.612969891191824 -98.638694392334401 0 0 0 0 8.7703000111650908 -8.010531713220189 0 -8.010531713220189 -129.90705919403035 0 0 0 0 16.844787200294377 4.8603142290958203 0 4.8603142290958203 -115.55123326022294 0 0 0 0 29.370177388962475 -6.1925343073071417 0 -6.1925343073071417 -122.79848300433878 0 0 0 0 14.474141686252551 -5.450185681851508 0 -5.450185681851508 -110.83469750806762 0 0 0 0 22.125120535522001 6.4426376091923885 0 6.4426376091923885 -93.052230148034141 0 0 0 0 28.640263785513525 9.0663856473729538 0 9.0663856473729538 -112.36962987676816 0 0 0 0 41.401155775722145 11.726516275518406 0 11.726516275518406 -118.51553107097425 0 0 0 0 41.031495328672463 10.228133979248014 0 10.228133979248014 -112.28387328841654 0 0 0 0 59.471694461217339 29.79126832712609 0 29.79126832712609 -110.40212302359942 0 0 0 0 47.22463984881324 -0.81073619072958536 0 -0.81073619072958536 -118.63091592529599 0 0 0 0 29.819749166330439 15.368574783604345 0 15.368574783604345 -127.0727543639282 0 0 0 0 58.473118752342998 35.585218405629348 0 35.585218405629348 -127.19736021426297 0 0 0 0 59.878009104133525 69.845268618556474 0 69.845268618556474 -46.259478871290412 0 0 0 0 90.793619306226901 26.787939389107123 0 26.787939389107123 -119.86949815509433 0 0 0 0 47.631817422145105 34.901248088838656 0 34.901248088838656 -99.323548238186959 0 0 0 0 -15.789929023452714 42.972472746176209 0 42.972472746176209 -96.383107430548989 0 0 0 0 51.05322312250064 21.376986491035495 0 21.376986491035495 -114.92618175124153 0 0 0 0 31.9927970675908 18.665682461841243 0 18.665682461841243 -114.50771260443071 0 0 0 0 33.029308360202776 54.276129004759696 0 54.276129004759696 -109.20928051332885 0 0 0 0 4.4742384741766728 107.97378221714098 0 107.97378221714098 -145.0720862936123 0 0 0 0 4.3860345268028027 2.8468499097317519 0 2.8468499097317519 1.5778262062831843 0 0 0 0 25.980700180516578 112.98260174599545 0 112.98260174599545 -5.7372188573244784 0 0 0 0 -26.170563542983018 44.737742373505284 0 44.737742373505284 -90.940576429336943 0 0 0 0 48.844786501289491 84.597973610489134 0 84.597973610489134 70.021882640590775 0 0 0 0 61.834058194181125 108.22518357856188 0 108.22518357856188 -5.1983141732766853 0 0 0 0 28.453053413782072 113.41516131971116 0 113.41516131971116 53.140336545306127 0 0 0 0 -109.90367852246709 80.444354461251351 0 80.444354461251351 80.890002985583124 0 0 0 0 26.110627807876881 87.451319573260662 0 87.451319573260662 69.049082778441516 0 0 0 0 -83.181785773660522 6.7198652683346154 0 6.7198652683346154 115.1368119013423 0 0 0 0 108.62336841281649 48.657278027952998 0 48.657278027952998 46.078227193125713 0 0 0 0 -29.28758720793121 -2.7579122807692329 0 -2.7579122807692329 -7.2920804048990249 0 0 0 0 -155.76730673137081 -94.66380698799685 0 -94.66380698799685 51.283850336370961 0 0 0 0 0.055974195580589026 0.12513612484487169 0 0.12513612484487169 0.18516432521553128 0 0 0 0 262.9590482417625 282.08330284838667 0 282.08330284838667 155.44725404736892 0 0 0 0 106.26748931195471 230.02034260404616 0 230.02034260404616 213.45109181434236 0 0 0 0 149.13201564807605 129.68318620398395 0 129.68318620398395 115.1800139068946 0 0 0 0 106.90911997151852 160.68754752304085 0 160.68754752304085 94.511624187469351 0 0 0 0 146.20085415003996 142.76187039153956 0 142.76187039153956 5.6085072251298698 0 0 0 0 102.62256407047607 69.578644405051818 0 69.578644405051818 -19.732063243642187 0 0 0 0 132.85718154568167 79.093205253773704 0 79.093205253773704 -54.054247978630883 0 0 0 0 65.314687716076151 146.15420575572534 0 146.15420575572534 157.33044850502918 0 0 0 0 107.45773650881893 84.94909826620642 0 84.94909826620642 -88.190846629678163 0 0 0 0 60.319665232374973 20.679663722243276 0 20.679663722243276 -73.658806124894909 0 0 0 0 22.116440521131153 11.605691971536544 0 11.605691971536544 -82.581794240628369 0 0 0 0 4.9009006670239614 82.749538864794886 0 82.749538864794886 -78.159400071053966 0 0 0 0 65.948518913114526 86.693306865851014 0 86.693306865851014 -143.79678356297518 0 0 0 0 66.388144457661838 104.06627984162878 0 104.06627984162878 3.9386477421285235 0 0 0 0 100.89122910420701 107.81843132704194 0 107.81843132704194 -51.565527860424481 0 0 0 0 51.445784198949696 163.50804194541524 0 163.50804194541524 94.828516754516841 0 0 0 0 88.439351513021393 174.60570692341389 0 174.60570692341389 212.7623150868676 0 0 0 0 72.652190644395887 228.79078108506656 0 228.79078108506656 79.784805886875802 0 0 0 0 -32.40480538981501 309.55525713023962 0 309.55525713023962 -6.3713702835102595 0 0 0 0 -6.6140415462141391 216.24989561868097 0 216.24989561868097 272.39191389503685 0 0 0 0 56.144557925086701 185.97454497918761 0 185.97454497918761 -77.430874344470794 0 0 0 0 -16.417287997508538 205.05799396692601 0 205.05799396692601 38.105749619644484 0 0 0 0 -16.878684329564294 223.22296531093349 0 223.22296531093349 -250.26297410044208 0 0 0 0 -230.59449887714436 457.37292384924876 0 457.37292384924876 19.124025185052233 0 0 0 0 -95.972409831163532 114.92448761725063 0 114.92448761725063 -151.60174064354032 0 0 0 0 2.5817075485538226 118.68315659439395 0 118.68315659439395 -207.42874174888493 0 0 0 0 2.7730560828276793 49.698646885215567 0 49.698646885215567 -150.807002158469 0 0 0 0 -37.135236661613817 17.488995816145689 0 17.488995816145689 -161.43039257117562 0 0 0 0 -63.308505894070549 81.189750488360005 0 81.189750488360005 -220.53021072745651 0 0 0 0 10.607122566056205 27.534248625041073 0 27.534248625041073 -5.4740653738617766 0 0 0 0 15.273538768640719 15.518716593887802 0 15.518716593887802 -16.803212159760733 0 0 0 0 30.573964611209931 12.738312465464901 0 12.738312465464901 4.6999764564825455 0 0 0 0 10.007379536691587 15.67682366882218 0 15.67682366882218 -4.5490106794622989 0 0 0 0 7.7190338164291461 14.123788024858186 0 14.123788024858186 1.6483170042483835 0 0 0 0 25.826848848373629 25.60276449936282 0 25.60276449936282 -3.5087659589844407 0 0 0 0 13.57028915497358 15.879980722707842 0 15.879980722707842 -17.636786854240199 0 0 0 0 0.3831265275075566 -2.8226191206122166 0 -2.8226191206122166 -17.450054189914397 0 0 0 0 -75.381700299782096 140.66162524307947 0 140.66162524307947 1122.2187905314677 0 0 0 0 -176.18998009433562 315.1448830760246 0 315.1448830760246 385.48125053908007 0 0 0 0 -158.91445656592259 209.56572426769344 0 209.56572426769344 507.24883313122564 0 0 0 0 38.039630393916013 82.574053880619886 0 82.574053880619886 484.22543858058998 0 0 0 0 16.324404691986274 16.803980232343747 0 16.803980232343747 2.0028438153972274 0 0 0 0 -53.326919210681808 136.70781559973511 0 136.70781559973511 452.33560505654168 0 0 0 0 6.1750865895588731 5.3441987909061268 0 5.3441987909061268 1.4832048140912244 0 0 0 0 -4.7030074733920628 161.99942614808606 0 161.99942614808606 382.83785611076019 0 0 0 0 -62.971614463029255 245.397976326145 0 245.397976326145 269.30404724887921 0 0 0 0 59.715374700070242 101.29667057130609 0 101.29667057130609 395.20799655199653 0 0 0 0 150.83980217281351 131.71104758608271 0 131.71104758608271 308.05553088513625 0 0 0 0 83.180790770042222 208.56224794781156 0 208.56224794781156 228.14833891431954 0 0 0 0 -9.4640343928222705 2.0491405185030516 0 2.0491405185030516 17.520726139579672 0 0 0 0 7.0281550879662973 8.589759569216767 0 8.589759569216767 11.123245599384973 0 0 0 0 29.922628272761358 34.665156693054087 0 34.665156693054087 -0.78062078988659778 0 0 0 0 -88.248954052338377 88.613269831406797 0 88.613269831406797 207.91578603706876 0 0 0 0 9.6075627621758031 3.6256158196729302 0 3.6256158196729302 0.88165333871802432 0 0 0 0 -6.8617827242376421 10.960645921607366 0 10.960645921607366 -8.0346700107414435 0 0 0 0 17.979030127462465 27.27401773451129 0 27.27401773451129 9.3172108646867855 0 0 0 0 -3.4336884839252235 15.756948880360607 0 15.756948880360607 -6.6183810399213314 0 0 0 0 -5.4676422917582386 8.2571054785612432 0 8.2571054785612432 44.561588326883793 0 0 0 0 -57.83924515608669 58.374484979183762 0 58.374484979183762 -5.2549940129756578 0 0 0 0 4.8688909384509316 29.64441809060736 0 29.64441809060736 3.4362163897155824 0 0 0 0 -3.4230267105895109 5.6229873274379578 0 5.6229873274379578 2.238238320189204 0 0 0 0 28.496377253621176 18.275634243040258 0 18.275634243040258 -46.812057296734565 0 0 0 0 -0.054805974875591801 1.7273579706923101 0 1.7273579706923101 2.9033647962663665 0 0 0 0 -12.507930261897855 19.323751635552981 0 19.323751635552981 82.378991317144028 0 0 0 0 95.85652197827585 -10.610648705704079 0 -10.610648705704079 66.764370988603332 0 0 0 0 -21.359333801286994 27.838985800677619 0 27.838985800677619 -5.2652299363471684 0 0 0 0 0.0051949515938076729 1.4707395624985935 0 1.4707395624985935 2.9486838217790918 0 0 0 0 159.922184602372 203.83369420444251 0 203.83369420444251 224.68301033833723 0 0 0 0 -29.239836372362333 43.412560140266578 0 43.412560140266578 30.624593109372654 0 0 0 0 -49.866030422286713 17.891940490964771 0 17.891940490964771 12.678110238302907 0 0 0 0 3.0750137160211608 15.526627708562415 0 15.526627708562415 -9.3333232216925435 0 0 0 0 -10.905882754264923 10.832488250131298 0 10.832488250131298 -1.3147664850438474 0 0 0 0 -46.695221899317403 134.3037387525319 0 134.3037387525319 46.534951143497892 0 0 0 0 5.2378629619270214 36.594335474561376 0 36.594335474561376 21.597634967667545 0 0 0 0 -5.4614458694632049 53.436315609508711 0 53.436315609508711 13.44609828958346 0 0 0 0 -37.796554240328987 89.311114151427773 0 89.311114151427773 105.64345023176793 0 0 0 0 -19.413040520225351 18.261721854787591 0 18.261721854787591 -8.0494100356869183 0 0 0 0 -12.689167551492574 29.198830058317981 0 29.198830058317981 -3.0457368255301844 0 0 0 0 4.9648822201698977 35.030612906685093 0 35.030612906685093 11.277883557129826 0 0 0 0 -8.6006658378755674 26.064765962859383 0 26.064765962859383 -2.485580695909448 0 0 0 0 -18.257969360485731 34.184830260252056 0 34.184830260252056 -1.6421513691893779 0 0 0 0 -10.27973204672162 31.058325428239186 0 31.058325428239186 -3.3246788296673913 0 0 0 0 3.2808205500914482 18.762822221455281 0 18.762822221455281 0.058516876275461982 0 0 0 0 -0.44657822832562033 26.269098533895431 0 26.269098533895431 -2.9677482951665297 0 0 0 0 -0.41070020117331296 20.997814213813399 0 20.997814213813399 0.64175315966713242 0 0 0 0 7.4355642852751771 23.725456107007631 0 23.725456107007631 -3.1179076482294477 0 0 0 0 -1.9227034839423141 28.17997901547642 0 28.17997901547642 -4.5975179038723581 0 0 0 0 -1.7886035147275834 37.869564772197919 0 37.869564772197919 -9.7559423786005937 0 0 0 0 0.81067280046408996 31.11214375669806 0 31.11214375669806 -4.0918568855486228 0 0 0 0 -12.467202486666793 33.698990517196762 0 33.698990517196762 -2.1595077998936176 0 0 0 0 -11.357395134961735 40.703311315396149 0 40.703311315396149 -4.6802061269409023 0 0 0 0 -6.0043932398257311 33.995483576174593 0 33.995483576174593 -5.3051968923391541 0 0 0 0 -1.7860124616927351 28.563577607816114 0 28.563577607816114 -3.5762111023650505 0 0 0 0 23.139809850415986 22.518170486102463 0 22.518170486102463 -8.2882884009486588 0 0 0 0 17.977518751940806 27.704489677074889 0 27.704489677074889 -12.362251968836063 0 0 0 0 8.6409354755651293 26.786460992069806 0 26.786460992069806 -6.7409769110672642 0 0 0 0 6.9183099106176087 34.425658860826843 0 34.425658860826843 -12.097394564378192 0 0 0 0 1.9140149277009186 30.521214768465143 0 30.521214768465143 -7.8147422318725148 0 0 0 0 15.414763489592588 17.004472483760765 0 17.004472483760765 -6.6323490235517966 0 0 0 0 11.73203249402286 31.530067507235799 0 31.530067507235799 -11.025745749444468 0 0 0 0 22.636870047932462 26.128062586494707 0 26.128062586494707 -11.039650061422435 0 0 0 0 26.474445376588847 12.595081659128482 0 12.595081659128482 9.7026294106399291 0 0 0 0 18.046494413682012 23.9051422393959 0 23.9051422393959 1.3479768565230188 0 0 0 0 -4.9096719293956994 40.930167754475406 0 40.930167754475406 -18.260211188699031 0 0 0 0 88.09012069995515 99.63401145645912 0 99.63401145645912 13.407562190524004 0 0 0 0 221.94780177441135 -35.549828750317829 0 -35.549828750317829 -11.07595724787825 0 0 0 0 -59.383803718045669 35.060579404040652 0 35.060579404040652 14.819172592629911 0 0 0 0 -3.3780997560612467 4.0997615802739773 0 4.0997615802739773 1.8697758622100338 0 0 0 0 -16.375211329147021 19.900058314327669 0 19.900058314327669 -23.391107230554169 0 0 0 0 0.16823731760899818 1.1714219730158959 0 1.1714219730158959 -2.2570304081285997 0 0 0 0 -17.835219665197656 -58.471043411482242 0 -58.471043411482242 -8.3229704769728414 0 0 0 0 69.376958335782547 -121.12441982413657 0 -121.12441982413657 12.956417600064015 0 0 0 0 -303.30876617239846 9.8451919363724301 0 9.8451919363724301 189.75396254130101 0 0 0 0 -314.60423940760666 -24.878502407485939 0 -24.878502407485939 119.41285883703677 0 0 0 0 -147.913741824319 -135.12919410710674 0 -135.12919410710674 286.22090107967961 0 0 0 0 139.08693255990511 -206.9416352743483 0 -206.9416352743483 92.70241113704833 0 0 0 0 -22.838079979406416 23.689168440494406 0 23.689168440494406 -24.22373056704749 0 0 0 0 -3.5924990785181308 81.613996288765634 0 81.613996288765634 20.23852330364025 0 0 0 0 -617.81621647829888 825.59226970523014 0 825.59226970523014 -1005.4892109339125 0 0 0 0 -412.86266138120118 311.85593607869487 0 311.85593607869487 -24.695469807076734 0 0 0 0 -326.27037093033141 59.69287185428766 0 59.69287185428766 213.55553981075354 0 0 0 0 -252.181498105434 386.92506519483868 0 386.92506519483868 -270.79487091357441 0 0 0 0 -326.96806650361395 212.40673083517322 0 212.40673083517322 81.243457311207749 0 0 0 0 175.86801262757945 -92.602518606820013 0 -92.602518606820013 -239.29055836535736 0 0 0 0 159.42076195998379 -31.631145617415314 0 -31.631145617415314 -399.16490735478237 0 0 0 0 -21.742649452395199 199.37076876249523 0 199.37076876249523 -145.00323107805161 0 0 0 0 13.678753069078084 213.41966522096118 0 213.41966522096118 -461.99981304174798 0 0 0 0 91.889412082440685 8.7762503790654591 0 8.7762503790654591 -40.107883688910078 0 0 0 0 -20.185413910687203 247.65505228388429 0 247.65505228388429 29.512373109682812 0 0 0 0 13.947802156925718 49.561540320307131 0 49.561540320307131 7.1761450359408627 0 0 0 0 -5.1136995766852209 6.7765120722531016 0 6.7765120722531016 -8.7884900201722047 0 0 0 0 117.72536591396056 305.107408226595 0 305.107408226595 -34.321315294928354 0 0 0 0 208.04884183075774 -2.6789471498486819 0 -2.6789471498486819 -90.229725150275044 0 0 0 0 -82.538921101964661 86.301399790118012 0 86.301399790118012 83.277006271575033 0 0 0 0 26.698197839665227 -197.76237804969242 0 -197.76237804969242 -64.289568127613165 0 0 0 0 2.8181715670507401 27.276413635074277 0 27.276413635074277 20.838030071352478 0 0 0 0 -173.32565567013808 562.4724361480221 0 562.4724361480221 -103.63908887844991 0 0 0 0 -18.226507446626783 -4.553785016425536 0 -4.553785016425536 -18.688970439849072 0 0 0 0 -38.630833676594193 15.14996359111683 0 15.14996359111683 24.928541735014733 0 0 0 0 -41.47830480223638 20.596365240715386 0 20.596365240715386 21.437113863685227 0 0 0 0 -45.803187744008028 16.661003179055115 0 16.661003179055115 21.684794924542075 0 0 0 0 -54.482084241324628 29.30790362002017 0 29.30790362002017 9.5676230960816611 0 0 0 0 -55.891398238862166 3.1065567782352446 0 3.1065567782352446 0.21990184517926537 0 0 0 0 -158.7482278036332 -47.17123247100244 0 -47.17123247100244 -4.4725362065946683 0 0 0 0 -47.668130710022524 8.1939933991088765 0 8.1939933991088765 -10.046009676589165 0 0 0 0 -71.610031902553601 -11.019589676652686 0 -11.019589676652686 -23.02768673573155 0 0 0 0 -109.71116593127954 -9.7383657100581331 0 -9.7383657100581331 -14.424825675894681 0 0 0 0 -72.251882167169242 16.049794783939433 0 16.049794783939433 1.4256097325633164 0 0 0 0 -80.379717187053757 21.192916681611678 0 21.192916681611678 -1.7850889283145079 0 0 0 0 -84.961265555844875 23.510030790101155 0 23.510030790101155 -9.4542605431779521 0 0 0 0 -101.97927596925001 6.3357212408664054 0 6.3357212408664054 -9.1462705936282873 0 0 0 0 -90.007859128643759 -9.2220837332279189 0 -9.2220837332279189 -16.558755233054399 0 0 0 0 -137.62106342063635 -4.0368730653863167 0 -4.0368730653863167 -5.2203657355858013 0 0 0 0 -111.10763049055822 -55.27861087673773 0 -55.27861087673773 -29.763471084006596 0 0 0 0 -52.668710502708564 -33.694622675422579 0 -33.694622675422579 -39.626593001332367 0 0 0 0 -67.822114174225135 -49.179091869227705 0 -49.179091869227705 -44.842871088520042 0 0 0 0 -16.69733997192111 49.852726846117093 0 49.852726846117093 -17.999270172316756 0 0 0 0 3.5179936550877571 32.798619511290681 0 32.798619511290681 6.3997258895131779 0 0 0 0 -131.4572436456765 157.29214184220473 0 157.29214184220473 -49.856227892858442 0 0 0 0 -24.339931335860456 12.207451273847255 0 12.207451273847255 15.991438019736961 0 0 0 0 -6.8841127547411745 14.850334735536606 0 14.850334735536606 3.2550469667419861 0 0 0 0 -2.2945500323912711 47.052219380431779 0 47.052219380431779 22.940326222222211 0 0 0 0 -66.1736930669922 67.052323841798625 0 67.052323841798625 60.359828421485872 0 0 0 0 74.719666172008147 2.8076470377855003 0 2.8076470377855003 73.010862758703297 0 0 0 0 160.35132393646199 90.214486449858668 0 90.214486449858668 6.4907261424450553 0 0 0 0 11.410566724186051 41.475902838586613 0 41.475902838586613 23.132947863947621 0 0 0 0 -26.708666090413317 69.519319249099681 0 69.519319249099681 1.8136490647448227 0 0 0 0 -39.2150388012451 51.628061745243031 0 51.628061745243031 58.331699848847165 0 0 0 0 -44.636540710594545 74.633896830686581 0 74.633896830686581 14.435278182925686 0 0 0 0 39.950219825503353 59.06536009529659 0 59.06536009529659 -18.724382651668343 0 0 0 0 5.6636111230291135 48.527170313903298 0 48.527170313903298 94.557644817490655 0 0 0 0 -24.830232028589691 24.105796167005231 0 24.105796167005231 -6.601967700542918 0 0 0 0 -10.670740584741907 23.59343274707544 0 23.59343274707544 17.03632913131878 0 0 0 0 -3.0205289327344218 7.6573826145633461 0 7.6573826145633461 3.1161897525796434 0 0 0 0 128.45393793098629 215.40304937081964 0 215.40304937081964 -9.7072038707701722 0 0 0 0 -56.8702837885794 72.263990676738104 0 72.263990676738104 117.55940201701651 0 0 0 0 -42.790499808368622 26.205733605560454 0 26.205733605560454 57.24273334301688 0 0 0 0 -27.531478706696362 29.282241598033579 0 29.282241598033579 42.900796514193644 0 0 0 0 -47.349222528278915 28.500348190997101 0 28.500348190997101 33.861801136561553 0 0 0 0 -72.984095229054219 89.871504906452174 0 89.871504906452174 104.20634995135515 0 0 0 0 -17.461200243458734 18.742920000895538 0 18.742920000895538 24.228484013183333 0 0 0 0 -42.153520403240691 12.75560792577744 0 12.75560792577744 47.672013435287226 0 0 0 0 -23.499498929653782 45.458399378469039 0 45.458399378469039 20.270681109853285 0 0 0 0 -58.645157044120424 0.52523193615252239 0 0.52523193615252239 85.42047532747165 0 0 0 0 -24.520645872811173 20.987298747230493 0 20.987298747230493 -7.4950501216642849 0 0 0 0 4.725662523349456 27.501856391372712 0 27.501856391372712 26.018902024840827 0 0 0 0 -5.4767247900607003 1.8967427393991656 0 1.8967427393991656 7.5747124466770259 0 0 0 0 -23.32481418869429 54.839350175996515 0 54.839350175996515 7.0940481500074384 0 0 0 0 -20.220246189288446 39.873128823828665 0 39.873128823828665 -1.4640420795331011 0 0 0 0 -10.538268331350992 42.990012017675326 0 42.990012017675326 -0.7470309795353387 0 0 0 0 -16.232050405131304 44.486392442868237 0 44.486392442868237 4.0405649051099317 0 0 0 0 -22.584962489017926 51.915549779922003 0 51.915549779922003 -3.683560933197441 0 0 0 0 -10.324801466485951 47.340457866564975 0 47.340457866564975 -14.861652198938827 0 0 0 0 -10.395169354000245 47.505774331890279 0 47.505774331890279 -10.441556368939928 0 0 0 0 -11.533460867096437 45.27917959991828 0 45.27917959991828 -5.9328617400751682 0 0 0 0 -7.0739946082030656 44.035488666813762 0 44.035488666813762 -6.835941783960152 0 0 0 0 -6.5334191705624107 43.638281925461342 0 43.638281925461342 -9.9811299451685045 0 0 0 0 -3.77136224185233 38.671557368717913 0 38.671557368717913 -4.1510749519111414 0 0 0 0 -31.863303220336093 50.875712229728379 0 50.875712229728379 -3.3320542705914704 0 0 0 0 -42.520361248636618 33.472084161599923 0 33.472084161599923 6.1989644860950648 0 0 0 0 -46.305824515577115 38.114902092254738 0 38.114902092254738 11.806288339706953 0 0 0 0 -13.282860777936548 46.502013810095377 0 46.502013810095377 5.5134824173292145 0 0 0 0 -37.678034097174532 54.696886223930051 0 54.696886223930051 2.7699747693768586 0 0 0 0 -22.881391011789674 53.823025097149184 0 53.823025097149184 -12.599242202049936 0 0 0 0 -38.089454223983921 56.227206401352305 0 56.227206401352305 -11.048283133859513 0 0 0 0 -32.504638004102162 49.097194765345193 0 49.097194765345193 -1.9806767315021716 0 0 0 0 -34.0184161473735 57.167014437742182 0 57.167014437742182 -12.357779189551366 0 0 0 0 -38.491531035921071 49.373390025633853 0 49.373390025633853 -12.885677994052458 0 0 0 0 -70.030570595132303 43.221881660618237 0 43.221881660618237 -8.4876656784745137 0 0 0 0 -46.827516832105175 48.732222474707669 0 48.732222474707669 -9.9830295227875467 0 0 0 0 -48.114036753773689 47.996084907183103 0 47.996084907183103 -3.3092315207468346 0 0 0 0 -55.658928854943952 31.482892330812319 0 31.482892330812319 -8.8682350034359843 0 0 0 0 -62.005818734425702 41.707338754975353 0 41.707338754975353 3.5662323361611925 0 0 0 0 -67.775673314034066 40.821761950290238 0 40.821761950290238 -13.432584219044656 0 0 0 0 -90.049474559134978 30.614376081270166 0 30.614376081270166 -2.5021521811722778 0 0 0 0 -102.57872800516088 44.190656592166306 0 44.190656592166306 -7.3825670894730138 0 0 0 0 -92.033740969447535 40.601271766190621 0 40.601271766190621 -12.365294274874032 0 0 0 0 -118.78378722957132 57.439752221962408 0 57.439752221962408 -5.8694898006506264 0 0 0 0 -75.010877722437726 64.188251430728997 0 64.188251430728997 -19.32745748254456 0 0 0 0 -49.49367610400077 57.6290620614418 0 57.6290620614418 -16.402501700882567 0 0 0 0 -52.836656081846741 47.663232498060097 0 47.663232498060097 -18.58658138125611 0 0 0 0 -18.962947074527619 49.702847186323197 0 49.702847186323197 -19.263402897395281 0 0 0 0 -30.37127200577379 50.30724904931958 0 50.30724904931958 -16.983923276216956 0 0 0 0 -12.882774616533425 49.741738829783571 0 49.741738829783571 -24.439260462066159 0 0 0 0 -35.21527214384696 59.407613249859423 0 59.407613249859423 -26.281128950591665 0 0 0 0 -34.914284602797125 48.739845220639836 0 48.739845220639836 -23.603873656385986 0 0 0 0 -23.643750421833829 53.431808945337252 0 53.431808945337252 -28.386579079815419 0 0 0 0 -19.5395570863584 44.59088033950502 0 44.59088033950502 -20.322749270242639 0 0 0 0 -18.866053861449473 46.789971395242901 0 46.789971395242901 -18.549097042872745 0 0 0 0 -22.714923433741205 42.426741599818342 0 42.426741599818342 -23.17838221265265 0 0 0 0 -27.018768392372294 55.30005306404928 0 55.30005306404928 -31.619633322105074 0 0 0 0 -55.277097294252599 55.430952520489882 0 55.430952520489882 -16.783791684414609 0 0 0 0 -44.436710400601442 74.022294350104858 0 74.022294350104858 -38.192575202643638 0 0 0 0 -126.03144450743275 83.421812189757475 0 83.421812189757475 -20.536853192672424 0 0 0 0 -118.01618290012266 51.264949575681385 0 51.264949575681385 -9.1544988764508162 0 0 0 0 -92.38848315255018 79.548600683021505 0 79.548600683021505 -23.903472924837843 0 0 0 0 -53.684663237116183 65.698078959936538 0 65.698078959936538 -26.528105065634008 0 0 0 0 -68.002834603030351 53.441118203096266 0 53.441118203096266 -21.136745014760891 0 0 0 0 2.2073392767779296 34.614352341064659 0 34.614352341064659 -7.7715838411240838 0 0 0 0 2.1284846232924792 39.840102702222111 0 39.840102702222111 -14.014879076145007 0 0 0 0 -2.7456502618151717 40.64943654648232 0 40.64943654648232 -9.0593606635484321 0 0 0 0 -3.6919300336794549 44.728654489752444 0 44.728654489752444 -15.850448674958898 0 0 0 0 1.2750118145340821 41.964331837567443 0 41.964331837567443 -18.532535394770093 0 0 0 0 1.490509129158454 37.503640445123892 0 37.503640445123892 -11.453170197397412 0 0 0 0 -7.0195413984383777 47.294244527211958 0 47.294244527211958 -20.05291531336843 0 0 0 0 -6.0580586846626829 43.017203714778589 0 43.017203714778589 -13.837697516777553 0 0 0 0 -18.711548724109889 47.942373694568232 0 47.942373694568232 -13.434494613975403 0 0 0 0 -11.016786974330898 44.096781494816241 0 44.096781494816241 -16.750461897689092 0 0 0 0 -5.586186988877671 38.959649701863782 0 38.959649701863782 -14.176479418121744 0 0 0 0 -5.3092041503696237 44.795027816486254 0 44.795027816486254 -25.569522209909337 0 0 0 0 -1.2942664399597561 43.432795461907517 0 43.432795461907517 -21.572318761129281 0 0 0 0 0.72873503992377664 37.484180156365255 0 37.484180156365255 -14.235079883685103 0 0 0 0 9.7500946499785641 30.76212516684609 0 30.76212516684609 -12.681411871267301 0 0 0 0 3.7840171929929056 39.364928172381042 0 39.364928172381042 -14.067825648264261 0 0 0 0 10.0200234218064 36.37082137408288 0 36.37082137408288 -15.887796323782823 0 0 0 0 8.8707242550008232 30.617125897872029 0 30.617125897872029 -10.173956261045532 0 0 0 0 11.616785706795781 34.35427175071527 0 34.35427175071527 -5.9350184053037083 0 0 0 0 -5.2242031197529286 36.506102706469392 0 36.506102706469392 -1.1678115007525776 0 0 0 0 6.9259834922777372 39.680557110968948 0 39.680557110968948 -17.285125278667692 0 0 0 0 9.7959768021319178 32.281164023625024 0 32.281164023625024 -2.4980745145248875 0 0 0 0 11.409564343923194 37.866418045347018 0 37.866418045347018 14.590763720370887 0 0 0 0 30.663610191448242 27.370043220675143 0 27.370043220675143 -4.8490504118581157 0 0 0 0 -8.322768787300447 53.904950904823636 0 53.904950904823636 -23.173358271931647 0 0 0 0 -16.282646054605721 38.064670972562453 0 38.064670972562453 -0.45700036407652078 0 0 0 0 -3.1670475487335352 37.532072780442832 0 37.532072780442832 -20.80978795424744 0 0 0 0 5.037090918442118 48.513676433958608 0 48.513676433958608 4.6465371840604348 0 0 0 0 18.454235949306167 74.611592437944637 0 74.611592437944637 14.392467172478973 0 0 0 0 -32.104508446991531 58.67438644025242 0 58.67438644025242 11.159669331937039 0 0 0 0 316.28800536452036 22.50463697421219 0 22.50463697421219 -20.634411455852387 0 0 0 0 -0.6608368591742817 1.3883790247050882 0 1.3883790247050882 -1.1948261073892468 0 0 0 0 24.993032042089908 89.106703515870322 0 89.106703515870322 -36.61102878353995 0 0 0 0 -3.6614912753211684 159.80264443921988 0 159.80264443921988 63.065878353678272 0 0 0 0 -115.31220134391333 131.36275460884644 0 131.36275460884644 -43.439093679922735 0 0 0 0 -227.41009445846794 51.779733565739662 0 51.779733565739662 27.9600711853127 0 0 0 0 -0.84810793146210983 2.6866281064453048 0 2.6866281064453048 -3.1190339822444173 0 0 0 0 -215.32956687700789 -5.8483018760562118 0 -5.8483018760562118 26.693332031019963 0 0 0 0 -0.069943185842419098 0.67554577619367251 0 0.67554577619367251 -1.0420332792972289 0 0 0 0 628.00784875977115 122.75507808223483 0 122.75507808223483 15.659815100283595 0 0 0 0 663.27085338157121 187.3175493523363 0 187.3175493523363 18.352795431783306 0 0 0 0 -190.07767337064433 117.3739788174862 0 117.3739788174862 6.2207073105673771 0 0 0 0 685.90289293502428 -42.645993107100367 0 -42.645993107100367 130.77829073535395 0 0 0 0 -152.10737383030937 58.151170375203947 0 58.151170375203947 -5.2472715186449932 0 0 0 0 -167.65132278541569 9.6561105618675356 0 9.6561105618675356 8.9910664898779942 0 0 0 0 -116.23647578523378 -4.805192953281221 0 -4.805192953281221 -6.2549112628148578 0 0 0 0 -124.15878150050412 17.931328148537432 0 17.931328148537432 -3.4939966701131198 0 0 0 0 -99.80015136541806 29.046002231969396 0 29.046002231969396 -4.0432321411790326 0 0 0 0 -144.39329270490998 32.572956547675858 0 32.572956547675858 1.3838390014716424 0 0 0 0 -140.1361216565565 19.817686766862607 0 19.817686766862607 10.308351178042358 0 0 0 0 -269.29294082192609 50.968771549369649 0 50.968771549369649 51.524609536361822 0 0 0 0 -81.738016607718237 39.96663299539432 0 39.96663299539432 -10.650787486076297 0 0 0 0 -144.181529786998 89.75098995956796 0 89.75098995956796 18.254349026181444 0 0 0 0 -96.589883177432057 24.237698183900648 0 24.237698183900648 -45.606201799746486 0 0 0 0 -46.774673157146026 62.625894470365438 0 62.625894470365438 -54.588127653551055 0 0 0 0 5.0927956077193173 38.91857325506156 0 38.91857325506156 -16.284534112950965 0 0 0 0 -176.34103649723693 -1.0560314030662994 0 -1.0560314030662994 -23.280334558534378 0 0 0 0 -6.2647516820404761 0.60892354412296612 0 0.60892354412296612 -3.4700230506507808 0 0 0 0 -125.1846728331293 50.890335550884629 0 50.890335550884629 -80.338085999246687 0 0 0 0 207.49393049753326 -80.585301074686868 0 -80.585301074686868 -65.68260564816137 0 0 0 0 -12.944014289555724 39.237317158780534 0 39.237317158780534 -18.604613313489537 0 0 0 0 -131.27834178915873 66.877372269324042 0 66.877372269324042 -7.6419480915228633 0 0 0 0 -117.96091479291499 64.540989209541294 0 64.540989209541294 -43.411453206383158 0 0 0 0 -7.1125142441414937 7.0497949810232967 0 7.0497949810232967 -10.922195978906529 0 0 0 0 9.6142483985807665 44.026872702343674 0 44.026872702343674 -22.011840617242939 0 0 0 0 -148.25412152519857 69.005691388481864 0 69.005691388481864 57.933822453633184 0 0 0 0 -47.714703230313447 16.853326311072585 0 16.853326311072585 -2.9677940086048267 0 0 0 0 -8.9230613733524109 0.53866938554819299 0 0.53866938554819299 5.7711069332073919 0 0 0 0 -196.87028515971906 -106.30161700364988 0 -106.30161700364988 -15.665403185295872 0 0 0 0 -2.4544346303609927 15.401358216522567 0 15.401358216522567 -9.4780577372875996 0 0 0 0 -8.1347636586806189 10.235080055616585 0 10.235080055616585 -9.8914427959106064 0 0 0 0 -21.046012376034923 27.333109205443179 0 27.333109205443179 12.992185045658516 0 0 0 0 -4.6366543323148388 8.9232089125680858 0 8.9232089125680858 -11.72189930144954 0 0 0 0 -6.347561034903265 7.9865000356967357 0 7.9865000356967357 -10.160950420198787 0 0 0 0 -1.5538728127647214 6.8696761877109864 0 6.8696761877109864 -8.4877676105122788 0 0 0 0 81.827509153925348 83.545744255039608 0 83.545744255039608 -20.025983342915424 0 0 0 0 59.382882833528129 48.089654942008565 0 48.089654942008565 2.1324984789462178 0 0 0 0 -14.643613877073221 10.566847854059233 0 10.566847854059233 -10.692142767788027 0 0 0 0 17.945907876608544 48.405259158713307 0 48.405259158713307 19.672580158713572 0 0 0 0 25.568381317967578 37.306322162428842 0 37.306322162428842 4.2458789893098583 0 0 0 0 2.0097270314763591 43.991978455689605 0 43.991978455689605 18.538866673508892 0 0 0 0 17.321039497455786 46.402674184673742 0 46.402674184673742 14.012666678980167 0 0 0 0 36.298212446268735 29.224599120661878 0 29.224599120661878 14.043715609914216 0 0 0 0 37.336901884464169 29.016433520469946 0 29.016433520469946 9.3604496744346761 0 0 0 0 13.944305878778323 47.980461781026861 0 47.980461781026861 2.8368874309999228 0 0 0 0 11.898524908430772 31.792334613565799 0 31.792334613565799 -11.095441853503871 0 0 0 0 11.640257758004736 23.593079992169805 0 23.593079992169805 26.703072192707623 0 0 0 0 -23.642658463359112 1.2631293878239376 0 1.2631293878239376 -7.5759801195167711 0 0 0 0 -12.647524783073891 14.04759421246556 0 14.04759421246556 -15.503412784851022 0 0 0 0 -24.351846575262243 1.942191961548815 0 1.942191961548815 -4.6899153602716979 0 0 0 0 -6.8318368229063289 12.143412869401974 0 12.143412869401974 -12.768498799570381 0 0 0 0 50.971453249174374 25.829231220042857 0 25.829231220042857 -35.955444235194591 0 0 0 0 -32.276509289910337 38.132728519005013 0 38.132728519005013 11.457295519743639 0 0 0 0 -4.5608145539481608 3.5530084852079398 0 3.5530084852079398 -4.0051180822089947 0 0 0 0 -2.1004729808228149 35.460452720453759 0 35.460452720453759 2.76960559670988 0 0 0 0 8.4108176543786612 11.547844993139734 0 11.547844993139734 -26.520420312637725 0 0 0 0 -16.915684185603141 64.339734343752298 0 64.339734343752298 -61.451993270951789 0 0 0 0 1.1492944710985284 17.060609280197696 0 17.060609280197696 -3.5238346196565544 0 0 0 0 -5.4553893124093618 13.542198846326135 0 13.542198846326135 -16.134477511906937 0 0 0 0 -2.5758602735466809 11.507637344741473 0 11.507637344741473 -11.444979587360791 0 0 0 0 16.117711900089489 18.328158223506762 0 18.328158223506762 -19.921118547259539 0 0 0 0 -4.9423171776166726 6.9365607462625078 0 6.9365607462625078 -10.793819104095689 0 0 0 0 2.1404729822343143 -8.9652394287650168 0 -8.9652394287650168 -14.493874126121227 0 0 0 0 2.4744464643590618 30.699257046100684 0 30.699257046100684 -3.3959579446113821 0 0 0 0 9.9039217242043378 75.793394154734415 0 75.793394154734415 2.3281304712654673 0 0 0 0 1.8593853841703094 69.458103991895769 0 69.458103991895769 91.107833684487559 0 0 0 0 30.106683987251017 98.091263251204509 0 98.091263251204509 -9.0863380392838735 0 0 0 0 533.70172957375325 -624.42481776690329 0 -624.42481776690329 749.44845716399141 0 0 0 0 -1.0711870615963051 2.6506986226009044 0 2.6506986226009044 -5.5103173707877389 0 0 0 0 -23.880869116484057 24.883577714288492 0 24.883577714288492 -24.898986028340858 0 0 0 0 42.241336804640014 91.219873620655562 0 91.219873620655562 -5.7172156813758193 0 0 0 0 72.721850224435912 320.13753226405606 0 320.13753226405606 -205.7651030544439 0 0 0 0 9.125927142937698 4.7318810024219715 0 4.7318810024219715 -12.225110368882724 0 0 0 0 50.862328253584565 80.64470993872601 0 80.64470993872601 3.9648005649723927 0 0 0 0 -13.872071797130047 58.711462026520167 0 58.711462026520167 11.431902037240434 0 0 0 0 -20.157840395520907 40.572232116574014 0 40.572232116574014 25.101007202618348 0 0 0 0 -10.940518966672244 61.661350302882056 0 61.661350302882056 4.1769755702698603 0 0 0 0 66.246964024016052 53.349754374710756 0 53.349754374710756 3.0892890650720801 0 0 0 0 -62.211083997979586 51.990316771409198 0 51.990316771409198 29.437384837525315 0 0 0 0 -14.802173582927935 67.034350798960077 0 67.034350798960077 -2.5990745674498612 0 0 0 0 -71.936292817761569 53.646286805746058 0 53.646286805746058 7.110364128202491 0 0 0 0 -7.9285651604695886 41.876670759464105 0 41.876670759464105 -18.559360148423366 0 0 0 0 -72.069870290615654 28.149305336957696 0 28.149305336957696 -45.966193367381493 0 0 0 0 0.50262665030040776 2.0629674099261024 0 2.0629674099261024 1.5952768983872261 0 0 0 0 -152.35240377612899 35.267869794091894 0 35.267869794091894 21.871515778762841 0 0 0 0 -62.350441603648505 -0.70397207086352864 0 -0.70397207086352864 -9.8014798426816014 0 0 0 0 87.308560113645513 19.302188928613106 0 19.302188928613106 0.5900342690438265 0 0 0 0 35.995885398370774 27.811746597014917 0 27.811746597014917 29.364402315222833 0 0 0 0 47.774933563054219 43.531733434427224 0 43.531733434427224 18.540165422164137 0 0 0 0 201.53902879322413 76.636653971670967 0 76.636653971670967 -25.330151262671279 0 0 0 0 138.25720155015006 31.269542684429325 0 31.269542684429325 4.8642818931402871 0 0 0 0 -47.40991674903853 56.528224217679963 0 56.528224217679963 18.017427736489935 0 0 0 0 103.10552274967085 108.18520546639411 0 108.18520546639411 23.737571556004696 0 0 0 0 -82.797748450380823 43.923100622289894 0 43.923100622289894 -2.7476165885600494 0 0 0 0 -61.639343394490425 181.37889998478568 0 181.37889998478568 -55.280849839571601 0 0 0 0 -114.81591135810595 113.06574517666377 0 113.06574517666377 7.6740932058310136 0 0 0 0 -1.6310899214441434 -3.0950089535059533 0 -3.0950089535059533 7.0671328579865786 0 0 0 0 -193.18091655803801 -6.6285682077068486 0 -6.6285682077068486 8.0712323271218338 0 0 0 0 -0.10663592700938507 1.1559980545917767 0 1.1559980545917767 0.62451822368421972 0 0 0 0 -264.64969296322624 110.16157258285421 0 110.16157258285421 41.772056943475036 0 0 0 0 -16.937239090791991 27.057971411073595 0 27.057971411073595 -41.456747658165114 0 0 0 0 -113.67704144982235 90.565220432443311 0 90.565220432443311 16.585276073907153 0 0 0 0 -9.0705010405945359 23.637311195150687 0 23.637311195150687 58.471978860743548 0 0 0 0 -8.338491969730967 7.1877011422584474 0 7.1877011422584474 56.879653377611248 0 0 0 0 -2.5878842378377556 21.683950926136731 0 21.683950926136731 26.679805724602531 0 0 0 0 -28.739065945694165 34.913956990010774 0 34.913956990010774 72.818511832818558 0 0 0 0 -16.055907886504428 52.581219302021054 0 52.581219302021054 18.570061708298454 0 0 0 0 -4.05212761972507 0.83045447345284629 0 0.83045447345284629 74.828094551623735 0 0 0 0 -15.499301485913747 35.019978679898031 0 35.019978679898031 2.3425561887634103 0 0 0 0 3.6742704689644796 22.544380209332218 0 22.544380209332218 30.453583489875953 0 0 0 0 -24.043917304360548 26.005490150010701 0 26.005490150010701 -0.035786009355433634 0 0 0 0 -15.341849810276472 11.095636562436994 0 11.095636562436994 -17.39497621395094 0 0 0 0 -10.258140291337227 -0.79370099842742547 0 -0.79370099842742547 3.746208129945849 0 0 0 0 -18.865058901883458 18.695513111892069 0 18.695513111892069 81.587690431522788 0 0 0 0 -25.488379558057204 6.161405786539035 0 6.161405786539035 0.77115091816813219 0 0 0 0 -10.648963389264509 -0.096918866257247771 0 -0.096918866257247771 9.8100310474360093 0 0 0 0 -14.376143578765209 11.848757190177892 0 11.848757190177892 5.5635698692460096 0 0 0 0 -6.6088177736746729 11.821841184319055 0 11.821841184319055 35.849245927718584 0 0 0 0 -19.992471301724436 4.6294722217571689 0 4.6294722217571689 42.443591862771427 0 0 0 0 -9.10777969981973 22.877224922307505 0 22.877224922307505 -27.682787046709564 0 0 0 0 -16.305786871926102 18.448539470313335 0 18.448539470313335 -5.9937167533425963 0 0 0 0 -14.158361300423877 9.4375607761751326 0 9.4375607761751326 5.789005349036195 0 0 0 0 -11.830988076539143 6.0150438086147915 0 6.0150438086147915 25.109280863991444 0 0 0 0 -13.305837964631792 8.9239151705332915 0 8.9239151705332915 24.290615315812829 0 0 0 0 -73.999428696632094 81.778971457730222 0 81.778971457730222 -39.81087940422367 0 0 0 0 21.480481238570064 100.80517035795856 0 100.80517035795856 -74.656854620865488 0 0 0 0 -14.553530092848042 11.365305744757606 0 11.365305744757606 26.072704207966623 0 0 0 0 -12.955246000979059 4.5492985447458523 0 4.5492985447458523 13.591013895398646 0 0 0 0 -15.559363271976508 16.346309319083957 0 16.346309319083957 -1.5150386787718162 0 0 0 0 -32.788252893527897 56.456455618250402 0 56.456455618250402 -62.845024565853237 0 0 0 0 -30.026811063782588 33.313866487560517 0 33.313866487560517 -7.4145471241063206 0 0 0 0 -1.175445811679765 16.629779364059686 0 16.629779364059686 -17.654380805855908 0 0 0 0 -7.7010063583386312 13.04522795932774 0 13.04522795932774 -13.280438467101732 0 0 0 0 35.352291085222532 69.782954476806481 0 69.782954476806481 -130.11977198028035 0 0 0 0 -35.184010321070673 -110.93663516248489 0 -110.93663516248489 -6.3608071563503472 0 0 0 0 -10.632939322589664 18.570014794280723 0 18.570014794280723 -15.418551440001465 0 0 0 0 -16.908756231681764 10.920225414669403 0 10.920225414669403 -13.857210626974847 0 0 0 0 -3.5714557310893724 9.9216401555459015 0 9.9216401555459015 -14.925476702197557 0 0 0 0 -5.4826436246125922 12.125350738243469 0 12.125350738243469 -7.5002878125669667 0 0 0 0 -0.76400647213648698 10.239982696177846 0 10.239982696177846 -13.230320870704929 0 0 0 0 161.57322558979058 115.25059249168953 0 115.25059249168953 -23.469688085693633 0 0 0 0 42.476823442205387 -18.763175170854083 0 -18.763175170854083 -49.764685061032651 0 0 0 0 0.015358441339344608 0.3580921050215693 0 0.3580921050215693 -1.3276603114110799 0 0 0 0 -162.31489680292088 23.716853975998674 0 23.716853975998674 18.511756344349124 0 0 0 0 -10.971722973252326 24.195194101670495 0 24.195194101670495 69.139619658606534 0 0 0 0 -73.085017680787132 -26.64764756749355 0 -26.64764756749355 9.7269712177176189 0 0 0 0 25.703231857168703 55.574236674506892 0 55.574236674506892 -27.417395264827064 0 0 0 0 27.929993540166379 31.602098484642738 0 31.602098484642738 -49.794618318715948 0 0 0 0 -91.924750385449443 88.676719913637498 0 88.676719913637498 -50.787058577225253 0 0 0 0 -15.403253230643386 17.419411562945125 0 17.419411562945125 -13.637651136292263 0 0 0 0 -15.192622786784341 0.40256765719641407 0 0.40256765719641407 -25.073673996575053 0 0 0 0 5.659015869263385 39.519856518325469 0 39.519856518325469 -58.006786313417251 0 0 0 0 -17.967327950689878 9.5850210311148771 0 9.5850210311148771 19.764763467937499 0 0 0 0 -14.388681024560356 8.3779516194335883 0 8.3779516194335883 13.498981124593001 0 0 0 0 -28.935859871813591 15.136830678235128 0 15.136830678235128 9.9837592743842833 0 0 0 0 -14.893293330048508 8.49741541664973 0 8.49741541664973 8.566125191036285 0 0 0 0 -9.6312509700341025 13.968964370534707 0 13.968964370534707 -5.8770164155873772 0 0 0 0 -68.067998509093741 -72.688440172987612 0 -72.688440172987612 101.03767227374556 0 0 0 0 -13.999696809651894 6.1625817023654719 0 6.1625817023654719 5.6196303045002125 0 0 0 0 21.289572205350851 12.143228077911772 0 12.143228077911772 -147.47424673738715 0 0 0 0 2.5625539835782547 42.641365302217309 0 42.641365302217309 2.0571828006213764 0 0 0 0 32.132594431786856 -3.6625115055467177 0 -3.6625115055467177 13.205673847765866 0 0 0 0 -10.481711780725163 9.2154501195182092 0 9.2154501195182092 -3.2224879589521152 0 0 0 0 -15.272490415232824 7.9511153306939377 0 7.9511153306939377 7.092339410133718 0 0 0 0 -45.752680936700926 10.144657782879221 0 10.144657782879221 7.0669807256890635 0 0 0 0 -11.036087113351627 6.8214709980083228 0 6.8214709980083228 3.6085681175330819 0 0 0 0 -25.733953655497317 22.655283866359241 0 22.655283866359241 -2.7293333390753105 0 0 0 0 -0.82221285159320701 -0.53537943796374243 0 -0.53537943796374243 -0.38162700432246766 0 0 0 0 -4.1545084016611327 10.096663127059401 0 10.096663127059401 -1.9352673252142267 0 0 0 0 -16.489623365985608 10.678731350875751 0 10.678731350875751 0.0072810587189451326 0 0 0 0 -9.5257354665107457 2.0042917245999092 0 2.0042917245999092 5.6366465445514962 0 0 0 0 -17.71634331585301 11.671964304361609 0 11.671964304361609 5.1088119856694902 0 0 0 0 -13.562822304069414 5.1261453073993835 0 5.1261453073993835 6.5542994936913601 0 0 0 0 -1.3908659982083904 2.9624846642271621 0 2.9624846642271621 -2.5808976169692812 0 0 0 0 -15.104430398530926 8.6707381338250915 0 8.6707381338250915 4.8441654773669427 0 0 0 0 236.42472532526108 32.117884895286124 0 32.117884895286124 -97.926757192799414 0 0 0 0 -17.667315517877796 11.214134254179953 0 11.214134254179953 -5.9621155871427618 0 0 0 0 -1.8748036580635494 9.7591576478174336 0 9.7591576478174336 -7.9232716377529187 0 0 0 0 -5.0733302133513689 6.1971841299534844 0 6.1971841299534844 -0.01298544726887485 0 0 0 0 -0.42127110368703313 2.3821863912586565 0 2.3821863912586565 0.6331970843949648 0 0 0 0 -2.1835969946334663 -0.3436235585917391 0 -0.3436235585917391 -0.052371910268732336 0 0 0 0 366.20431627785729 -165.64003100656737 0 -165.64003100656737 30.724532805532363 0 0 0 0 163.42191139617535 309.91308164741713 0 309.91308164741713 0.11467715618045678 0 0 0 0 -240.2012007123235 28.358459260907694 0 28.358459260907694 -44.702116103853768 0 0 0 0 -42.858316133262633 219.35370109447467 0 219.35370109447467 -107.91425977801828 0 0 0 0 -42.339311787015959 576.0089092550661 0 576.0089092550661 1.612605039309766 0 0 0 0 103.36491121481708 46.643813506112565 0 46.643813506112565 -104.46363684728567 0 0 0 0 -0.24721078898772841 -0.51858292605695766 0 -0.51858292605695766 -1.5933381552906098 0 0 0 0 0.57608971984566715 1.3804122639898679 0 1.3804122639898679 1.6194604657496257 0 0 0 0 -500.86648020103075 282.9216069442009 0 282.9216069442009 0.080630847632367497 0 0 0 0 264.25993380654972 -404.45931686406402 0 -404.45931686406402 97.152121487371915 0 0 0 0 -4.740802573484685 -5.3796294516600511 0 -5.3796294516600511 -4.3567844062563665 0 0 0 0 -109.41299946170511 15.777087907159512 0 15.777087907159512 128.89380411686579 0 0 0 0 -0.69795134481453758 0.82557363687589458 0 0.82557363687589458 5.5500923063129335 0 0 0 0 0.067072750056999197 0.50246123313743141 0 0.50246123313743141 -9.084553871287028 0 0 0 0 46.021412006204173 33.889116040445515 0 33.889116040445515 -94.129995858351322 0 0 0 0 -3.6589193105105551 65.680432101723454 0 65.680432101723454 -27.891107957460918 0 0 0 0 574.47391971868819 79.698312026182975 0 79.698312026182975 -307.81387998796163 0 0 0 0 -125.04545625864012 -9.1233010054293118 0 -9.1233010054293118 193.84594238999489 0 0 0 0 3.1730618500449737 5.9997929194002104 0 5.9997929194002104 5.321108214556773 0 0 0 0 319.80949379942012 41.12396592314326 0 41.12396592314326 -175.08507355852635 0 0 0 0 10.475347021683774 190.64870286050427 0 190.64870286050427 -99.14226913965831 0 0 0 0 1.5439674692240715 2.4474374356315423 0 2.4474374356315423 -2.6517461108105351 0 0 0 0 -44.792304190961659 -38.705721632199129 0 -38.705721632199129 6.894251008725405 0 0 0 0 31.569389229490298 -36.339009371986322 0 -36.339009371986322 -25.148012203004328 0 0 0 0 72.52981496157372 -44.864775893063779 0 -44.864775893063779 -66.809478097413376 0 0 0 0 70.64535918072761 173.62168793110322 0 173.62168793110322 -57.769436898116282 0 0 0 0 -521.1631030648723 83.543047837477388 0 83.543047837477388 -40.887305237323744 0 0 0 0 -502.26079519195082 386.0315662152716 0 386.0315662152716 495.2203537721507 0 0 0 0 27.788058740870838 174.82146139192628 0 174.82146139192628 -263.30530965465732 0 0 0 0 5.9185903836325133 11.177644312115103 0 11.177644312115103 9.9656406188362325 0 0 0 0 22.051068477735271 186.45940126107416 0 186.45940126107416 37.22779638155771 0 0 0 0 8.2302028329686436 151.83432169745356 0 151.83432169745356 77.034232787194924 0 0 0 0 2.8030800856651119 1.7899460019148279 0 1.7899460019148279 2.5699162673375611 0 0 0 0 19.116410312817607 26.657408829607448 0 26.657408829607448 52.391952109537669 0 0 0 0 -119.88018093695609 122.43481342868836 0 122.43481342868836 84.358450590469147 0 0 0 0 -104.15417853012514 6.5788880116597284 0 6.5788880116597284 58.399231456020061 0 0 0 0 -285.01577359539624 233.80359754051824 0 233.80359754051824 134.67452991897517 0 0 0 0 -5.9580401428584402 12.061923465590723 0 12.061923465590723 6.6166570126062254 0 0 0 0 7.9097694348187435 14.915750600249808 0 14.915750600249808 12.004959649916984 0 0 0 0 218.932619617206 1.3413839035874844 0 1.3413839035874844 -31.36565009986225 0 0 0 0 131.04061493372228 77.871519161028118 0 77.871519161028118 83.053927838525851 0 0 0 0 93.006918712969309 -205.33260993645672 0 -205.33260993645672 -375.19173888408113 0 0 0 0 375.82982646775099 -152.11319336440283 0 -152.11319336440283 -64.975884317798773 0 0 0 0 -118.62326089146882 10.231022314183065 0 10.231022314183065 -10.102652480651159 0 0 0 0 0.35383428119566496 2.9602124211800209 0 2.9602124211800209 -1.219756222754711 0 0 0 0 -109.72951133528215 80.551070503355277 0 80.551070503355277 69.085672043525847 0 0 0 0 35.914324946548959 -2.6624564106214166 0 -2.6624564106214166 -14.273715346047538 0 0 0 0 -27.347734243226114 45.803201344051558 0 45.803201344051558 -27.086658362466551 0 0 0 0 -44.055577883934802 2.1975684829521924 0 2.1975684829521924 -26.964819876768161 0 0 0 0 -48.450868004822951 13.300553295985083 0 13.300553295985083 -42.326678648620145 0 0 0 0 -41.185932744932984 16.173216553108659 0 16.173216553108659 -59.717202160449233 0 0 0 0 -41.104801422297896 18.393806635700457 0 18.393806635700457 -6.9160768734727753 0 0 0 0 -21.262522596081908 36.475644342343003 0 36.475644342343003 7.4563924487501936 0 0 0 0 19.888665948978087 66.456621036653814 0 66.456621036653814 -4.8535328668294824 0 0 0 0 -39.040100233149133 58.389855466026347 0 58.389855466026347 -14.763064692380794 0 0 0 0 -38.761267030235103 59.176194823785409 0 59.176194823785409 -58.078491677748389 0 0 0 0 119.75214519807469 39.563327145006042 0 39.563327145006042 -35.478251121698122 0 0 0 0 19.141242591558694 64.065705462449841 0 64.065705462449841 22.580324133611839 0 0 0 0 23.67067913795654 30.756853530256194 0 30.756853530256194 21.615161751797132 0 0 0 0 23.688523464024911 29.92175979399326 0 29.92175979399326 -19.672259516613849 0 0 0 0 86.738882932257184 61.368298807656174 0 61.368298807656174 -12.537586035385175 0 0 0 0 -50.175348312722235 47.41253913865512 0 47.41253913865512 6.545302044307391 0 0 0 0 0.92956416833385447 41.285030216760788 0 41.285030216760788 -16.439864873776969 0 0 0 0 14.816734048992728 53.000221441524459 0 53.000221441524459 -6.5141856943300809 0 0 0 0 -1.0793546595141379 50.880124510324094 0 50.880124510324094 -0.49973313116424833 0 0 0 0 14.770936910865561 56.79146877133968 0 56.79146877133968 6.4840917806504876 0 0 0 0 48.885321017803562 53.862643876744187 0 53.862643876744187 -11.237393809276909 0 0 0 0 79.697037288053934 28.865820550456192 0 28.865820550456192 -5.8847479558899067 0 0 0 0 38.49230702437697 28.432454821770989 0 28.432454821770989 3.7350988695288834 0 0 0 0 -190.32309371197607 124.82537264790699 0 124.82537264790699 18.037683304391976 0 0 0 0 10.620521772055183 2.3169201254492862 0 2.3169201254492862 -1.5962404923124325 0 0 0 0 10.332710401176657 15.965945253379154 0 15.965945253379154 11.148414999778254 0 0 0 0 -160.11771366663743 82.640242938490701 0 82.640242938490701 13.277847544741235 0 0 0 0 -161.03899636173628 78.4073217559162 0 78.4073217559162 58.010051277582534 0 0 0 0 1.5857375590064748 20.0330779461151 0 20.0330779461151 -182.51751517227967 0 0 0 0 -4.3301171797893403 -27.940989874416118 0 -27.940989874416118 -22.717856875198777 0 0 0 0 -124.43225400360006 160.32188139754544 0 160.32188139754544 -6.4414626015641261 0 0 0 0 -152.66998788681849 81.084821131218632 0 81.084821131218632 10.379881023800408 0 0 0 0 112.97608432724792 82.399573009979122 0 82.399573009979122 -36.961506181469304 0 0 0 0 79.351268773999664 11.698170177292013 0 11.698170177292013 32.378488652182568 0 0 0 0 -63.414870610882645 56.098479254360427 0 56.098479254360427 -41.34655562392436 0 0 0 0 1.7562551397774078 21.508238337078588 0 21.508238337078588 -9.184503410031823 0 0 0 0 17.094939119485907 10.189683511683704 0 10.189683511683704 -18.357644764682561 0 0 0 0 23.956484777082551 17.059950052334898 0 17.059950052334898 -20.165543922797951 0 0 0 0 11.041788138606535 23.325083618081408 0 23.325083618081408 -20.375580495562645 0 0 0 0 -84.769447307973337 50.242312662197946 0 50.242312662197946 -13.56191013980424 0 0 0 0 5.3198384664889442 1.8341432991420561 0 1.8341432991420561 0.21330528888766764 0 0 0 0 21.931346801894733 -12.573426128277788 0 -12.573426128277788 -26.598257166660915 0 0 0 0 15.449598910960958 24.940637232699373 0 24.940637232699373 -12.046987891786557 0 0 0 0 82.707603485473555 57.924287225570879 0 57.924287225570879 -17.874913310028205 0 0 0 0 3.850950197782173 3.8835420630568436 0 3.8835420630568436 -12.183036014839544 0 0 0 0 13.974854682016566 20.062700595449314 0 20.062700595449314 -11.137787852137947 0 0 0 0 3.8544405989143797 73.628895780886523 0 73.628895780886523 74.807440664315436 0 0 0 0 6.5993309154473536 11.12175030423532 0 11.12175030423532 -18.766708064926206 0 0 0 0 17.639974619081841 16.436059626055794 0 16.436059626055794 3.8696682621775835 0 0 0 0 15.071088719179745 16.396300283795959 0 16.396300283795959 1.7545802079968311 0 0 0 0 23.25280988893428 22.949755476060091 0 22.949755476060091 -30.034030550239549 0 0 0 0 19.42399878638571 12.113133263184864 0 12.113133263184864 -12.414995704813919 0 0 0 0 0.93176442780831437 8.0836750578175938 0 8.0836750578175938 -3.1322976330949501 0 0 0 0 33.34900017964992 20.145445653586648 0 20.145445653586648 -0.043546392166717851 0 0 0 0 -3.7395664360937815 13.05317738130768 0 13.05317738130768 -1.6053922095598239 0 0 0 0 33.495059487852131 23.225329029179193 0 23.225329029179193 1.6248002932989039 0 0 0 0 14.565346297239103 27.645055766088262 0 27.645055766088262 6.321285461584921 0 0 0 0 -2.0353102200228932 16.449085193729843 0 16.449085193729843 -1.5171605992072728 0 0 0 0 5.7953954768854601 15.84937253168755 0 15.84937253168755 -5.5304559231299208 0 0 0 0 0.46195375160696139 3.1132953488182764 0 3.1132953488182764 1.9562723502365884 0 0 0 0 14.410232762552642 15.293614119592533 0 15.293614119592533 -11.219455818503747 0 0 0 0 13.272316020038488 19.39747088691729 0 19.39747088691729 -11.105624003350385 0 0 0 0 15.042362511725514 10.363298149299226 0 10.363298149299226 -3.8582985725224717 0 0 0 0 15.736586883562833 9.100154053078974 0 9.100154053078974 -9.1410117108427862 0 0 0 0 -5.7290856266190531 36.774148715161573 0 36.774148715161573 6.7199712536530569 0 0 0 0 12.664306617444041 18.949020547326342 0 18.949020547326342 13.05664105480038 0 0 0 0 11.74896486693433 25.432708796266525 0 25.432708796266525 7.1546483290148899 0 0 0 0 14.152439509642591 26.212149559987665 0 26.212149559987665 1.462894931952178 0 0 0 0 6.3098169527688697 50.848622146495472 0 50.848622146495472 -52.065329178876709 0 0 0 0 -1.9008803934743475 4.7058308140910867 0 4.7058308140910867 6.040837283924219 0 0 0 0 12.866144641172955 10.550471437290412 0 10.550471437290412 0.44590639885751671 0 0 0 0 2.4210785952866694 10.631554558434715 0 10.631554558434715 8.6181322320309803 0 0 0 0 16.380613768732246 42.990840018506788 0 42.990840018506788 -20.170961153555254 0 0 0 0 6.4588477856318729 24.992030572786561 0 24.992030572786561 -5.6957897993462296 0 0 0 0 1.7810768741688889 31.457113367665443 0 31.457113367665443 3.9540181061383919 0 0 0 0 -53.346559416322634 53.685614391259151 0 53.685614391259151 -5.8048415150187793 0 0 0 0 -2.1637215547817528 24.286719644745908 0 24.286719644745908 -4.0519665005432302 0 0 0 0 41.334829737498012 19.379443752139196 0 19.379443752139196 -14.728798596479464 0 0 0 0 22.254459074188844 21.773045563419146 0 21.773045563419146 12.179557987252338 0 0 0 0 -6.7994200255676844 55.072399141437927 0 55.072399141437927 -25.71508270468621 0 0 0 0 -12.900487265104402 42.569833443893003 0 42.569833443893003 -14.656664372458181 0 0 0 0 42.928409304395132 22.331350718934118 0 22.331350718934118 -36.508211297441449 0 0 0 0 19.345185063127019 87.588616746637854 0 87.588616746637854 -91.82711776070937 0 0 0 0 15.213339050856689 18.017314696627736 0 18.017314696627736 -14.245716318967141 0 0 0 0 48.405900517563168 20.24088226279855 0 20.24088226279855 -55.454744308382942 0 0 0 0 23.442126080002197 198.94656840515859 0 198.94656840515859 119.94969989854144 0 0 0 0 27.819351973873736 -45.421217430548381 0 -45.421217430548381 114.08242228205199 0 0 0 0 48.006231626068256 92.8567785241612 0 92.8567785241612 -20.084495305309247 0 0 0 0 48.160438352520856 96.355532308992565 0 96.355532308992565 -92.690335267325281 0 0 0 0 -123.58928789853235 52.043384494172642 0 52.043384494172642 -60.079248318972532 0 0 0 0 -147.93060445790616 22.127757494861726 0 22.127757494861726 -3.3168298312521074 0 0 0 0 4.3539772972625883 8.0956995873413717 0 8.0956995873413717 -5.9973252704804878 0 0 0 0 53.500810217677326 47.814013410070402 0 47.814013410070402 -37.38461047707824 0 0 0 0 4.4454446758256161 11.580671437941243 0 11.580671437941243 -31.169795149877388 0 0 0 0 -92.218059258875655 21.912666150185032 0 21.912666150185032 10.964181790441216 0 0 0 0 51.049485976603137 45.854801080724428 0 45.854801080724428 -21.140331108181272 0 0 0 0 59.70240214444766 54.895249774119293 0 54.895249774119293 -71.190770048546256 0 0 0 0 46.732381036893003 51.665163306974137 0 51.665163306974137 -40.060607823157625 0 0 0 0 23.856361466481303 52.563962993193854 0 52.563962993193854 -58.08136835192272 0 0 0 0 1.2417432969145921 13.658341983267746 0 13.658341983267746 -118.29500932458905 0 0 0 0 39.360999294484373 31.173113030432432 0 31.173113030432432 -94.39713039138212 0 0 0 0 52.484636198291014 64.716827735719562 0 64.716827735719562 -170.72172796117229 0 0 0 0 -45.411474046144235 99.954875954084855 0 99.954875954084855 182.53294904982067 0 0 0 0 0.65029214823833659 1.9546184283962731 0 1.9546184283962731 0.79888160746564552 0 0 0 0 30.990608716486349 104.95635186396248 0 104.95635186396248 15.826342258034856 0 0 0 0 -36.555144577508145 85.761920112272492 0 85.761920112272492 159.76575284509454 0 0 0 0 -15.07694105830501 19.915223472089565 0 19.915223472089565 183.96401850189432 0 0 0 0 -15.435498285118683 44.443137409311021 0 44.443137409311021 106.90231900766958 0 0 0 0 -31.458013632534858 167.2234749388299 0 167.2234749388299 167.68446865488659 0 0 0 0 76.244886321621834 -70.273989729439563 0 -70.273989729439563 33.087585582521569 0 0 0 0 1.8266116142396209 2.6838115684665667 0 2.6838115684665667 0.97234726256552051 0 0 0 0 -59.869671187878907 59.666660964532639 0 59.666660964532639 227.15083982948636 0 0 0 0 -28.573722066997334 -11.745341051355354 0 -11.745341051355354 255.89058097731322 0 0 0 0 -11.597118272601477 63.205602756102053 0 63.205602756102053 -74.811892055586213 0 0 0 0 -30.142305229734632 37.406447152419787 0 37.406447152419787 -52.952355011497275 0 0 0 0 -7.6297351380031557 65.453423539685446 0 65.453423539685446 -16.748585204484698 0 0 0 0 -1.8476127776613112 44.742187500753062 0 44.742187500753062 -22.015419166709762 0 0 0 0 5.6063825383755557 56.409595306202391 0 56.409595306202391 -43.881199797382578 0 0 0 0 40.734738061671578 47.022920795719983 0 47.022920795719983 -35.104378500800522 0 0 0 0 4.3357606620616025 29.182143782258208 0 29.182143782258208 -39.774214597833634 0 0 0 0 5.4487937154982546 54.87042652357195 0 54.87042652357195 -7.994896412055823 0 0 0 0 29.667683114134206 39.416530692113156 0 39.416530692113156 -9.6063125343343927 0 0 0 0 -4.1872929819416527 52.437204406385717 0 52.437204406385717 -12.49377804985852 0 0 0 0 -0.86918673641273236 8.2050216839934791 0 8.2050216839934791 -14.024064050609098 0 0 0 0 -107.12405682892768 0.092251535912510008 0 0.092251535912510008 25.781884062918834 0 0 0 0 123.30105716999878 26.780159773976266 0 26.780159773976266 -35.156534602134343 0 0 0 0 74.230862238413465 10.284494618579629 0 10.284494618579629 -17.729097178196753 0 0 0 0 70.804440444964257 38.84588736513615 0 38.84588736513615 -52.542895582693745 0 0 0 0 37.634032609537769 31.114233079140831 0 31.114233079140831 -9.0425241958218976 0 0 0 0 80.106267365214308 20.665820472411724 0 20.665820472411724 10.682274387119833 0 0 0 0 85.505199032141263 27.4238334272668 0 27.4238334272668 -26.329845565800497 0 0 0 0 137.8677953850538 18.345831245598674 0 18.345831245598674 -16.774923351291363 0 0 0 0 -1.2836246857409495 6.7568251620461446 0 6.7568251620461446 2.4346703199059334 0 0 0 0 -52.51640447916634 -43.411673550190244 0 -43.411673550190244 16.997264061107671 0 0 0 0 116.70556011770441 12.241892317471866 0 12.241892317471866 -0.97110143794270698 0 0 0 0 78.162713553895287 50.257226871064631 0 50.257226871064631 18.601461744256085 0 0 0 0 122.21501852915321 48.511499335179906 0 48.511499335179906 0.022857527143059997 0 0 0 0 224.3974428581987 -5.6014505043349345 0 -5.6014505043349345 -1.678761387913255 0 0 0 0 -3.9067747490726141 -1.1285862115830056 0 -1.1285862115830056 1.9552614139790876 0 0 0 0 -3.4059681892976288 -2.4368886526592979 0 -2.4368886526592979 -0.61580767765167366 0 0 0 0 -274.73725043846116 203.63015072337294 0 203.63015072337294 0.99068233599520539 0 0 0 0 -14.966756954866469 -12.299811714197858 0 -12.299811714197858 0.036508079415907099 0 0 0 0 8.9744006062156103 63.706260573339023 0 63.706260573339023 -4.6663483745287522 0 0 0 0 44.357510888285105 55.755487551457918 0 55.755487551457918 4.5465790910748183 0 0 0 0 59.751318881456882 26.421946912872954 0 26.421946912872954 -1.6992021083524378 0 0 0 0 -1.4183902971851978 39.575601303851727 0 39.575601303851727 1.0782667622042936 0 0 0 0 30.591831086871458 58.527695830551238 0 58.527695830551238 0.0056729526331764646 0 0 0 0 -2.604333006018436 46.107138033122283 0 46.107138033122283 -19.64707707092748 0 0 0 0 -20.054668070936259 61.370687934548187 0 61.370687934548187 -13.642742578194884 0 0 0 0 -35.610635165322037 48.489188666473638 0 48.489188666473638 -0.011235440124437446 0 0 0 0 -67.218954108040634 37.12562846028959 0 37.12562846028959 0.0057023936205951031 0 0 0 0 -40.129572389216946 34.445165415304928 0 34.445165415304928 -17.93634455389838 0 0 0 0 -37.543992643241836 42.713624697622436 0 42.713624697622436 -22.678968771175278 0 0 0 0 -78.248881445958432 67.264262157936173 0 67.264262157936173 -37.096131370693911 0 0 0 0 -26.00086569097266 57.355215879349998 0 57.355215879349998 -67.882635635189217 0 0 0 0 -66.824836111142758 19.100185838338803 0 19.100185838338803 -25.419226341458852 0 0 0 0 -64.689927136616916 77.296704378612048 0 77.296704378612048 -19.81488798834107 0 0 0 0 13.125043810015995 13.105345172658417 0 13.105345172658417 -57.055489761712124 0 0 0 0 -79.496819975765902 4.7201082852916443 0 4.7201082852916443 8.6864045584006817 0 0 0 0 -2.4338917143750223 3.2741579100656963 0 3.2741579100656963 -3.9139977262821048 0 0 0 0 0.90097424412180782 -0.19994272617486075 0 -0.19994272617486075 -1.5810270247864935 0 0 0 0 -4.0463266424558242 9.9106538119376637 0 9.9106538119376637 3.0436640856169106 0 0 0 0 0.23312689882823179 7.0100948410872661 0 7.0100948410872661 -9.1209752821305301 0 0 0 0 2.7618315860599978 2.0978486041276483 0 2.0978486041276483 0.41985666117398068 0 0 0 0 1.1053873685454612 1.1929683020505166 0 1.1929683020505166 -0.70799638956916056 0 0 0 0 179.07520451792152 50.500737127673347 0 50.500737127673347 -75.857725662441226 0 0 0 0 1.1738527893483912 0.72549244040255445 0 0.72549244040255445 -1.9591798095208901 0 0 0 0 0.73460640231405705 10.018303307275346 0 10.018303307275346 2.7413783959982538 0 0 0 0 -38.808921759330133 14.784899944809695 0 14.784899944809695 138.78115351893939 0 0 0 0 -41.860610920838553 51.438419909740333 0 51.438419909740333 9.4294045087954146 0 0 0 0 0.22166426689045693 39.984470053805126 0 39.984470053805126 1.4830925842124998 0 0 0 0 -17.538524587899701 67.529501536078897 0 67.529501536078897 -15.305278766263655 0 0 0 0 -12.946738066242119 46.656414654269611 0 46.656414654269611 -7.1572205570946608 0 0 0 0 -13.370689870699948 68.376498653986346 0 68.376498653986346 -19.612403654929949 0 0 0 0 -10.786631182339761 61.256429413508158 0 61.256429413508158 -9.7079618634161307 0 0 0 0 -4.9049448237117446 58.4427174180571 0 58.4427174180571 -20.494695481342205 0 0 0 0 -27.077846602475688 49.828515859628169 0 49.828515859628169 -25.098005028143234 0 0 0 0 -17.290120797750092 69.794183319620061 0 69.794183319620061 -28.899402905328316 0 0 0 0 -0.61133612193816589 42.402262941099707 0 42.402262941099707 -7.387971538300917 0 0 0 0 -19.631309854332358 12.965501675225823 0 12.965501675225823 -11.195786315744044 0 0 0 0 16.904173478807934 38.828865084607969 0 38.828865084607969 -2.782143113159691 0 0 0 0 -31.785871708401828 34.617737902377485 0 34.617737902377485 0.0012457211305445526 0 0 0 0 19.130233976180534 -0.41743871815924649 0 -0.41743871815924649 2.1519477256661048 0 0 0 0 111.14219840760779 37.008624139474705 0 37.008624139474705 -1.096438551780011 0 0 0 0 80.805809568038057 14.815807472703455 0 14.815807472703455 -0.0057901791587937623 0 0 0 0 27.378367643912497 21.287835731052837 0 21.287835731052837 24.17683574284456 0 0 0 0 131.83861398845829 -33.573714879551517 0 -33.573714879551517 0.37208984513563337 0 0 0 0 72.023354106957413 24.61076905929076 0 24.61076905929076 -6.3195036523957242 0 0 0 0 35.133730848205687 5.18987899095373 0 5.18987899095373 5.4242709666868905 0 0 0 0 -0.80438673286147022 -0.27749177976711792 0 -0.27749177976711792 1.3054379496376498 0 0 0 0 41.293940135512457 -16.422526337286399 0 -16.422526337286399 22.017392188143276 0 0 0 0 -21.427974682512627 19.155575012546706 0 19.155575012546706 -13.391718618935556 0 0 0 0 -24.301066486155833 33.189748607084766 0 33.189748607084766 -4.2132892690860899 0 0 0 0 -11.801715300212891 40.966883864137344 0 40.966883864137344 -0.50188256132241804 0 0 0 0 -7.3612692930760204 26.57857257264277 0 26.57857257264277 -11.076330281401169 0 0 0 0 -22.695326871270481 20.065428561567387 0 20.065428561567387 -0.01998544356957473 0 0 0 0 -32.122105350424135 28.800312318369834 0 28.800312318369834 -7.9457040813504136 0 0 0 0 -10.386142027264214 26.358390495886852 0 26.358390495886852 -40.04238886195526 0 0 0 0 -11.634223465634932 16.358356862219807 0 16.358356862219807 -15.6371266139613 0 0 0 0 -0.8690571418574109 3.5471589007211151 0 3.5471589007211151 -29.154650042706635 0 0 0 0 -8.8999992175031366 8.3197043726104312 0 8.3197043726104312 -1.6706226612586761 0 0 0 0 20.080827775625039 51.470944752407377 0 51.470944752407377 -22.595468647312373 0 0 0 0 -3.6880373197309382 1.3979352114911308 0 1.3979352114911308 1.5981092491529125 0 0 0 0 -6.6317235347369206 6.9524023249250604 0 6.9524023249250604 3.074947381275706 0 0 0 0 0.88220773640205152 3.196474964141089 0 3.196474964141089 2.087000212057319 0 0 0 0 11.72492512250642 -8.9060518069250065 0 -8.9060518069250065 -36.87002508623118 0 0 0 0 2.794538920668856 2.5400247516372474 0 2.5400247516372474 8.2552798590331804 0 0 0 0 4.3845382995289128 3.2114577245283726 0 3.2114577245283726 4.1026432704093168 0 0 0 0 2.1303701300012108 6.4492972964217188 0 6.4492972964217188 2.7315877253604413 0 0 0 0 2.0385741364125867 -0.0025476633540790772 0 -0.0025476633540790772 -0.50770876939390064 0 0 0 0 -0.3998255308717038 1.2170515271044948 0 1.2170515271044948 2.4174849379799923 0 0 0 0 1.833477402968736 2.0830405859934871 0 2.0830405859934871 -0.15786563311817758 0 0 0 0 1.7932632051418302 3.5874733707751574 0 3.5874733707751574 0.022088666925881739 0 0 0 0 2.1823008250175917 1.9678783879789989 0 1.9678783879789989 0.009074307803530246 0 0 0 0 -2.288522407430813 2.3705476302809743 0 2.3705476302809743 1.0473472988349499 0 0 0 0 11.686574547599776 -3.6473466406241641 0 -3.6473466406241641 -8.4151251241564751 0 0 0 0 21.247288986565763 -1.3481826141796773 0 -1.3481826141796773 -10.807426523359027 0 0 0 0 23.997540381638828 -8.0622297704030643 0 -8.0622297704030643 -25.968348008616886 0 0 0 0 22.263757543718384 4.8897660357470158 0 4.8897660357470158 -10.9958881409475 0 0 0 0 31.742438031233178 3.3075674605934182 0 3.3075674605934182 -13.345096078308416 0 0 0 0 26.293006285511183 4.4501404043039656 0 4.4501404043039656 -11.340821433477686 0 0 0 0 -0.45846605246063987 0.16500240907114971 0 0.16500240907114971 1.9201924323514277 0 0 0 0 34.060792006175689 -2.9745275529276114 0 -2.9745275529276114 4.3283373474041582 0 0 0 0 34.850507201170331 -18.30739431346592 0 -18.30739431346592 25.264393362711417 0 0 0 0 41.201287574056551 -5.4726984324806836 0 -5.4726984324806836 -3.0285440950101474 0 0 0 0 -7.2182838192620693 7.4252668554509 0 7.4252668554509 -21.800249872016138 0 0 0 0 29.729013860824125 8.6422832220268901 0 8.6422832220268901 -5.1107821718032937 0 0 0 0 33.665129543092917 5.23519229204976 0 5.23519229204976 -20.045049959415337 0 0 0 0 13.174599083526118 30.016480054240674 0 30.016480054240674 15.901162482929067 0 0 0 0 36.163465789126349 12.677493942901492 0 12.677493942901492 -45.644972522830358 0 0 0 0 30.735660747486691 4.2096767468246981 0 4.2096767468246981 -8.058487393456744 0 0 0 0 28.837553028290586 20.812016159656196 0 20.812016159656196 -11.768698505518842 0 0 0 0 8.5242165572017257 7.2269107025931589 0 7.2269107025931589 -3.4244253744654998 0 0 0 0 40.840511415147375 4.3044329660278891 0 4.3044329660278891 -10.130231949646259 0 0 0 0 30.631364791579131 12.674298483151233 0 12.674298483151233 -13.557137024836265 0 0 0 0 2.2827933559165103 16.444531187866232 0 16.444531187866232 -5.7271677607568563 0 0 0 0 22.697700362319665 9.1906941579654813 0 9.1906941579654813 -5.9298729669244494 0 0 0 0 22.123382660383868 11.98482284984857 0 11.98482284984857 -10.194541463599307 0 0 0 0 21.711545063031735 15.662151720251131 0 15.662151720251131 -11.037847894142033 0 0 0 0 -26.867639342539405 20.84029498563541 0 20.84029498563541 1.7859880958021677 0 0 0 0 3.4516993499976252 24.663811527457256 0 24.663811527457256 -7.878097808745224 0 0 0 0 5.5830877132339083 19.272144803095216 0 19.272144803095216 11.826131933848956 0 0 0 0 7.842226090638178 17.680440632462705 0 17.680440632462705 6.510174366987485 0 0 0 0 6.2007230889144296 8.3463342643204044 0 8.3463342643204044 -8.1798883508017752 0 0 0 0 2.9787338280613049 4.4513108669107027 0 4.4513108669107027 1.0396893055180669 0 0 0 0 6.3053664505597027 17.813121973926343 0 17.813121973926343 -2.630853476584889 0 0 0 0 15.126944815619026 8.9222437063799589 0 8.9222437063799589 6.2392658545359154 0 0 0 0 16.390429523129114 13.466742473042359 0 13.466742473042359 -4.3244005027518142 0 0 0 0 10.678257804303939 7.6922689412967884 0 7.6922689412967884 1.1953973341915116 0 0 0 0 12.523684610765699 8.1286011806440683 0 8.1286011806440683 -0.0011877693498050235 0 0 0 0 7.6052473160208365 5.0217839623848306 0 5.0217839623848306 -2.2972094991898899 0 0 0 0 9.7427141626212688 8.2615675402848865 0 8.2615675402848865 4.5452555424417369 0 0 0 0 12.270957017102774 9.6700726233138994 0 9.6700726233138994 5.3222181817836827 0 0 0 0 9.3587146310656983 10.130492831018842 0 10.130492831018842 1.3170463183955974 0 0 0 0 11.008229132119595 16.038380833451811 0 16.038380833451811 6.1970708488952368 0 0 0 0 -1.6307668814129022 10.294789287961542 0 10.294789287961542 15.988393577062681 0 0 0 0 8.6138814754392783 2.5716105503928333 0 2.5716105503928333 -4.5789376981648502 0 0 0 0 15.927448099313551 11.615013222475682 0 11.615013222475682 3.7866040964363492 0 0 0 0 0.48365243524899881 3.7644082714459941 0 3.7644082714459941 3.5654778204152251 0 0 0 0 14.598227461521674 4.3245551236323081 0 4.3245551236323081 -2.5253571652792743 0 0 0 0 12.736847163340371 8.916892841218214 0 8.916892841218214 3.9433598861505743 0 0 0 0 0.25950828356212341 2.7439053749008906 0 2.7439053749008906 2.6412876782763135 0 0 0 0 -1.8063737158272488 5.1673188086751907 0 5.1673188086751907 31.344119729968952 0 0 0 0 -1.9632467296642062 1.7732531669571472 0 1.7732531669571472 -8.494003713811253 0 0 0 0 5.0472737237045813 3.2438177211032269 0 3.2438177211032269 -1.1545274169005779 0 0 0 0 -6.4137302670787903 22.932787207224465 0 22.932787207224465 16.743310803060012 0 0 0 0 7.1525884351481182 25.618445276950752 0 25.618445276950752 15.513405897647317 0 0 0 0 8.5520117066525927 17.42619610033762 0 17.42619610033762 -8.2090197855577571 0 0 0 0 6.0058716233303251 18.911743361981252 0 18.911743361981252 6.997945311213762 0 0 0 0 8.8945923715718891 23.253621471358201 0 23.253621471358201 -13.749472656316357 0 0 0 0 30.297198383155774 24.371339180195719 0 24.371339180195719 -44.342289399208312 0 0 0 0 4.3044002515907778 17.098042429039197 0 17.098042429039197 1.2450234087664285 0 0 0 0 19.017799351346184 17.606266143120592 0 17.606266143120592 -34.489611696881184 0 0 0 0 6.277495705512365 18.673790604310312 0 18.673790604310312 -12.40204613229168 0 0 0 0 11.784491713749958 22.949442300199735 0 22.949442300199735 4.8161099267235841 0 0 0 0 -5.1677068608271721 14.806819574629216 0 14.806819574629216 -0.082391896477787441 0 0 0 0 -4.5249053949246445 26.620481553024547 0 26.620481553024547 14.627012107957853 0 0 0 0 20.724813390886993 30.889975186517404 0 30.889975186517404 -1.777394992794143 0 0 0 0 1.4895583290420404 16.048827045194461 0 16.048827045194461 -4.7910233358622349 0 0 0 0 2.9598836894801934 24.738393642310257 0 24.738393642310257 -4.7724245349891135 0 0 0 0 -11.614644965728075 21.536065149550268 0 21.536065149550268 -2.6528074964444386 0 0 0 0 24.880163205943063 35.73684258011599 0 35.73684258011599 -0.12744345433020499 0 0 0 0 39.708362012155703 23.090657988999737 0 23.090657988999737 10.491120017202775 0 0 0 0 14.850082317199984 19.628687938602638 0 19.628687938602638 0.64085532328498118 0 0 0 0 4.8525864350498722 2.8474257684161941 0 2.8474257684161941 1.6245734020140787 0 0 0 0 25.258963927684817 16.006855206156615 0 16.006855206156615 -13.365981909490074 0 0 0 0 31.134227105769241 18.483223575000011 0 18.483223575000011 -14.919867941802295 0 0 0 0 46.614113092557091 21.559976465399814 0 21.559976465399814 -12.130021253706218 0 0 0 0 39.23132688268015 4.7003191083076672 0 4.7003191083076672 0.5489968043693807 0 0 0 0 34.896055028453702 21.826501445066242 0 21.826501445066242 -5.6609364418400219 0 0 0 0 36.490456535053454 27.146911980974437 0 27.146911980974437 -2.2225507448310964 0 0 0 0 36.496880620901948 21.058687632770216 0 21.058687632770216 2.9368785467231646 0 0 0 0 35.966514525389357 27.290976194206451 0 27.290976194206451 -2.6609078242836404 0 0 0 0 58.202330423056992 60.755343217679183 0 60.755343217679183 18.099076799346221 0 0 0 0 33.38738291530899 44.701968983827101 0 44.701968983827101 11.26463862293167 0 0 0 0 77.801205723276325 35.251931417178639 0 35.251931417178639 -14.991344446811127 0 0 0 0 73.660876478996215 27.801227570591436 0 27.801227570591436 -7.9556125461385818 0 0 0 0 -46.460834831415923 38.632603747329995 0 38.632603747329995 -13.86822074362135 0 0 0 0 103.57049918100711 0.75809044767447631 0 0.75809044767447631 -15.759912654928485 0 0 0 0 -51.923550320628237 75.002559357806604 0 75.002559357806604 -40.144787815996096 0 0 0 0 0.03243744512872837 0.12532316608996297 0 0.12532316608996297 -0.345765260057874 0 0 0 0 -17.938025563093106 19.012812963232136 0 19.012812963232136 -16.846202308872307 0 0 0 0 23.152944756609941 18.487199135044648 0 18.487199135044648 -8.7294680320046609 0 0 0 0 3.9969400592354702 4.0978395111738912 0 4.0978395111738912 -2.9540165426711269 0 0 0 0 -2.7053889594017164 25.43949601330678 0 25.43949601330678 -17.780545890360372 0 0 0 0 24.836515022236199 48.822445909812814 0 48.822445909812814 -59.516230652949162 0 0 0 0 -34.144631803084394 -2.8195346316715586 0 -2.8195346316715586 27.313856912529246 0 0 0 0 -11.077907538478712 44.660110511878884 0 44.660110511878884 -46.026191982091404 0 0 0 0 -21.282245154746761 49.040874508320485 0 49.040874508320485 19.879105668587727 0 0 0 0 1.3186859932054142 2.3836263839769458 0 2.3836263839769458 0.92521141977022126 0 0 0 0 1.9673989633579367 36.302343960665894 0 36.302343960665894 -80.931261605455802 0 0 0 0 -0.91050295698889627 0.31810009419459107 0 0.31810009419459107 1.8387313403082715 0 0 0 0 64.898649714521525 27.553313944608817 0 27.553313944608817 -122.81843208455575 0 0 0 0 -1.674596166562111 -2.0143568194534964 0 -2.0143568194534964 37.222526232406381 0 0 0 0 63.083603398210471 73.26999480628001 0 73.26999480628001 49.985852889825765 0 0 0 0 0.24653664852271184 1.441021639113842 0 1.441021639113842 0.63680041973812251 0 0 0 0 -7.8813401669058294 20.475362068951654 0 20.475362068951654 56.424414334083849 0 0 0 0 -40.951576256800763 29.4163320917487 0 29.4163320917487 48.145626092198654 0 0 0 0 12.509548337872729 -16.892278810541029 0 -16.892278810541029 34.072683891433371 0 0 0 0 10.138069230488213 18.816117284859047 0 18.816117284859047 -10.696487684872409 0 0 0 0 10.471639844154197 18.012896521780931 0 18.012896521780931 -11.858726401427703 0 0 0 0 66.578560298341472 24.794449015031205 0 24.794449015031205 -14.877033350770944 0 0 0 0 8.989855143096273 18.040699637448014 0 18.040699637448014 6.715560018842595 0 0 0 0 -18.674222036730498 66.672865913606074 0 66.672865913606074 2.9049087360490375 0 0 0 0 6.4682169647668069 16.355229319275338 0 16.355229319275338 -9.0223442867993597 0 0 0 0 5.7764933682948367 24.347797546739912 0 24.347797546739912 -1.1381173864101584 0 0 0 0 23.465295007154054 -12.127049915974567 0 -12.127049915974567 -23.391899112932151 0 0 0 0 9.5039721370362535 18.66022411091086 0 18.66022411091086 -2.3357479517282478 0 0 0 0 21.28538263982955 34.244013850129704 0 34.244013850129704 -10.134948304616046 0 0 0 0 -5.9071644753430519 23.657414191242424 0 23.657414191242424 46.72047451823164 0 0 0 0 11.57865551267269 17.94683834045847 0 17.94683834045847 -2.9224921340950267 0 0 0 0 -18.343541889569678 -4.1820614932548779 0 -4.1820614932548779 38.806434411380906 0 0 0 0 19.225229070850446 32.153818888455135 0 32.153818888455135 27.058306545482253 0 0 0 0 -17.497331794757997 47.240196560953336 0 47.240196560953336 69.550143918699177 0 0 0 0 11.490092185746434 22.008318433731148 0 22.008318433731148 -1.3176294851946722 0 0 0 0 14.415095635190314 14.478519284492208 0 14.478519284492208 -4.4942604132045787 0 0 0 0 14.601550114639394 20.367622596815636 0 20.367622596815636 -31.934045811016404 0 0 0 0 18.934665643864719 9.7698994433339976 0 9.7698994433339976 5.5514807046019996 0 0 0 0 15.533864602468384 23.572794040024746 0 23.572794040024746 -12.43194971804769 0 0 0 0 7.4014901126292898 20.312613495302685 0 20.312613495302685 -13.421655676334922 0 0 0 0 17.292406611009937 25.947460636962205 0 25.947460636962205 -41.097244323498671 0 0 0 0 11.404996558044388 20.151281579264797 0 20.151281579264797 9.2367487935385846 0 0 0 0 21.362465576130944 33.971281232487854 0 33.971281232487854 -59.291095079126535 0 0 0 0 14.69545087604638 10.918688730042049 0 10.918688730042049 -18.349596546760949 0 0 0 0 32.00770887726685 41.579704743908223 0 41.579704743908223 102.78621825219307 0 0 0 0 38.306415105980705 13.366698616136091 0 13.366698616136091 -16.950006510716776 0 0 0 0 16.115209092427968 23.456271391859854 0 23.456271391859854 3.4656921595012875 0 0 0 0 -635.5836598520691 -142.97621728572994 0 -142.97621728572994 -80.452943648590008 0 0 0 0 -1.5961445563741581 2.0386334230315057 0 2.0386334230315057 -2.5652987203248117 0 0 0 0 558.94914152443016 -38.038143085064803 0 -38.038143085064803 -219.39172930466157 0 0 0 0 5.9183214767890604 -48.608837409678927 0 -48.608837409678927 -64.247938653794336 0 0 0 0 -130.21983943684791 -76.359993515985479 0 -76.359993515985479 70.148403320574289 0 0 0 0 36.405937971216645 -3.3604623509231715 0 -3.3604623509231715 -25.309275448958942 0 0 0 0 -66.30303100645142 66.772321284986901 0 66.772321284986901 -12.479742353298207 0 0 0 0 -43.340027108921731 1.1426716897428832 0 1.1426716897428832 52.508009556247998 0 0 0 0 5.4708258614091392 48.225019832691032 0 48.225019832691032 -30.688346678339713 0 0 0 0 -1.2003382983873117 6.9264120726623588 0 6.9264120726623588 -8.5511808667904461 0 0 0 0 3.1721887714587886 8.9313877959005197 0 8.9313877959005197 9.4981653092715419 0 0 0 0 -10.666588479875085 13.203046709958599 0 13.203046709958599 -9.499674698709569 0 0 0 0 100.80635565901696 142.37037051870504 0 142.37037051870504 -21.591259400564013 0 0 0 0 44.256850080546428 122.32891545550228 0 122.32891545550228 -44.116275161299654 0 0 0 0 -139.30338821148075 158.6199392075514 0 158.6199392075514 110.91820036175704 0 0 0 0 21.633019295036888 34.681782265374295 0 34.681782265374295 9.2823935636006354 0 0 0 0 -3.074924877653757 30.153585325839231 0 30.153585325839231 9.1201985834248376 0 0 0 0 8.8433283195627155 18.765273823347343 0 18.765273823347343 -9.0361556768984883 0 0 0 0 -0.92546831340200697 22.590505374324152 0 22.590505374324152 -2.392921905098774 0 0 0 0 -1.3409732015916234 23.954852016960103 0 23.954852016960103 10.055194341568495 0 0 0 0 2.6218465614508659 3.0456199900765561 0 3.0456199900765561 2.909897969758326 0 0 0 0 132.26455180598896 1.1530908936383639 0 1.1530908936383639 -31.489689873931638 0 0 0 0 16.913765038598285 9.184247251610941 0 9.184247251610941 21.574334252978588 0 0 0 0 13.80045105003046 31.537739202078228 0 31.537739202078228 27.444602048283741 0 0 0 0 28.448578636161585 26.852012225202884 0 26.852012225202884 26.436064500248904 0 0 0 0 68.454219191106858 427.6044967293783 0 427.6044967293783 -478.61985108949011 0 0 0 0 31.28346564576168 -60.076944889606239 0 -60.076944889606239 -191.79640838232353 0 0 0 0 -4.2059051676470958 2.4218238355639201 0 2.4218238355639201 -1.256842521286913 0 0 0 0 -849.43734357107314 244.80979411620865 0 244.80979411620865 496.26549617174533 0 0 0 0 -53.86736265088075 212.54074616371327 0 212.54074616371327 -280.14773135834184 0 0 0 0 9.3047488642550888 84.348974066035225 0 84.348974066035225 -67.864187034987481 0 0 0 0 -74.105411592538076 117.21340917886937 0 117.21340917886937 -25.570219271954556 0 0 0 0 -14.28109021588898 49.547664757163147 0 49.547664757163147 -49.135689602924685 0 0 0 0 7.7702551340785639 20.075596837533755 0 20.075596837533755 3.2179596322146171 0 0 0 0 56.947739475876006 -44.152158625678567 0 -44.152158625678567 56.359829324630482 0 0 0 0 11.835848209327651 41.192745747565141 0 41.192745747565141 -66.038748088634748 0 0 0 0 -8.8413039398474211 4.4768149181400076 0 4.4768149181400076 -51.228318453257089 0 0 0 0 -72.006308069060651 145.37713183706819 0 145.37713183706819 50.200286326820788 0 0 0 0 2.9865012114646596 18.003865856637979 0 18.003865856637979 -15.896314229069738 0 0 0 0 72.31784612571937 -8.1569730711798911 0 -8.1569730711798911 67.509219815812685 0 0 0 0 -0.50560069162636267 1.0803211574139482 0 1.0803211574139482 4.6512767075159616 0 0 0 0 10.962898331335964 3.8510273870888341 0 3.8510273870888341 -31.637631670647352 0 0 0 0 0.150599209807325 0.43994582390344306 0 0.43994582390344306 -3.9900388527308053 0 0 0 0 -0.40623526226993789 14.544196850433494 0 14.544196850433494 -31.28190363561319 0 0 0 0 -1.9520732404453156 31.201275186956991 0 31.201275186956991 -24.953656292622327 0 0 0 0 11.036724969209899 37.120356942534272 0 37.120356942534272 -35.128183913940688 0 0 0 0 9.0081179536864511 27.219914962108305 0 27.219914962108305 -24.686187266273919 0 0 0 0 20.835011416153975 28.647827280867205 0 28.647827280867205 -32.516001301519282 0 0 0 0 21.547852648501248 13.834437435654763 0 13.834437435654763 -44.861264329752885 0 0 0 0 8.077499422863184 131.8470656583695 0 131.8470656583695 -110.7628542595703 0 0 0 0 20.739413991967012 27.956020667694247 0 27.956020667694247 -24.726907456419212 0 0 0 0 4.4086523303615941 18.573013135364945 0 18.573013135364945 -27.081930292255741 0 0 0 0 -16.963460675393435 24.17514199640209 0 24.17514199640209 92.440240006366366 0 0 0 0 -9.5866812798340106 90.437085833993478 0 90.437085833993478 -193.41825799317485 0 0 0 0 20.666680982434627 -41.698256784022306 0 -41.698256784022306 -107.34025984778236 0 0 0 0 100.9992065317565 -130.90053478389382 0 -130.90053478389382 -45.39916407356759 0 0 0 0 219.96649364233235 -70.826960970141954 0 -70.826960970141954 -253.70279005133125 0 0 0 0 13.171746599979542 30.858153405762096 0 30.858153405762096 -43.222487610590179 0 0 0 0 13.502007057053561 33.700317311406252 0 33.700317311406252 -32.672577658100636 0 0 0 0 13.454446852629189 36.016451904783025 0 36.016451904783025 -29.272372264545993 0 0 0 0 2.2292311148121371 32.32654962280867 0 32.32654962280867 -25.558940210699802 0 0 0 0 0.75089861076048692 36.437361440595851 0 36.437361440595851 -38.092827687665704 0 0 0 0 6.2649584498431068 25.189971810170391 0 25.189971810170391 -27.194013419721159 0 0 0 0 -4.5547687931648397 30.382700055561145 0 30.382700055561145 -29.001455449062632 0 0 0 0 3.5850930455999332 29.922755573512404 0 29.922755573512404 -30.943532983510522 0 0 0 0 1.1404884742441936 36.168011750960432 0 36.168011750960432 -21.023867185576819 0 0 0 0 -0.87814060873643029 28.326843069240567 0 28.326843069240567 -19.279366422102612 0 0 0 0 11.828598404419608 51.416103814757662 0 51.416103814757662 -0.70806356555840466 0 0 0 0 22.741358203868458 41.381542326836552 0 41.381542326836552 -33.980665099603357 0 0 0 0 23.322846201037464 46.688050641489099 0 46.688050641489099 -26.430621117306146 0 0 0 0 12.576601394510362 38.548103021919815 0 38.548103021919815 -32.268752311370918 0 0 0 0 33.853670065887854 14.683111452097364 0 14.683111452097364 -59.823643082359922 0 0 0 0 2.7021068189071258 3.9621041204904657 0 3.9621041204904657 -5.5391555362289608 0 0 0 0 27.737549435827532 41.760425717940961 0 41.760425717940961 -35.412841763827601 0 0 0 0 51.301225889163106 29.485687383101322 0 29.485687383101322 -50.154977700251038 0 0 0 0 29.230291658426722 44.305363010149449 0 44.305363010149449 -32.733159412106033 0 0 0 0 65.341543574249954 76.346351535321446 0 76.346351535321446 -7.7733990408014506 0 0 0 0 83.306345693541516 56.609183848413522 0 56.609183848413522 -39.62257776754268 0 0 0 0 -4.6334733314797631 42.410750778779402 0 42.410750778779402 8.8841136854316574 0 0 0 0 24.442380687971308 18.370411611605959 0 18.370411611605959 -37.875585670022701 0 0 0 0 28.265973999634298 28.105026032339083 0 28.105026032339083 -30.058598296214768 0 0 0 0 21.671594019231634 39.571112760924734 0 39.571112760924734 -36.553433487177244 0 0 0 0 -2.2619896852379942 18.824073778647254 0 18.824073778647254 -24.865256452037826 0 0 0 0 8.6445219210618234 33.431113179965905 0 33.431113179965905 -31.408955405286179 0 0 0 0 22.15423114153964 39.108726010847022 0 39.108726010847022 -36.119488961880506 0 0 0 0 22.172292429231902 39.434902332752017 0 39.434902332752017 -35.31739787114202 0 0 0 0 23.174832042666822 39.070051941605925 0 39.070051941605925 -36.118150976733887 0 0 0 0 22.247342913855391 41.9186992814939 0 41.9186992814939 -33.09733620273073 0 0 0 0 17.714572818145825 38.087110345368274 0 38.087110345368274 -35.480792097310768 0 0 0 0 17.499189672300417 38.06469621053111 0 38.06469621053111 -31.995596190490687 0 0 0 0 18.000407183855714 39.764066301686398 0 39.764066301686398 -31.606745876225432 0 0 0 0 15.804343959060134 36.360265988547326 0 36.360265988547326 -36.216977217583917 0 0 0 0 16.855772245251501 39.540417890610115 0 39.540417890610115 -35.378082519338932 0 0 0 0 17.47023972829993 38.79555985397019 0 38.79555985397019 -37.523141124576796 0 0 0 0 14.736389373458223 37.043336621150956 0 37.043336621150956 -35.579312502274661 0 0 0 0 13.959123395998176 38.729629628207476 0 38.729629628207476 -39.190787969564553 0 0 0 0 12.517044210854969 15.601617121228259 0 15.601617121228259 -19.846322584017031 0 0 0 0 29.487575977982488 33.959269783830678 0 33.959269783830678 -3.9266396759958297 0 0 0 0 12.468976242560075 24.093729970626555 0 24.093729970626555 -7.933782148946193 0 0 0 0 20.469058340077027 27.3671749801033 0 27.3671749801033 -8.2266752056966652 0 0 0 0 46.453883579928515 21.327694770772723 0 21.327694770772723 -28.426565295681939 0 0 0 0 2.6805061822178686 10.445577416706783 0 10.445577416706783 -10.1848321547659 0 0 0 0 -2.5033267137412762 19.413493114383286 0 19.413493114383286 -27.577240536921053 0 0 0 0 10.829050564961193 12.941986519860293 0 12.941986519860293 -25.286980717663305 0 0 0 0 20.925444715548224 30.309519840949633 0 30.309519840949633 -41.003803695421084 0 0 0 0 12.66787008324718 39.208535175183897 0 39.208535175183897 8.8903003678697132 0 0 0 0 15.982446314810659 17.957895015435497 0 17.957895015435497 -10.889617409466155 0 0 0 0 74.921536560828827 33.468591188404389 0 33.468591188404389 -48.525416381156901 0 0 0 0 -5.4393395159113815 19.627913851331041 0 19.627913851331041 -22.139012603816667 0 0 0 0 29.699141297009191 23.987320154150439 0 23.987320154150439 -42.964325360604562 0 0 0 0 -31.193370768803106 19.027230878788941 0 19.027230878788941 -26.03150658942468 0 0 0 0 3.3089714002526307 17.719906363488917 0 17.719906363488917 -39.746174769592471 0 0 0 0 15.5750201603405 5.3652711125714632 0 5.3652711125714632 -35.301461326715071 0 0 0 0 -6.4909293710879865 18.712383476966352 0 18.712383476966352 -25.64149283392544 0 0 0 0 16.133763038502366 39.48355480466671 0 39.48355480466671 10.249265837366693 0 0 0 0 0.2321493258435865 3.4239649152556133 0 3.4239649152556133 -0.85229947252761917 0 0 0 0 -60.840668714294225 63.471658940575253 0 63.471658940575253 -19.530092068362137 0 0 0 0 -54.869236657576039 53.317719506863796 0 53.317719506863796 -3.6108431804595966 0 0 0 0 -5.9133892568651945 9.4870291904685331 0 9.4870291904685331 -5.6822561500952418 0 0 0 0 37.725669783963895 -3.6406816029320908 0 -3.6406816029320908 -24.329209887611796 0 0 0 0 34.367061310982535 20.542498982020334 0 20.542498982020334 -35.470120469813992 0 0 0 0 41.794753708059943 14.661923481247868 0 14.661923481247868 -33.425602871986484 0 0 0 0 15.945745543191151 22.697325633806031 0 22.697325633806031 -26.99776446622127 0 0 0 0 30.24955702434454 7.9719176370017522 0 7.9719176370017522 -15.765683236608311 0 0 0 0 -7.0656400492184188 32.625998659693678 0 32.625998659693678 18.730381691470161 0 0 0 0 15.431069501519232 53.820555592829805 0 53.820555592829805 31.58683421301248 0 0 0 0 27.63926576126687 35.936389265907565 0 35.936389265907565 5.5158920457161003 0 0 0 0 5.3480624658049258 11.687050892839828 0 11.687050892839828 -20.560743659433683 0 0 0 0 43.097213203480351 35.974669902199821 0 35.974669902199821 -5.8505686845455784 0 0 0 0 68.103892194078071 46.384052975590748 0 46.384052975590748 -28.274375263899856 0 0 0 0 -2.6717204048860594 3.1733823360507465 0 3.1733823360507465 0.57391046386463529 0 0 0 0 11.956741464050729 22.390406715113492 0 22.390406715113492 14.1867119065083 0 0 0 0 10.182276622387235 27.801395952070493 0 27.801395952070493 6.340863201974571 0 0 0 0 13.05334135861267 40.723427046923462 0 40.723427046923462 1.0097580569608908 0 0 0 0 19.675430119104931 30.297469796425702 0 30.297469796425702 -15.921614981081177 0 0 0 0 41.711440406521433 47.726928319580935 0 47.726928319580935 -32.592098267671958 0 0 0 0 0.38940413964792242 32.504017059769467 0 32.504017059769467 -3.8952449163230085 0 0 0 0 45.146596626552309 55.940514844353601 0 55.940514844353601 -13.87871589013929 0 0 0 0 13.641731970169985 54.53764333252002 0 54.53764333252002 -22.705206835754325 0 0 0 0 1.9973399178580538 9.167553180772515 0 9.167553180772515 -22.803133677039881 0 0 0 0 78.715126106526441 16.035755293637635 0 16.035755293637635 13.825535486068574 0 0 0 0 25.897004389171343 44.924010035760354 0 44.924010035760354 18.435578056715315 0 0 0 0 7.0389172829491145 76.426784311508527 0 76.426784311508527 -14.833032106328574 0 0 0 0 7.536903471005644 88.603862816687979 0 88.603862816687979 -72.796112791663916 0 0 0 0 9.7471785051275219 -2.0398690667498158 0 -2.0398690667498158 -68.422444982614252 0 0 0 0 -17.98407449649676 -2.1095233684154664 0 -2.1095233684154664 -38.61781200500991 0 0 0 0 40.210229340719707 6.4998887249403197 0 6.4998887249403197 -46.584509420121321 0 0 0 0 31.66476593560219 22.278228460392711 0 22.278228460392711 -50.875761482864618 0 0 0 0 3.9823751040038289 15.912246848721956 0 15.912246848721956 -34.671426937767485 0 0 0 0 21.65190587084453 72.031849881535948 0 72.031849881535948 -40.148632568693301 0 0 0 0 -39.455136410542764 -16.117914284087192 0 -16.117914284087192 -97.597907444961493 0 0 0 0 -6.7469669542399471 26.269989905609474 0 26.269989905609474 -28.521907970418198 0 0 0 0 30.488201163609119 26.590321003889585 0 26.590321003889585 -33.924981137623035 0 0 0 0 2.3502936872674809 17.764263868643859 0 17.764263868643859 -31.250181743181699 0 0 0 0 -7.2794962478944543 19.984031706126341 0 19.984031706126341 -24.079080975331983 0 0 0 0 -19.847997565444985 48.533314188147983 0 48.533314188147983 -22.41639527866937 0 0 0 0 -0.46647681241783623 33.336368894696363 0 33.336368894696363 -9.0572719075691737 0 0 0 0 12.336685998952817 36.360807346554793 0 36.360807346554793 -23.513510083280835 0 0 0 0 52.51491696773428 5.2631312928733678 0 5.2631312928733678 -41.966656222460415 0 0 0 0 65.896053245233816 13.955310194976846 0 13.955310194976846 -55.710124466838352 0 0 0 0 81.375144586098031 5.0473741964312921 0 5.0473741964312921 -53.013259215445942 0 0 0 0 6.0086210356399974 -0.91630879646792174 0 -0.91630879646792174 -3.1283692204452338 0 0 0 0 59.477067351721416 1.1650897323357867 0 1.1650897323357867 -43.307354384421842 0 0 0 0 278.1818860129315 343.16589472880958 0 343.16589472880958 245.01640459261944 0 0 0 0 600.63977643162002 292.91440212947907 0 292.91440212947907 -194.28457806915503 0 0 0 0 295.89151767046133 -15.601839308507806 0 -15.601839308507806 -69.281270424377453 0 0 0 0 188.78929415827224 96.19466139577338 0 96.19466139577338 37.200122579557046 0 0 0 0 204.88528582772778 25.76628860142273 0 25.76628860142273 -3.1287600761105523 0 0 0 0 212.99442335411732 103.99693102852461 0 103.99693102852461 123.62276179363835 0 0 0 0 -3.3646264730217608 23.724005311327549 0 23.724005311327549 -9.9788386354058005 0 0 0 0 -69.969671513196772 53.546834557331749 0 53.546834557331749 21.716603330161888 0 0 0 0 -10.847427687884192 29.972685431699119 0 29.972685431699119 -10.405520441957378 0 0 0 0 -6.8409496947320605 15.13248444228341 0 15.13248444228341 -12.298553398371148 0 0 0 0 27.355869720544433 59.93241075634387 0 59.93241075634387 18.787175860872765 0 0 0 0 16.928645104768293 41.928627921553129 0 41.928627921553129 23.635120830492781 0 0 0 0 182.33215377160013 109.88931646862564 0 109.88931646862564 -34.999564919029012 0 0 0 0 -326.22805373461961 112.5773296330043 0 112.5773296330043 150.16385095661769 0 0 0 0 -98.597590870747808 606.33269271192637 0 606.33269271192637 245.46487299230171 0 0 0 0 -1.3537618743630642 2.7637514296833423 0 2.7637514296833423 -7.579439650309947 0 0 0 0 -14.917875547855147 179.46658157903022 0 179.46658157903022 -27.236619715521783 0 0 0 0 -121.80941768372577 214.05947634427434 0 214.05947634427434 -31.973180121452799 0 0 0 0 -64.414111701215006 138.35867148963678 0 138.35867148963678 -22.776798162395153 0 0 0 0 551.84045799893079 -210.86864493391502 0 -210.86864493391502 -578.03972259666398 0 0 0 0 -230.86717822468199 -249.82196249483809 0 -249.82196249483809 -148.29097990347896 0 0 0 0 -403.54914160916996 78.219972233096541 0 78.219972233096541 39.704301910655431 0 0 0 0 -69.951457545972517 67.283555064226221 0 67.283555064226221 38.894211938895069 0 0 0 0 29.515117211180041 -53.534625428209438 0 -53.534625428209438 -14.168144270618541 0 0 0 0 1.8202081607450964 135.30223655076361 0 135.30223655076361 -43.53983270504375 0 0 0 0 -104.87454663755852 111.48775368128304 0 111.48775368128304 6.965066032489176 0 0 0 0 -93.999166477595281 130.27829384806228 0 130.27829384806228 -13.273495768974044 0 0 0 0 1.0566791863857361 138.24446264925189 0 138.24446264925189 -37.528444221876043 0 0 0 0 -31.74551031349074 134.30119911091469 0 134.30119911091469 -22.184211607469592 0 0 0 0 50.007106506210448 60.62535077774286 0 60.62535077774286 32.24689370046076 0 0 0 0 38.712046432752686 139.18008758966312 0 139.18008758966312 -44.859785735422975 0 0 0 0 -9.9893445483394316 75.146712343054674 0 75.146712343054674 138.64416488733332 0 0 0 0 -0.59026020586399852 0.22295592259270158 0 0.22295592259270158 0.10485837936536913 0 0 0 0 -50.829383607211639 5.3089241541193815 0 5.3089241541193815 186.80658180130388 0 0 0 0 -24.280666360160467 -18.100560505107126 0 -18.100560505107126 153.19484072428759 0 0 0 0 13.751915013308462 -38.252222282426146 0 -38.252222282426146 46.114462347436913 0 0 0 0 -70.608001015307309 15.940700180656563 0 15.940700180656563 33.878906184695325 0 0 0 0 -39.242436623091635 47.847671583228703 0 47.847671583228703 61.499377703366775 0 0 0 0 -3.8403743675371516 24.693539713208111 0 24.693539713208111 39.266634563695789 0 0 0 0 -0.082022846665495308 39.63938588334895 0 39.63938588334895 45.120682032395706 0 0 0 0 -44.836087553287143 54.305749826910613 0 54.305749826910613 22.15721055902749 0 0 0 0 2.4341094489836905 46.935612012011177 0 46.935612012011177 15.834423200314177 0 0 0 0 -18.101935944989236 31.920261171666823 0 31.920261171666823 8.435261440782142 0 0 0 0 -62.698056764636931 2.0380032839500046 0 2.0380032839500046 -11.33439283824859 0 0 0 0 -194.03238126581346 -2.3960133141096662 0 -2.3960133141096662 54.425905275084119 0 0 0 0 137.94538229358841 89.533708546155168 0 89.533708546155168 4.6495970669527651 0 0 0 0 0.10129278088415461 -0.17450220227008018 0 -0.17450220227008018 -0.78449393285124813 0 0 0 0 -68.87050623817413 59.385296549294253 0 59.385296549294253 41.616899840141173 0 0 0 0 2.7460607501416234 56.044260979800129 0 56.044260979800129 35.766615022066162 0 0 0 0 46.849233821096277 91.928310656519329 0 91.928310656519329 49.306774934398845 0 0 0 0 -128.93240000563128 88.513343397330175 0 88.513343397330175 37.85833377345898 0 0 0 0 33.872147515481629 46.075185426139569 0 46.075185426139569 -44.625777839924126 0 0 0 0 -11.520496398228715 46.032120542291409 0 46.032120542291409 32.165732017195637 0 0 0 0 -2.9254568279320665 5.5211038380791706 0 5.5211038380791706 -22.783703260586833 0 0 0 0 63.167124297629925 39.547137739283244 0 39.547137739283244 6.9417370914680987 0 0 0 0 -32.34992887737576 44.233895349109886 0 44.233895349109886 -17.423475669260029 0 0 0 0 -12.590562639888958 47.490747575037403 0 47.490747575037403 21.546870346346964 0 0 0 0 -15.713149960767623 17.70557122310106 0 17.70557122310106 4.8862391983734028 0 0 0 0 -13.710036161781318 34.191638013651698 0 34.191638013651698 18.596584620370152 0 0 0 0 12.503456348733835 58.656779989543956 0 58.656779989543956 36.53596455510592 0 0 0 0 6.8296670291065311 31.12575331004448 0 31.12575331004448 11.377159551594559 0 0 0 0 -4.3948314568770002 24.533912820195269 0 24.533912820195269 7.5059632379957293 0 0 0 0 21.087962918631092 63.035973621533287 0 63.035973621533287 30.634542301446459 0 0 0 0 88.681110557212378 20.515327402180759 0 20.515327402180759 29.653914684212396 0 0 0 0 16.285293794560857 40.163607625153475 0 40.163607625153475 18.402013317459136 0 0 0 0 4.3298813226901984 73.833610972099791 0 73.833610972099791 18.786083243644725 0 0 0 0 4.1507975646200066 37.318003316802503 0 37.318003316802503 49.576434887343112 0 0 0 0 41.82507004335821 60.460148939654346 0 60.460148939654346 -9.719316262688892 0 0 0 0 -1.7302741493764717 5.0171408465481484 0 5.0171408465481484 1.8077135237655158 0 0 0 0 -9.9221298818956711 44.805404516111196 0 44.805404516111196 -7.414830354173489 0 0 0 0 4.0049413076452609 5.8121154439206997 0 5.8121154439206997 -6.1291841639948732 0 0 0 0 0.90146099340199726 11.863028373787415 0 11.863028373787415 30.887115102943426 0 0 0 0 -0.64935042939329612 8.0758903752580622 0 8.0758903752580622 6.578611471889781 0 0 0 0 -2.7954615652570993 13.180902212888348 0 13.180902212888348 10.742165975181766 0 0 0 0 -24.512668932256048 -37.221595964015407 0 -37.221595964015407 45.569731450345898 0 0 0 0 41.749514340222959 50.566441290535096 0 50.566441290535096 -15.641181346599467 0 0 0 0 17.831795197082261 18.309099201521576 0 18.309099201521576 9.146608455713924 0 0 0 0 -6.3453333841044071 18.275931678909927 0 18.275931678909927 -3.8965642495926858 0 0 0 0 160.75210656605896 26.383619962815374 0 26.383619962815374 -122.14694100898942 0 0 0 0 16.810707156441822 39.701170602029379 0 39.701170602029379 -27.82714468096674 0 0 0 0 -16.263685107394849 21.943343191425811 0 21.943343191425811 2.2573446750702715 0 0 0 0 -1.6531080753691398 25.302581436398977 0 25.302581436398977 0.1507244643717911 0 0 0 0 -12.443417216980379 24.662412627273625 0 24.662412627273625 2.239244906220847 0 0 0 0 -0.89961663140881498 17.170590067942172 0 17.170590067942172 3.6944810191435238 0 0 0 0 0.72339650515604603 17.481561665865577 0 17.481561665865577 12.07061435852251 0 0 0 0 1.4082614921935601 28.634706606706459 0 28.634706606706459 -14.363884293929004 0 0 0 0 -14.26997188160658 49.631913226215097 0 49.631913226215097 14.208234489910694 0 0 0 0 1.9046041367237194 32.482989215753143 0 32.482989215753143 8.0055734882106151 0 0 0 0 -23.837206921925826 31.511125774299614 0 31.511125774299614 5.7866042283437196 0 0 0 0 -38.338529789837594 29.479221442355559 0 29.479221442355559 12.793270471348421 0 0 0 0 -24.137215864266835 33.123031741016149 0 33.123031741016149 -24.631439063403207 0 0 0 0 12.104232718253115 63.48914921544565 0 63.48914921544565 98.490856570437245 0 0 0 0 -0.60492263180191941 0.88356608415895721 0 0.88356608415895721 -6.2495092795165803 0 0 0 0 175.13506230860366 -47.891601599789283 0 -47.891601599789283 -189.28015919197787 0 0 0 0 -2.6632766589082166 132.25778503471884 0 132.25778503471884 146.65255620348398 0 0 0 0 24.123944538168871 113.125633386564 0 113.125633386564 84.014697519523907 0 0 0 0 18.880584583184827 138.04080248473838 0 138.04080248473838 68.920709639323832 0 0 0 0 -67.41105801449703 -51.564290110361071 0 -51.564290110361071 -67.036465364610194 0 0 0 0 -10.82922361259125 23.857394943281975 0 23.857394943281975 -26.925843321284319 0 0 0 0 -383.21290266876167 212.39618201350822 0 212.39618201350822 97.734672740734823 0 0 0 0 -85.832641904220509 -17.67216582896981 0 -17.67216582896981 -47.411820084380452 0 0 0 0 -11.735860883851274 -38.641076689531474 0 -38.641076689531474 -34.015694051180617 0 0 0 0 -16.813908731503034 3.9259932745990227 0 3.9259932745990227 -120.43376666588301 0 0 0 0 -6.3705920369829983 -48.431954169158416 0 -48.431954169158416 -129.37709325176547 0 0 0 0 -47.117328581145557 22.020840343275268 0 22.020840343275268 -114.48894192793523 0 0 0 0 64.324940389751646 3.6078374444441579 0 3.6078374444441579 -111.53726735061355 0 0 0 0 189.01209916198059 111.23319910663486 0 111.23319910663486 -172.37197130572713 0 0 0 0 92.232372004895296 -54.405951237546105 0 -54.405951237546105 -4.8016077349457191 0 0 0 0 -93.37424128397106 161.93497309338272 0 161.93497309338272 -155.01140351888171 0 0 0 0 617.91783956459585 174.81199341123101 0 174.81199341123101 -343.85753570866655 0 0 0 0 -222.32880751800133 62.552041694718355 0 62.552041694718355 -67.201468053026474 0 0 0 0 0.28436947103986077 -0.11714472844330714 0 -0.11714472844330714 -0.3507295431240891 0 0 0 0 498.76106582364901 -165.09117883903127 0 -165.09117883903127 67.627398871954938 0 0 0 0 633.26567511427038 98.167086546523024 0 98.167086546523024 -68.101460542035056 0 0 0 0 183.17500563539579 29.359083298120822 0 29.359083298120822 -50.734675302661344 0 0 0 0 6.3810095891664673 7.7336278533209004 0 7.7336278533209004 -10.250728407134602 0 0 0 0 56.726068440482777 181.6943116104303 0 181.6943116104303 -178.96985069586663 0 0 0 0 25.83736772402699 102.07055416580988 0 102.07055416580988 35.074305128146079 0 0 0 0 31.946881608895637 56.312202535795223 0 56.312202535795223 -135.08913002331974 0 0 0 0 31.197968995096744 49.58763288447517 0 49.58763288447517 18.450725650414824 0 0 0 0 -50.327139606255514 164.33278567034358 0 164.33278567034358 -160.81645592099176 0 0 0 0 8.6123873308824272 33.121213011350335 0 33.121213011350335 -29.210215051451868 0 0 0 0 27.709644994980728 67.755210358258097 0 67.755210358258097 -29.162252843362964 0 0 0 0 -20.47960963183769 37.020812269772314 0 37.020812269772314 5.9931491541047421 0 0 0 0 46.317385348022853 68.728152879229583 0 68.728152879229583 42.702340763211211 0 0 0 0 53.262005742108158 86.997828972103434 0 86.997828972103434 55.889240818376493 0 0 0 0 60.655200720197172 67.57305866200295 0 67.57305866200295 105.30057458099327 0 0 0 0 -26.945824188336701 116.5282252757479 0 116.5282252757479 44.939026935498987 0 0 0 0 34.327693204919342 51.702697680224446 0 51.702697680224446 8.8401379527931567 0 0 0 0 40.512277450453382 49.271172232357031 0 49.271172232357031 -5.0268285186117581 0 0 0 0 39.16552485403372 49.128219363192329 0 49.128219363192329 8.2857956985535566 0 0 0 0 32.383151826230275 43.528665777318679 0 43.528665777318679 -7.7840631593255978 0 0 0 0 48.053118592495167 37.723928762550187 0 37.723928762550187 -13.756381002359767 0 0 0 0 127.85582381699351 76.325659040201572 0 76.325659040201572 4.572206608732813 0 0 0 0 60.133713133433048 86.064964712738401 0 86.064964712738401 95.907285368317389 0 0 0 0 110.15866421021201 117.99799830798656 0 117.99799830798656 56.052437275218836 0 0 0 0 73.317211107510957 132.50451837367109 0 132.50451837367109 245.67526798872859 0 0 0 0 6.6555443806762611 -1.7508659331933671 0 -1.7508659331933671 -10.040342633507723 0 0 0 0 37.843357649704558 61.603217696618231 0 61.603217696618231 60.313826298694039 0 0 0 0 2.7736234112074385 7.9187237556057326 0 7.9187237556057326 5.952055700742843 0 0 0 0 54.62846264097243 97.682355293550245 0 97.682355293550245 73.011872712097102 0 0 0 0 75.013035551528446 99.983425335415632 0 99.983425335415632 12.802139012579573 0 0 0 0 57.9881454804854 87.205036967936394 0 87.205036967936394 73.425680472606473 0 0 0 0 75.993854570864642 93.85144867332383 0 93.85144867332383 9.3603030592130381 0 0 0 0 114.66789665842953 109.18217364948214 0 109.18217364948214 41.208050741483021 0 0 0 0 64.422870628703095 90.351940943546651 0 90.351940943546651 40.874829894979484 0 0 0 0 67.035732904871111 86.685123841889435 0 86.685123841889435 7.2150640782438131 0 0 0 0 79.678120999160456 66.894102935184492 0 66.894102935184492 -3.5300255151014426 0 0 0 0 77.139950454817154 106.66346329127919 0 106.66346329127919 -36.611720812894418 0 0 0 0 3.2951259376350208 76.242342282817845 0 76.242342282817845 34.19122330211394 0 0 0 0 47.051545457210523 56.328142912163003 0 56.328142912163003 42.909739904640446 0 0 0 0 11.708315364980081 98.034606487737619 0 98.034606487737619 1.4496101020358765 0 0 0 0 45.52558570504042 49.547286322642634 0 49.547286322642634 30.840119479495073 0 0 0 0 -7.9945343168728868 99.101882041861245 0 99.101882041861245 5.6847646627993527 0 0 0 0 -4.3419147112654173 82.972282487420671 0 82.972282487420671 2.9005859607409548 0 0 0 0 17.981311255602122 101.96713455299323 0 101.96713455299323 54.082740035104507 0 0 0 0 6.3139225033228286 77.25728084786806 0 77.25728084786806 20.0164392976003 0 0 0 0 26.191949873429621 85.134252831019694 0 85.134252831019694 37.748217034852132 0 0 0 0 41.300010270384519 95.850423705796857 0 95.850423705796857 15.552405492944672 0 0 0 0 39.413331874904543 82.344404135121295 0 82.344404135121295 -5.88694489685804 0 0 0 0 25.999155971756409 81.261712602119587 0 81.261712602119587 11.485103335478925 0 0 0 0 25.854389411360899 78.94015256665989 0 78.94015256665989 1.9403958854018128 0 0 0 0 27.754318915482145 78.834706514739082 0 78.834706514739082 -6.531856065296779 0 0 0 0 40.868254281318514 75.584899013705581 0 75.584899013705581 -11.37623298849212 0 0 0 0 36.957582971912416 76.630504453550202 0 76.630504453550202 -7.7895370107871713 0 0 0 0 46.422367484912684 79.309789174098114 0 79.309789174098114 -13.008928830915465 0 0 0 0 34.203133171125955 71.652384615234041 0 71.652384615234041 -9.618273321990273 0 0 0 0 32.244440724309243 72.186990626149054 0 72.186990626149054 -10.232841096029006 0 0 0 0 36.387019635396427 71.708613903560035 0 71.708613903560035 -15.230903623381892 0 0 0 0 29.138543269000365 66.099687277233897 0 66.099687277233897 -13.322144021200074 0 0 0 0 34.380559312019614 69.273799460563168 0 69.273799460563168 -12.934193553766818 0 0 0 0 30.107837950723479 65.722978337013046 0 65.722978337013046 -16.615400757716998 0 0 0 0 24.998805635106692 63.48029469924586 0 63.48029469924586 -15.547193631071423 0 0 0 0 23.442058514803648 66.407005627166654 0 66.407005627166654 -18.155389994680263 0 0 0 0 26.080135721131228 62.48242565743567 0 62.48242565743567 -18.763501857933079 0 0 0 0 31.455372462050946 56.431626056434652 0 56.431626056434652 -26.747209389002819 0 0 0 0 3.3472730367357144 56.106689752952661 0 56.106689752952661 -14.449048149479495 0 0 0 0 35.1199952820607 73.99671859863156 0 73.99671859863156 -14.552439990926359 0 0 0 0 32.274687532844837 65.427786794745771 0 65.427786794745771 -20.097430054251163 0 0 0 0 51.088708227734969 89.719488139108762 0 89.719488139108762 -1.7496476991218515 0 0 0 0 39.234200436058018 71.873048296922207 0 71.873048296922207 -13.971774262605322 0 0 0 0 29.880524218180653 69.143926242610178 0 69.143926242610178 -19.98340937215653 0 0 0 0 38.461150352022742 65.435667164357255 0 65.435667164357255 -20.343376744822308 0 0 0 0 63.809523897602048 84.422730197777128 0 84.422730197777128 -21.997056599009738 0 0 0 0 55.526603814047121 92.775620998127124 0 92.775620998127124 -5.9789136334547948 0 0 0 0 47.827460198208428 109.32088617014961 0 109.32088617014961 28.512644197930058 0 0 0 0 47.323952030295914 107.84596824808978 0 107.84596824808978 24.751198204830871 0 0 0 0 36.879102349957066 84.835387398568855 0 84.835387398568855 9.7846706300406368 0 0 0 0 41.947898750990134 87.263725535140111 0 87.263725535140111 4.4202431297162548 0 0 0 0 -24.082296121046966 33.981380996287953 0 33.981380996287953 9.5417982134913473 0 0 0 0 -32.789328821545496 60.974288656530007 0 60.974288656530007 2.5430016655845975 0 0 0 0 26.427516772550007 40.809588409048956 0 40.809588409048956 -5.6524179591760912 0 0 0 0 15.114674874548655 117.27191580123053 0 117.27191580123053 96.605609270809282 0 0 0 0 13.122653639830787 35.469444787281645 0 35.469444787281645 -35.649610556858534 0 0 0 0 50.899221238796599 83.279675593690627 0 83.279675593690627 14.34666131535505 0 0 0 0 -16.057887158321279 28.101790873166387 0 28.101790873166387 -39.995656778539889 0 0 0 0 32.376750669313424 54.836844292247633 0 54.836844292247633 -43.055528631339257 0 0 0 0 -10.183970319387299 48.925797256943042 0 48.925797256943042 -24.018060881324345 0 0 0 0 -9.6174806722405322 31.784072470589159 0 31.784072470589159 -41.880530410015631 0 0 0 0 1.4749066035365104 14.132386770801531 0 14.132386770801531 -38.43324934222619 0 0 0 0 13.014516738831844 82.738044457942181 0 82.738044457942181 10.100015571671975 0 0 0 0 1.5803363464507285 29.994688391781672 0 29.994688391781672 -29.024935069318317 0 0 0 0 1.525271835806052 44.844824361056453 0 44.844824361056453 -7.1627698462725675 0 0 0 0 -9.1283917826222023 66.386960663114223 0 66.386960663114223 -50.417743427043661 0 0 0 0 47.364381186278479 65.708147827697758 0 65.708147827697758 -11.958509786665672 0 0 0 0 47.822004152010777 72.769428943440289 0 72.769428943440289 -39.775744443153599 0 0 0 0 111.47008883782837 128.66270434486796 0 128.66270434486796 -29.036825603198736 0 0 0 0 45.72218495272682 51.188645532559349 0 51.188645532559349 -30.060174320737133 0 0 0 0 97.713184276033644 117.10488690495549 0 117.10488690495549 8.7738626648715581 0 0 0 0 50.937052727371338 158.14171018600609 0 158.14171018600609 159.0840542231017 0 0 0 0 31.217567142759435 197.75473610887639 0 197.75473610887639 -320.21811355778482 0 0 0 0 17.813928775080967 -125.84470756919836 0 -125.84470756919836 166.17916652851272 0 0 0 0 70.701733440284443 130.477478618639 0 130.477478618639 36.481670934590511 0 0 0 0 22.099888605157048 155.37348434499245 0 155.37348434499245 47.106955444469349 0 0 0 0 24.204053372464614 112.71688110032187 0 112.71688110032187 38.895782471561688 0 0 0 0 53.638101171549351 136.93967815930591 0 136.93967815930591 57.009104490287427 0 0 0 0 59.226865050487504 117.79744635389125 0 117.79744635389125 22.874761881699669 0 0 0 0 65.366975199434819 103.7672019978163 0 103.7672019978163 6.0987385596818058 0 0 0 0 54.992917462866899 100.78357519693236 0 100.78357519693236 17.619873395749892 0 0 0 0 79.632820232021913 108.12601264799741 0 108.12601264799741 17.384206973077312 0 0 0 0 60.926150154751667 95.244152357068742 0 95.244152357068742 33.044720310004777 0 0 0 0 77.654557018224295 118.86450235416851 0 118.86450235416851 42.283441530267737 0 0 0 0 73.440895003008336 82.086812997127709 0 82.086812997127709 133.74652981096733 0 0 0 0 65.541267225500633 108.35626241050704 0 108.35626241050704 71.433816077136726 0 0 0 0 54.298211815170362 145.68543674753164 0 145.68543674753164 101.83975876706972 0 0 0 0 17.910593197218986 235.81462687500243 0 235.81462687500243 94.251619994558496 0 0 0 0 79.215321547279018 116.29230021538388 0 116.29230021538388 48.541301482946437 0 0 0 0 114.57821668254473 97.93963262732359 0 97.93963262732359 29.646637906073011 0 0 0 0 94.749124343317817 169.04526327371423 0 169.04526327371423 33.975308359040355 0 0 0 0 -39.536414537217297 -15.908455085361766 0 -15.908455085361766 -40.546000772454136 0 0 0 0 -42.551361070074108 -4.7941632716028835 0 -4.7941632716028835 -31.587312374264002 0 0 0 0 53.137186912561447 139.24364896678526 0 139.24364896678526 170.60459012378487 0 0 0 0 56.673228569634375 121.54190466304135 0 121.54190466304135 148.52959150466631 0 0 0 0 -0.48347698316705134 13.769606430692448 0 13.769606430692448 -20.101479204452204 0 0 0 0 48.055837014282588 132.99017499163165 0 132.99017499163165 241.85372543003177 0 0 0 0 4.1503791672808319 0.63142810664660587 0 0.63142810664660587 -6.3840765502450836 0 0 0 0 -2.6029139156590446 -2.0432780374126054 0 -2.0432780374126054 -6.2361490770300776 0 0 0 0 85.157647532265401 67.901360987198132 0 67.901360987198132 27.584938176718424 0 0 0 0 -79.43865004563304 315.35649204594665 0 315.35649204594665 -485.99799857603648 0 0 0 0 -4.2927339308900017 -10.816570759969615 0 -10.816570759969615 -17.812387405149067 0 0 0 0 -128.67897440212619 179.66857445126516 0 179.66857445126516 -777.1408614317188 0 0 0 0 -153.06573970913996 184.88342860140619 0 184.88342860140619 -537.31911378385848 0 0 0 0 -242.34081462403265 263.27851607786579 0 263.27851607786579 -330.29677584201272 0 0 0 0 22.577557753487781 69.10195589016439 0 69.10195589016439 -344.83105959543809 0 0 0 0 -31.104413389792171 -6.5992305770014354 0 -6.5992305770014354 -37.71743594817417 0 0 0 0 -25.63964980077435 7.7157604656713374 0 7.7157604656713374 -26.352506640323554 0 0 0 0 55.254777228724834 19.430548137830328 0 19.430548137830328 -129.85518132302241 0 0 0 0 9.0851840705744298 20.547365348756557 0 20.547365348756557 -37.388454177774747 0 0 0 0 211.87879668537062 360.12542643036431 0 360.12542643036431 165.83219815421762 0 0 0 0 8.2670117543359822 2.8744205654539172 0 2.8744205654539172 -9.339246071410173 0 0 0 0 -5.6140827740849382 8.7853877627722952 0 8.7853877627722952 -6.0712530841935575 0 0 0 0 271.02908782436862 316.18003916938687 0 316.18003916938687 -124.91355074280727 0 0 0 0 38.924070534052589 105.55025464081336 0 105.55025464081336 159.58535104258044 0 0 0 0 9.8122749901813222 127.77631140209996 0 127.77631140209996 154.43978881682142 0 0 0 0 -279.93701725653227 231.74844376501278 0 231.74844376501278 173.70515350291589 0 0 0 0 -213.90962457948626 20.231916344280762 0 20.231916344280762 -208.55190227237472 0 0 0 0 -197.19665083204745 312.71117762060749 0 312.71117762060749 -526.90271105698776 0 0 0 0 57.90658428628376 351.35372910778824 0 351.35372910778824 -704.75116231144057 0 0 0 0 89.776019345394161 142.67206782972789 0 142.67206782972789 -260.39890521432244 0 0 0 0 244.47693728160812 19.054257507552393 0 19.054257507552393 -384.94422667422623 0 0 0 0 49.103154642396476 295.31553739374976 0 295.31553739374976 -6.7338161251536803 0 0 0 0 397.23241914253595 99.986754347639362 0 99.986754347639362 -76.236796586887067 0 0 0 0 267.32642576904345 112.72522768763793 0 112.72522768763793 -11.480150459741708 0 0 0 0 50.646905378260271 15.262948697803949 0 15.262948697803949 -7.0496679908683291 0 0 0 0 10.695657563934031 30.272108556997097 0 30.272108556997097 -14.485689302186842 0 0 0 0 461.54253324382444 -125.66011171149876 0 -125.66011171149876 -179.71945013021832 0 0 0 0 -1.5230709117804508 42.441638984706515 0 42.441638984706515 -27.735586552502355 0 0 0 0 5.1045478282805838 22.354128738449681 0 22.354128738449681 -18.467826378674175 0 0 0 0 7.7104667222174204 -1.2664209602331304 0 -1.2664209602331304 -0.69317881619602417 0 0 0 0 241.96791748655232 -108.04879268726654 0 -108.04879268726654 102.31294871366117 0 0 0 0 12.0842720472574 37.570931112255494 0 37.570931112255494 -35.203797973037581 0 0 0 0 10.951313599867717 42.639671716045996 0 42.639671716045996 -49.665299101310666 0 0 0 0 0.30626152238983195 37.601854139902571 0 37.601854139902571 -22.125963915998 0 0 0 0 219.52481538844586 46.22233320061423 0 46.22233320061423 -96.65777845068078 0 0 0 0 -34.67524842158673 -72.657864167023945 0 -72.657864167023945 -114.72840149145122 0 0 0 0 248.16005307842352 -106.51872641553928 0 -106.51872641553928 19.138760698544502 0 0 0 0 121.11179381514376 -163.31658274603978 0 -163.31658274603978 -0.45569580677329213 0 0 0 0 94.764536428421707 113.90992195416584 0 113.90992195416584 -176.18698967450109 0 0 0 0 9.0557819016676788 19.823185504796957 0 19.823185504796957 -24.305189266082522 0 0 0 0 23.933346329158667 14.82472187168969 0 14.82472187168969 -34.133960895727796 0 0 0 0 3.7138944349662779 15.146581145134405 0 15.146581145134405 -16.907924504383118 0 0 0 0 13.313920097607479 25.229889234971779 0 25.229889234971779 -32.033972982957494 0 0 0 0 13.776275049822289 26.432700544908585 0 26.432700544908585 -45.681742838118225 0 0 0 0 63.156162767005299 98.638912512818933 0 98.638912512818933 -565.00292898630323 0 0 0 0 -272.36558382715521 606.49958030269136 0 606.49958030269136 -560.89601566975762 0 0 0 0 -43.264423740787606 69.932912926755307 0 69.932912926755307 -178.5066473278348 0 0 0 0 209.01175846902152 -333.52068761673945 0 -333.52068761673945 86.222009990142396 0 0 0 0 96.703842457856808 -30.648977042383194 0 -30.648977042383194 -261.82320068534318 0 0 0 0 413.74314607955057 247.82069968546784 0 247.82069968546784 -548.96042595784741 0 0 0 0 -342.31929668286307 218.96638096429001 0 218.96638096429001 265.75742624393752 0 0 0 0 -296.90390963545724 701.10950764649351 0 701.10950764649351 -499.85220170965476 0 0 0 0 197.14620382780231 1.6405010513335583 0 1.6405010513335583 -47.962224866843826 0 0 0 0 0.44707983504896021 -0.17175803414934165 0 -0.17175803414934165 -2.1529054670311893 0 0 0 0 57.001619715400011 8.5002490944534657 0 8.5002490944534657 -41.27062792104698 0 0 0 0 -7.0623260064578517 39.575282812939122 0 39.575282812939122 -0.52196698831539834 0 0 0 0 -7.7398785881850927 33.188950777032005 0 33.188950777032005 -26.579947543359594 0 0 0 0 -0.19596448744545825 -3.7173838201935183 0 -3.7173838201935183 -8.2435935559373661 0 0 0 0 -32.553074988591106 6.8655161221431626 0 6.8655161221431626 -10.96383592094935 0 0 0 0 -26.59710816603183 -1.9804530290966795 0 -1.9804530290966795 -26.56400755829236 0 0 0 0 -25.853935582515987 25.83373812082209 0 25.83373812082209 11.940312442384311 0 0 0 0 127.30138747868477 56.847757316474599 0 56.847757316474599 -31.745256052738114 0 0 0 0 88.639706687485159 44.076310079519317 0 44.076310079519317 -4.1479936625401024 0 0 0 0 41.830569541813929 46.653943626552973 0 46.653943626552973 18.099790828913683 0 0 0 0 37.884469409211306 24.751884845543827 0 24.751884845543827 -13.384834023989242 0 0 0 0 16.39858187566972 16.692672855182877 0 16.692672855182877 -13.473079245042754 0 0 0 0 14.740534234759252 45.835042556472899 0 45.835042556472899 34.484306569909677 0 0 0 0 32.224331769313721 4.9868154132855125 0 4.9868154132855125 -3.191249693161808 0 0 0 0 -41.407013441141316 2.1423078444495331 0 2.1423078444495331 -2.20162211394927 0 0 0 0 20.098957762682403 23.23491147274035 0 23.23491147274035 -29.928286155654405 0 0 0 0 -24.512181352285552 0.868935836617311 0 0.868935836617311 -51.954116835322566 0 0 0 0 -30.656204012644594 4.9286507774377242 0 4.9286507774377242 -36.049507731753692 0 0 0 0 -47.317904994015407 -36.275614154525101 0 -36.275614154525101 -70.078300412619683 0 0 0 0 0.33751804548754694 1.9583373408255298 0 1.9583373408255298 -0.047925979136124397 0 0 0 0 303.36435292746319 101.4210114868547 0 101.4210114868547 -4.50170329795219 0 0 0 0 17.261117463924165 77.471764725600224 0 77.471764725600224 -2.9883796103094937 0 0 0 0 7.9145602755379514 -34.3049699784533 0 -34.3049699784533 -90.110604062465427 0 0 0 0 175.33342355176137 119.51931594995403 0 119.51931594995403 89.147145191330765 0 0 0 0 62.399937451111327 63.033313050196739 0 63.033313050196739 54.252274355505506 0 0 0 0 152.36039670869286 44.557642642619612 0 44.557642642619612 5.6349792158580385 0 0 0 0 91.036973037964344 68.743296622596972 0 68.743296622596972 38.483608349779388 0 0 0 0 128.11558862690799 78.435307165556878 0 78.435307165556878 7.1908848310849862 0 0 0 0 167.61073591742388 66.801780249275907 0 66.801780249275907 -18.585195668099914 0 0 0 0 167.25279325918746 71.291403920577977 0 71.291403920577977 16.392110421671532 0 0 0 0 -105.18471251729716 3.6645753030679771 0 3.6645753030679771 191.64378892091918 0 0 0 0 337.31137724214386 62.32822052094707 0 62.32822052094707 -37.536433887958992 0 0 0 0 253.46839245192677 8.7433768569280801 0 8.7433768569280801 4.5614285303890938 0 0 0 0 87.978375080856495 -115.82938291703613 0 -115.82938291703613 26.876270860957447 0 0 0 0 532.59096601777128 263.22419720395555 0 263.22419720395555 -8.9485586042910654 0 0 0 0 0.5655847297038582 2.5105043887326133 0 2.5105043887326133 -0.44065622931157122 0 0 0 0 80.597911233851846 62.023867932555731 0 62.023867932555731 6.5263851030003934 0 0 0 0 451.83768605439877 175.37137869836579 0 175.37137869836579 -99.650640317573561 0 0 0 0 130.4422878320911 98.098553040923434 0 98.098553040923434 -49.89672737195724 0 0 0 0 176.02684112411043 100.84664188643001 0 100.84664188643001 -65.751838374311774 0 0 0 0 694.72707243498019 18.220361845226194 0 18.220361845226194 -167.20549084816594 0 0 0 0 -209.15355756800287 247.57697944032884 0 247.57697944032884 -120.71952887420048 0 0 0 0 0.40857525495654445 0.68848412821462546 0 0.68848412821462546 -0.75012078738086529 0 0 0 0 -69.066060424704119 150.41583167936369 0 150.41583167936369 140.70319101370478 0 0 0 0 33.004801814560778 157.3806164399648 0 157.3806164399648 -80.87506858292727 0 0 0 0 -67.773454738260625 311.30262989604307 0 311.30262989604307 -102.80431812972074 0 0 0 0 -92.478584161887511 173.44545613077639 0 173.44545613077639 10.044500439929834 0 0 0 0 337.48410295431313 -155.66662004310456 0 -155.66662004310456 60.275434863338887 0 0 0 0 -69.225460741747156 54.031924144521327 0 54.031924144521327 138.39891177739992 0 0 0 0 2.1518687801835767 186.83919380795851 0 186.83919380795851 -2.0798525536301895 0 0 0 0 -26.413109858263851 60.698351860002731 0 60.698351860002731 108.32389400508691 0 0 0 0 6.4492276828004833 76.801944136427664 0 76.801944136427664 91.727919292847218 0 0 0 0 337.70210882788524 143.28637596788758 0 143.28637596788758 105.98462316093719 0 0 0 0 15.284605969016411 36.246579043552629 0 36.246579043552629 276.12078965426554 0 0 0 0 217.93238243752239 107.21833847620474 0 107.21833847620474 130.97409543427784 0 0 0 0 -51.245800744934968 39.831580808870058 0 39.831580808870058 126.26308286864514 0 0 0 0 -19.599272603925783 -39.581365676473069 0 -39.581365676473069 -35.628793295296418 0 0 0 0 -72.263279780403536 -12.95110661902072 0 -12.95110661902072 47.740645274083363 0 0 0 0 2.8061123194670756 0.41190322386003686 0 0.41190322386003686 -0.78352176859247891 0 0 0 0 4.1510630709672114 28.197374388633762 0 28.197374388633762 -21.870355631505845 0 0 0 0 129.0197944740612 65.956031542249548 0 65.956031542249548 187.80314949739841 0 0 0 0 192.077789156996 138.13037752640957 0 138.13037752640957 4.9856906330314814 0 0 0 0 83.127744184563198 92.10525923262685 0 92.10525923262685 -4.6832584134317585 0 0 0 0 -15.743680491665145 72.811782327826222 0 72.811782327826222 84.476196640192939 0 0 0 0 -6.3968628550837821 28.490089426328268 0 28.490089426328268 -14.133674190983584 0 0 0 0 -0.3089603018222391 10.52783897712311 0 10.52783897712311 -7.2322735740198425 0 0 0 0 5.4129461658030777 25.718955357264349 0 25.718955357264349 -19.131411194925022 0 0 0 0 10.071154665826871 18.145442535271194 0 18.145442535271194 -28.302731189120379 0 0 0 0 -9.9115630673509258 34.525467126542935 0 34.525467126542935 -17.433355466113426 0 0 0 0 78.209327475793089 -48.253458663090896 0 -48.253458663090896 14.55507633612433 0 0 0 0 13.447505099778937 -60.476250549363613 0 -60.476250549363613 18.487285364662966 0 0 0 0 72.183004489834275 1.9153628511958232 0 1.9153628511958232 -17.576431488538219 0 0 0 0 17.509197328346993 -5.8804288309558217 0 -5.8804288309558217 -1.374665082552653 0 0 0 0 97.91757791413329 -56.100538885035348 0 -56.100538885035348 44.271243955529144 0 0 0 0 481.26206457973785 212.6988264630163 0 212.6988264630163 24.782842306762177 0 0 0 0 3.8891405217043697 -3.5431937440099546 0 -3.5431937440099546 3.1256790030117543 0 0 0 0 -11.262778087467268 -63.228346694512766 0 -63.228346694512766 304.16706767664436 0 0 0 0 585.6050448860733 30.632107610097592 0 30.632107610097592 -53.396512009068829 0 0 0 0 726.2241229731917 312.22702234889948 0 312.22702234889948 146.8532013202348 0 0 0 0 320.56405390972213 43.140721954797755 0 43.140721954797755 -28.63103559036972 0 0 0 0 310.30276073192726 146.0000275396269 0 146.0000275396269 54.072225219399115 0 0 0 0 309.18441908954264 -69.990112140672863 0 -69.990112140672863 456.34886618942619 0 0 0 0 888.41906043132803 247.15856634270676 0 247.15856634270676 70.171919072148739 0 0 0 0 236.53971918912612 397.7703885419869 0 397.7703885419869 553.28784224997798 0 0 0 0 29.835488801938482 102.38207601493377 0 102.38207601493377 189.25661157327704 0 0 0 0 452.39912345920402 -201.14645152379671 0 -201.14645152379671 3.5559473634712049 0 0 0 0 3.890915872400555 1.6432704320647957 0 1.6432704320647957 0.62748183094741705 0 0 0 0 64.121281681655091 30.993648453597416 0 30.993648453597416 40.377387385124166 0 0 0 0 5.4051722516871124 5.057710944740009 0 5.057710944740009 -4.5223509979313405 0 0 0 0 -11.596518483311229 18.750660493707983 0 18.750660493707983 20.977715120417997 0 0 0 0 59.04154914487026 10.564412393814564 0 10.564412393814564 -34.268202649218438 0 0 0 0 10.083867423769092 4.5225708515239091 0 4.5225708515239091 0.032218126031072103 0 0 0 0 1.8458194375247974 -0.57003534364511665 0 -0.57003534364511665 -0.26988810031670596 0 0 0 0 130.76693465659991 76.066233355322765 0 76.066233355322765 41.486826569499499 0 0 0 0 -39.963101907340842 31.226632639037234 0 31.226632639037234 13.577961742295884 0 0 0 0 6.4318201137721189 8.570228317582405 0 8.570228317582405 -9.9572289859352168 0 0 0 0 62.567660972525118 84.395525663607259 0 84.395525663607259 40.812941905642219 0 0 0 0 57.794666105524811 -4.0150768690655241 0 -4.0150768690655241 -9.2505947524914518 0 0 0 0 4.7678948798965664 7.0665422445507744 0 7.0665422445507744 -0.66036859293676287 0 0 0 0 7.7546490730328514 8.3602806727867573 0 8.3602806727867573 -5.3756838081972091 0 0 0 0 23.279907646039646 8.9794694968222757 0 8.9794694968222757 -25.023842321917982 0 0 0 0 -61.781351743336018 21.974727894979878 0 21.974727894979878 2.6693150867777149 0 0 0 0 0.86860808081800656 1.8872935315281687 0 1.8872935315281687 3.3801142157861364 0 0 0 0 216.70076814488493 75.610230900620081 0 75.610230900620081 68.260825115903572 0 0 0 0 416.1309979611724 138.52084876416484 0 138.52084876416484 20.520030052975017 0 0 0 0 0.44142867599842006 1.5032236151432556 0 1.5032236151432556 3.6424800650508189 0 0 0 0 129.51002253852585 10.194165533554042 0 10.194165533554042 1.4858652962284395 0 0 0 0 80.018782563924105 40.152274567697532 0 40.152274567697532 43.702079428228899 0 0 0 0 261.1590581686778 74.218257739139517 0 74.218257739139517 -6.6490138303561253 0 0 0 0 485.17560842516286 465.92399226095586 0 465.92399226095586 262.57857960879119 0 0 0 0 621.27574551140242 81.429655799929606 0 81.429655799929606 -84.716076867407537 0 0 0 0 253.72397210452255 230.18457639895132 0 230.18457639895132 105.89297919351156 0 0 0 0 363.33018763927248 303.17594494180958 0 303.17594494180958 65.274098461577523 0 0 0 0 280.30732965533514 269.15863463689686 0 269.15863463689686 52.624879488612351 0 0 0 0 335.39802406083072 170.78135040617599 0 170.78135040617599 -16.843754453664587 0 0 0 0 57.521333170778234 97.26680134311755 0 97.26680134311755 9.5749573549910565 0 0 0 0 216.893608558594 50.803540365504205 0 50.803540365504205 -72.885057567607873 0 0 0 0 7.286542338498478 0.47121017395059539 0 0.47121017395059539 -2.1472562698767348 0 0 0 0 -8.3603115357327624 70.086538508596277 0 70.086538508596277 2.1983493946754606 0 0 0 0 67.491785064717988 196.14415551373531 0 196.14415551373531 0.21402653250697767 0 0 0 0 194.0510389936203 146.27313376572465 0 146.27313376572465 -31.576641610867227 0 0 0 0 224.18974609242355 214.38734512183055 0 214.38734512183055 0.0069905539785395376 0 0 0 0 171.24955222924564 -56.89471678805603 0 -56.89471678805603 -308.77614855262073 0 0 0 0 3.9541909796308801 0.93786695000065379 0 0.93786695000065379 -1.5691795723638222 0 0 0 0 758.89439660238531 198.73732159233987 0 198.73732159233987 -227.45707454213516 0 0 0 0 -104.11845090301176 22.684484282122867 0 22.684484282122867 19.676628448309202 0 0 0 0 830.11447511336337 64.489414212894189 0 64.489414212894189 -13.648374360913294 0 0 0 0 0.64083937163139737 0.23949959766993523 0 0.23949959766993523 1.7586345221903628 0 0 0 0 468.62871603054919 -70.562262213545182 0 -70.562262213545182 -34.06457092436176 0 0 0 0 129.45894452845823 113.46617199851789 0 113.46617199851789 116.80076074515091 0 0 0 0 0.99188564671048596 1.2701866756032842 0 1.2701866756032842 -2.7314723115555921 0 0 0 0 199.37549173966545 139.62082094643119 0 139.62082094643119 63.99576405875996 0 0 0 0 101.68832939253844 116.15666325459824 0 116.15666325459824 83.684358747272199 0 0 0 0 219.26562735346351 285.26675320597269 0 285.26675320597269 214.96627595692189 0 0 0 0 127.66771446882558 128.68178129198168 0 128.68178129198168 183.91899640262272 0 0 0 0 31.274034673757342 -103.15527636107254 0 -103.15527636107254 -57.166900459065801 0 0 0 0 6.2791591713890114 0.053571610125757729 0 0.053571610125757729 -1.4822016728719518 0 0 0 0 117.25209275101952 124.94637092507401 0 124.94637092507401 141.62759110965271 0 0 0 0 -5.7507504954173783 -29.360066911995091 0 -29.360066911995091 188.67633268111786 0 0 0 0 53.452479362536906 88.513274944556542 0 88.513274944556542 120.99741425700449 0 0 0 0 125.19331370964255 99.209650043155989 0 99.209650043155989 76.012765483268595 0 0 0 0 31.061383656660837 165.97324236675558 0 165.97324236675558 94.656145698219916 0 0 0 0 95.962654173419651 48.356181773449862 0 48.356181773449862 0.1089693832800549 0 0 0 0 1.3338419357019831 0.4289715338065605 0 0.4289715338065605 -1.7687073893760896 0 0 0 0 108.52338509427864 71.220883792431778 0 71.220883792431778 41.543465005197504 0 0 0 0 129.63194738068705 125.0472668496368 0 125.0472668496368 117.05491234497373 0 0 0 0 1.154537197069132 1.0065067318252687 0 1.0065067318252687 -2.5723404554022551 0 0 0 0 138.95796768394575 102.60957102227621 0 102.60957102227621 45.708883649938798 0 0 0 0 128.03984169382466 65.495708676859522 0 65.495708676859522 32.516835299778904 0 0 0 0 123.59795191777812 71.753156163955282 0 71.753156163955282 -0.04861606161648524 0 0 0 0 95.848081440437454 72.616937218206658 0 72.616937218206658 33.399843043240253 0 0 0 0 13.041305059188744 87.520625407050829 0 87.520625407050829 0.047153139180310021 0 0 0 0 -3.9986342468801013 89.024463334666507 0 89.024463334666507 31.049994914295894 0 0 0 0 101.97664373732187 51.256369672797518 0 51.256369672797518 -3.8438301181813586 0 0 0 0 109.06262574369407 52.379615576099013 0 52.379615576099013 28.335110714244365 0 0 0 0 53.653612667832931 128.9865789022333 0 128.9865789022333 44.188654105035312 0 0 0 0 -36.546492814844896 68.879555895737212 0 68.879555895737212 68.156727114073874 0 0 0 0 107.83004411902948 66.130061454865427 0 66.130061454865427 117.04396016382088 0 0 0 0 120.72274775975529 228.72283370282821 0 228.72283370282821 109.19079562362026 0 0 0 0 -113.73707192543225 105.04095085932204 0 105.04095085932204 -30.816295152832026 0 0 0 0 -110.2220003542061 45.047526466834825 0 45.047526466834825 -117.41777878224093 0 0 0 0 -58.55944122821893 129.18310761691464 0 129.18310761691464 -4.3527448825243482 0 0 0 0 -97.524749746673479 52.067121125714038 0 52.067121125714038 26.186021893774523 0 0 0 0 -122.94407608890469 88.902896805161618 0 88.902896805161618 21.185149340381031 0 0 0 0 -175.01738675802699 108.03455745706015 0 108.03455745706015 -17.296970690538728 0 0 0 0 -145.13394915089521 71.345346242913365 0 71.345346242913365 25.335018895690155 0 0 0 0 -74.207327072403132 65.748243833775632 0 65.748243833775632 19.125892477535672 0 0 0 0 -2.5905323660672366 75.714742402589991 0 75.714742402589991 1.0329642082870123 0 0 0 0 -80.597299734756234 89.181905363220721 0 89.181905363220721 -15.919477372306574 0 0 0 0 2.0950374800931968 49.24236910528407 0 49.24236910528407 -15.195364648505347 0 0 0 0 -72.778691347113636 78.737425274613997 0 78.737425274613997 -0.06234021961063263 0 0 0 0 -134.62651279282727 52.884746420008014 0 52.884746420008014 4.7978060595323768 0 0 0 0 -136.7288791929891 36.286116347881489 0 36.286116347881489 -69.549359033662768 0 0 0 0 -240.41717692717066 36.111945927135821 0 36.111945927135821 0.035225003324740101 0 0 0 0 -97.227317862867494 75.20341573337646 0 75.20341573337646 -32.18880790717958 0 0 0 0 17.97205601920723 27.737868201798847 0 27.737868201798847 -26.277513215548879 0 0 0 0 -23.374922282750049 1.1875798823002697 0 1.1875798823002697 23.392525857962028 0 0 0 0 -241.22819914426509 -1.0532423742661194 0 -1.0532423742661194 10.740989568668738 0 0 0 0 0.45977196834969902 0.71517698815952713 0 0.71517698815952713 -1.8311631419447849 0 0 0 0 0.26279972799784446 1.9629712694022601 0 1.9629712694022601 0.02170360801028437 0 0 0 0 -0.86674656583045362 1.7599199107480672 0 1.7599199107480672 2.7686698895777226 0 0 0 0 -2.1858662095019099 3.5108680221201212 0 3.5108680221201212 -0.076602001590799773 0 0 0 0 -0.89670146520074923 1.3012267294507183 0 1.3012267294507183 -4.1569357183761895 0 0 0 0 -2.9568793157668551 15.599196054005006 0 15.599196054005006 21.85828811527017 0 0 0 0 -7.0809105956177518 -6.0378464681343758 0 -6.0378464681343758 1.6799720390699804 0 0 0 0 -3.6501223410959938 0.51824145576392766 0 0.51824145576392766 12.424753188221075 0 0 0 0 -1.1855000947252847 4.3195667464897269 0 4.3195667464897269 10.688601644153096 0 0 0 0 -2.2306065932352794 2.7692891635961132 0 2.7692891635961132 9.0763815666723531 0 0 0 0 -2.5193093711714027 1.2423271255247528 0 1.2423271255247528 7.720066180518188 0 0 0 0 -1.3865569243207574 0.15976906069772667 0 0.15976906069772667 2.3846722371090436 0 0 0 0 -3.426218222009993 -1.2852150740759498 0 -1.2852150740759498 7.0962985990627203 0 0 0 0 -2.3011850750626763 1.738241137296427 0 1.738241137296427 9.497151519623003 0 0 0 0 -1.8425890379003249 2.4990250407427084 0 2.4990250407427084 8.8262664649082581 0 0 0 0 -1.9029782390280161 1.5527526210353244 0 1.5527526210353244 7.9083677328162594 0 0 0 0 -3.4510776997558423 0.1000277081366221 0 0.1000277081366221 7.5535268223902676 0 0 0 0 -2.2211762270453619 0.57968180399620906 0 0.57968180399620906 6.1906959300031303 0 0 0 0 -2.1235330752460868 0.99989580250439758 0 0.99989580250439758 6.928742238873383 0 0 0 0 -1.8143299109651707 1.1252265407238156 0 1.1252265407238156 6.4021248205026495 0 0 0 0 -1.8209170386961659 1.4194005596000352 0 1.4194005596000352 6.7315438237419585 0 0 0 0 6.9594319916141103 -7.5748848259427177 0 -7.5748848259427177 7.8637658393727179 0 0 0 0 -2.6340012646228388 3.4910005818924219 0 3.4910005818924219 3.4480356166295678 0 0 0 0 -1.5282658489909409 5.2655957099989337 0 5.2655957099989337 0.83330152214330155 0 0 0 0 -2.1753535198477039 5.7922841641429841 0 5.7922841641429841 1.082078760220611 0 0 0 0 -1.6973582322825678 1.8609759149549063 0 1.8609759149549063 8.1855443150852807 0 0 0 0 -2.0477846044232138 2.3929997360683046 0 2.3929997360683046 8.7918327483930625 0 0 0 0 -1.0840706306044012 2.5691243135079276 0 2.5691243135079276 8.5043559728801483 0 0 0 0 -0.83574613169130885 2.1646088064956359 0 2.1646088064956359 -1.1695571559425559 0 0 0 0 -5.0122534551082936 3.3656400453837705 0 3.3656400453837705 3.5452793288422981 0 0 0 0 1.9099020121357171 3.5634111943290918 0 3.5634111943290918 -2.5006693536270177 0 0 0 0 -0.92870549548817394 4.1460352638887343 0 4.1460352638887343 0.55505334147640895 0 0 0 0 -1.981131025598188 2.4051399882227997 0 2.4051399882227997 3.3783676729653962 0 0 0 0 -3.0400319874309076 3.908140085624666 0 3.908140085624666 3.1110157057056682 0 0 0 0 -0.41387959553685505 3.5788992708839942 0 3.5788992708839942 8.6400212633452611 0 0 0 0 0.17721193212128128 4.2409188689889561 0 4.2409188689889561 8.9920944734185468 0 0 0 0 -1.6437589764682343 3.1210585967492079 0 3.1210585967492079 9.2253703387978021 0 0 0 0 3.0370934623861103 26.239356593414414 0 26.239356593414414 74.051565302594099 0 0 0 0 13.463598989168531 9.2945384261001891 0 9.2945384261001891 97.50847487666033 0 0 0 0 -1.0274032147849823 0.9332739473928342 0 0.9332739473928342 0.56289601472715844 0 0 0 0 -3.7951159337017089 67.289683073411652 0 67.289683073411652 92.224447757827875 0 0 0 0 0.96598394584603398 0.51147011654190067 0 0.51147011654190067 -0.77181379500746061 0 0 0 0 9.7089244914823212 2.8596813690019189 0 2.8596813690019189 5.5762913299986394 0 0 0 0 10.127060197770334 3.5591491379873332 0 3.5591491379873332 -6.6306435440201312 0 0 0 0 -124.9371879737846 74.423817408991454 0 74.423817408991454 -12.190021091359085 0 0 0 0 -47.290523184208723 -0.19902192636072868 0 -0.19902192636072868 4.3258917719203964 0 0 0 0 -37.643973040199853 14.436532561287095 0 14.436532561287095 0.79765463217700017 0 0 0 0 -2.768927836466446 -6.5854829003983468 0 -6.5854829003983468 89.552330493817863 0 0 0 0 -2.1754190432445029 4.3349033344658494 0 4.3349033344658494 4.0641535454348912 0 0 0 0 -30.981942556187278 -4.4615503498644102 0 -4.4615503498644102 91.216320213179642 0 0 0 0 -2.1592927657177512 3.093648630760498 0 3.093648630760498 4.0605987460789237 0 0 0 0 -10.003920444412302 -48.147570752120146 0 -48.147570752120146 151.26447962278689 0 0 0 0 -8.9280723144802323 13.414831258209233 0 13.414831258209233 60.837123215816973 0 0 0 0 -17.833041023070109 -8.2924338407246978 0 -8.2924338407246978 31.020272425237636 0 0 0 0 -96.526410738555569 65.825703388556576 0 65.825703388556576 30.88477209245238 0 0 0 0 1.4975053860762273 32.447056757393511 0 32.447056757393511 -29.116708772126003 0 0 0 0 -9.2528121759187343 68.242764034888751 0 68.242764034888751 108.98406843088742 0 0 0 0 -9.6505366465025872 52.600509972882719 0 52.600509972882719 -27.393662399837922 0 0 0 0 -13.58698176695907 21.584445787648292 0 21.584445787648292 93.176351373567059 0 0 0 0 -59.302484909883788 14.620760392612283 0 14.620760392612283 73.060838758940008 0 0 0 0 -32.073200099683163 77.260749194241725 0 77.260749194241725 -98.475922548524977 0 0 0 0 -9.3868247800201061 88.793958746517092 0 88.793958746517092 -162.50588065884949 0 0 0 0 -82.681227922337712 83.321270472722972 0 83.321270472722972 -13.725461593747241 0 0 0 0 17.088499891218532 15.392481191685484 0 15.392481191685484 11.911778987946022 0 0 0 0 -79.903755202061802 200.5056639368172 0 200.5056639368172 -187.42376194953249 0 0 0 0 -50.40146980560894 181.85444033252861 0 181.85444033252861 -221.04315049261822 0 0 0 0 -114.91507850963899 101.01377879656866 0 101.01377879656866 -73.896447974722832 0 0 0 0 -70.219144815720938 203.2413083647134 0 203.2413083647134 -236.48286720860051 0 0 0 0 -37.585697625028843 167.98512216234303 0 167.98512216234303 -201.11670992423387 0 0 0 0 16.819243362544711 15.14260600917342 0 15.14260600917342 11.676145096177777 0 0 0 0 -78.788953186869549 104.34964883432258 0 104.34964883432258 -38.012162411461759 0 0 0 0 -22.847853202736587 45.059124855019036 0 45.059124855019036 -95.881688078399748 0 0 0 0 -54.433356777743029 44.822870980457083 0 44.822870980457083 27.575630919905961 0 0 0 0 -114.74264098913409 145.5679930436454 0 145.5679930436454 -3.9171133773506881 0 0 0 0 114.06831994907043 122.05292657125028 0 122.05292657125028 -227.75094078057009 0 0 0 0 112.12641184391603 -75.478122574442025 0 -75.478122574442025 -69.93481874329882 0 0 0 0 0.29505547246029096 0.79151266514779905 0 0.79151266514779905 0.9638382855829235 0 0 0 0 -44.184448974530824 10.670959490562382 0 10.670959490562382 -32.062503578821634 0 0 0 0 -159.76094457361432 173.97483652072151 0 173.97483652072151 -9.4836411101641716 0 0 0 0 92.258845784566802 19.717925405420829 0 19.717925405420829 -105.97357836466472 0 0 0 0 200.17606498298119 134.36644668998269 0 134.36644668998269 -90.683903381926939 0 0 0 0 151.18838211966795 149.46632972814768 0 149.46632972814768 -68.911528020071273 0 0 0 0 198.15497318765688 80.803403367041938 0 80.803403367041938 -103.22413966416207 0 0 0 0 51.515240184882714 97.581767870935437 0 97.581767870935437 -11.713888856276753 0 0 0 0 128.69395663800788 134.46331276289084 0 134.46331276289084 0.19326158774492797 0 0 0 0 127.63207901756687 88.051632482951391 0 88.051632482951391 219.50453332462348 0 0 0 0 0.38897992252137215 0.76941398551804241 0 0.76941398551804241 -1.3134133747362569 0 0 0 0 125.33738102762254 121.29810656677546 0 121.29810656677546 43.574743438126461 0 0 0 0 122.20367489988166 84.027573857012612 0 84.027573857012612 144.04297727308585 0 0 0 0 0.44567077238338015 1.4162278286418655 0 1.4162278286418655 -2.3772632625992287 0 0 0 0 114.38065897375418 150.56847415308948 0 150.56847415308948 186.85524260725651 0 0 0 0 115.21274370963943 161.74605291089779 0 161.74605291089779 105.89542796238675 0 0 0 0 -169.81846973726351 219.64238615292379 0 219.64238615292379 189.60844930607709 0 0 0 0 121.84258329375734 151.3900952420845 0 151.3900952420845 -65.948269471202366 0 0 0 0 7.2232207017550536 -115.01496330320151 0 -115.01496330320151 439.07427136665137 0 0 0 0 -44.73962153991215 319.71884449546542 0 319.71884449546542 -206.77033535060764 0 0 0 0 -1.3500355560137081 1.6409404443589253 0 1.6409404443589253 2.087635687529712 0 0 0 0 15.543697245811927 20.484662245518848 0 20.484662245518848 85.141019610098738 0 0 0 0 87.964827109177349 46.937625512104205 0 46.937625512104205 32.221795358331292 0 0 0 0 -173.39594395998574 259.19968992951181 0 259.19968992951181 327.72699452848246 0 0 0 0 513.25415516308567 782.90230713641904 0 782.90230713641904 -0.51311010790414002 0 0 0 0 -0.16636901665697224 810.23417507143904 0 810.23417507143904 1198.652005674805 0 0 0 0 294.37400090797018 12.353870263428689 0 12.353870263428689 -79.980252442634082 0 0 0 0 -300.47002122039339 357.34821192648451 0 357.34821192648451 778.42619348685548 0 0 0 0 13.38114420072452 -15.640896840364803 0 -15.640896840364803 -169.74908209888963 0 0 0 0 2.1477587681722312 4.1222571665112824 0 4.1222571665112824 6.5355741197991222 0 0 0 0 506.46077009405417 1563.419891294885 0 1563.419891294885 1407.2419554582084 0 0 0 0 424.48545613415263 984.73137487884378 0 984.73137487884378 192.38855225597945 0 0 0 0 690.81954028544715 449.53334360182635 0 449.53334360182635 520.54125555583596 0 0 0 0 384.76710314733646 678.30485577157015 0 678.30485577157015 352.12991730206886 0 0 0 0 127.27903457140201 438.36961337903267 0 438.36961337903267 317.53538082386422 0 0 0 0 -2.5402697663921572 232.74089377193741 0 232.74089377193741 49.33884523868619 0 0 0 0 -24.67931864385173 280.59796533188273 0 280.59796533188273 -40.637914036444272 0 0 0 0 52.210158545432932 475.15508118411526 0 475.15508118411526 981.1012635155821 0 0 0 0 -16.883977344597952 -31.830920602482365 0 -31.830920602482365 -82.913926679844735 0 0 0 0 1.920330279992271 2.5260212741891443 0 2.5260212741891443 2.6820886153227264 0 0 0 0 -22.800613760919077 62.288157189930644 0 62.288157189930644 -105.78201102737239 0 0 0 0 7.8593115117255365 70.683980493115087 0 70.683980493115087 -232.357974694929 0 0 0 0 22.85940183978164 108.31712579078612 0 108.31712579078612 -229.22401736184111 0 0 0 0 -6.4166567531392502 71.81895854560571 0 71.81895854560571 -179.82828703017731 0 0 0 0 7.0217118235109126 6.7044235824566805 0 6.7044235824566805 5.3802233095389909 0 0 0 0 -208.01300018023176 -111.78527021048649 0 -111.78527021048649 -155.00635600007081 0 0 0 0 58.458833746397431 193.14832865362405 0 193.14832865362405 -196.05519940435624 0 0 0 0 22.087056589625718 163.45140760055801 0 163.45140760055801 -63.130708877773941 0 0 0 0 -27.168599933382211 116.74112977386176 0 116.74112977386176 -102.55178155544127 0 0 0 0 15.436325068381848 43.080636527269235 0 43.080636527269235 -97.993887945514871 0 0 0 0 28.982379184617457 14.192271710428031 0 14.192271710428031 -42.946066141485062 0 0 0 0 -3.4083908669272205 18.850499232212542 0 18.850499232212542 -10.277115923308884 0 0 0 0 -4.2138889913082949 28.50567412034934 0 28.50567412034934 -12.568355220246303 0 0 0 0 0.32382667863605974 -0.17740855815246448 0 -0.17740855815246448 -3.0227843829055416 0 0 0 0 43.926665810104168 -8.2699992421803472 0 -8.2699992421803472 -235.29146762391701 0 0 0 0 -296.6013661745128 1.1947214004194393 0 1.1947214004194393 -15.647863665530167 0 0 0 0 67.436283235188967 100.70348538650387 0 100.70348538650387 62.171959118495579 0 0 0 0 -150.7965493208394 -57.664673248735198 0 -57.664673248735198 97.656039899047755 0 0 0 0 82.857277721719583 118.19880563424158 0 118.19880563424158 -26.104715942108214 0 0 0 0 570.9896310514232 387.54125905114051 0 387.54125905114051 74.987744814478901 0 0 0 0 264.60635366853967 27.416138462838717 0 27.416138462838717 -73.633397411096666 0 0 0 0 14.590967560754507 36.010313520186173 0 36.010313520186173 767.73332867766749 0 0 0 0 2.6003639471924345 3.2862771866209286 0 3.2862771866209286 0.72603357797262902 0 0 0 0 244.38213427489973 338.03194741584048 0 338.03194741584048 2.2297285682579968 0 0 0 0 -1.1930217802752878 0.19295194590992537 0 0.19295194590992537 -1.2203290436926295 0 0 0 0 547.6396545386815 821.21975955800008 0 821.21975955800008 739.67612320352987 0 0 0 0 72.187737292158999 138.01157423573022 0 138.01157423573022 256.24004993413837 0 0 0 0 -4.7384526364548947 6.7570219151675701 0 6.7570219151675701 5.0512372560042422 0 0 0 0 1.4343776348837523 0.020480240814308104 0 0.020480240814308104 0.16373152635156885 0 0 0 0 4.8405815741280094 0.70443595190590713 0 0.70443595190590713 4.8003782238083659 0 0 0 0 -3.9470469299412798 7.0466684478851676 0 7.0466684478851676 5.0973983092990238 0 0 0 0 -6.5110072781244526 3.7420479610009352 0 3.7420479610009352 5.1967593178706011 0 0 0 0 1.0874031549610663 13.149264922547445 0 13.149264922547445 -0.3791245688626077 0 0 0 0 0.63805698239119835 3.8398191773067651 0 3.8398191773067651 -6.0519119397975203 0 0 0 0 4.1670364471137873 16.048171290038226 0 16.048171290038226 -3.1736469622701406 0 0 0 0 16.309076957542857 18.453196436061262 0 18.453196436061262 -10.603579587419517 0 0 0 0 8.2757817284582416 5.3088298243310419 0 5.3088298243310419 -5.0621521803041105 0 0 0 0 -0.99096810602983965 8.6985414815501017 0 8.6985414815501017 3.395747171196426 0 0 0 0 7.9872522851073882 22.910832131834468 0 22.910832131834468 -11.775962712536966 0 0 0 0 -3.1640557783393888 19.108638030964357 0 19.108638030964357 -1.8689514767611399 0 0 0 0 -3.9888000255177758 15.495681268419503 0 15.495681268419503 2.1285900502261939 0 0 0 0 -1.4804995813347972 3.9773308080094978 0 3.9773308080094978 3.9270450905538823 0 0 0 0 -2.3261293004579784 3.3399391518360062 0 3.3399391518360062 7.8034602849238581 0 0 0 0 -6.6339986093371408 12.270791902061319 0 12.270791902061319 6.6272052759886719 0 0 0 0 -3.5039302718359977 7.3258256221452029 0 7.3258256221452029 -2.8913539163331734 0 0 0 0 -10.858550755743636 20.202533784526167 0 20.202533784526167 5.4901745657443826 0 0 0 0 -0.91260234506312088 4.5595263042872034 0 4.5595263042872034 2.4038250833983597 0 0 0 0 -0.016890629198314855 5.5838019760230964 0 5.5838019760230964 -0.0012621877758647315 0 0 0 0 0.4166487312540994 3.3913348296118784 0 3.3913348296118784 3.3811392811112455 0 0 0 0 0.47030821667431155 3.6758109637412417 0 3.6758109637412417 3.4774975722539239 0 0 0 0 -0.8998437324189581 2.0210288658054196 0 2.0210288658054196 3.3643709492062044 0 0 0 0 -1.8882729195329944 3.9649022377288716 0 3.9649022377288716 2.6506104611002144 0 0 0 0 -2.410689658834599 1.8896662114711944 0 1.8896662114711944 7.8804849630178069 0 0 0 0 0.22504652876523323 5.0461613832303556 0 5.0461613832303556 -2.7139290516779511 0 0 0 0 -0.19345157099814969 4.0013451016347972 0 4.0013451016347972 7.4084867750643753 0 0 0 0 0.40787453867960721 4.0147863534111821 0 4.0147863534111821 3.7818140963099722 0 0 0 0 -16.684437087664264 -10.481441473995801 0 -10.481441473995801 19.695714322675485 0 0 0 0 -1.8991500110391115 3.6304218433494597 0 3.6304218433494597 4.3443216522949086 0 0 0 0 -4.3584726347180549 5.200442149398441 0 5.200442149398441 0.85247742341744015 0 0 0 0 6.1704093780572293 -11.128735407757631 0 -11.128735407757631 -1.9896224974509096 0 0 0 0 -4.9788480100905872 9.5879707614367362 0 9.5879707614367362 4.0522207445756067 0 0 0 0 -25.992116157096461 -0.022264011109655257 0 -0.022264011109655257 20.332250242688133 0 0 0 0 -23.475288351386553 22.943837303770124 0 22.943837303770124 -5.5935261267313763 0 0 0 0 6.2428146515485423 5.8948587052582297 0 5.8948587052582297 -2.7717731802840717 0 0 0 0 -7.0421705432818271 21.850561833140091 0 21.850561833140091 -6.0834404837078182 0 0 0 0 -27.008905921931728 48.206570481208473 0 48.206570481208473 -33.896083416173497 0 0 0 0 -20.69407901471277 21.304309003164235 0 21.304309003164235 -9.0332964768531383 0 0 0 0 -42.792629740477423 48.183248928708053 0 48.183248928708053 -33.302069505392865 0 0 0 0 -37.520409680626472 111.12260875404536 0 111.12260875404536 -65.202259791003598 0 0 0 0 -71.917702948107035 61.917902610672172 0 61.917902610672172 -16.559118148841662 0 0 0 0 -6.5839463881275151 -11.294131336631835 0 -11.294131336631835 -10.04256743030237 0 0 0 0 -56.782771606774986 2.0868103924194656 0 2.0868103924194656 8.5561620770749869 0 0 0 0 51.167899748635136 137.30034256281851 0 137.30034256281851 -58.58100417580863 0 0 0 0 -114.99196314062283 10.988032713496068 0 10.988032713496068 1.0029920704255346 0 0 0 0 1.2619525669886826 0.41856941185557162 0 0.41856941185557162 -1.5993912694890753 0 0 0 0 -119.64136430021085 104.54974387204106 0 104.54974387204106 -53.176045657703071 0 0 0 0 -72.876811260452087 93.693790618512139 0 93.693790618512139 -71.786850819689789 0 0 0 0 -66.548540857773332 92.283775284533476 0 92.283775284533476 -124.01344085972232 0 0 0 0 -69.577985272007936 147.20789113465435 0 147.20789113465435 -161.89205891905658 0 0 0 0 -135.60262000859075 220.50110497528658 0 220.50110497528658 -156.71214380476886 0 0 0 0 15.253482819385667 13.977278615853375 0 13.977278615853375 10.906455091468999 0 0 0 0 -103.57979359490128 133.50119002099746 0 133.50119002099746 -56.059965363558149 0 0 0 0 -105.11462306472822 110.822098819639 0 110.822098819639 -52.882501608553866 0 0 0 0 -53.204974109228715 14.770752742228069 0 14.770752742228069 -34.975078390045383 0 0 0 0 -15.878431835590163 47.008900906152121 0 47.008900906152121 82.528126964651165 0 0 0 0 -0.29115735620871419 4.1749078207212733 0 4.1749078207212733 -48.524183849083556 0 0 0 0 34.154385111782176 51.393410044653137 0 51.393410044653137 -50.204175452206982 0 0 0 0 8.6561883165708906 6.5648968963083796 0 6.5648968963083796 4.971825196115816 0 0 0 0 10.630197152931942 -55.452293644964811 0 -55.452293644964811 94.529010190473855 0 0 0 0 31.687950915984402 45.606075968793448 0 45.606075968793448 -76.162934888197924 0 0 0 0 16.255819958303618 42.45195229476667 0 42.45195229476667 -133.77840732385084 0 0 0 0 58.854570965773746 -52.17060258539459 0 -52.17060258539459 27.890086227089341 0 0 0 0 -48.831717332363041 87.028371729340506 0 87.028371729340506 6.6996409011590004 0 0 0 0 41.472697506702389 38.798767422105811 0 38.798767422105811 -125.86294252908556 0 0 0 0 -28.469234175739984 -39.019772948609898 0 -39.019772948609898 11.130905935380724 0 0 0 0 -7.9911729884297529 -64.569807878786378 0 -64.569807878786378 279.75042532822408 0 0 0 0 2.6723181633306865 1.904705459141443 0 1.904705459141443 1.6299734893737252 0 0 0 0 161.88971642083197 181.29058490887837 0 181.29058490887837 132.67335830688535 0 0 0 0 176.01908969308715 118.83722053710517 0 118.83722053710517 -124.11058772123579 0 0 0 0 20.691097938928579 15.790903306395194 0 15.790903306395194 -22.052698785970279 0 0 0 0 -19.652871580605279 43.093935517579666 0 43.093935517579666 -152.88816132717329 0 0 0 0 -2.3870243552228203 154.98196352917876 0 154.98196352917876 18.100875715035045 0 0 0 0 -3.4811755281043588 251.79633681246196 0 251.79633681246196 -256.38519835148327 0 0 0 0 -48.283728646601958 128.0501758682658 0 128.0501758682658 -56.290667642627341 0 0 0 0 11.43259215656569 10.787510298822205 0 10.787510298822205 8.4432972379208451 0 0 0 0 -56.499311648984985 53.87946749383309 0 53.87946749383309 -140.05830276382767 0 0 0 0 51.696280665928498 73.619897540025704 0 73.619897540025704 -231.0198255468822 0 0 0 0 43.532418769340438 29.435075726280047 0 29.435075726280047 -174.31395599977986 0 0 0 0 -51.563032317797479 48.892419719270038 0 48.892419719270038 -85.329805518609646 0 0 0 0 -106.60804148563693 128.84117736220651 0 128.84117736220651 -161.59332740880018 0 0 0 0 -21.851792241643125 4.7969408406534058 0 4.7969408406534058 -62.797651143104304 0 0 0 0 -19.836095909260621 -17.112252962275306 0 -17.112252962275306 13.530607939952461 0 0 0 0 265.36913079253281 -107.11078730035661 0 -107.11078730035661 41.902077871814981 0 0 0 0 -140.88575384378782 18.870375034162862 0 18.870375034162862 244.80668930566753 0 0 0 0 178.48504297425825 220.90459213441682 0 220.90459213441682 33.542344057757873 0 0 0 0 -187.49702816024364 -45.904776465940813 0 -45.904776465940813 178.65858256991487 0 0 0 0 88.487052327793208 62.328194799833 0 62.328194799833 -201.97332322829607 0 0 0 0 18.68438205915777 20.226383216061166 0 20.226383216061166 13.689042896514302 0 0 0 0 -160.51949258055538 352.19191570835028 0 352.19191570835028 -450.79323032029833 0 0 0 0 -316.75161396031035 370.77149311745598 0 370.77149311745598 -259.16507399726834 0 0 0 0 -272.7784439715906 363.42954181723326 0 363.42954181723326 -293.24793710351878 0 0 0 0 -210.8754768462386 293.13360036618542 0 293.13360036618542 -339.12414275451374 0 0 0 0 -151.73564465373056 284.71379114350566 0 284.71379114350566 -154.4782222962167 0 0 0 0 -169.08319645869778 166.85640577479353 0 166.85640577479353 -87.873016612273204 0 0 0 0 -194.06464924254396 227.30791873003182 0 227.30791873003182 -182.08448160885018 0 0 0 0 -197.36372266193212 216.43394588348747 0 216.43394588348747 -204.09230685321745 0 0 0 0 -222.40152081573615 300.06824123295519 0 300.06824123295519 -231.35686718568104 0 0 0 0 -206.00257767060248 225.80012612630708 0 225.80012612630708 -294.46342101064511 0 0 0 0 -179.55525221923745 230.69368359722648 0 230.69368359722648 -256.22081082155637 0 0 0 0 -268.89114289791905 278.85533163176297 0 278.85533163176297 -224.13657270699332 0 0 0 0 -389.29210563216475 255.82197052454285 0 255.82197052454285 -235.75926858268213 0 0 0 0 -264.68602600911981 310.29413369504618 0 310.29413369504618 -229.48618936938328 0 0 0 0 -162.25491805061756 281.05533589566767 0 281.05533589566767 -256.61205645423706 0 0 0 0 -93.605201033795311 258.05237991356626 0 258.05237991356626 -263.92665135608695 0 0 0 0 -177.22168361811055 230.98167742337591 0 230.98167742337591 -278.32590246668406 0 0 0 0 6.2578453546775918 14.341702216055701 0 14.341702216055701 26.2624456164869 0 0 0 0 -141.01154571040024 228.73274291098096 0 228.73274291098096 -278.21632677155867 0 0 0 0 -174.7259936656119 237.93369335056923 0 237.93369335056923 -271.52812492186786 0 0 0 0 -157.42937473086931 77.654454100284056 0 77.654454100284056 115.04487882384274 0 0 0 0 -232.13718576251995 224.54599013191182 0 224.54599013191182 -272.31547686847625 0 0 0 0 -108.14059557431938 256.08667737099495 0 256.08667737099495 -40.323860819495167 0 0 0 0 -1.2226747517975696 1.3384466164690423 0 1.3384466164690423 -0.2816767852172859 0 0 0 0 77.530491175297357 -76.910913006209739 0 -76.910913006209739 -147.38828643909528 0 0 0 0 0.70000411766773851 1.2110414422839355 0 1.2110414422839355 -1.3060174614640374 0 0 0 0 120.18994221721368 7.5792016873001558 0 7.5792016873001558 -0.89646789518883452 0 0 0 0 -70.552453393287578 32.982645274820243 0 32.982645274820243 -12.612174356358992 0 0 0 0 -79.660669318611326 224.39279221273136 0 224.39279221273136 -194.85217463861613 0 0 0 0 -0.0056962231137731578 7.191692247391984 0 7.191692247391984 -6.8461909771863247 0 0 0 0 0.69943722057155355 1.5476665696206453 0 1.5476665696206453 -1.4726012489274325 0 0 0 0 89.203694994654143 161.80479747341678 0 161.80479747341678 -92.56975118497212 0 0 0 0 -185.38580812836653 239.05951494662304 0 239.05951494662304 -102.2430191049134 0 0 0 0 5.5263771225136225 10.414812414628408 0 10.414812414628408 17.145774406472611 0 0 0 0 22.358875321759115 29.220362663144442 0 29.220362663144442 69.768698591247812 0 0 0 0 -0.24841490529433941 79.303222805365294 0 79.303222805365294 -24.388836202517268 0 0 0 0 80.297152823972283 115.93126207496607 0 115.93126207496607 125.85473373257082 0 0 0 0 0.24334898303854402 -0.59769037237992961 0 -0.59769037237992961 -0.70605174849051267 0 0 0 0 64.64199917588121 31.622863910492015 0 31.622863910492015 6.5320842297805939 0 0 0 0 128.19250242302951 75.814438011373568 0 75.814438011373568 -48.045922974699351 0 0 0 0 96.460421497402422 54.567878018009651 0 54.567878018009651 -69.306444351292157 0 0 0 0 74.626030742540024 11.771577246425295 0 11.771577246425295 -38.660478245747981 0 0 0 0 56.462743772244721 -15.66150470515322 0 -15.66150470515322 -116.89531876777619 0 0 0 0 80.354196813968883 -38.260477701271157 0 -38.260477701271157 -97.7443375130606 0 0 0 0 80.786647290246037 -85.460740719456226 0 -85.460740719456226 -242.01857880437274 0 0 0 0 94.481706604790816 51.722723494557613 0 51.722723494557613 -214.507612402831 0 0 0 0 0.072785396812832914 26.782780390687549 0 26.782780390687549 65.824801212693274 0 0 0 0 -48.540837620723323 -140.61986102827723 0 -140.61986102827723 -142.94381661488296 0 0 0 0 -1.1423207795993591 1.0209958752549539 0 1.0209958752549539 -0.20488911194861714 0 0 0 0 29.551199867404648 114.61539927892954 0 114.61539927892954 -124.37784992068191 0 0 0 0 -0.051986078398834075 78.44609646273797 0 78.44609646273797 -91.603813961788546 0 0 0 0 109.28668245238077 -12.403164262188511 0 -12.403164262188511 -68.653299390600296 0 0 0 0 -1.1788170926722046 1.7190265222567831 0 1.7190265222567831 -1.4911400396629517 0 0 0 0 186.55181977689062 40.313006867645527 0 40.313006867645527 -88.432245110197982 0 0 0 0 -28.300349126882793 -4.0713970179567696 0 -4.0713970179567696 79.831163345850655 0 0 0 0 140.218093399395 -75.390956972350978 0 -75.390956972350978 -68.097134808427654 0 0 0 0 41.620001124494593 3.3173881177008298 0 3.3173881177008298 -81.437221621934441 0 0 0 0 87.379906018531983 -61.12174425505782 0 -61.12174425505782 -158.8416437202759 0 0 0 0 64.156286082725273 -18.438893368678691 0 -18.438893368678691 -19.627742885768384 0 0 0 0 38.966136441078561 -78.016059330126154 0 -78.016059330126154 -129.72242214370635 0 0 0 0 17.303648062566936 -68.77306514846714 0 -68.77306514846714 -224.65733391788308 0 0 0 0 7.0734501826937048 -33.120006107762492 0 -33.120006107762492 -50.890859804501815 0 0 0 0 22.276048948500829 -29.329961421590269 0 -29.329961421590269 -125.86093785925914 0 0 0 0 -202.03472808805964 160.06238200209555 0 160.06238200209555 -158.56263481321002 0 0 0 0 -55.614245319489783 109.59309558929544 0 109.59309558929544 -258.86676729118699 0 0 0 0 -121.10286816229927 163.42772499634157 0 163.42772499634157 -201.46543101738098 0 0 0 0 -132.12734411843849 113.99675553317502 0 113.99675553317502 -36.330855748135946 0 0 0 0 -103.04539674444823 124.03937935160502 0 124.03937935160502 -160.89095487172744 0 0 0 0 -172.93959233538044 175.1954689831382 0 175.1954689831382 -338.91952963879157 0 0 0 0 -171.8511566667803 163.2077966147117 0 163.2077966147117 -253.92152159327634 0 0 0 0 -103.26445096241514 95.97469138609631 0 95.97469138609631 -50.315877348384674 0 0 0 0 -34.144161739452102 157.87578022628531 0 157.87578022628531 -320.16182846637821 0 0 0 0 -1.2160953221410011 1.0013335130524439 0 1.0013335130524439 -0.25422817096217898 0 0 0 0 -0.76542950949036026 0.30202685256939787 0 0.30202685256939787 -0.035251023834884876 0 0 0 0 -77.009835944572842 69.250801712762041 0 69.250801712762041 -49.445758423087682 0 0 0 0 -0.74773691030713962 -26.490052154760633 0 -26.490052154760633 -8.7163181615978829 0 0 0 0 68.775026567040186 47.985475771544316 0 47.985475771544316 -32.629846409821766 0 0 0 0 -1.5065170111111712 2.1010255349691676 0 2.1010255349691676 -1.2530138016631867 0 0 0 0 53.193666814204789 27.541007801802493 0 27.541007801802493 -12.390740303133498 0 0 0 0 0.35025252565554865 0.03503658123800335 0 0.03503658123800335 -0.9538212067218268 0 0 0 0 20.853747813005612 -8.6205034170989165 0 -8.6205034170989165 1.633083991415333 0 0 0 0 14.547516334867396 -1.1976418319900404 0 -1.1976418319900404 -19.036729628987814 0 0 0 0 37.634388721238793 43.536796197462536 0 43.536796197462536 26.591623717289622 0 0 0 0 7.7725843645966961 4.0959839054394251 0 4.0959839054394251 -13.90863708879624 0 0 0 0 61.134926647275279 44.378343720247358 0 44.378343720247358 -18.469652755025891 0 0 0 0 60.77336239417491 60.244467743959831 0 60.244467743959831 -40.540091803533869 0 0 0 0 -35.780133037100313 187.67563968202739 0 187.67563968202739 -453.65911091211819 0 0 0 0 -10.235479910494178 106.44596721628477 0 106.44596721628477 127.16056946520985 0 0 0 0 -0.78087119070517019 -0.062667956034388794 0 -0.062667956034388794 0.026169504646244235 0 0 0 0 -13.602835460136703 31.897911814072359 0 31.897911814072359 -121.02995161301078 0 0 0 0 -121.97329222528788 145.44925566563688 0 145.44925566563688 -321.76105944913616 0 0 0 0 -22.75378479732899 194.11701892702513 0 194.11701892702513 -373.86623231429985 0 0 0 0 -95.083513517743995 178.81925524880535 0 178.81925524880535 -377.01821062270028 0 0 0 0 -104.58083208696917 201.74102423765726 0 201.74102423765726 -431.90254120986856 0 0 0 0 -74.591844387803576 196.43947483702323 0 196.43947483702323 -368.99785552258254 0 0 0 0 -61.648467140676075 212.03653141528048 0 212.03653141528048 -374.95306073517349 0 0 0 0 19.456857908578769 22.061728861460178 0 22.061728861460178 15.881994665321386 0 0 0 0 -16.842647138158895 141.2182015356471 0 141.2182015356471 -366.55871454998851 0 0 0 0 -63.655399258739635 216.87503702053618 0 216.87503702053618 -334.58621540891545 0 0 0 0 -47.979974702771869 206.40694649930811 0 206.40694649930811 -343.6495973198048 0 0 0 0 -90.192452032155416 203.33726227020816 0 203.33726227020816 -342.87642285324819 0 0 0 0 -42.190083596724435 222.76698339944051 0 222.76698339944051 -392.07716114701543 0 0 0 0 19.255510608060774 23.292893886457335 0 23.292893886457335 17.318968807283582 0 0 0 0 -47.128682662536448 38.112714774068081 0 38.112714774068081 -30.101342987165481 0 0 0 0 16.025780763978503 11.908808709264473 0 11.908808709264473 8.6162513474801727 0 0 0 0 3.9014134037570329 -62.952339496066998 0 -62.952339496066998 97.926596984954813 0 0 0 0 84.608951172762318 79.604262132012082 0 79.604262132012082 -117.03256915144448 0 0 0 0 -51.055169351573568 163.04115930186526 0 163.04115930186526 -381.62647606558494 0 0 0 0 -37.752347095884033 185.11254754530091 0 185.11254754530091 -362.32728442847656 0 0 0 0 -101.64307492710941 170.20891010229388 0 170.20891010229388 -340.86625771999388 0 0 0 0 -110.63711281612632 220.60050925586484 0 220.60050925586484 -301.29770003105659 0 0 0 0 -84.384510931275145 197.184886174442 0 197.184886174442 -249.92137247189385 0 0 0 0 -53.228785536397481 215.75249218654426 0 215.75249218654426 -309.42761464339856 0 0 0 0 -41.176350033842027 179.95896611348144 0 179.95896611348144 -259.8808318759402 0 0 0 0 -61.628603612734878 202.81461445324203 0 202.81461445324203 -171.85453498424249 0 0 0 0 -53.664443105444661 218.83946756482692 0 218.83946756482692 -295.83325994386541 0 0 0 0 -10.06117416289635 149.6151863454179 0 149.6151863454179 -263.28061693328209 0 0 0 0 -70.089252833557111 187.22825746605031 0 187.22825746605031 -260.98578475764589 0 0 0 0 -27.964654154020536 100.67411410076602 0 100.67411410076602 -34.818722130141396 0 0 0 0 -38.977953525958583 201.93217675828964 0 201.93217675828964 -135.73064481365509 0 0 0 0 -48.032558955150307 181.5012446124183 0 181.5012446124183 -91.969142215006286 0 0 0 0 -29.524531850445783 151.81821325585406 0 151.81821325585406 -168.39824378416233 0 0 0 0 23.563727517335792 92.271606813746985 0 92.271606813746985 -16.224767360283295 0 0 0 0 28.837413494861721 156.3782221780873 0 156.3782221780873 -49.270699459477328 0 0 0 0 -52.719027158767858 170.73687070323831 0 170.73687070323831 -50.158043907624233 0 0 0 0 7.4263566603476647 119.53248689075917 0 119.53248689075917 -65.360718957097561 0 0 0 0 -4.1527476604096591 127.22721571828879 0 127.22721571828879 -37.58625215318898 0 0 0 0 53.84849038021639 77.27502240312424 0 77.27502240312424 -52.414531464654829 0 0 0 0 64.673803479941853 118.81449712419908 0 118.81449712419908 0.79667114851872611 0 0 0 0 49.26351392388824 161.77168437162254 0 161.77168437162254 6.2472696006443584 0 0 0 0 70.686540006319774 193.6348338761286 0 193.6348338761286 53.173830003568582 0 0 0 0 34.200575616770948 168.9612123558727 0 168.9612123558727 99.068902170613001 0 0 0 0 223.54256678915408 232.29356707741863 0 232.29356707741863 119.77318956574163 0 0 0 0 153.18970598184387 83.832642515939369 0 83.832642515939369 126.94866710857605 0 0 0 0 120.70902466398547 80.389759164582756 0 80.389759164582756 25.045230967600219 0 0 0 0 158.86728474792108 127.48529833563953 0 127.48529833563953 72.0150384235003 0 0 0 0 116.53205803819583 61.368386335727337 0 61.368386335727337 27.614996326254186 0 0 0 0 184.76481741519547 0.12002428725463687 0 0.12002428725463687 81.305335302622552 0 0 0 0 83.208667031693039 54.446909676807991 0 54.446909676807991 184.19575499492748 0 0 0 0 90.464164890647226 54.819967211453331 0 54.819967211453331 85.086321457405575 0 0 0 0 126.18219926994243 28.114433886715233 0 28.114433886715233 10.602332119571656 0 0 0 0 103.05967634717308 36.350154691596799 0 36.350154691596799 -20.916966225595388 0 0 0 0 81.272815153643023 21.978603392745754 0 21.978603392745754 11.091631746803614 0 0 0 0 92.29249787536537 35.308330371482953 0 35.308330371482953 23.394851108545936 0 0 0 0 125.87958937955409 56.902610679277132 0 56.902610679277132 -27.912373000177467 0 0 0 0 81.727852015777898 40.582374370409525 0 40.582374370409525 -30.264094901362114 0 0 0 0 50.586885074430029 80.814098774372724 0 80.814098774372724 -32.574543199221807 0 0 0 0 72.559637268132064 32.474804760257939 0 32.474804760257939 -22.282289104543452 0 0 0 0 69.844189327290223 34.686578766926687 0 34.686578766926687 -20.8328151605524 0 0 0 0 53.217979775854474 11.054329648622115 0 11.054329648622115 -15.501818342221668 0 0 0 0 48.014941979221476 18.072296407470276 0 18.072296407470276 -17.436640032216019 0 0 0 0 31.118013139108371 -8.2688080423031352 0 -8.2688080423031352 -22.4779179044599 0 0 0 0 -6.191095749310989 -0.13720520652304913 0 -0.13720520652304913 -11.04431776371348 0 0 0 0 60.625954235925747 6.8904920762233814 0 6.8904920762233814 -24.494561434414209 0 0 0 0 43.517593349250092 15.143137576345907 0 15.143137576345907 -25.017603329786652 0 0 0 0 7.2798516516222662 -11.8611839915161 0 -11.8611839915161 -17.753393839688215 0 0 0 0 19.812889508306398 10.307646822557217 0 10.307646822557217 -11.043737204839999 0 0 0 0 57.365450307232095 17.299529378495208 0 17.299529378495208 20.413220812715736 0 0 0 0 85.839967811014503 20.056218833911771 0 20.056218833911771 -22.647759720069189 0 0 0 0 74.337241835593886 38.270691393410743 0 38.270691393410743 1.8991381549130892 0 0 0 0 78.17426831566263 19.180456020381826 0 19.180456020381826 87.677491616675979 0 0 0 0 46.586751345213997 32.134495776487711 0 32.134495776487711 66.711319031033781 0 0 0 0 40.371526840346633 83.614701162367055 0 83.614701162367055 52.817107784698237 0 0 0 0 48.763356635023229 52.675428855063728 0 52.675428855063728 142.97095721825463 0 0 0 0 10.866948800092359 90.67745427904174 0 90.67745427904174 115.3507928113977 0 0 0 0 40.502769199680188 64.081058475000646 0 64.081058475000646 -14.980762047991448 0 0 0 0 35.444843066870817 4.8298670288550056 0 4.8298670288550056 -12.006443351790949 0 0 0 0 -5.6174919938785024 6.5871316238008149 0 6.5871316238008149 -49.930832977712271 0 0 0 0 12.231578957354941 97.828076919613522 0 97.828076919613522 -79.755312387939739 0 0 0 0 10.021761701987998 52.038699346750036 0 52.038699346750036 23.551303698972333 0 0 0 0 12.3163557228836 106.95369409403247 0 106.95369409403247 23.069282488572725 0 0 0 0 -38.939752697413496 117.44463009762876 0 117.44463009762876 -4.3633767791980063 0 0 0 0 -0.10230933238008788 17.665622841133526 0 17.665622841133526 -178.56499000484473 0 0 0 0 11.354948198574448 77.545819677425811 0 77.545819677425811 -159.65845046747563 0 0 0 0 7.0220703721570317 6.0118418069832842 0 6.0118418069832842 -189.15336692595338 0 0 0 0 -52.298168494919082 -71.907509787870367 0 -71.907509787870367 -111.80846514831501 0 0 0 0 17.312690105238289 75.962849686169648 0 75.962849686169648 -60.451099501902718 0 0 0 0 0.11161451040607062 37.350512728959984 0 37.350512728959984 32.44109353895692 0 0 0 0 -1.2271677201371176 0.96873878645558875 0 0.96873878645558875 -0.15116337473004648 0 0 0 0 7.152485023932968 -11.108989054039739 0 -11.108989054039739 -22.179253012953268 0 0 0 0 24.155329400346091 -5.9298679857356547 0 -5.9298679857356547 -80.651751611454529 0 0 0 0 -40.549309179179545 -24.369251485086352 0 -24.369251485086352 -23.532189002329687 0 0 0 0 -1.2329229627695071 2.1571846849863618 0 2.1571846849863618 -2.1022696449739158 0 0 0 0 63.976093153112743 8.214641267530169 0 8.214641267530169 -5.4668193305005843 0 0 0 0 -14.002845142791557 -19.10812464529954 0 -19.10812464529954 -14.332668720340735 0 0 0 0 59.558449985764582 65.248123776918874 0 65.248123776918874 41.985394654708216 0 0 0 0 -63.390695011690696 76.864025428203604 0 76.864025428203604 42.812227704544057 0 0 0 0 -57.142309936887614 92.857386612666232 0 92.857386612666232 -12.654273406689754 0 0 0 0 -71.930293844856351 98.091070993232279 0 98.091070993232279 44.831514717785467 0 0 0 0 -82.690804813373688 110.59647869096807 0 110.59647869096807 81.762232741784828 0 0 0 0 -69.931115079627489 109.35014744214641 0 109.35014744214641 43.789696026185993 0 0 0 0 -53.466655634787458 294.18616543549797 0 294.18616543549797 -52.205675676586907 0 0 0 0 209.48116100792322 380.8308066981117 0 380.8308066981117 153.35473105812343 0 0 0 0 55.04019572550169 283.01652476230811 0 283.01652476230811 103.58606022452659 0 0 0 0 163.5330562752315 126.85219644018798 0 126.85219644018798 -157.25190964549256 0 0 0 0 437.87393082646304 162.73130996635155 0 162.73130996635155 -8.6783581278614292 0 0 0 0 172.47039063014381 207.66914763070963 0 207.66914763070963 -12.357923232666508 0 0 0 0 161.4794349439253 7.7061524355813162 0 7.7061524355813162 -24.358880085073906 0 0 0 0 86.292732426416478 -30.152942717977567 0 -30.152942717977567 132.6906372364756 0 0 0 0 159.29862584648072 126.36475580888509 0 126.36475580888509 59.007481551219826 0 0 0 0 228.77848109391925 138.99942194172763 0 138.99942194172763 200.6565326260752 0 0 0 0 181.69217275551637 186.16104518236534 0 186.16104518236534 326.23729271324009 0 0 0 0 263.01148313158046 -22.063982859352109 0 -22.063982859352109 271.4081192563317 0 0 0 0 2.2864315390477969 3.3849546993890129 0 3.3849546993890129 3.4020915676694017 0 0 0 0 -71.018056732631521 65.319101411860174 0 65.319101411860174 405.07793626117564 0 0 0 0 -45.567149797011552 82.449918257658283 0 82.449918257658283 -162.27548441788531 0 0 0 0 492.57027739933528 97.620609012772547 0 97.620609012772547 -103.19374054016953 0 0 0 0 143.2675793538674 468.26038032094038 0 468.26038032094038 -38.595648657887068 0 0 0 0 1.4806594131015913 1.2677872152015297 0 1.2677872152015297 0.50447665981344869 0 0 0 0 212.84774121681221 -93.808703474445792 0 -93.808703474445792 -157.19270137316926 0 0 0 0 352.07523334389043 117.30145667276156 0 117.30145667276156 53.141896743331017 0 0 0 0 -94.667640283601941 206.39463563094614 0 206.39463563094614 -86.853671891099111 0 0 0 0 2.3547685405049918 2.0451653282072861 0 2.0451653282072861 0.91515911085511448 0 0 0 0 1.7417268188437447 48.520220262580551 0 48.520220262580551 -183.13691321847728 0 0 0 0 -35.520934262359333 149.17266868369097 0 149.17266868369097 -237.44770259918732 0 0 0 0 -51.432373395669856 89.14487296599691 0 89.14487296599691 -169.48108125877116 0 0 0 0 -71.230051737798931 124.42798644023787 0 124.42798644023787 -25.842340029821571 0 0 0 0 8.9566268294731941 8.8825850278753151 0 8.8825850278753151 7.1808246417360948 0 0 0 0 -78.303891279632808 74.00283872919681 0 74.00283872919681 -76.433623312559803 0 0 0 0 18.399618953370464 103.73431933880829 0 103.73431933880829 -232.73777788400184 0 0 0 0 -53.178305687484681 169.11638397508068 0 169.11638397508068 -151.89366636474369 0 0 0 0 -43.383588283108111 272.47063711898591 0 272.47063711898591 -265.55156954703398 0 0 0 0 14.214131948062132 13.029316171028867 0 13.029316171028867 9.9982231045399459 0 0 0 0 -89.893273875899467 92.155160345724653 0 92.155160345724653 -40.355877586000133 0 0 0 0 -42.525049793181097 47.649296213065099 0 47.649296213065099 -86.960528721676383 0 0 0 0 -18.504899251485767 35.784070218798206 0 35.784070218798206 3.1832825849705841 0 0 0 0 -9.662133731355425 91.755292032263242 0 91.755292032263242 -63.693366587351193 0 0 0 0 -3.1002748977189185 46.962639878242044 0 46.962639878242044 13.299214224360185 0 0 0 0 -15.284349376706814 35.807400480014621 0 35.807400480014621 78.302199655554432 0 0 0 0 -18.565368810770451 33.154972920310684 0 33.154972920310684 1.7406178256496787 0 0 0 0 -36.407633457994052 91.152611892609457 0 91.152611892609457 -3.1412462821172085 0 0 0 0 -88.096463319496252 95.821199293678546 0 95.821199293678546 4.5507895048212958 0 0 0 0 -30.825370963619207 62.027829109669256 0 62.027829109669256 -86.871217204810819 0 0 0 0 82.701278360385913 5.0480978946907271 0 5.0480978946907271 -16.024513610562281 0 0 0 0 4.4294874439074192 61.136459606215794 0 61.136459606215794 63.308245975800673 0 0 0 0 11.523298838765186 18.453133999999409 0 18.453133999999409 -46.053630956586858 0 0 0 0 -33.731561369604606 29.773373759195238 0 29.773373759195238 26.928218413246213 0 0 0 0 -4.0539043076860253 79.506319857893686 0 79.506319857893686 -61.647430980374338 0 0 0 0 83.425910658465 80.134614471768145 0 80.134614471768145 -117.1631694938842 0 0 0 0 48.735638648511667 65.282009194525017 0 65.282009194525017 10.926915323718276 0 0 0 0 63.510672374533897 -8.1914913455875649 0 -8.1914913455875649 -6.2409076724470651 0 0 0 0 -42.610793107465724 232.40388346920372 0 232.40388346920372 -382.16247792532522 0 0 0 0 22.144223555951982 18.032673345346623 0 18.032673345346623 14.66829575785178 0 0 0 0 20.082643910887782 24.087811630960417 0 24.087811630960417 17.062669490977861 0 0 0 0 8.5540958886158478 -40.97996259212232 0 -40.97996259212232 79.480047228258627 0 0 0 0 -93.960202167709213 62.766680190148691 0 62.766680190148691 -12.862667571149359 0 0 0 0 -74.943431223058724 245.51995435119534 0 245.51995435119534 -328.012845006102 0 0 0 0 -80.44657900070888 199.59522697332432 0 199.59522697332432 -190.48566538236628 0 0 0 0 -44.885425561856209 216.9779262134366 0 216.9779262134366 -257.32721231789037 0 0 0 0 -65.30002502258867 202.07952843290695 0 202.07952843290695 -263.23681357025998 0 0 0 0 -46.963561599637615 201.58793861303639 0 201.58793861303639 -333.46293154913292 0 0 0 0 -60.970811839819362 200.48264598342757 0 200.48264598342757 -273.18095930069103 0 0 0 0 -56.894225636584451 170.42147203030618 0 170.42147203030618 -346.84705320646754 0 0 0 0 -57.817292622276 173.95263757761859 0 173.95263757761859 -270.2731216889033 0 0 0 0 -80.516206535816309 204.48255326588696 0 204.48255326588696 -218.36855871957232 0 0 0 0 -95.27204148623423 208.66237998647557 0 208.66237998647557 -230.886867353649 0 0 0 0 -89.199638402962591 174.13464480789844 0 174.13464480789844 -255.76844370080653 0 0 0 0 -62.394263710797532 140.83642091757065 0 140.83642091757065 -364.20745962169167 0 0 0 0 -92.69960975786671 180.16165415598152 0 180.16165415598152 -258.86594642481941 0 0 0 0 -122.50673197276774 131.65310894558206 0 131.65310894558206 -307.91746648625121 0 0 0 0 -130.5442253426063 180.34492626579959 0 180.34492626579959 -249.48016567343439 0 0 0 0 -81.172182093083393 198.13783831767796 0 198.13783831767796 -252.15655917641197 0 0 0 0 -87.325006959203165 209.13086220529658 0 209.13086220529658 -242.35028242929548 0 0 0 0 -61.863469136762433 222.1532041038663 0 222.1532041038663 -236.15210982970893 0 0 0 0 -64.329403103227378 211.93035069532925 0 211.93035069532925 -209.93058529139671 0 0 0 0 -96.797936175717041 206.41924948759697 0 206.41924948759697 -231.07217668431986 0 0 0 0 -63.63648374931654 213.89208512700134 0 213.89208512700134 -230.29429320332292 0 0 0 0 -89.318698725663126 196.01010716367455 0 196.01010716367455 -215.44326260146772 0 0 0 0 -53.050629369681701 211.0247911833867 0 211.0247911833867 -217.13826240464005 0 0 0 0 -69.271430725057144 216.50847939652886 0 216.50847939652886 -218.07773402672319 0 0 0 0 -60.665899484185502 191.82617067678802 0 191.82617067678802 -165.79776462457085 0 0 0 0 -61.804945735057117 218.23689592449591 0 218.23689592449591 -205.68626460964151 0 0 0 0 -71.561286260744964 207.94328010590652 0 207.94328010590652 -172.97078572244209 0 0 0 0 -66.356732542360533 215.99829658020064 0 215.99829658020064 -140.10656688876043 0 0 0 0 -59.148397243319778 183.17276264955944 0 183.17276264955944 -99.217086107397336 0 0 0 0 -67.733688132980433 178.05008937392785 0 178.05008937392785 -122.13429234472278 0 0 0 0 -50.034824302754714 204.68833391413864 0 204.68833391413864 -107.44750707240019 0 0 0 0 -79.122017422567296 180.30714416089177 0 180.30714416089177 -194.26365354277368 0 0 0 0 -75.831613545567961 215.72234710220073 0 215.72234710220073 -156.86506644580368 0 0 0 0 -65.65410615887231 201.1737098557287 0 201.1737098557287 -115.5688988610782 0 0 0 0 -45.723496232662001 167.20854536785555 0 167.20854536785555 -184.45563766405121 0 0 0 0 31.052275470116001 97.982740934487083 0 97.982740934487083 19.587762231851229 0 0 0 0 114.20684369365335 77.760376719321357 0 77.760376719321357 17.752146092243493 0 0 0 0 37.535280612413771 70.480238324802485 0 70.480238324802485 130.11438223006553 0 0 0 0 47.963800210637174 57.465990829034965 0 57.465990829034965 43.579161174896754 0 0 0 0 -52.645795869684662 91.999752197181806 0 91.999752197181806 3.7561007658396193 0 0 0 0 -34.227943929614412 117.72926773645486 0 117.72926773645486 37.450082363502588 0 0 0 0 32.277944414308877 64.570416933915112 0 64.570416933915112 -9.4818904993408069 0 0 0 0 14.257882843812695 53.834958360024757 0 53.834958360024757 11.831632085231831 0 0 0 0 59.76866413836251 79.608907965317485 0 79.608907965317485 18.495844291901449 0 0 0 0 16.200126845205688 27.241654738376894 0 27.241654738376894 27.274038416900147 0 0 0 0 25.506847482465673 -7.896547572221607 0 -7.896547572221607 56.93649353638466 0 0 0 0 -48.189056441595312 217.58731486021134 0 217.58731486021134 -247.23536560049979 0 0 0 0 34.907934293073822 22.956860492920153 0 22.956860492920153 9.424396889140354 0 0 0 0 -84.262997166613786 86.826148368352733 0 86.826148368352733 -49.732547512399833 0 0 0 0 -7.6590221963997465 4.8102583137515467 0 4.8102583137515467 71.106232138816267 0 0 0 0 -7.0248122807679465 35.425760598271154 0 35.425760598271154 31.429070854675956 0 0 0 0 5.7493524971578154 16.451928475435125 0 16.451928475435125 34.99645382919698 0 0 0 0 27.829483236317174 10.069027211255161 0 10.069027211255161 28.269772345171077 0 0 0 0 12.09743972877186 31.467378632165492 0 31.467378632165492 21.099069764110027 0 0 0 0 57.052851441374514 15.860484782548156 0 15.860484782548156 23.058204707789628 0 0 0 0 -47.577888178057037 220.62948279418924 0 220.62948279418924 -236.6620680346532 0 0 0 0 -39.460773714110474 215.54597341536919 0 215.54597341536919 -231.191678758536 0 0 0 0 -54.706879687320907 217.17270356854715 0 217.17270356854715 -212.32988534656761 0 0 0 0 -39.768988215048012 209.48002419700947 0 209.48002419700947 -225.62251808252768 0 0 0 0 98.940629251068458 25.173908853525063 0 25.173908853525063 17.455767386534717 0 0 0 0 -23.62310588901164 208.19808949784783 0 208.19808949784783 -254.72498931009613 0 0 0 0 -25.174151899700519 194.0413367174624 0 194.0413367174624 -253.62803626059394 0 0 0 0 -33.045598712458741 195.25207484401471 0 195.25207484401471 -218.10006538441667 0 0 0 0 -45.980254152251291 194.63589475972185 0 194.63589475972185 -178.10060109916276 0 0 0 0 -37.677411211741855 171.85248950718233 0 171.85248950718233 -230.55795824465895 0 0 0 0 -45.834967032278655 192.76564450571459 0 192.76564450571459 -177.88601472460141 0 0 0 0 -60.312585960695287 208.04796211364737 0 208.04796211364737 -181.15584256507213 0 0 0 0 -50.135127290443052 210.04241292279767 0 210.04241292279767 -210.05101473032846 0 0 0 0 -50.114554089057492 200.0847981054103 0 200.0847981054103 -180.14834184528445 0 0 0 0 -38.069416178914253 197.00565720514714 0 197.00565720514714 -217.23570237578315 0 0 0 0 -47.200436058687046 204.3015196858978 0 204.3015196858978 -181.12087539406934 0 0 0 0 -53.273766045691445 213.17669837890571 0 213.17669837890571 -177.35526461063182 0 0 0 0 -58.229070273329853 211.87949981807105 0 211.87949981807105 -120.36863123373223 0 0 0 0 -54.438239461451303 184.19545826566537 0 184.19545826566537 -138.10166286222011 0 0 0 0 -55.677983667381341 199.99727443499978 0 199.99727443499978 -135.91670346233877 0 0 0 0 -35.168416533691925 181.94906084805552 0 181.94906084805552 -123.83665648202077 0 0 0 0 56.699581928489181 56.726837399658258 0 56.726837399658258 46.779684125849414 0 0 0 0 -35.503518863610225 201.53789416481595 0 201.53789416481595 -137.23816784099017 0 0 0 0 -56.961725373483205 120.4590009971871 0 120.4590009971871 14.247699453328096 0 0 0 0 -38.272226008019061 189.96407462260322 0 189.96407462260322 -140.27747389803699 0 0 0 0 -36.621452439459972 196.18079528165617 0 196.18079528165617 -164.48274506692542 0 0 0 0 -47.674787032912718 174.41696913439773 0 174.41696913439773 -183.64123805386043 0 0 0 0 -31.405316548734845 173.4579456010415 0 173.4579456010415 -113.43567555450136 0 0 0 0 -60.143088275930495 171.51391949657227 0 171.51391949657227 -30.345904742869607 0 0 0 0 -58.411407065650565 199.2888644209379 0 199.2888644209379 -90.655789232198003 0 0 0 0 -61.407358167954953 184.23750868485149 0 184.23750868485149 -72.447030850144074 0 0 0 0 -59.544593508791877 210.31250558825923 0 210.31250558825923 -46.966108256423468 0 0 0 0 -73.929018995891965 209.55675413468634 0 209.55675413468634 58.119007580051402 0 0 0 0 -70.266258743896287 179.88398018569274 0 179.88398018569274 -1.8635895646293648 0 0 0 0 -68.187930508269346 190.99626172774515 0 190.99626172774515 -22.244110001472109 0 0 0 0 -74.113864096652833 161.72826290097055 0 161.72826290097055 61.125686014431267 0 0 0 0 -6.8223377520553186 192.41244541286324 0 192.41244541286324 -37.542537883975456 0 0 0 0 -24.58023979315476 160.75844575677911 0 160.75844575677911 -105.67931825929827 0 0 0 0 -68.309018534571806 193.73421683590823 0 193.73421683590823 -63.97774157387903 0 0 0 0 -61.515026630935608 169.91120178027631 0 169.91120178027631 -46.702814506068535 0 0 0 0 -41.400344974274049 179.95546822924371 0 179.95546822924371 -84.593678611428913 0 0 0 0 -62.591911445349979 210.49196040618153 0 210.49196040618153 -62.11510162097693 0 0 0 0 -65.025591583655114 180.35177835839863 0 180.35177835839863 -23.209465776111756 0 0 0 0 -44.438801179057918 197.78605812916066 0 197.78605812916066 -14.750534106112354 0 0 0 0 -59.271044951019576 188.17615446701257 0 188.17615446701257 33.326001003701094 0 0 0 0 -25.643033619271591 154.8123908407797 0 154.8123908407797 5.8734166546528286 0 0 0 0 -1.7593162835510157 208.37079775882739 0 208.37079775882739 40.415697355183511 0 0 0 0 52.472816486122611 186.79174847290597 0 186.79174847290597 71.215175489333888 0 0 0 0 -19.371768351920764 185.78231714110552 0 185.78231714110552 72.155034150950087 0 0 0 0 -64.837024338791707 219.10394430634528 0 219.10394430634528 109.98204492465811 0 0 0 0 -56.721130025303864 185.32478565106248 0 185.32478565106248 87.345213169704948 0 0 0 0 -56.203161539844587 183.18230184129607 0 183.18230184129607 109.71636666585626 0 0 0 0 -56.539695879982901 184.91472086833528 0 184.91472086833528 182.00552957713444 0 0 0 0 2.0779130470109521 234.98650816826012 0 234.98650816826012 128.16511111798536 0 0 0 0 -97.103362728317734 188.65364396412042 0 188.65364396412042 72.297513440153125 0 0 0 0 -94.54130931632244 199.75411298769768 0 199.75411298769768 107.79061077382721 0 0 0 0 -83.897447478870163 189.20176657168849 0 189.20176657168849 64.759124387805514 0 0 0 0 -104.63391704535024 180.04538292189682 0 180.04538292189682 102.37206136120858 0 0 0 0 -93.898935658482515 203.50116261985431 0 203.50116261985431 122.73289469983501 0 0 0 0 -129.28459627962002 153.02266498452082 0 153.02266498452082 94.768967635863191 0 0 0 0 -114.98046123306267 188.208174591035 0 188.208174591035 98.868322619578976 0 0 0 0 -2.8508487395010889 43.567965745136462 0 43.567965745136462 -106.06873384089158 0 0 0 0 1.2673729642986871 1.0916333252726389 0 1.0916333252726389 -4.0086251261990462 0 0 0 0 -57.53382509376388 190.57134686508834 0 190.57134686508834 235.23282836961516 0 0 0 0 -9.8334730289352592 158.76408835834445 0 158.76408835834445 247.00455460220837 0 0 0 0 -79.196535411596415 163.95602350171066 0 163.95602350171066 96.943668892709866 0 0 0 0 -52.099660317780945 194.76125372718525 0 194.76125372718525 93.893133065441361 0 0 0 0 -61.455989777758077 162.61402698963502 0 162.61402698963502 -36.162774029588036 0 0 0 0 -52.415297247236595 113.49441957663112 0 113.49441957663112 102.99610524006857 0 0 0 0 -2.7958465833944501 83.624202098735623 0 83.624202098735623 -47.757933153481645 0 0 0 0 25.170518638042267 86.951583528747506 0 86.951583528747506 73.227105905851204 0 0 0 0 -15.045830865718017 147.20845394335811 0 147.20845394335811 13.857802897731744 0 0 0 0 3.9120740903326805 180.33551495547226 0 180.33551495547226 247.09457041370115 0 0 0 0 -28.327208046664055 137.97582500899716 0 137.97582500899716 -142.85528979933588 0 0 0 0 65.733818775838216 61.195194595465232 0 61.195194595465232 50.815600886666374 0 0 0 0 -28.967855262864759 149.09167812198211 0 149.09167812198211 -41.150543607749569 0 0 0 0 -7.7413535435607628 181.20859685834557 0 181.20859685834557 -142.16445906388981 0 0 0 0 108.22366276118555 147.29428478600312 0 147.29428478600312 -205.0913884715992 0 0 0 0 26.490221979463968 62.508860197765898 0 62.508860197765898 -148.96570746212092 0 0 0 0 63.843363456993757 104.59308262112245 0 104.59308262112245 -119.90195191081148 0 0 0 0 -8.4965754059885512 202.74103332911181 0 202.74103332911181 -173.0254967053479 0 0 0 0 58.226877011991746 211.0908400965036 0 211.0908400965036 -190.1726938370557 0 0 0 0 94.144110147430183 310.27739705422573 0 310.27739705422573 -250.55831052322355 0 0 0 0 72.295479374506328 65.530620880349986 0 65.530620880349986 55.130286622976719 0 0 0 0 231.37742507336952 -10.214737678033998 0 -10.214737678033998 -94.117706560595252 0 0 0 0 41.272352504848641 249.61825502721399 0 249.61825502721399 -159.38158590134844 0 0 0 0 -135.21201924454363 263.15976173068157 0 263.15976173068157 246.02193662929494 0 0 0 0 14.350297940327437 144.79388531156292 0 144.79388531156292 -171.39440267784812 0 0 0 0 -78.986285963561386 267.77346303811646 0 267.77346303811646 17.71613464265829 0 0 0 0 76.154067523499293 72.046501956089969 0 72.046501956089969 43.648230093556073 0 0 0 0 -20.701261341440841 135.773165863553 0 135.773165863553 -173.35669673676603 0 0 0 0 20.323161955879186 140.23322118083161 0 140.23322118083161 -193.6191744695825 0 0 0 0 7.1485959155252203 175.58432873831771 0 175.58432873831771 -179.3361244341213 0 0 0 0 -11.110886981793669 39.707597348174623 0 39.707597348174623 8.4456545894845156 0 0 0 0 -55.489563395545701 113.16679980537083 0 113.16679980537083 -34.123237052677723 0 0 0 0 7.7042296693034586 55.267047830714546 0 55.267047830714546 89.790936946505099 0 0 0 0 36.559119978919625 60.699908933214829 0 60.699908933214829 69.586238407679048 0 0 0 0 262.75949459339608 222.13950210462644 0 222.13950210462644 179.74109805719127 0 0 0 0 -4.4325818756653206 4.1846727558650088 0 4.1846727558650088 5.0773200232759876 0 0 0 0 -60.530380319691631 57.652376293458929 0 57.652376293458929 250.55400972294592 0 0 0 0 -17.189781374947017 23.252885558003285 0 23.252885558003285 -16.366766123460561 0 0 0 0 -10.488968130106514 -22.842685723537215 0 -22.842685723537215 107.71740505450725 0 0 0 0 -35.114222195232287 81.112377607852977 0 81.112377607852977 105.59401364553923 0 0 0 0 115.57104846058064 107.94382874425446 0 107.94382874425446 -112.75894069762035 0 0 0 0 -5.6897874530535546 13.739700181801439 0 13.739700181801439 -26.574922334372516 0 0 0 0 -43.021767074824311 78.711765128708066 0 78.711765128708066 104.87082174501393 0 0 0 0 0.8493662492780345 1.4183820891959797 0 1.4183820891959797 -1.8957349509246519 0 0 0 0 -40.559250464128127 47.981761444227629 0 47.981761444227629 89.325576169587293 0 0 0 0 63.12815907226468 62.915985210021972 0 62.915985210021972 -114.46374575982009 0 0 0 0 63.419129459143733 70.614509683267897 0 70.614509683267897 28.538695362469298 0 0 0 0 59.875771261766204 109.17689669919218 0 109.17689669919218 -14.637057259762514 0 0 0 0 30.680005365611578 146.95865626271552 0 146.95865626271552 -63.393072710163324 0 0 0 0 64.465857542585582 99.678069830805725 0 99.678069830805725 -19.044739101114828 0 0 0 0 10.596114693667914 29.571213753080883 0 29.571213753080883 36.256903260833496 0 0 0 0 -31.901185676324531 110.5472677277894 0 110.5472677277894 23.47857888623912 0 0 0 0 47.425330825499259 66.148839087560191 0 66.148839087560191 26.381969963182314 0 0 0 0 111.28251283335703 19.259823681903072 0 19.259823681903072 15.064204289577901 0 0 0 0 77.126933349865794 91.026916779735075 0 91.026916779735075 50.917091309816897 0 0 0 0 51.328890973716625 74.883238929593062 0 74.883238929593062 44.77027373979945 0 0 0 0 49.325948200857965 42.846226004468917 0 42.846226004468917 40.610380205911497 0 0 0 0 35.468294629070442 80.363404347346659 0 80.363404347346659 18.92742734692365 0 0 0 0 76.523950675793458 60.063928420002412 0 60.063928420002412 21.996019580668417 0 0 0 0 54.91484866112296 43.918554299780226 0 43.918554299780226 14.462599472131842 0 0 0 0 67.25607548420885 80.253059753215439 0 80.253059753215439 6.9549689422092342 0 0 0 0 80.573522192469682 77.041189767650849 0 77.041189767650849 57.120105568450526 0 0 0 0 101.78924388744781 68.434946338260488 0 68.434946338260488 10.97335476090484 0 0 0 0 119.71216796760564 86.501392885473251 0 86.501392885473251 46.207137643539681 0 0 0 0 100.83385579756577 123.54541298010736 0 123.54541298010736 -22.120171366437717 0 0 0 0 83.409840382189941 62.408812569235693 0 62.408812569235693 2.0517513679842523 0 0 0 0 -18.409283876229892 204.68715067128323 0 204.68715067128323 -181.08528241158638 0 0 0 0 39.339371677328018 65.246760107453156 0 65.246760107453156 20.781763952792971 0 0 0 0 42.963161287974799 60.379595751244779 0 60.379595751244779 -31.375188629201148 0 0 0 0 12.404218992487586 108.54812739333829 0 108.54812739333829 48.861339487040823 0 0 0 0 -355.39189638350581 272.58238169522156 0 272.58238169522156 33.133903281366656 0 0 0 0 -49.491948096547276 212.17178251784208 0 212.17178251784208 -95.825683274159019 0 0 0 0 -222.6845372526368 84.743843684602325 0 84.743843684602325 71.07787736843602 0 0 0 0 -39.0192909072357 117.02358870601529 0 117.02358870601529 -72.196479296493635 0 0 0 0 126.80368629439181 187.36478749961861 0 187.36478749961861 -7.3199225760072295 0 0 0 0 -61.460507322699414 132.69803019795654 0 132.69803019795654 108.74742998080183 0 0 0 0 3.8345889711733321 2.23870171057915 0 2.23870171057915 -7.3679336109219662 0 0 0 0 82.608695354656447 239.26345845558944 0 239.26345845558944 178.88100759588633 0 0 0 0 115.86737018805434 -16.993074664265805 0 -16.993074664265805 -146.70000969561261 0 0 0 0 -18.510871749633736 29.133568575204535 0 29.133568575204535 -12.434383160719605 0 0 0 0 88.162219088964775 103.02879141297217 0 103.02879141297217 131.45425019695904 0 0 0 0 -122.80300676116894 9.8643677027193917 0 9.8643677027193917 74.808385261847434 0 0 0 0 3.5595786652775132 -137.95838425359034 0 -137.95838425359034 -272.44249818651588 0 0 0 0 -56.286539516317134 -261.56930788851787 0 -261.56930788851787 171.19344142326008 0 0 0 0 -522.03713775890537 -83.192634007168181 0 -83.192634007168181 73.083607288288476 0 0 0 0 1.6594627714788643 -0.95087585951117148 0 -0.95087585951117148 -1.8340880452316526 0 0 0 0 699.36596815536905 658.007575708476 0 658.007575708476 -526.62091015161786 0 0 0 0 -1.0639551733577264 2.5702883247002717 0 2.5702883247002717 -5.9729714323415237 0 0 0 0 153.2857573936999 7.1585038675821124 0 7.1585038675821124 -9.7616769423457299 0 0 0 0 399.91618189804285 306.87266423283654 0 306.87266423283654 169.18589424442507 0 0 0 0 -362.84595703658124 342.71983618180457 0 342.71983618180457 -253.49383583523741 0 0 0 0 -735.15827930925661 54.187514066976291 0 54.187514066976291 23.331456274569064 0 0 0 0 -164.92221973880805 148.19226991153755 0 148.19226991153755 -7.675557719754579 0 0 0 0 -385.19679401438407 172.63478785714869 0 172.63478785714869 -3.9780987454105343 0 0 0 0 -288.73249827099789 -15.111513456740795 0 -15.111513456740795 -41.891048953566496 0 0 0 0 -272.58924955188559 72.716704233760538 0 72.716704233760538 34.702800322131225 0 0 0 0 187.66867459983041 93.970601236482253 0 93.970601236482253 8.2652082915756182 0 0 0 0 -186.35122904426316 54.111632912049572 0 54.111632912049572 21.104528542338812 0 0 0 0 -2.8249325097152749 7.4350826179332756 0 7.4350826179332756 -17.632106601207639 0 0 0 0 -195.66981196889537 32.897874459889863 0 32.897874459889863 -20.622829787091177 0 0 0 0 -164.60144453161774 59.965410865760532 0 59.965410865760532 0.38606180817441782 0 0 0 0 -158.59422751611419 162.44842791659721 0 162.44842791659721 94.738856682684855 0 0 0 0 -127.92168435092026 122.64610942745276 0 122.64610942745276 40.32270695063562 0 0 0 0 -124.67519990952133 162.68815599164009 0 162.68815599164009 33.634887967287796 0 0 0 0 -127.06857824926556 149.74662338447433 0 149.74662338447433 99.870884808260598 0 0 0 0 -78.757289173052413 130.16210097479052 0 130.16210097479052 120.77048775564981 0 0 0 0 -90.608515023206564 160.00862521137788 0 160.00862521137788 45.98442809934204 0 0 0 0 -127.49694501969498 160.55088275654089 0 160.55088275654089 53.423927802588878 0 0 0 0 -151.11155155637971 121.35953556688764 0 121.35953556688764 42.986625148088478 0 0 0 0 -10.68830224309022 164.06100932785921 0 164.06100932785921 275.11498038969512 0 0 0 0 -8.7836071561905555 150.72273961003157 0 150.72273961003157 138.50875916252244 0 0 0 0 -62.083475352297683 166.23622455527538 0 166.23622455527538 196.68981141235417 0 0 0 0 -64.557393697956286 -38.333489802204895 0 -38.333489802204895 132.72491424237478 0 0 0 0 0.038403369480132454 0.4796285565406464 0 0.4796285565406464 0.94670380504508955 0 0 0 0 33.831642447371905 79.322200866209869 0 79.322200866209869 27.30668463992879 0 0 0 0 -16.186287110405829 -12.391979189919766 0 -12.391979189919766 -16.852584353538987 0 0 0 0 -0.016674666093383195 0.89452401564318507 0 0.89452401564318507 1.9086670889828667 0 0 0 0 -133.46587675661431 12.773779060658853 0 12.773779060658853 99.604555994199472 0 0 0 0 -1.720512775296811 2.2700875320624618 0 2.2700875320624618 -18.757506506583013 0 0 0 0 -54.991666230176634 24.539132426844844 0 24.539132426844844 17.170044447762166 0 0 0 0 -67.761640664692095 99.500071430386015 0 99.500071430386015 -164.44280835752579 0 0 0 0 -75.654500663520594 89.972420677588161 0 89.972420677588161 -42.201971397818852 0 0 0 0 12.886821665415482 39.702232880861629 0 39.702232880861629 -31.050459067860174 0 0 0 0 35.802293796863523 -75.787911154136054 0 -75.787911154136054 136.76835219528584 0 0 0 0 -136.15285586540267 -17.415878242265535 0 -17.415878242265535 186.48863667688602 0 0 0 0 157.69424095132854 44.834874382951512 0 44.834874382951512 -84.442675363785384 0 0 0 0 -111.49145316462091 -39.511797079765756 0 -39.511797079765756 154.22733960160258 0 0 0 0 0.3901406874619795 -0.46576234824773621 0 -0.46576234824773621 2.2951366436731604 0 0 0 0 219.46179719883366 86.815208202880967 0 86.815208202880967 -0.32638769600453088 0 0 0 0 44.495116383302957 109.59781449232833 0 109.59781449232833 162.99797168005443 0 0 0 0 7.2021523117728066 57.009079832385396 0 57.009079832385396 16.396318615585187 0 0 0 0 66.916232251875044 46.337476281238651 0 46.337476281238651 10.310891805474967 0 0 0 0 -6.0863819669742369 6.8940061198495215 0 6.8940061198495215 4.822275389197813 0 0 0 0 -51.203990697344125 54.131708759417052 0 54.131708759417052 23.999972905941831 0 0 0 0 -56.422942692777724 61.834828475373797 0 61.834828475373797 13.420014113795332 0 0 0 0 -37.883521242481947 43.782943951655398 0 43.782943951655398 -2.6678426128528372 0 0 0 0 -62.950709684096182 33.359860369037165 0 33.359860369037165 7.7721126109026955 0 0 0 0 -10.121590419166751 -8.8244552336395827 0 -8.8244552336395827 -2.2142752983963874 0 0 0 0 -107.24367958601943 26.20134443706047 0 26.20134443706047 -4.9274214685719926 0 0 0 0 46.537073190025694 101.45836326648805 0 101.45836326648805 11.896783915712149 0 0 0 0 0.0660367576797114 0.78393977178386365 0 0.78393977178386365 0.88520542923416201 0 0 0 0 55.386376041872609 97.422826289976911 0 97.422826289976911 -7.8605994399404153 0 0 0 0 -98.895536732867185 15.397620648232987 0 15.397620648232987 1.4134057390365342 0 0 0 0 5.0984034150983177 9.4417081433154948 0 9.4417081433154948 17.943273357446209 0 0 0 0 1.9850432829480269 19.024150005448064 0 19.024150005448064 15.76367249271425 0 0 0 0 5.0097801405739943 14.8493508758784 0 14.8493508758784 21.640816253563322 0 0 0 0 6.0009055471018655 11.66973997619607 0 11.66973997619607 15.020225651649525 0 0 0 0 -27.953409234723949 112.25598722182986 0 112.25598722182986 63.68548440784798 0 0 0 0 18.365146249474492 98.572817747171939 0 98.572817747171939 42.630255301737634 0 0 0 0 -23.524301022582222 16.954681757735671 0 16.954681757735671 -2.4648038095328957 0 0 0 0 -14.22624406144314 72.174190219862794 0 72.174190219862794 51.588512979951702 0 0 0 0 -10.958289461896129 4.8824335182264349 0 4.8824335182264349 -22.751433441833797 0 0 0 0 -3.5264753372539133 19.374776884134988 0 19.374776884134988 -14.730747560360875 0 0 0 0 9.4647432774763729 25.935397936630579 0 25.935397936630579 21.345135837173984 0 0 0 0 -22.608445111111237 25.822873114462411 0 25.822873114462411 -22.338230170409499 0 0 0 0 22.63414321482378 45.581381179526034 0 45.581381179526034 1.8275616549071856 0 0 0 0 21.76429684300092 65.179186934503377 0 65.179186934503377 16.382166923103796 0 0 0 0 -36.610142400924815 38.424553398173884 0 38.424553398173884 31.426515625619686 0 0 0 0 -19.839502391230781 22.336742757965112 0 22.336742757965112 -32.799189496930921 0 0 0 0 -18.98118308068851 20.880948568865669 0 20.880948568865669 -10.638829849909641 0 0 0 0 -9.8803184146381682 10.573618168911707 0 10.573618168911707 -24.345417384716711 0 0 0 0 -5.9526964938362035 20.581790749545668 0 20.581790749545668 -9.352923073781735 0 0 0 0 -20.422984296033974 29.829739950584099 0 29.829739950584099 -8.1127583857514765 0 0 0 0 -12.879045306915941 26.475067088914557 0 26.475067088914557 -16.485171053067461 0 0 0 0 -3.4909370047607808 26.067381606550953 0 26.067381606550953 -10.502380927622198 0 0 0 0 -0.5279635927311972 7.0865441126388049 0 7.0865441126388049 -1.4619879093637422 0 0 0 0 -12.535868605247815 24.406217975897519 0 24.406217975897519 -12.457077173242382 0 0 0 0 -17.439357662918155 35.352752946113526 0 35.352752946113526 -18.37754801023857 0 0 0 0 -14.824561869298293 18.792645262338532 0 18.792645262338532 -21.078798390104396 0 0 0 0 114.83976823564444 68.7576663012278 0 68.7576663012278 4.0008376373881447 0 0 0 0 -21.4866181613761 44.11892081301221 0 44.11892081301221 14.912224662216431 0 0 0 0 80.36028994195658 34.838521412064438 0 34.838521412064438 14.436409908258042 0 0 0 0 -185.12328773438639 13.72023623151631 0 13.72023623151631 128.90903289164498 0 0 0 0 68.928718315561127 -75.955296135726485 0 -75.955296135726485 87.924892261658499 0 0 0 0 170.72596633688227 -234.58789050751238 0 -234.58789050751238 211.83944447163367 0 0 0 0 -4.6132122834707872 2.8662126055450656 0 2.8662126055450656 2.4851556491675586 0 0 0 0 600.938189490902 26.8880869418972 0 26.8880869418972 11.96013406720607 0 0 0 0 1.9826640829916897 0.65193873726799012 0 0.65193873726799012 -2.255230538071662 0 0 0 0 -12.035386784707953 36.187763544445261 0 36.187763544445261 -18.622742413995638 0 0 0 0 -21.618597387646147 30.649426070970804 0 30.649426070970804 -29.098021009214939 0 0 0 0 82.015365473433121 -16.158541698455565 0 -16.158541698455565 -166.07282002015563 0 0 0 0 -250.30341375633725 -47.932703763872723 0 -47.932703763872723 301.61900234618815 0 0 0 0 -518.58358957816381 604.48804908264037 0 604.48804908264037 -299.81159431398009 0 0 0 0 41.336686461465433 62.552136724007823 0 62.552136724007823 -257.01520348881786 0 0 0 0 -475.29779609927209 325.79480639812073 0 325.79480639812073 75.760095006703978 0 0 0 0 -79.986875068188965 310.87920658029827 0 310.87920658029827 -369.16845725100325 0 0 0 0 -130.19109377235873 78.617351488672739 0 78.617351488672739 106.99498538914401 0 0 0 0 -147.39132966263787 100.06292622957744 0 100.06292622957744 81.074177858003623 0 0 0 0 -24.729882954910863 137.97654725086835 0 137.97654725086835 -23.498162266233294 0 0 0 0 -71.501811999485653 197.82042447349841 0 197.82042447349841 -99.237026735232575 0 0 0 0 -19.506537789158756 142.0319279421285 0 142.0319279421285 -56.203567683126039 0 0 0 0 -30.927958956563089 87.908608071300705 0 87.908608071300705 -2.3983489868775543 0 0 0 0 14.788747756269004 95.966448036042095 0 95.966448036042095 -74.262635666098049 0 0 0 0 -3.4702558796052472 162.52390543906267 0 162.52390543906267 -88.768757622640805 0 0 0 0 23.88799538922467 81.980108982870547 0 81.980108982870547 -57.825312796563594 0 0 0 0 46.507977189816302 109.6493343169177 0 109.6493343169177 -217.67562679503089 0 0 0 0 100.77061887925083 96.690365540468008 0 96.690365540468008 -210.15824946747375 0 0 0 0 57.09637545485748 -5.634045886155036 0 -5.634045886155036 -58.197348437459368 0 0 0 0 13.568498777254717 -19.660217867935671 0 -19.660217867935671 41.591661830633711 0 0 0 0 -16.185137842519907 44.480127446914594 0 44.480127446914594 89.578449423133179 0 0 0 0 3.3560643650889688 41.710113249854203 0 41.710113249854203 -3.4140363676465313 0 0 0 0 -8.6586754742529592 45.34847168526062 0 45.34847168526062 32.457908720554769 0 0 0 0 -0.58063006929660332 35.587988530051916 0 35.587988530051916 17.26862990319205 0 0 0 0 19.00560981266608 32.771090198908951 0 32.771090198908951 -72.739071758100863 0 0 0 0 -6.5977811366192327 37.725276680962111 0 37.725276680962111 16.908744387817023 0 0 0 0 -2.5337051227324991 76.764293414629492 0 76.764293414629492 65.10047028925851 0 0 0 0 5.2509228107646777 64.736740014421287 0 64.736740014421287 26.222962925613501 0 0 0 0 -11.358234935135584 10.927907812346653 0 10.927907812346653 0.17070937110704643 0 0 0 0 -4.7914959466938853 223.95651925949392 0 223.95651925949392 24.59607072804647 0 0 0 0 -151.28041718542954 6.1057381337823529 0 6.1057381337823529 211.92419091518727 0 0 0 0 -37.721192425648042 233.77328933084573 0 233.77328933084573 98.777214881382861 0 0 0 0 -25.08666090497735 40.869102916602749 0 40.869102916602749 -45.042377739142225 0 0 0 0 -27.933985821669921 245.21683510582079 0 245.21683510582079 62.923397437742096 0 0 0 0 -125.07038144109538 29.146476112232449 0 29.146476112232449 177.42102682445147 0 0 0 0 -10.027247542656482 8.2623957945848616 0 8.2623957945848616 7.6158661190502528 0 0 0 0 -146.56226559583956 87.620428162050302 0 87.620428162050302 66.177425034200496 0 0 0 0 3.6966990496657672 -2.3786718531355291 0 -2.3786718531355291 -79.628052029169339 0 0 0 0 -16.186833260003368 13.944759760571969 0 13.944759760571969 -67.088130510426708 0 0 0 0 -204.49020689249301 -30.54395828788256 0 -30.54395828788256 395.05098256959718 0 0 0 0 65.904156732140109 180.56804130149794 0 180.56804130149794 229.19052487459066 0 0 0 0 -33.687704259315069 33.917091055971014 0 33.917091055971014 16.874574339180981 0 0 0 0 -35.269423808011908 47.536216369725977 0 47.536216369725977 -44.991854555223405 0 0 0 0 377.72791058983421 -181.46002536361175 0 -181.46002536361175 67.644529115339537 0 0 0 0 -74.210943870763003 247.7944422262035 0 247.7944422262035 40.648512434476515 0 0 0 0 -0.97093517917747363 2.057699532198761 0 2.057699532198761 -4.5679936427787107 0 0 0 0 -1.4513649053315021 154.97598367467799 0 154.97598367467799 121.95446885309684 0 0 0 0 -2.5008802299253148 154.96102878201918 0 154.96102878201918 129.60255504284396 0 0 0 0 -0.030101325253781397 148.61205036451793 0 148.61205036451793 109.58071057857046 0 0 0 0 -20.3737969620488 131.58795892779381 0 131.58795892779381 122.25585790124569 0 0 0 0 -0.030057928802310771 133.93564019452089 0 133.93564019452089 90.641751622857555 0 0 0 0 -16.335591417133401 89.767186518191011 0 89.767186518191011 19.627272237261423 0 0 0 0 -24.988282768183126 115.49296525473551 0 115.49296525473551 105.91903897037264 0 0 0 0 -6.3360570830045617 131.51933565375566 0 131.51933565375566 95.998858733364614 0 0 0 0 -8.3392263560299398 138.00381972560831 0 138.00381972560831 171.81642751703475 0 0 0 0 31.324790902901441 102.72379101446495 0 102.72379101446495 102.60963188440383 0 0 0 0 32.12804749598763 117.08284456216063 0 117.08284456216063 145.52874100607733 0 0 0 0 41.530098622495643 187.25575742430465 0 187.25575742430465 217.0474009495847 0 0 0 0 5.0741211149143055 169.89667862656279 0 169.89667862656279 154.54212735609144 0 0 0 0 24.787189274251432 150.52807034096622 0 150.52807034096622 141.19429891341315 0 0 0 0 16.525006399890117 176.27614475073642 0 176.27614475073642 118.10201108129559 0 0 0 0 54.283673860918498 184.93101484144881 0 184.93101484144881 109.73748200280625 0 0 0 0 51.630523235675355 169.00094229972728 0 169.00094229972728 130.96365792632605 0 0 0 0 131.50277310074307 156.72234597083752 0 156.72234597083752 44.861331251559022 0 0 0 0 192.70549886421941 208.0313112169315 0 208.0313112169315 87.829606204215452 0 0 0 0 211.2242617058364 85.484018202937477 0 85.484018202937477 13.218543084240082 0 0 0 0 98.831389511484304 208.36345971437549 0 208.36345971437549 163.68359317145041 0 0 0 0 100.81690238177544 168.62643195173769 0 168.62643195173769 163.99609482412768 0 0 0 0 63.913487958547194 61.232688748033979 0 61.232688748033979 226.13146174056476 0 0 0 0 102.97029412682969 102.61354522726378 0 102.61354522726378 162.68548490482499 0 0 0 0 151.85289067655685 -14.831774763778412 0 -14.831774763778412 403.89273144856634 0 0 0 0 152.92597718437355 277.25339005192427 0 277.25339005192427 390.38631828892358 0 0 0 0 -95.782291722542141 -21.70360735713075 0 -21.70360735713075 350.5201401053065 0 0 0 0 115.28202916709415 273.41025326378985 0 273.41025326378985 367.13881084445848 0 0 0 0 445.0198689244171 126.64785148546525 0 126.64785148546525 132.0088403445734 0 0 0 0 541.94067972883931 175.17648855443986 0 175.17648855443986 43.714376187313974 0 0 0 0 2.0682661555754436 2.9528356792196462 0 2.9528356792196462 3.8838375374637408 0 0 0 0 149.73563096929865 52.478343363927706 0 52.478343363927706 23.955455544371489 0 0 0 0 92.129060956038302 52.396069256954434 0 52.396069256954434 47.546910698303691 0 0 0 0 112.97712670934925 31.281638949846183 0 31.281638949846183 13.641012272975786 0 0 0 0 3.8979086458143968 7.0533050567760966 0 7.0533050567760966 11.352828661602047 0 0 0 0 23.139192941322108 6.8675038237997796 0 6.8675038237997796 19.434706195469971 0 0 0 0 56.450088910022487 74.108457658470655 0 74.108457658470655 19.638462232396705 0 0 0 0 52.905991953863122 18.943367685141311 0 18.943367685141311 12.025608580577682 0 0 0 0 14.696681377856294 17.091443659683591 0 17.091443659683591 22.836613679690345 0 0 0 0 21.134118348487391 25.056446217080975 0 25.056446217080975 16.888643707297888 0 0 0 0 10.153734980602167 9.1518128327879822 0 9.1518128327879822 16.266442259520772 0 0 0 0 -0.41143974184524268 20.522720238200236 0 20.522720238200236 15.94409636452292 0 0 0 0 10.158230925335374 12.70815590460461 0 12.70815590460461 9.4453228175643744 0 0 0 0 14.596411965045263 21.529483207928934 0 21.529483207928934 8.6440202135657955 0 0 0 0 3.1911278527186369 2.3592254533400592 0 2.3592254533400592 5.2584382499562707 0 0 0 0 -59.272124305396574 36.06739657370872 0 36.06739657370872 18.369152759299311 0 0 0 0 -25.328882539026381 74.002959657073916 0 74.002959657073916 10.063175532261084 0 0 0 0 -11.895412311921973 71.663409396454426 0 71.663409396454426 16.902680437287927 0 0 0 0 14.651299002558517 32.793862290536708 0 32.793862290536708 18.153964172854558 0 0 0 0 34.59912588133011 64.641457904127492 0 64.641457904127492 15.782766051579529 0 0 0 0 -19.518456945814251 68.268196961505055 0 68.268196961505055 15.580663384113905 0 0 0 0 -10.06264642665883 135.32808319412214 0 135.32808319412214 -5.5714053588271781 0 0 0 0 -16.765104220801732 120.02095082801497 0 120.02095082801497 -16.110215297651393 0 0 0 0 28.250906143031898 114.73444740836476 0 114.73444740836476 5.2397228911504499 0 0 0 0 39.942872111307224 132.96135300844708 0 132.96135300844708 20.48637661844441 0 0 0 0 48.103876762925211 121.8960418560946 0 121.8960418560946 30.016657580409628 0 0 0 0 131.101078872176 95.240907164100463 0 95.240907164100463 35.263514179365302 0 0 0 0 90.230942330497783 65.274427360365735 0 65.274427360365735 18.206084082070447 0 0 0 0 87.183418018977591 148.7937619806066 0 148.7937619806066 48.52713862444034 0 0 0 0 26.627659608187969 168.0038788349857 0 168.0038788349857 83.467746121017854 0 0 0 0 25.89827357143804 158.27516269405442 0 158.27516269405442 85.414737441904435 0 0 0 0 28.561135336243751 162.9132496111979 0 162.9132496111979 46.969151354456699 0 0 0 0 62.949907631073074 158.6567158263972 0 158.6567158263972 30.612967646387915 0 0 0 0 12.831599302422546 144.13585395362952 0 144.13585395362952 26.671960187783952 0 0 0 0 16.969672752351471 140.19832151107994 0 140.19832151107994 -10.418450084172491 0 0 0 0 28.49097973300195 146.09550209414692 0 146.09550209414692 -32.435417606789997 0 0 0 0 34.851372261015058 151.89156136951306 0 151.89156136951306 -6.986962043107269 0 0 0 0 15.190578495461523 152.09044545925826 0 152.09044545925826 44.45449367450783 0 0 0 0 21.228487765012687 148.0688970062065 0 148.0688970062065 6.6074197880570864 0 0 0 0 15.558184693691146 148.46284146102334 0 148.46284146102334 6.7053449511472536 0 0 0 0 -0.011641447967122076 146.36156984119543 0 146.36156984119543 58.317314507898118 0 0 0 0 2.9331609430955723 164.83359546127531 0 164.83359546127531 105.0827472371559 0 0 0 0 3.4043891321489355 154.98859620910844 0 154.98859620910844 88.843577070519132 0 0 0 0 0.026792642804183961 146.36017335531872 0 146.36017335531872 58.317362694055191 0 0 0 0 22.814685213852499 80.853231414580932 0 80.853231414580932 -7.4973941888536046 0 0 0 0 24.506987710312387 74.850774829451211 0 74.850774829451211 -11.383706325193998 0 0 0 0 30.855650593362952 112.57708250982034 0 112.57708250982034 -53.470068991631706 0 0 0 0 0.02960225626884494 99.467623695742077 0 99.467623695742077 -16.016756624324898 0 0 0 0 0.03561609437107438 126.78628826617374 0 126.78628826617374 -12.994143679268745 0 0 0 0 26.889049247052753 125.69575269154848 0 125.69575269154848 -27.013767535793704 0 0 0 0 29.444054962343216 110.53915252373963 0 110.53915252373963 -30.319167195660157 0 0 0 0 34.451183349665371 119.68871821214088 0 119.68871821214088 -42.15691011231047 0 0 0 0 28.103531781003767 125.06905646821838 0 125.06905646821838 -46.443011758643479 0 0 0 0 19.084681167230883 150.72410542754506 0 150.72410542754506 -53.313161949340611 0 0 0 0 -10.623354565446789 129.11103308155089 0 129.11103308155089 -50.211505485371163 0 0 0 0 32.472780711220366 132.08245932795973 0 132.08245932795973 -83.834634746023767 0 0 0 0 1.5830721529127914 107.26955376839942 0 107.26955376839942 -54.992329372933909 0 0 0 0 46.280335570394527 87.65643476584296 0 87.65643476584296 -24.078808068913531 0 0 0 0 57.80407141635078 84.715476097044302 0 84.715476097044302 -45.500711292100732 0 0 0 0 56.757904427715403 114.47862803630915 0 114.47862803630915 -70.730047961299533 0 0 0 0 -90.626843255467975 69.886284524014854 0 69.886284524014854 -100.67421824987332 0 0 0 0 -75.543195261816436 103.02268378641202 0 103.02268378641202 -45.613514711450989 0 0 0 0 -170.57483129006869 81.919483525066425 0 81.919483525066425 -36.861861651712502 0 0 0 0 -98.949217516095814 137.10140602898764 0 137.10140602898764 -7.8480168432133723 0 0 0 0 -174.50076974077092 106.7267040951142 0 106.7267040951142 -43.552398539459318 0 0 0 0 -4.3288804224284831 129.34724756547303 0 129.34724756547303 -74.701309838851557 0 0 0 0 -7.8458431972676408 127.16469237621556 0 127.16469237621556 -129.43051419022322 0 0 0 0 -64.025176485538395 174.45916739335939 0 174.45916739335939 -72.454287936735454 0 0 0 0 -145.33672388536797 164.41382672247937 0 164.41382672247937 -114.62318190113615 0 0 0 0 -3.0340071952198855 -0.033480407233660969 0 -0.033480407233660969 0.22767018839076592 0 0 0 0 -160.13970155760035 106.99417912177523 0 106.99417912177523 21.899233494110376 0 0 0 0 -107.72937297095086 7.8599792701691058 0 7.8599792701691058 38.313548575091772 0 0 0 0 -20.583294596726773 42.227466599167201 0 42.227466599167201 -149.82381663291562 0 0 0 0 -78.658295772078986 104.56186768156392 0 104.56186768156392 14.022831185300674 0 0 0 0 -79.112821254629694 134.82350696274341 0 134.82350696274341 -125.10382965658027 0 0 0 0 -167.83798049719917 64.291355054107271 0 64.291355054107271 28.351305598328054 0 0 0 0 -129.10772457123858 128.43538932446432 0 128.43538932446432 -94.196058978140172 0 0 0 0 -107.90502416190429 43.651138526240175 0 43.651138526240175 -106.33523471360138 0 0 0 0 -98.701919775587157 -50.097732010615118 0 -50.097732010615118 44.672407125683549 0 0 0 0 -180.86798595038999 148.98557580835404 0 148.98557580835404 51.992306605292015 0 0 0 0 -286.30823946216697 69.908747818179563 0 69.908747818179563 28.163189754511222 0 0 0 0 -433.30284144806501 1.7731410182790341 0 1.7731410182790341 117.39100720353179 0 0 0 0 -558.67769970868903 329.98408023024069 0 329.98408023024069 -31.749182050999025 0 0 0 0 -7.6340969971433026 6.028493998527388 0 6.028493998527388 -4.9494480038850757 0 0 0 0 84.221971338534786 -27.54353823743179 0 -27.54353823743179 -605.78442740611058 0 0 0 0 6.8904890556877945 288.6089560354215 0 288.6089560354215 -179.15439817986362 0 0 0 0 40.07112114650954 -35.739085120495588 0 -35.739085120495588 -343.39346954330085 0 0 0 0 -216.4812712122075 96.357505167675527 0 96.357505167675527 48.294657482033131 0 0 0 0 -165.58962857387814 145.89482202653244 0 145.89482202653244 50.932149091935571 0 0 0 0 8.4427786857631872 147.4395093247208 0 147.4395093247208 13.367467311775272 0 0 0 0 -28.145139541928074 -117.49956823358434 0 -117.49956823358434 -50.453217141274763 0 0 0 0 3.0350545295368647 -28.533243649871565 0 -28.533243649871565 -126.71909065395039 0 0 0 0 -5.891855417464626 -0.74835806381659964 0 -0.74835806381659964 0.65372381014102476 0 0 0 0 -67.600095078676532 -99.521060939382096 0 -99.521060939382096 72.010110250103935 0 0 0 0 1.2618379319372366 0.6695832850664134 0 0.6695832850664134 0.47426982110626337 0 0 0 0 -918.81033794432005 80.901979004686723 0 80.901979004686723 620.54314178987534 0 0 0 0 33.441315823991317 291.91133994741523 0 291.91133994741523 -549.41778495914423 0 0 0 0 242.98232864378951 -102.07449514953169 0 -102.07449514953169 -312.93551752519124 0 0 0 0 124.90180265864183 -379.24920680551077 0 -379.24920680551077 198.47041435841038 0 0 0 0 274.77430859762535 -366.75276160086014 0 -366.75276160086014 -3.2662763609273497 0 0 0 0 308.85475774102088 -150.10082564249683 0 -150.10082564249683 -483.76980839256902 0 0 0 0 -47.067624608520418 63.880410596394995 0 63.880410596394995 62.904703993812291 0 0 0 0 54.607571714785081 -46.056412280145139 0 -46.056412280145139 -17.790022275911724 0 0 0 0 -37.959910440869862 -85.078457100931018 0 -85.078457100931018 86.145336151042102 0 0 0 0 9.0184284175631433 -1.3183232069050543 0 -1.3183232069050543 0.12472141901787781 0 0 0 0 60.313628215430072 29.04207737551269 0 29.04207737551269 67.597374418692539 0 0 0 0 -6.5587638655218541 -3.5011085329040377 0 -3.5011085329040377 1.3512358143933048 0 0 0 0 2.9633710259513464 -205.89254030938446 0 -205.89254030938446 426.296924727033 0 0 0 0 75.714257210907817 -13.877577913484174 0 -13.877577913484174 171.13560692291003 0 0 0 0 138.88786495475506 -100.15086933194164 0 -100.15086933194164 40.022639153297405 0 0 0 0 117.75714136751776 -74.595606355624113 0 -74.595606355624113 113.09478870041755 0 0 0 0 39.345774410074227 45.059565008303935 0 45.059565008303935 7.5225488559935911 0 0 0 0 111.55454070951964 42.689325051661854 0 42.689325051661854 -82.406256459040833 0 0 0 0 17.993359561100078 116.70138933455723 0 116.70138933455723 -128.83995172971754 0 0 0 0 35.07822087360546 388.04157841892561 0 388.04157841892561 -590.3984138967121 0 0 0 0 -166.01463927199802 138.7902382315857 0 138.7902382315857 -5.0651984846444975 0 0 0 0 45.118574994074152 87.30924165933402 0 87.30924165933402 -32.94305133657781 0 0 0 0 -42.270380949390528 189.44925495460757 0 189.44925495460757 -94.860964339986992 0 0 0 0 11.173437607329106 146.62284059273816 0 146.62284059273816 -55.693902839613656 0 0 0 0 77.103064072740381 96.265278984719316 0 96.265278984719316 -26.947416892380488 0 0 0 0 25.630617448347039 92.616226495131571 0 92.616226495131571 -20.871322264993069 0 0 0 0 67.286059502155695 69.700970258894813 0 69.700970258894813 46.697305422459976 0 0 0 0 91.779919792323199 90.347636924081826 0 90.347636924081826 -27.47238608309317 0 0 0 0 108.92391322529147 66.039937926093899 0 66.039937926093899 44.682555750921892 0 0 0 0 108.74141204621083 134.04434878229293 0 134.04434878229293 203.41173527613137 0 0 0 0 33.228105712238175 89.221381513579558 0 89.221381513579558 38.848836743775792 0 0 0 0 51.672816747421166 53.89711327763689 0 53.89711327763689 195.90966403698576 0 0 0 0 61.27975614638126 38.701555759456369 0 38.701555759456369 19.751817846127324 0 0 0 0 73.469668451303733 -26.987577346825674 0 -26.987577346825674 97.584006254405722 0 0 0 0 8.3058352737318728 -6.938566050030702 0 -6.938566050030702 0.496895390752643 0 0 0 0 3.1971775022975635 -8.2560561552295439 0 -8.2560561552295439 24.872910314563569 0 0 0 0 37.956428141260403 -29.093145877483039 0 -29.093145877483039 104.61761457554508 0 0 0 0 40.724605634546606 -43.482821688514377 0 -43.482821688514377 150.89711541044221 0 0 0 0 5.5953712116375414 -0.61473741355909794 0 -0.61473741355909794 2.4453241618529953 0 0 0 0 63.4690476411688 -64.023694918586756 0 -64.023694918586756 126.28788379454227 0 0 0 0 -5.6169319116488623 -53.297476215200618 0 -53.297476215200618 54.254387387617498 0 0 0 0 -68.437855473501259 284.33217697838433 0 284.33217697838433 -725.87239975708144 0 0 0 0 -11.320676948923563 5.1752829852065645 0 5.1752829852065645 8.4929902663925851 0 0 0 0 -43.300628473691177 145.09007786847656 0 145.09007786847656 -735.65475560632012 0 0 0 0 -24.59880951436935 230.4389409711157 0 230.4389409711157 -750.95520911737765 0 0 0 0 -98.974185384075099 216.02922861422599 0 216.02922861422599 -590.02946613518361 0 0 0 0 -18.110945068550791 177.04659722860748 0 177.04659722860748 -610.27685721357659 0 0 0 0 -92.99326499109884 222.46347165134358 0 222.46347165134358 -534.8486936446177 0 0 0 0 -36.704379300976143 129.66647030641198 0 129.66647030641198 -508.09991932336914 0 0 0 0 -135.64188726221619 167.22064634362869 0 167.22064634362869 -654.0850900718317 0 0 0 0 -91.862585835770005 260.78352595269592 0 260.78352595269592 -626.3151457343472 0 0 0 0 -161.30981526615506 246.38315345584394 0 246.38315345584394 -628.42449673206397 0 0 0 0 -64.121924508795928 174.68537092811499 0 174.68537092811499 -653.31241738443646 0 0 0 0 112.83072417443691 112.11732608120292 0 112.11732608120292 125.50282438191402 0 0 0 0 -1.0754042676503275 -1.8952156598064427 0 -1.8952156598064427 1.6506110960081481 0 0 0 0 4.26514705165755 -4.9623157906353299 0 -4.9623157906353299 125.15694507430408 0 0 0 0 -22.964441984811856 199.25080633092409 0 199.25080633092409 -756.98296654199828 0 0 0 0 10.032645011204295 -11.077743639379605 0 -11.077743639379605 22.305286131831963 0 0 0 0 1.2888483314399082 -1.3299278196701181 0 -1.3299278196701181 -0.032296174818325696 0 0 0 0 14.568776915155468 -6.0970125826320327 0 -6.0970125826320327 16.868073924512146 0 0 0 0 21.53750043920445 -27.214949543385956 0 -27.214949543385956 339.35643246501172 0 0 0 0 1.9867609269816739 -0.01054503135942042 0 -0.01054503135942042 -0.26141155829917295 0 0 0 0 -87.33279471899732 160.42911757601064 0 160.42911757601064 217.54741628078955 0 0 0 0 -35.937003667080717 253.64890482382589 0 253.64890482382589 -690.64079129628544 0 0 0 0 -88.272741218715964 245.99669185936352 0 245.99669185936352 -446.33126060789857 0 0 0 0 0.12722729407323641 132.71721563792124 0 132.71721563792124 -383.07535550649231 0 0 0 0 -49.215671664314868 163.3999591124005 0 163.3999591124005 -276.16130437994161 0 0 0 0 -21.360166999504145 234.78619737257509 0 234.78619737257509 -296.92108287035171 0 0 0 0 -0.1467850805092894 94.835812832563761 0 94.835812832563761 -6.2606168379843439 0 0 0 0 131.17952395519569 -5.3729894363393953 0 -5.3729894363393953 99.773136084590533 0 0 0 0 76.697738637391012 40.367574364237953 0 40.367574364237953 10.025969670126869 0 0 0 0 -14.237983179307776 56.093886050101673 0 56.093886050101673 77.513178444376081 0 0 0 0 0.019379158825341462 85.070739585382782 0 85.070739585382782 22.803488957250011 0 0 0 0 -14.747317366687639 101.74039505980681 0 101.74039505980681 6.5014394339441424 0 0 0 0 75.806289124444447 243.71131899843385 0 243.71131899843385 166.77138717352676 0 0 0 0 140.6383338551932 113.3642880789353 0 113.3642880789353 -3.6848247171477624 0 0 0 0 216.55762782035163 99.609629293489064 0 99.609629293489064 -10.157213034410304 0 0 0 0 50.184884348214837 161.39787853993764 0 161.39787853993764 22.331181809417757 0 0 0 0 127.94158663605958 106.6907130332942 0 106.6907130332942 60.218567694899207 0 0 0 0 -116.26073848994565 93.779721317464208 0 93.779721317464208 40.257657218289253 0 0 0 0 49.534513316377343 167.68970785141494 0 167.68970785141494 -30.246152907341298 0 0 0 0 -204.89786345044558 161.52879219397695 0 161.52879219397695 26.745765698931507 0 0 0 0 -165.25837796525229 95.403229299959435 0 95.403229299959435 97.493955288996176 0 0 0 0 -64.469022645294899 176.81414562247255 0 176.81414562247255 49.205563438741109 0 0 0 0 70.669733604249132 121.10655257710681 0 121.10655257710681 36.74071148009034 0 0 0 0 -75.543008264685341 95.064022453097323 0 95.064022453097323 50.18765366935088 0 0 0 0 -76.496154574663251 94.600257744052598 0 94.600257744052598 96.994219708146261 0 0 0 0 -22.966212338425976 140.2404986733228 0 140.2404986733228 -22.277189887413897 0 0 0 0 -38.845901423737814 28.784280877076299 0 28.784280877076299 7.6995807033623578 0 0 0 0 -8.5148841405543862 64.55423278355849 0 64.55423278355849 -16.435426938217006 0 0 0 0 0.65744017848885505 -0.19102373692008001 0 -0.19102373692008001 -0.46196389361275303 0 0 0 0 44.331369327723223 -39.926736035374233 0 -39.926736035374233 -161.38275344935664 0 0 0 0 16.904395268582448 28.298228993620512 0 28.298228993620512 -41.056151406826302 0 0 0 0 137.79698638365517 45.959529881449953 0 45.959529881449953 -48.442293596719537 0 0 0 0 92.788642156541755 43.413869536778179 0 43.413869536778179 -23.595637852406298 0 0 0 0 -69.784079261467468 54.467288861138186 0 54.467288861138186 -2.8809924443351065 0 0 0 0 -7.0496912916174868 5.0225759706086777 0 5.0225759706086777 -0.97953567226217952 0 0 0 0 122.12554699190514 28.796726182152952 0 28.796726182152952 -56.38322959969048 0 0 0 0 -19.729027572240199 22.280107560095914 0 22.280107560095914 -17.364217125908635 0 0 0 0 0.58114285305867952 14.463498935996853 0 14.463498935996853 -15.733215138298291 0 0 0 0 -16.235192651467514 16.500236761409269 0 16.500236761409269 -9.8115605939183297 0 0 0 0 -1.4510979279411913 19.900239982612106 0 19.900239982612106 -19.98422336726253 0 0 0 0 -1.5893938596833852 16.860885604490328 0 16.860885604490328 -17.233691065120507 0 0 0 0 9.556360418613707 13.013065944554995 0 13.013065944554995 -14.194662967648446 0 0 0 0 24.629630537438061 41.404838348775911 0 41.404838348775911 -45.037418065686836 0 0 0 0 29.544876152322104 31.013104131438809 0 31.013104131438809 -57.429009811727724 0 0 0 0 29.829625345129898 22.022772216198291 0 22.022772216198291 -9.3571074043251201 0 0 0 0 14.516008863356546 3.0336901366845268 0 3.0336901366845268 4.7329762933568418 0 0 0 0 -7.7610519678410128 -13.70539233575505 0 -13.70539233575505 3.3690094760622742 0 0 0 0 -3.3163832282237138 4.2606413512331613 0 4.2606413512331613 1.7302026176913383 0 0 0 0 1.2830135175754549 17.86087881078538 0 17.86087881078538 -1.9971167624225927 0 0 0 0 3.1370409003284294 21.402604207557488 0 21.402604207557488 -18.835829720619586 0 0 0 0 6.1586238298372251 12.953273302004433 0 12.953273302004433 -6.957291517956854 0 0 0 0 30.904713710689975 19.085557607444571 0 19.085557607444571 -4.3450020872451205 0 0 0 0 18.354214597959071 0.76719886755017797 0 0.76719886755017797 -43.954497464472752 0 0 0 0 1.1919504124454647 2.467355522269159 0 2.467355522269159 -3.038335033978246 0 0 0 0 37.678824796319532 -18.056252110437526 0 -18.056252110437526 -22.749799815718688 0 0 0 0 -2.132633839645564 0.13486446234772131 0 0.13486446234772131 0.91524242179713688 0 0 0 0 5.9665774040331598 -32.199373280785949 0 -32.199373280785949 -182.55506531951323 0 0 0 0 28.431327221180254 34.667456713973479 0 34.667456713973479 -77.15887621582965 0 0 0 0 13.509871028939415 9.415155986954403 0 9.415155986954403 -40.697967919189978 0 0 0 0 18.586945816990919 106.64455649772572 0 106.64455649772572 10.010239693781728 0 0 0 0 51.047960013609554 98.379035504547574 0 98.379035504547574 -54.522161523682144 0 0 0 0 -10.659920282421808 20.888029641299681 0 20.888029641299681 -4.5055133419341473 0 0 0 0 7.1663528092645663 2.7205863596696958 0 2.7205863596696958 -2.3928429401508327 0 0 0 0 38.967907566009671 -0.86780924146998473 0 -0.86780924146998473 -46.578937906076519 0 0 0 0 46.1267167633996 2.8191576100134625 0 2.8191576100134625 -49.982533661667674 0 0 0 0 -25.219089431950124 24.765648813128337 0 24.765648813128337 -17.243304495411621 0 0 0 0 6.9360338988160439 14.198221384243752 0 14.198221384243752 -12.198095524989746 0 0 0 0 12.800552835749841 52.998090226682962 0 52.998090226682962 -17.995032155975423 0 0 0 0 0.37205488089175276 16.954961354238449 0 16.954961354238449 -14.297109284478873 0 0 0 0 -30.881239007093711 28.258605731577958 0 28.258605731577958 -18.780975394216842 0 0 0 0 8.8714297504047863 -1.7598679287370942 0 -1.7598679287370942 13.742031069391032 0 0 0 0 -18.857960364998974 46.861540202740578 0 46.861540202740578 -25.043895472607417 0 0 0 0 -15.595489002182148 25.669704670122883 0 25.669704670122883 -21.418066966549759 0 0 0 0 124.18581839367107 63.747562502756239 0 63.747562502756239 16.924266386441559 0 0 0 0 152.6568784917763 89.993804738296717 0 89.993804738296717 27.188937366667517 0 0 0 0 172.84189809722011 51.575846009236898 0 51.575846009236898 14.735898789594557 0 0 0 0 -2.7575258453556586 6.4616599300423658 0 6.4616599300423658 6.8422752319128755 0 0 0 0 93.028044405917171 56.317255450212798 0 56.317255450212798 31.836485540795351 0 0 0 0 133.45735994313145 7.863602794195117 0 7.863602794195117 -0.61239482805340906 0 0 0 0 12.329960252893216 88.981860282107164 0 88.981860282107164 -31.595874379278484 0 0 0 0 213.336077430562 22.45942250131975 0 22.45942250131975 -7.5622538110663982 0 0 0 0 277.03984792177653 -37.390681206467974 0 -37.390681206467974 2.7814300766681583 0 0 0 0 95.398858853033744 32.794763228996985 0 32.794763228996985 22.457346908951507 0 0 0 0 -20.766299962646372 18.345025394910493 0 18.345025394910493 43.50758164693525 0 0 0 0 -49.913797167908342 -3.5311363390366068 0 -3.5311363390366068 28.003074072930076 0 0 0 0 -3.3884098578067601 2.5453965397585137 0 2.5453965397585137 0.39468374993246513 0 0 0 0 -43.769807879460132 35.693648050066031 0 35.693648050066031 66.554582811294949 0 0 0 0 -37.113229277434584 52.864313877969323 0 52.864313877969323 -22.788075631243373 0 0 0 0 -62.330489622079767 -7.0053256924365996 0 -7.0053256924365996 -118.62448037096203 0 0 0 0 -23.384503262819635 8.4074450587888236 0 8.4074450587888236 58.043235922843223 0 0 0 0 -95.690360169941414 -29.0713486642627 0 -29.0713486642627 70.960805407511714 0 0 0 0 0.56845019279112563 0.38112512697383494 0 0.38112512697383494 3.8688604384064691 0 0 0 0 570.867237457991 -36.010861204361618 0 -36.010861204361618 -61.02721389384692 0 0 0 0 11.496211199808386 145.05587258466221 0 145.05587258466221 51.040217014425707 0 0 0 0 -23.569799056670604 16.098425244024575 0 16.098425244024575 -11.320269600822103 0 0 0 0 -71.934195538633503 19.380565809948735 0 19.380565809948735 62.320332694225968 0 0 0 0 -173.61839725280879 104.33346307367299 0 104.33346307367299 -38.821624850848991 0 0 0 0 5.2467045939592936 52.701737729279351 0 52.701737729279351 -24.108720299047643 0 0 0 0 -40.567350686484133 133.08493734266128 0 133.08493734266128 -43.700894483630428 0 0 0 0 70.183130659424933 54.003133904712286 0 54.003133904712286 -87.815221247442651 0 0 0 0 -6.5539835385170591 155.5970953985925 0 155.5970953985925 -222.14646920760606 0 0 0 0 341.89476099948661 86.361670522760733 0 86.361670522760733 -208.67820117610961 0 0 0 0 0.0091940681269200297 -0.5596666899064644 0 -0.5596666899064644 -2.1978625185415623 0 0 0 0 -513.4865480037256 162.79974006942112 0 162.79974006942112 -22.161736024997481 0 0 0 0 89.423085645437823 126.96206361867871 0 126.96206361867871 29.658959961590881 0 0 0 0 8.0432769949256908 76.21189886776574 0 76.21189886776574 41.459177712316432 0 0 0 0 167.75255764358735 267.76678512519811 0 267.76678512519811 39.823322507881699 0 0 0 0 -29.092653944824633 101.16118164961171 0 101.16118164961171 -84.777133888819208 0 0 0 0 -84.412317630230973 254.41293731546443 0 254.41293731546443 -209.1286933221408 0 0 0 0 -80.984491657451144 140.59011089135083 0 140.59011089135083 -87.197284433790742 0 0 0 0 -72.522984946499491 106.67604011802325 0 106.67604011802325 -45.744678604574119 0 0 0 0 137.62759723336785 208.8672329159474 0 208.8672329159474 -130.1263356337713 0 0 0 0 145.73236965353431 51.567789744449051 0 51.567789744449051 -154.02870809983597 0 0 0 0 67.954398375281016 -80.203258668892659 0 -80.203258668892659 -122.27933457841914 0 0 0 0 56.934840061316208 9.112879471770384 0 9.112879471770384 -35.505930626005835 0 0 0 0 173.95503478182309 17.36976576584641 0 17.36976576584641 -178.1234758128353 0 0 0 0 383.29050296363312 57.652678351470399 0 57.652678351470399 -166.78470504909592 0 0 0 0 170.14058614086025 -14.954052527052625 0 -14.954052527052625 128.71967550921886 0 0 0 0 438.19593284907023 211.8056027447056 0 211.8056027447056 4.3636199208320932 0 0 0 0 174.6743547566366 139.96572686327997 0 139.96572686327997 29.127764738538822 0 0 0 0 75.45592643429336 196.78152681771076 0 196.78152681771076 -77.26092934857877 0 0 0 0 154.62485433386246 102.50927264821556 0 102.50927264821556 -8.2964015134255895 0 0 0 0 186.56584954975551 170.23199995810947 0 170.23199995810947 -44.972651409824323 0 0 0 0 201.12233106949861 113.76822814467195 0 113.76822814467195 -21.124084091527092 0 0 0 0 362.80856754393972 142.21233648611354 0 142.21233648611354 -30.723315646444572 0 0 0 0 -241.38773963104541 108.76413241764598 0 108.76413241764598 31.249463094096598 0 0 0 0 -97.960515374386887 166.28466424723914 0 166.28466424723914 -70.600816344018682 0 0 0 0 -74.927523907743307 115.64076263239573 0 115.64076263239573 13.844856424367947 0 0 0 0 -206.847513424309 173.3145951795168 0 173.3145951795168 -53.54362750327266 0 0 0 0 -196.2581904435483 146.88300932818004 0 146.88300932818004 -115.4655173202251 0 0 0 0 24.713235194969457 112.45999926913157 0 112.45999926913157 -363.20671731784046 0 0 0 0 56.392156206487016 -43.917032646163989 0 -43.917032646163989 -210.86922307463192 0 0 0 0 -43.225032228903729 -70.512064721309912 0 -70.512064721309912 -758.97110566873448 0 0 0 0 -50.474840043581935 -77.541373114451289 0 -77.541373114451289 -205.83735897060888 0 0 0 0 -792.25311447079002 137.57788037254033 0 137.57788037254033 -194.61318186422736 0 0 0 0 -4.4092289113359584 217.7640934722948 0 217.7640934722948 -687.24866102868612 0 0 0 0 2.3254325079869886 76.150796345161936 0 76.150796345161936 -414.01308681870694 0 0 0 0 -1.9799203165716222 3.5547776581313713 0 3.5547776581313713 -6.4635307932473998 0 0 0 0 -33.665639847531565 -300.39105147504188 0 -300.39105147504188 -662.85771732223122 0 0 0 0 -575.38469443774648 31.28392586214375 0 31.28392586214375 8.8201353236730711 0 0 0 0 -510.62284731229738 423.44224600584175 0 423.44224600584175 -344.21083513984524 0 0 0 0 159.43437365646855 76.171675660660952 0 76.171675660660952 -20.453824839302797 0 0 0 0 447.57329784077046 23.258402192044059 0 23.258402192044059 -152.26441038384041 0 0 0 0 9.0435209898205358 160.83428612957607 0 160.83428612957607 -145.80193093449583 0 0 0 0 162.21170137600348 101.49684888316 0 101.49684888316 -157.00696964767718 0 0 0 0 60.187331339548109 -1.1386544907554708 0 -1.1386544907554708 -278.25488742931668 0 0 0 0 -104.55498794095365 -229.65941869147832 0 -229.65941869147832 -247.47567843476691 0 0 0 0 -262.08833954190777 -22.745229948703127 0 -22.745229948703127 -188.26816231532666 0 0 0 0 111.3920154088155 139.13411008089278 0 139.13411008089278 -90.959807581378982 0 0 0 0 361.61079835663622 -47.518460276349288 0 -47.518460276349288 -318.51035228861519 0 0 0 0 346.67282912716564 -38.634070715248754 0 -38.634070715248754 77.74919492451636 0 0 0 0 497.98029561779913 -135.45944483673202 0 -135.45944483673202 -495.46017841486173 0 0 0 0 -36.520044951539717 -96.424801575663494 0 -96.424801575663494 11.246814861448911 0 0 0 0 -0.44351799828538674 3.7029709486273497 0 3.7029709486273497 -5.0953337663626268 0 0 0 0 591.61013339693909 -298.90119884083663 0 -298.90119884083663 -343.60337523572207 0 0 0 0 91.79273533200103 157.89837293329879 0 157.89837293329879 -428.85273036283161 0 0 0 0 -6.8504073948796957 10.059750471284296 0 10.059750471284296 -13.96887090566911 0 0 0 0 -7.0170448202532043 206.94053578089381 0 206.94053578089381 -338.61479025847029 0 0 0 0 -12.079024755764358 14.857747069832904 0 14.857747069832904 -15.324521445737719 0 0 0 0 -10.15678084683168 46.07095503768187 0 46.07095503768187 33.190299960596349 0 0 0 0 -386.69771903856235 131.08026210953861 0 131.08026210953861 14.482348751919226 0 0 0 0 -25.665890234424296 71.623295885007394 0 71.623295885007394 -20.21002433041442 0 0 0 0 -130.98039517942379 -71.777351987977141 0 -71.777351987977141 1.0312454383569893 0 0 0 0 -95.959834302335366 78.852163573697851 0 78.852163573697851 -64.680994210535971 0 0 0 0 -34.587549508560187 -13.079822098389855 0 -13.079822098389855 -29.020669443543564 0 0 0 0 -221.33621219058114 93.35176455177492 0 93.35176455177492 23.047481711818193 0 0 0 0 -1.4415275174289519 0.44685676557005394 0 0.44685676557005394 0.83001432111974816 0 0 0 0 -160.17394105161657 165.68262818893049 0 165.68262818893049 -135.0669087741511 0 0 0 0 -118.0074795247092 15.225801277457776 0 15.225801277457776 231.22615693341939 0 0 0 0 9.9090710159107402 67.505506290907874 0 67.505506290907874 86.649028392336277 0 0 0 0 8.9425912309052364 20.356870932125304 0 20.356870932125304 -29.862282888364405 0 0 0 0 -4.0603477914875157 3.7286932281449587 0 3.7286932281449587 -2.0006817477725991 0 0 0 0 -32.967043050797656 25.757703733959943 0 25.757703733959943 82.854767413440356 0 0 0 0 3.8245211403900612 40.03994539834062 0 40.03994539834062 5.3555046123683496 0 0 0 0 -13.344967193376377 10.942373987517836 0 10.942373987517836 -6.5077401918225561 0 0 0 0 -25.006993866601988 14.658842851116702 0 14.658842851116702 2.7054948046985032 0 0 0 0 30.068861211140756 40.039906583242214 0 40.039906583242214 -123.61062075373047 0 0 0 0 6.0227968586077623 86.432000954571322 0 86.432000954571322 8.5957938731439754 0 0 0 0 14.347359005558246 112.01960163354488 0 112.01960163354488 33.408671723934049 0 0 0 0 0.93424447961675128 0.64560902485333971 0 0.64560902485333971 0.19937114781433002 0 0 0 0 -20.611757234779361 32.065799386987123 0 32.065799386987123 212.3249320312959 0 0 0 0 41.483678203096133 21.76591590233113 0 21.76591590233113 -245.09052172273232 0 0 0 0 -96.283783799390221 17.525075105838766 0 17.525075105838766 -44.100173330141615 0 0 0 0 -111.95843679137761 88.18129250535651 0 88.18129250535651 87.394684870448032 0 0 0 0 2.3318147177142237 19.34389559786996 0 19.34389559786996 6.6155882381408446 0 0 0 0 3.3536381134650703 10.54196315633725 0 10.54196315633725 -4.5962436490757863 0 0 0 0 5.1552882307805703 14.759782719187569 0 14.759782719187569 -9.7640589980347627 0 0 0 0 4.6457508452657876 10.300354351521682 0 10.300354351521682 -3.1179830875955985 0 0 0 0 11.327181672460938 26.302682293117414 0 26.302682293117414 -1.2996690281065639 0 0 0 0 13.672084236999581 22.139517733445814 0 22.139517733445814 -2.0085397720249603 0 0 0 0 6.571339864018281 12.626355120359861 0 12.626355120359861 4.2032902341250509 0 0 0 0 7.2293531729774259 13.010929452307209 0 13.010929452307209 -4.4105039809942497 0 0 0 0 12.144836927746837 17.797114673157751 0 17.797114673157751 4.6447644517602384 0 0 0 0 2.0089569226111053 24.364555377005672 0 24.364555377005672 8.2602139494065341 0 0 0 0 3.3216203387465733 0.25800645235996456 0 0.25800645235996456 -0.55254542739291779 0 0 0 0 2.9670799815721693 27.752777560779123 0 27.752777560779123 6.1093090366512115 0 0 0 0 4.2772557340358617 25.038823236285225 0 25.038823236285225 7.8459563598953537 0 0 0 0 -1.9479803291505959 27.386856091022537 0 27.386856091022537 7.1725200385537846 0 0 0 0 4.7631026595900039 29.006244809082773 0 29.006244809082773 4.5545901465775387 0 0 0 0 3.0577672930999142 36.54654278177469 0 36.54654278177469 -7.7798380974313659 0 0 0 0 8.1947240644858539 13.945437196820649 0 13.945437196820649 7.6752347415631448 0 0 0 0 -25.116550708224167 39.595608688606717 0 39.595608688606717 5.7598289225634289 0 0 0 0 -16.836540738095209 23.137208051800826 0 23.137208051800826 7.6471322581465762 0 0 0 0 1.6689500734755711 31.718704435053496 0 31.718704435053496 2.2730760585168355 0 0 0 0 7.0063726289856305 15.361390269252649 0 15.361390269252649 6.907289639831399 0 0 0 0 16.69372431028205 17.026240949775342 0 17.026240949775342 2.1792784890553776 0 0 0 0 17.916639095157734 25.834358696030449 0 25.834358696030449 4.784960320723485 0 0 0 0 22.645389226225234 46.600988652560318 0 46.600988652560318 5.7607935875112162 0 0 0 0 -2.4976763235985331 15.640782090678833 0 15.640782090678833 -5.0304768091194632 0 0 0 0 18.047426329143491 38.166873635320826 0 38.166873635320826 14.815800988758383 0 0 0 0 16.284322602368775 47.160344364563116 0 47.160344364563116 7.884297626134412 0 0 0 0 11.524590715128397 70.956137135102495 0 70.956137135102495 7.8491433400301958 0 0 0 0 -9.3218011241951899 39.174656059221888 0 39.174656059221888 9.1695793563277022 0 0 0 0 2.8729180821706848 4.3091354620256679 0 4.3091354620256679 -1.1870999062637895 0 0 0 0 -3.1063405394816073 46.529966964402462 0 46.529966964402462 83.353204808017836 0 0 0 0 2.7384006022586078 13.540879780195027 0 13.540879780195027 -3.6806562743880469 0 0 0 0 9.4348607924366661 48.412063227427439 0 48.412063227427439 24.644769489264718 0 0 0 0 13.592901587573579 24.002365207620187 0 24.002365207620187 0.74592566056867327 0 0 0 0 -10.493271417803811 8.5440046079836165 0 8.5440046079836165 -0.37777432895882646 0 0 0 0 -9.9639000229653902 19.950432638618395 0 19.950432638618395 1.3628033650293219 0 0 0 0 -9.9357387443953229 14.130616103746393 0 14.130616103746393 0.97311295875624637 0 0 0 0 18.8692959679247 33.549477613382692 0 33.549477613382692 -32.910695131699029 0 0 0 0 -13.051875002487968 12.132787380618471 0 12.132787380618471 -7.6042178511944014 0 0 0 0 -9.0231023606058898 13.057856614194783 0 13.057856614194783 -2.1609167490021282 0 0 0 0 -5.5680070535490813 21.577589324427208 0 21.577589324427208 -7.7373622985437578 0 0 0 0 -14.545231931770104 16.196826074571618 0 16.196826074571618 -0.4687383241707721 0 0 0 0 -13.506342522134219 13.494893693156541 0 13.494893693156541 -14.811358506864963 0 0 0 0 -14.07182870291399 15.583699644135777 0 15.583699644135777 0.46552547685678292 0 0 0 0 -7.6857649601614746 8.4778790387746916 0 8.4778790387746916 -4.9718583709771451 0 0 0 0 -10.751216917824379 11.646591666585003 0 11.646591666585003 -3.0626599522690512 0 0 0 0 -1.6959334737912286 9.5017346105887555 0 9.5017346105887555 8.0697743481177895 0 0 0 0 -8.1217691291467915 8.0035792038413156 0 8.0035792038413156 0.26162863605056685 0 0 0 0 6.7824551918347424 15.471244004342225 0 15.471244004342225 2.0785006249270737 0 0 0 0 -0.27661554568290825 7.2346987521037809 0 7.2346987521037809 -9.2093103351383476 0 0 0 0 13.436602697001945 26.449916025731909 0 26.449916025731909 21.872898571303267 0 0 0 0 42.619305038504535 65.975688841843294 0 65.975688841843294 25.34521203044801 0 0 0 0 8.9606918657666483 66.819925152294104 0 66.819925152294104 69.381268711009398 0 0 0 0 0.28195562128166785 19.300643759432432 0 19.300643759432432 -2.7846763449740077 0 0 0 0 3.7827518395788502 11.103482008004903 0 11.103482008004903 -1.6871615489908436 0 0 0 0 4.0986059995111646 11.889003521188442 0 11.889003521188442 -5.0454382836851437 0 0 0 0 3.8892316242223046 14.844472920244371 0 14.844472920244371 -7.3528152402977867 0 0 0 0 3.8711664333641238 13.747998219818328 0 13.747998219818328 -4.7405712109575688 0 0 0 0 -3.4715908176501316 8.6560382844991359 0 8.6560382844991359 -5.1226530505176626 0 0 0 0 20.470201020238164 10.408639088861491 0 10.408639088861491 25.561449976810763 0 0 0 0 4.554532714857487 12.054742386644648 0 12.054742386644648 -8.3266193473127714 0 0 0 0 -1.3807663838335387 5.6688914096259566 0 5.6688914096259566 -8.1487470336158587 0 0 0 0 -6.9678986462495232 12.772813887956545 0 12.772813887956545 -49.815833902001032 0 0 0 0 6.4587796001534024 0.77022896017023612 0 0.77022896017023612 -15.566560895292419 0 0 0 0 1.7598225662497242 0.43105228795411499 0 0.43105228795411499 -3.0765848201981996 0 0 0 0 7.1753609075440181 12.858459152050273 0 12.858459152050273 -8.2042130321697186 0 0 0 0 -8.3345117869121168 39.82833256535605 0 39.82833256535605 71.605106530128978 0 0 0 0 -0.68690989919409873 1.1325029759454068 0 1.1325029759454068 -1.2582562712893939 0 0 0 0 11.297821002455748 19.379645730573429 0 19.379645730573429 89.54089019778803 0 0 0 0 25.598687787987728 72.433628317990042 0 72.433628317990042 56.07661262844249 0 0 0 0 28.677730817189058 117.34977715919689 0 117.34977715919689 168.623038004107 0 0 0 0 91.330025546659272 144.61067922436769 0 144.61067922436769 52.400103491656409 0 0 0 0 83.493936297356413 149.51890832941262 0 149.51890832941262 67.316461982239161 0 0 0 0 109.17415099469872 114.57585709784416 0 114.57585709784416 32.653427127509531 0 0 0 0 34.453071509742585 82.586124372579434 0 82.586124372579434 62.758317971376528 0 0 0 0 59.808948477366357 44.166577635273825 0 44.166577635273825 47.795626408913449 0 0 0 0 26.552092026380251 49.416125078888058 0 49.416125078888058 52.585456505303227 0 0 0 0 59.084534075187548 41.163138750103826 0 41.163138750103826 35.436923212153488 0 0 0 0 82.836829131625564 73.047081515313494 0 73.047081515313494 -27.585250382139748 0 0 0 0 96.586625151078806 63.891392836390878 0 63.891392836390878 -37.160400469218075 0 0 0 0 209.06880105085293 110.97002689875899 0 110.97002689875899 -100.97533660408317 0 0 0 0 176.71484428699387 159.01421358293146 0 159.01421358293146 -55.627796075031256 0 0 0 0 173.80666265093714 181.32926529262249 0 181.32926529262249 -33.212824392761831 0 0 0 0 -1223.5113175207662 840.7760812417182 0 840.7760812417182 -485.30824439159733 0 0 0 0 -32.484004615904269 7.6691317321448196 0 7.6691317321448196 10.058277412041207 0 0 0 0 -151.79612925452966 623.0037228674837 0 623.0037228674837 -742.86977324505915 0 0 0 0 -6.002215862865512 6.1698920500645418 0 6.1698920500645418 -3.8293027768478147 0 0 0 0 136.47482161014705 36.145869876766938 0 36.145869876766938 19.063981759301555 0 0 0 0 0.021615862813494147 -0.82526254603439497 0 -0.82526254603439497 1.1972766795439149 0 0 0 0 30.559304647489625 41.099080167803663 0 41.099080167803663 -98.59187297545941 0 0 0 0 -7.2534939710901227 10.127582500899035 0 10.127582500899035 -5.807041006294142 0 0 0 0 -3.6726292001258116 18.378374070893187 0 18.378374070893187 -23.551326250573766 0 0 0 0 13.829275039795903 39.207251208230446 0 39.207251208230446 158.06999323041873 0 0 0 0 -0.49232097358012794 1.8008927332962301 0 1.8008927332962301 -0.78770226029373092 0 0 0 0 58.546940922995418 -8.5213509332834292 0 -8.5213509332834292 -38.417306984696552 0 0 0 0 20.304593876975559 7.3772232855599214 0 7.3772232855599214 66.52157915071075 0 0 0 0 96.69765343384006 67.706412239360702 0 67.706412239360702 -99.32770152862031 0 0 0 0 29.466479930066271 22.425212960994941 0 22.425212960994941 -116.03765791296973 0 0 0 0 32.481208419070754 195.8510171982216 0 195.8510171982216 -184.87727096413937 0 0 0 0 -329.94689767081582 256.95130388157122 0 256.95130388157122 -172.41882328618067 0 0 0 0 -24.166421170737522 179.55153131970769 0 179.55153131970769 -244.53414564250488 0 0 0 0 -936.25589622976622 268.62772050501826 0 268.62772050501826 381.13717067810285 0 0 0 0 268.63080729953981 -621.2601400768275 0 -621.2601400768275 394.00959672568951 0 0 0 0 -0.487059968900315 -1.1153124840230006 0 -1.1153124840230006 -7.8789425633446406 0 0 0 0 583.86003412168066 105.16148974725434 0 105.16148974725434 -200.83809205980606 0 0 0 0 -616.92694319435395 -3.0521256909769363 0 -3.0521256909769363 -176.44949994965282 0 0 0 0 -196.74233321497013 157.70581631095865 0 157.70581631095865 -255.27660222642635 0 0 0 0 -185.0818884014152 269.41954335807895 0 269.41954335807895 -99.954371294620614 0 0 0 0 -24.919507166312542 122.96254978541901 0 122.96254978541901 -232.70824285777144 0 0 0 0 116.73466949423891 192.12748646295904 0 192.12748646295904 -191.6383187368092 0 0 0 0 -131.82655810997676 126.04900534392095 0 126.04900534392095 -129.31576596858122 0 0 0 0 0.26119347910345425 -0.3724975696567725 0 -0.3724975696567725 -24.332536105018882 0 0 0 0 -247.26491596702908 216.04559648095301 0 216.04559648095301 -89.704106448449238 0 0 0 0 191.09642368913046 112.68169150261065 0 112.68169150261065 -15.813549285609042 0 0 0 0 73.197118451000279 108.98256701332934 0 108.98256701332934 -0.1299718308600859 0 0 0 0 194.24839842715483 371.06880079656548 0 371.06880079656548 -86.588344364335171 0 0 0 0 0.93664390639676043 1.708648628470967 0 1.708648628470967 -1.9940478227033669 0 0 0 0 104.57257716852109 353.98672475416242 0 353.98672475416242 353.06991035537067 0 0 0 0 133.25371178804744 -42.0949805672808 0 -42.0949805672808 -572.04382720535159 0 0 0 0 41.751211177685036 52.111117154817748 0 52.111117154817748 -188.51454043507488 0 0 0 0 105.00196602370306 137.66933665265242 0 137.66933665265242 -75.495400458472432 0 0 0 0 129.25521070528157 98.670596726213262 0 98.670596726213262 -93.67948085381272 0 0 0 0 187.87794356800714 134.75784334563366 0 134.75784334563366 -120.80508469557299 0 0 0 0 1.2765363252461341 3.3522333144256544 0 3.3522333144256544 -3.9604778838333985 0 0 0 0 137.42808611125292 67.581797565358102 0 67.581797565358102 -13.032968154114769 0 0 0 0 119.81357636995381 118.9197380409787 0 118.9197380409787 -76.235022603590551 0 0 0 0 119.47791125062213 133.46102173905592 0 133.46102173905592 -49.948161259460903 0 0 0 0 131.86282952367401 118.14900251737345 0 118.14900251737345 -69.318599155341872 0 0 0 0 76.285161389178029 107.44771420416032 0 107.44771420416032 -21.739410436579419 0 0 0 0 67.180568053122897 134.01372839243118 0 134.01372839243118 -65.239861321530952 0 0 0 0 42.306307323755391 120.39694042781457 0 120.39694042781457 -50.300971088305232 0 0 0 0 62.895224576663168 124.07891348310204 0 124.07891348310204 -44.543524124441319 0 0 0 0 -6.6758878849323082 154.12878194575887 0 154.12878194575887 -36.584069416391685 0 0 0 0 79.532175711783566 108.18357505735003 0 108.18357505735003 157.17744774250878 0 0 0 0 99.357073572871741 151.3642656429638 0 151.3642656429638 -38.275569294659817 0 0 0 0 56.072186057637737 300.56382721116302 0 300.56382721116302 198.06479109795418 0 0 0 0 66.729653050457273 -5.7287061140204969 0 -5.7287061140204969 -850.24102732865504 0 0 0 0 0.78126789339299307 1.8956076835214208 0 1.8956076835214208 -2.5143504644747683 0 0 0 0 84.299416394847867 304.13365147895092 0 304.13365147895092 -52.202404080591805 0 0 0 0 74.424565997334867 194.21145243787123 0 194.21145243787123 -332.99025364522458 0 0 0 0 -6.9715597964341214 58.64315169475185 0 58.64315169475185 -486.0425796006075 0 0 0 0 11.326238746507443 -0.51425088098494598 0 -0.51425088098494598 -379.62253976485749 0 0 0 0 7.0539826427090944 5.8564739666093741 0 5.8564739666093741 -2.8932816440847748 0 0 0 0 15.623028870975759 -81.111085268539682 0 -81.111085268539682 -854.95874261284371 0 0 0 0 99.007247415807797 -80.518921019667687 0 -80.518921019667687 -970.46937091631253 0 0 0 0 3.3530147802309429 3.2325977131117822 0 3.2325977131117822 -1.3538700317081052 0 0 0 0 57.959601357579231 641.26224813447789 0 641.26224813447789 991.9946519915452 0 0 0 0 398.76726961584791 573.12202492358506 0 573.12202492358506 402.49176820404682 0 0 0 0 81.518868558063502 239.02903695572013 0 239.02903695572013 290.01813725182365 0 0 0 0 303.05418190722412 253.36498061207476 0 253.36498061207476 -11.595532965134225 0 0 0 0 171.05852848074937 169.32405081998104 0 169.32405081998104 -23.548952042556721 0 0 0 0 155.86180751474603 201.85947178448555 0 201.85947178448555 -85.528464192829233 0 0 0 0 111.50445004613175 -32.424007294167041 0 -32.424007294167041 -937.55978391343206 0 0 0 0 -64.354814299473219 146.22952186662815 0 146.22952186662815 -104.52794432388121 0 0 0 0 -42.354097990045375 96.54978975936001 0 96.54978975936001 -29.566741602919137 0 0 0 0 -76.427973864772866 134.85652237963359 0 134.85652237963359 -69.765727203279312 0 0 0 0 -168.27300773750187 167.439163750722 0 167.439163750722 -25.623168316794363 0 0 0 0 -25.699363750699376 159.71785871784323 0 159.71785871784323 -69.024365285332351 0 0 0 0 -11.13962215868014 143.16638971757766 0 143.16638971757766 -66.988040415410069 0 0 0 0 -76.240258054460355 175.92019661892709 0 175.92019661892709 -74.599218777807209 0 0 0 0 8.6765129184368561 158.95906535769427 0 158.95906535769427 -98.226453517426989 0 0 0 0 -3.8623742059116921 120.19147795529443 0 120.19147795529443 -205.45321282116402 0 0 0 0 4.5430448226579756 182.51693890655497 0 182.51693890655497 -95.007562624270122 0 0 0 0 13.237019298354426 38.527884845385415 0 38.527884845385415 -212.25089563660549 0 0 0 0 34.118532366793261 73.580650734670371 0 73.580650734670371 -175.14845863863229 0 0 0 0 11.312549243592002 27.115747868825565 0 27.115747868825565 -106.35758017844978 0 0 0 0 -4.212362125742942 110.41364284210596 0 110.41364284210596 -110.70501806249013 0 0 0 0 -16.528107253931012 94.543654196555508 0 94.543654196555508 -68.501762521819273 0 0 0 0 3.3843221272891242 14.331461651903737 0 14.331461651903737 -30.116884310513342 0 0 0 0 -6.4543388783540649 36.295335953638869 0 36.295335953638869 -54.481509098754032 0 0 0 0 -44.34452234012042 65.712300583916203 0 65.712300583916203 -44.851758502876692 0 0 0 0 18.725723986328376 65.723349868061177 0 65.723349868061177 178.69198170649224 0 0 0 0 12.01504627061513 69.349932239338159 0 69.349932239338159 186.18373461000647 0 0 0 0 -8.1572666802312597 38.052589088619698 0 38.052589088619698 -65.018525972715906 0 0 0 0 20.824887946082526 84.528705413594253 0 84.528705413594253 236.89607450881385 0 0 0 0 0.61752061467976915 9.1588354771195668 0 9.1588354771195668 -3.9216013486209826 0 0 0 0 16.626015268890569 85.934729969919886 0 85.934729969919886 241.16053973461567 0 0 0 0 12.940773859008686 113.14286055464896 0 113.14286055464896 340.24881595322222 0 0 0 0 -58.707605455626435 113.11765253855697 0 113.11765253855697 387.8555726539189 0 0 0 0 5.4052585228479657 7.1326801938408488 0 7.1326801938408488 -3.1146972183117674 0 0 0 0 36.091440669966687 71.555879340116917 0 71.555879340116917 271.12904265244219 0 0 0 0 72.45545655963906 161.52164455299135 0 161.52164455299135 257.54512407897437 0 0 0 0 124.17868690225941 335.63051141432868 0 335.63051141432868 559.28605236725434 0 0 0 0 296.18442376872918 282.80995274452675 0 282.80995274452675 -17.364242866045061 0 0 0 0 222.00014649999139 91.883685880568919 0 91.883685880568919 -26.460010662784953 0 0 0 0 172.95863618082876 110.56219936094112 0 110.56219936094112 70.598272682691913 0 0 0 0 83.899340923715499 149.32741908954358 0 149.32741908954358 159.92805386685177 0 0 0 0 157.42691267177179 172.3201844566388 0 172.3201844566388 120.2989008194038 0 0 0 0 111.61596782448578 226.68004716631822 0 226.68004716631822 303.26397243788688 0 0 0 0 75.499701634191297 154.59278564402712 0 154.59278564402712 164.65081408578772 0 0 0 0 38.597519368624489 115.03370390130249 0 115.03370390130249 159.74875644110853 0 0 0 0 52.111035601754338 146.6428367616727 0 146.6428367616727 225.97047088305965 0 0 0 0 74.661946913864085 155.21868842855793 0 155.21868842855793 137.98590923003962 0 0 0 0 74.67469762422661 132.55795458473904 0 132.55795458473904 132.75063119388142 0 0 0 0 66.972238513799311 137.31980037910034 0 137.31980037910034 100.72413538788896 0 0 0 0 48.44639230104076 120.60271056718557 0 120.60271056718557 120.35547447024305 0 0 0 0 45.496958230227392 145.19535428653307 0 145.19535428653307 126.88150512366997 0 0 0 0 53.173579893509668 136.55427752291325 0 136.55427752291325 163.29651968893177 0 0 0 0 32.255233287029114 90.916586004344936 0 90.916586004344936 134.08432811597049 0 0 0 0 32.856539912027074 104.72603748818983 0 104.72603748818983 195.64386494583619 0 0 0 0 117.87281337698005 68.470824665551845 0 68.470824665551845 77.46313817727787 0 0 0 0 -78.071628594119829 99.668681443273272 0 99.668681443273272 73.018442094051807 0 0 0 0 -9.8314138996374822 32.722355806133692 0 32.722355806133692 519.94193875326164 0 0 0 0 19.829616109462222 -67.758404099089603 0 -67.758404099089603 -40.586856595431527 0 0 0 0 11.154017348419075 31.962963458149716 0 31.962963458149716 33.59626818983088 0 0 0 0 -30.301476284777891 -19.741664430328456 0 -19.741664430328456 -11.972805750547195 0 0 0 0 -24.302298957594758 34.647563349426491 0 34.647563349426491 37.197909309576062 0 0 0 0 -3.2549575235243537 -0.64616665954872587 0 -0.64616665954872587 94.959556337968024 0 0 0 0 61.603762697224738 28.057888579935025 0 28.057888579935025 33.448929939549089 0 0 0 0 -20.897383422148778 37.199109408057211 0 37.199109408057211 254.81467087970486 0 0 0 0 113.19236191881646 255.15550579406772 0 255.15550579406772 303.77966068874593 0 0 0 0 0.74001140490508988 117.37418771764624 0 117.37418771764624 161.1864675673055 0 0 0 0 71.289000403794489 85.099709723259366 0 85.099709723259366 161.34025382618529 0 0 0 0 -43.622447444231511 340.89820371636688 0 340.89820371636688 742.15823323318727 0 0 0 0 100.85900901937202 206.6365272820567 0 206.6365272820567 412.52855493933345 0 0 0 0 -12.421696909874299 187.28935613472368 0 187.28935613472368 434.12045526170277 0 0 0 0 79.836700955657079 411.9009229379426 0 411.9009229379426 667.22094163011752 0 0 0 0 29.950817051405465 434.87197423332213 0 434.87197423332213 797.80364632587589 0 0 0 0 -98.676549532428908 271.02418079423842 0 271.02418079423842 892.12233388178083 0 0 0 0 635.53162919781062 123.40069320175553 0 123.40069320175553 162.81751677451916 0 0 0 0 86.348228410945012 463.83530572787276 0 463.83530572787276 888.48181540884343 0 0 0 0 507.16036453638208 399.5676532125924 0 399.5676532125924 311.88432305453171 0 0 0 0 343.75495035269159 343.15491453737968 0 343.15491453737968 335.73790761110104 0 0 0 0 28.771266102293339 -65.07304486635212 0 -65.07304486635212 -11.151048362955407 0 0 0 0 0.55528325844994608 3.4475327650950049 0 3.4475327650950049 6.5929517477136947 0 0 0 0 -72.822007855436823 -63.219409421626096 0 -63.219409421626096 537.60271384415137 0 0 0 0 -100.56007416486545 110.02498985590012 0 110.02498985590012 -382.22382814720731 0 0 0 0 2.1560992758700781 2.7744009742419813 0 2.7744009742419813 -12.483666913394515 0 0 0 0 17.605018725396349 15.149198657211059 0 15.149198657211059 -23.033516853523906 0 0 0 0 1.3433773939554143 1.21201267424075 0 1.21201267424075 -0.041321116328079971 0 0 0 0 -155.45283167104571 268.71929496106986 0 268.71929496106986 -189.01649791468753 0 0 0 0 127.66887228951418 119.06105320771439 0 119.06105320771439 -127.98646880761245 0 0 0 0 46.115426504076822 -1.5191711015772853 0 -1.5191711015772853 -89.498116777445603 0 0 0 0 -1.3190673175562928 1.2078288623557203 0 1.2078288623557203 -0.70254352353485494 0 0 0 0 114.10084708717295 133.09644907387064 0 133.09644907387064 67.104477051374488 0 0 0 0 -253.37683397030651 33.791768581409997 0 33.791768581409997 53.039603066587006 0 0 0 0 28.482000381183752 2.9658898752941241 0 2.9658898752941241 -9.571638689928136 0 0 0 0 39.448805969241221 13.200750433015628 0 13.200750433015628 -9.0180240689485345 0 0 0 0 32.604003685963107 22.034951211995349 0 22.034951211995349 -18.560473569814121 0 0 0 0 26.275302208694484 13.200068784790801 0 13.200068784790801 -31.679577133230321 0 0 0 0 160.97952270931819 0.41417923005246848 0 0.41417923005246848 -152.02665416736545 0 0 0 0 15.791249279252924 13.013029504372547 0 13.013029504372547 -23.392138025182931 0 0 0 0 8.6091736204740243 16.288074757350184 0 16.288074757350184 0.066299867971399584 0 0 0 0 15.646328322147376 30.595146170309707 0 30.595146170309707 -11.510942366217478 0 0 0 0 27.538367412460502 -5.8347072189135361 0 -5.8347072189135361 -93.756602376876799 0 0 0 0 14.271581574175798 29.645823159769293 0 29.645823159769293 -12.073255204293122 0 0 0 0 15.595896583296842 16.291363438170329 0 16.291363438170329 -1.0841416734653775 0 0 0 0 20.392743674014127 34.158041067049453 0 34.158041067049453 -14.445570031216903 0 0 0 0 35.625225292773393 34.935797720445635 0 34.935797720445635 -23.703341761778802 0 0 0 0 17.439285170259609 44.135609579923766 0 44.135609579923766 -7.0242839866039049 0 0 0 0 43.471406928873648 48.291168565609944 0 48.291168565609944 -44.958476984964136 0 0 0 0 46.743643992568195 16.708102519535402 0 16.708102519535402 -10.188201863541508 0 0 0 0 36.980067543737732 85.954120229427843 0 85.954120229427843 116.41577837497357 0 0 0 0 49.000495916421642 24.922076835087296 0 24.922076835087296 3.8341750075925347 0 0 0 0 51.104655925537372 37.942333886200799 0 37.942333886200799 -9.8250934278623845 0 0 0 0 116.25255304831444 -8.5039095182030451 0 -8.5039095182030451 -28.141585272677503 0 0 0 0 52.346930892754699 9.4971186723101795 0 9.4971186723101795 4.1253249597157264 0 0 0 0 51.617198985371033 18.257738873473045 0 18.257738873473045 -8.4309419206507528 0 0 0 0 63.976151884258798 2.5857995915509946 0 2.5857995915509946 -12.729305196260839 0 0 0 0 -298.84406768040208 148.00335040103414 0 148.00335040103414 21.384204355105339 0 0 0 0 0.066268052896679919 0.71793487736216832 0 0.71793487736216832 -6.5778493181021576 0 0 0 0 -1.5551455960359952 3.042009787347709 0 3.042009787347709 -3.0179845973791046 0 0 0 0 -104.78613060433781 -18.146430094691596 0 -18.146430094691596 71.169399097702808 0 0 0 0 42.97093550064983 135.80893050379541 0 135.80893050379541 -43.794004420030433 0 0 0 0 179.83861773277749 -5.2418973921469387 0 -5.2418973921469387 -79.130289611196872 0 0 0 0 -44.628141764569733 54.507419156036121 0 54.507419156036121 39.301715986192903 0 0 0 0 0.04613446567233126 0.68474320115666742 0 0.68474320115666742 -2.0615210782016371 0 0 0 0 -426.92987555183572 104.91146107267446 0 104.91146107267446 13.64079730950175 0 0 0 0 -44.760495175394652 49.387658574319204 0 49.387658574319204 -70.996310339079628 0 0 0 0 -19.682530945996405 127.02528579776708 0 127.02528579776708 -150.60439036314233 0 0 0 0 -35.779825269459934 30.562292019212535 0 30.562292019212535 33.604692791225261 0 0 0 0 0.39413263846564206 0.55738091516682786 0 0.55738091516682786 -1.2516526320830206 0 0 0 0 36.212374294185793 20.000627631714224 0 20.000627631714224 0.70462128175154248 0 0 0 0 186.25270903127421 -64.42033225517082 0 -64.42033225517082 -42.344529234502488 0 0 0 0 0.80900863476927043 -37.39451085697317 0 -37.39451085697317 -91.329106787766307 0 0 0 0 -154.28017505009029 61.697625520725467 0 61.697625520725467 -28.517020950502229 0 0 0 0 22.13364936356993 31.375703387272551 0 31.375703387272551 -25.70524848460353 0 0 0 0 24.502160646008633 71.401691573284438 0 71.401691573284438 -78.453319995081756 0 0 0 0 60.429551187979087 69.114196093862404 0 69.114196093862404 -83.625864507952201 0 0 0 0 91.722063640335364 23.672556026260281 0 23.672556026260281 -69.751297258345858 0 0 0 0 33.666014708340299 109.545183668287 0 109.545183668287 -102.61927183149237 0 0 0 0 47.846976239139622 137.77340704159928 0 137.77340704159928 33.693981129334134 0 0 0 0 47.399235434064394 160.99465433156001 0 160.99465433156001 63.946497958217606 0 0 0 0 54.107238893623617 141.03055804789437 0 141.03055804789437 71.398607371799244 0 0 0 0 52.958103019225746 151.33348662997969 0 151.33348662997969 102.02979229136668 0 0 0 0 86.782222264312622 128.31564963827873 0 128.31564963827873 70.607608313834135 0 0 0 0 46.309045946129118 118.86297459389539 0 118.86297459389539 49.23424631770331 0 0 0 0 67.165441036928314 139.32095780924283 0 139.32095780924283 69.261070202307565 0 0 0 0 68.158975099191593 84.438184048330641 0 84.438184048330641 37.653775408306501 0 0 0 0 88.930000137050229 137.68352102234189 0 137.68352102234189 93.099137503636484 0 0 0 0 145.71471138533161 124.57209717632031 0 124.57209717632031 56.764084390403696 0 0 0 0 109.7249009997895 131.81824819989527 0 131.81824819989527 91.417408139545842 0 0 0 0 236.21798465215215 116.44475324083987 0 116.44475324083987 46.718216453295554 0 0 0 0 -0.32479757447031066 1.6146017765402512 0 1.6146017765402512 0.55034553898757466 0 0 0 0 -4.8889314693042252 9.6853042617904066 0 9.6853042617904066 21.986832152012539 0 0 0 0 -0.75017792851727449 2.1825549820935493 0 2.1825549820935493 -2.8292104780115848 0 0 0 0 -0.16276020787136503 2.1912709258363918 0 2.1912709258363918 -0.37740281076577897 0 0 0 0 140.1211936699367 65.017712624226206 0 65.017712624226206 24.610959102780271 0 0 0 0 97.897813489998953 59.56584820070907 0 59.56584820070907 28.016395193398353 0 0 0 0 -0.44400034203226824 11.773578049838136 0 11.773578049838136 9.2231695177656547 0 0 0 0 -9.3878291429609817 -12.974916295304979 0 -12.974916295304979 11.239762328948927 0 0 0 0 1.1336301533822279 3.3534990877959672 0 3.3534990877959672 -55.062548617538141 0 0 0 0 -0.65107252958137707 0.81415441315839487 0 0.81415441315839487 -0.95602406714061594 0 0 0 0 -75.125501525277286 90.380880285796366 0 90.380880285796366 30.113477266184873 0 0 0 0 8.2944134877307079 13.086243601804426 0 13.086243601804426 -83.468016298946281 0 0 0 0 27.704671413252072 57.22778103886435 0 57.22778103886435 40.283481980812667 0 0 0 0 104.75872137711303 73.775075456215973 0 73.775075456215973 30.047414885919352 0 0 0 0 24.987044374693141 127.82634079465083 0 127.82634079465083 4.3863764896177599 0 0 0 0 10.72135123089538 146.02205977210815 0 146.02205977210815 39.485516659465816 0 0 0 0 33.423987010937708 120.45870339226644 0 120.45870339226644 -137.13700471182642 0 0 0 0 -35.0067001749876 179.65423373569092 0 179.65423373569092 -31.86900762375717 0 0 0 0 58.518844677975721 141.22717399045155 0 141.22717399045155 -27.351645449375837 0 0 0 0 31.953855551209926 131.17741109073495 0 131.17741109073495 -18.892057633927948 0 0 0 0 28.420696412381062 163.74303456752543 0 163.74303456752543 22.40111408264147 0 0 0 0 43.549173145993336 74.921792680082262 0 74.921792680082262 -120.78394277858752 0 0 0 0 -12.151926156328045 64.221663610956739 0 64.221663610956739 48.141151200383206 0 0 0 0 0.417282563274469 0.23826993590824941 0 0.23826993590824941 -0.049151842384246525 0 0 0 0 78.399465205162599 124.99216780544397 0 124.99216780544397 -54.841626933699899 0 0 0 0 -79.062866723821571 39.786950560238893 0 39.786950560238893 -50.380330552231726 0 0 0 0 -15.566360874041493 42.885966514490292 0 42.885966514490292 -73.718444473945965 0 0 0 0 -56.507819239660421 47.260771610976121 0 47.260771610976121 -36.466141919581446 0 0 0 0 -44.555929517255208 59.487953454124863 0 59.487953454124863 -72.120054788534361 0 0 0 0 -37.375944402760069 105.9709779695371 0 105.9709779695371 -142.04261297422772 0 0 0 0 -103.04679244076851 105.76296170580571 0 105.76296170580571 -79.379253702538563 0 0 0 0 -33.799082175368312 46.364303361544444 0 46.364303361544444 -25.794220154965387 0 0 0 0 -80.60880700560665 104.01529611774197 0 104.01529611774197 -95.982299827773431 0 0 0 0 -59.160229395069109 51.661874230757235 0 51.661874230757235 -121.08446385979596 0 0 0 0 -52.888879281763366 70.470614507802452 0 70.470614507802452 -76.38396073878198 0 0 0 0 -67.893994861481588 56.606147397916459 0 56.606147397916459 -86.477401032158014 0 0 0 0 0.24682780846967489 0.65807171949659171 0 0.65807171949659171 0.33301697530374552 0 0 0 0 -73.05126471437552 67.189545663026649 0 67.189545663026649 -73.96599753609803 0 0 0 0 -15.159403621981255 77.331409055681661 0 77.331409055681661 -133.46198658521894 0 0 0 0 -18.953862258117624 59.47346725096412 0 59.47346725096412 -94.343634519236616 0 0 0 0 -0.95940800073289978 0.73317156948761486 0 0.73317156948761486 0.2523800625943674 0 0 0 0 -44.026685411489325 34.604727953025019 0 34.604727953025019 -26.867025417060631 0 0 0 0 -48.370081164801377 87.150112038648558 0 87.150112038648558 -86.319848845474098 0 0 0 0 0.50517817371576257 0.64544993584858368 0 0.64544993584858368 0.27670560541129552 0 0 0 0 4.8224144884698035 22.051263699409219 0 22.051263699409219 -65.895519462178498 0 0 0 0 -0.29876310389221317 0.64344021183353384 0 0.64344021183353384 0.15989693901877589 0 0 0 0 -26.1278559377497 2.8465972682870415 0 2.8465972682870415 35.626832368805253 0 0 0 0 6.1618739376517624 38.670706681312737 0 38.670706681312737 -88.78297202322608 0 0 0 0 20.430884657293063 36.281984171370596 0 36.281984171370596 -24.878411615980554 0 0 0 0 -23.682840260637022 11.868859181888894 0 11.868859181888894 -38.360913793117106 0 0 0 0 76.055639212449023 80.641272208703754 0 80.641272208703754 31.79516877360561 0 0 0 0 32.658394168720406 16.231675320619843 0 16.231675320619843 -25.227453946865126 0 0 0 0 103.07052182412735 37.509133669492485 0 37.509133669492485 -31.715133365784652 0 0 0 0 87.299929832728594 102.50254374408232 0 102.50254374408232 -39.994358777020807 0 0 0 0 63.603430499128081 41.22100854620885 0 41.22100854620885 -8.1781134847147996 0 0 0 0 36.569587226320891 98.639700599336493 0 98.639700599336493 -57.389401246550278 0 0 0 0 15.953644249570061 94.53546481908495 0 94.53546481908495 -36.454435985316309 0 0 0 0 4.7701206295805605 46.326323363224674 0 46.326323363224674 -36.125572208164158 0 0 0 0 75.362392614480996 50.891373728128428 0 50.891373728128428 -37.082935055240569 0 0 0 0 -18.900863192551697 10.403958586037561 0 10.403958586037561 -27.809931859362905 0 0 0 0 35.945950334167719 13.830464028843494 0 13.830464028843494 -29.875138154078968 0 0 0 0 -3.6100012392471399 -52.875267895923457 0 -52.875267895923457 23.869263953102632 0 0 0 0 0.12912317511562144 0.27968737420733802 0 0.27968737420733802 -0.74953486965564586 0 0 0 0 118.42470451176814 -56.823989241062577 0 -56.823989241062577 -53.466285729544779 0 0 0 0 4.270640603514039 42.051070617027108 0 42.051070617027108 -123.75567681182724 0 0 0 0 -62.988883123834967 46.650370253593223 0 46.650370253593223 -45.298573140031294 0 0 0 0 21.43098634157468 0.43793993165979828 0 0.43793993165979828 -39.033639461110397 0 0 0 0 31.700606938342389 41.865277031987716 0 41.865277031987716 -63.745686086336377 0 0 0 0 40.645764135286299 16.223858448871283 0 16.223858448871283 -13.340842506778245 0 0 0 0 -33.152200560878555 46.967260769326913 0 46.967260769326913 -24.78612782343248 0 0 0 0 -33.290100000971506 57.960949159318488 0 57.960949159318488 -29.80451691125586 0 0 0 0 8.7585992467584219 65.224034381764511 0 65.224034381764511 -55.674080130625043 0 0 0 0 23.483052557795418 32.721310386686923 0 32.721310386686923 -18.523189151762836 0 0 0 0 -74.035128196523146 61.573963684207683 0 61.573963684207683 -51.032718414896863 0 0 0 0 -30.24996843826375 55.988284557566089 0 55.988284557566089 -61.797781839432673 0 0 0 0 -53.137811984473956 96.423070426682216 0 96.423070426682216 -75.657176394466887 0 0 0 0 -49.851121065241387 72.565219935392861 0 72.565219935392861 -123.00114825144442 0 0 0 0 0.11479621931127326 0.29281404263534228 0 0.29281404263534228 -0.010589254478700294 0 0 0 0 -120.47679351211809 87.529947351426927 0 87.529947351426927 51.582456454222836 0 0 0 0 -67.362674276060716 160.21874880410974 0 160.21874880410974 -127.97764133517194 0 0 0 0 -92.889366556477398 123.41937189484355 0 123.41937189484355 -4.9774544861920731 0 0 0 0 28.153086149761293 74.908643237680621 0 74.908643237680621 -24.315953840364045 0 0 0 0 87.035584386081609 34.010037207814321 0 34.010037207814321 -17.179764927405753 0 0 0 0 -37.24652641843204 102.36294382157098 0 102.36294382157098 -62.798936319115569 0 0 0 0 -18.738848015887925 56.352690665384102 0 56.352690665384102 4.4368527299175184 0 0 0 0 -78.116220203683042 113.04807450359067 0 113.04807450359067 -6.5250497869760693 0 0 0 0 -82.823580632303674 90.368797033912244 0 90.368797033912244 20.204243559436691 0 0 0 0 -32.02232985268347 86.72419773303227 0 86.72419773303227 -13.475210424510351 0 0 0 0 5.6330716624597699 31.098485456674211 0 31.098485456674211 16.478029590707138 0 0 0 0 63.74719293387534 58.310226814834323 0 58.310226814834323 -17.551356791202124 0 0 0 0 -63.455565738509904 64.381971817223757 0 64.381971817223757 9.0088077489572242 0 0 0 0 180.21161849474811 54.286085838533609 0 54.286085838533609 -27.722226521988432 0 0 0 0 107.49702117197012 16.808758199954809 0 16.808758199954809 -22.493088611775875 0 0 0 0 257.63656313662068 90.869505114082415 0 90.869505114082415 -32.713201346110509 0 0 0 0 181.38220841135626 70.080541309687305 0 70.080541309687305 -14.099193976549486 0 0 0 0 202.22000647270761 62.141117716008239 0 62.141117716008239 -42.556246085993735 0 0 0 0 165.08559449412132 85.856425867652888 0 85.856425867652888 -22.662448145936651 0 0 0 0 184.8979648851564 65.939717465255171 0 65.939717465255171 -29.226608940909045 0 0 0 0 92.190635698458209 53.312741176681811 0 53.312741176681811 -18.842427620719718 0 0 0 0 105.79411442412675 46.891904268151848 0 46.891904268151848 -23.703062883593692 0 0 0 0 141.80271598879699 102.92922399201404 0 102.92922399201404 17.472477863948825 0 0 0 0 82.036132298198936 70.926954380160396 0 70.926954380160396 -22.370480710571883 0 0 0 0 249.60013512270962 114.56153359206314 0 114.56153359206314 -7.1710795906449221 0 0 0 0 0.1109462965160688 -0.24875527170945588 0 -0.24875527170945588 0.65154034176027054 0 0 0 0 371.26618075219267 -3.3179982408095157 0 -3.3179982408095157 -33.436130395229611 0 0 0 0 -146.85293525069346 41.642143264785659 0 41.642143264785659 0.032138101606960845 0 0 0 0 210.26874054169457 108.19688595231537 0 108.19688595231537 -41.971952934218052 0 0 0 0 -33.290406127613096 -68.007072203347434 0 -68.007072203347434 103.09667746636569 0 0 0 0 -42.072634257408936 36.473863005499766 0 36.473863005499766 -5.4278462395432143 0 0 0 0 -1.1411055558790935 2.9227969831491514 0 2.9227969831491514 -0.36165839785795795 0 0 0 0 54.962955329684519 163.64974074362601 0 163.64974074362601 -61.119188487400606 0 0 0 0 226.08157983554975 88.224720000769651 0 88.224720000769651 -7.7416372274028618 0 0 0 0 -43.277304922350595 35.929917886544445 0 35.929917886544445 -4.1740120845397541 0 0 0 0 -53.708885481793914 13.859284498890702 0 13.859284498890702 12.913213911129674 0 0 0 0 -8.1689260392757888 6.6864721001751448 0 6.6864721001751448 1.6132548170111529 0 0 0 0 214.54429424523369 111.03107417680107 0 111.03107417680107 -41.237743012520696 0 0 0 0 -42.900459021213464 37.502007276900713 0 37.502007276900713 -5.4113117500282897 0 0 0 0 -45.156331868334746 36.431605600758303 0 36.431605600758303 -1.2870143220661703 0 0 0 0 -8.8168796511199616 20.64013985179281 0 20.64013985179281 -10.266885285865783 0 0 0 0 -32.674899095650218 19.606165707484845 0 19.606165707484845 -8.4574261751600126 0 0 0 0 -44.163313303839459 42.972357181054861 0 42.972357181054861 -28.715109154171387 0 0 0 0 -34.367879580997396 24.85432875139054 0 24.85432875139054 0.10926537929719871 0 0 0 0 -46.177330408103444 36.661382664711255 0 36.661382664711255 -2.1894656457197925 0 0 0 0 -47.925658629163081 38.933247425150512 0 38.933247425150512 -3.4824363469920172 0 0 0 0 -44.778361463151668 38.286098438294744 0 38.286098438294744 -5.5902877340931809 0 0 0 0 9.1959232146909926 40.316572928433743 0 40.316572928433743 86.609007149751733 0 0 0 0 -37.674365535331162 75.37992399632958 0 75.37992399632958 60.507106373709576 0 0 0 0 27.437159917149984 83.118313155581745 0 83.118313155581745 4.6605191269827628 0 0 0 0 93.497132889795466 44.377267484007461 0 44.377267484007461 24.308484421690082 0 0 0 0 -45.524063032855338 23.417969254785476 0 23.417969254785476 54.954372495237294 0 0 0 0 -1.9277210311811359 17.617839362372592 0 17.617839362372592 -112.53779680626758 0 0 0 0 -8.0329965556388743 15.293346622132788 0 15.293346622132788 -72.170126033758606 0 0 0 0 -8.0805055722366887 18.127169510170688 0 18.127169510170688 -29.229599718923964 0 0 0 0 1.8396529532583372 64.233504737077737 0 64.233504737077737 -48.547798161353398 0 0 0 0 8.9522624546352745 58.553269688712703 0 58.553269688712703 -93.52682636136376 0 0 0 0 -72.970291220350191 82.611732023432296 0 82.611732023432296 -23.724628922956526 0 0 0 0 -16.612892401091813 39.879050696308923 0 39.879050696308923 -69.914756957306508 0 0 0 0 -20.666209960225387 37.06957175826301 0 37.06957175826301 -32.921485637519936 0 0 0 0 -14.01779445548982 70.997617940169363 0 70.997617940169363 -50.550014474154523 0 0 0 0 3.5267561878827109 116.86396445209402 0 116.86396445209402 -9.9800116031011612 0 0 0 0 -0.21026113864172657 101.68728251615289 0 101.68728251615289 -26.319402495562713 0 0 0 0 2.3573141110700817 48.90322455637812 0 48.90322455637812 -103.08961197259737 0 0 0 0 15.787008863651863 71.261479947096632 0 71.261479947096632 -15.312040739908156 0 0 0 0 -9.3945201919432293 86.501116654995997 0 86.501116654995997 -14.53506712746821 0 0 0 0 16.541672428074889 96.738180714998748 0 96.738180714998748 -28.370487467251223 0 0 0 0 -10.372393517282035 149.5947043544071 0 149.5947043544071 47.385008751539374 0 0 0 0 31.947294270612474 19.86345849918996 0 19.86345849918996 53.907908185533259 0 0 0 0 9.4327265591837204 103.50157080072904 0 103.50157080072904 -74.483983723989923 0 0 0 0 3.723069408641777 76.234858399047482 0 76.234858399047482 -106.24227297940774 0 0 0 0 132.07792866151885 127.42531549890381 0 127.42531549890381 -256.50982700272993 0 0 0 0 79.435156104544149 -9.0303920479082365 0 -9.0303920479082365 -375.10448033538808 0 0 0 0 52.06474666876602 97.648746856860726 0 97.648746856860726 -154.63939178016972 0 0 0 0 -55.25302535546507 -53.089741126495483 0 -53.089741126495483 -209.76799445901725 0 0 0 0 27.272153700152558 78.249136089218155 0 78.249136089218155 4.5960405528285122 0 0 0 0 -6.0436521235617491 3.4938197491965584 0 3.4938197491965584 -1.3068911239315659 0 0 0 0 25.631685592600661 -116.20777626970974 0 -116.20777626970974 -363.43312339600323 0 0 0 0 273.87903685912579 478.4267439077326 0 478.4267439077326 774.1413830134361 0 0 0 0 164.95989847431338 -52.48761553159602 0 -52.48761553159602 -264.92261780619583 0 0 0 0 2.0761815205044272 28.326652151880214 0 28.326652151880214 -26.558784888787571 0 0 0 0 -3.7272239650155612 9.0005617260004112 0 9.0005617260004112 -9.8393727729549667 0 0 0 0 1067.2457758934033 1069.5587964311644 0 1069.5587964311644 -702.27891900455552 0 0 0 0 -6.7298008675556389 2.8971855737897059 0 2.8971855737897059 14.18167730269683 0 0 0 0 -12.664319143357716 18.119235416206038 0 18.119235416206038 -104.668976360442 0 0 0 0 -4.9082753132752259 43.142293102365784 0 43.142293102365784 -93.198063994627773 0 0 0 0 -21.30132983475778 -5.7250232568144384 0 -5.7250232568144384 -205.39713155887921 0 0 0 0 -90.133034224163566 -39.698893149692822 0 -39.698893149692822 -156.00860676316984 0 0 0 0 10.399570141897129 39.432887204229019 0 39.432887204229019 -159.3708582236909 0 0 0 0 -155.45467088290025 60.470869430995663 0 60.470869430995663 378.9243008464473 0 0 0 0 -58.118374026753372 6.7451014379843173 0 6.7451014379843173 -107.51492672963832 0 0 0 0 -34.37782241631794 -198.85332637516331 0 -198.85332637516331 -446.44561694795993 0 0 0 0 -14.950401323800705 28.9942325199846 0 28.9942325199846 -35.239997090619603 0 0 0 0 70.733310938192972 117.2709230874944 0 117.2709230874944 -121.75399653462773 0 0 0 0 -19.093474104547212 10.558526746713948 0 10.558526746713948 -5.7280508424654935 0 0 0 0 21.484521637583384 58.107436185509869 0 58.107436185509869 -13.717328405487933 0 0 0 0 202.49445300816296 245.34352859385399 0 245.34352859385399 95.038667151816753 0 0 0 0 -2.4746721695337328 25.04406189366 0 25.04406189366 146.38144896480662 0 0 0 0 0.1991397850737755 -2.1764180598201968 0 -2.1764180598201968 -8.604323244633644 0 0 0 0 -516.22472345197457 -74.485999073829589 0 -74.485999073829589 775.55686550906285 0 0 0 0 -234.86128379652655 217.5607046245259 0 217.5607046245259 586.13416365777266 0 0 0 0 -755.80514496355318 -248.42960599791513 0 -248.42960599791513 687.04356838310559 0 0 0 0 20.809273951264913 61.547209601856594 0 61.547209601856594 -10.158357398206135 0 0 0 0 27.372826692859235 64.33590525370164 0 64.33590525370164 -12.497579678994953 0 0 0 0 24.969339643765124 61.971579375553119 0 61.971579375553119 -13.521312152137398 0 0 0 0 29.362001625806442 73.527539425576833 0 73.527539425576833 -4.0808948699341272 0 0 0 0 28.983778574269309 74.020997227603402 0 74.020997227603402 -1.7944202998914989 0 0 0 0 16.987949143207516 61.173941819892207 0 61.173941819892207 -5.2087219017848838 0 0 0 0 21.500931838403631 70.820544953523495 0 70.820544953523495 4.6626447457492759 0 0 0 0 16.317692696436097 64.494508429344933 0 64.494508429344933 -2.7891310137201799 0 0 0 0 28.239102764343443 71.551089173667776 0 71.551089173667776 -5.601256387293688 0 0 0 0 28.17582997604768 68.207212002766028 0 68.207212002766028 -9.2586018817746663 0 0 0 0 21.618228424631525 66.99674363185477 0 66.99674363185477 -3.3128273302245361 0 0 0 0 25.626122623711126 66.544350425807352 0 66.544350425807352 -10.278550121627632 0 0 0 0 34.279769243809824 76.233243247952942 0 76.233243247952942 -6.8567617928565596 0 0 0 0 33.204097318579443 72.430413769438019 0 72.430413769438019 -10.434333544886613 0 0 0 0 28.256254810198925 70.980860284216305 0 70.980860284216305 -4.3215064581017941 0 0 0 0 29.323345692253497 77.139993595214037 0 77.139993595214037 -6.1667502183572651 0 0 0 0 20.51688429600199 71.134947388449291 0 71.134947388449291 -3.5914875967027911 0 0 0 0 23.823045565932262 50.742377472449334 0 50.742377472449334 24.865060020722012 0 0 0 0 -88.514588597565307 49.447087556793122 0 49.447087556793122 28.390269999077191 0 0 0 0 35.054964447343473 52.429394037893829 0 52.429394037893829 -1.1929348676252687 0 0 0 0 58.109185586272815 63.193283508075865 0 63.193283508075865 -81.401627751871274 0 0 0 0 59.780445471351413 46.728335950448695 0 46.728335950448695 -128.73323584277387 0 0 0 0 62.070545037415286 105.84153975940899 0 105.84153975940899 -117.21067339534329 0 0 0 0 64.116279338297318 127.18215596855043 0 127.18215596855043 -24.868796354980077 0 0 0 0 35.389168524892739 73.261265971721514 0 73.261265971721514 -3.6685595421477046 0 0 0 0 30.988838029248654 78.360605306932484 0 78.360605306932484 0.089100571230119385 0 0 0 0 -850.82385759417957 173.80855279247135 0 173.80855279247135 1499.6708327069061 0 0 0 0 70.022456644888734 118.60260775119968 0 118.60260775119968 -29.028365637783281 0 0 0 0 62.00255472772551 123.75204829247195 0 123.75204829247195 -31.555293149376666 0 0 0 0 -37.071324909127725 164.50605706781334 0 164.50605706781334 -28.709799697830022 0 0 0 0 49.386359885229467 109.62220360175888 0 109.62220360175888 -6.3969689014083997 0 0 0 0 50.220982228631328 102.97165802588461 0 102.97165802588461 -8.4195594135708234 0 0 0 0 1.1923254498255886 0.67433685091701534 0 0.67433685091701534 -3.0958536562315402 0 0 0 0 102.8970918151972 99.161727099390191 0 99.161727099390191 -53.92104277773069 0 0 0 0 85.962173489766428 148.53831701539457 0 148.53831701539457 -82.792267772249033 0 0 0 0 74.225118229898726 103.61350665294003 0 103.61350665294003 -27.191286205539654 0 0 0 0 114.21850093021931 84.817072618152451 0 84.817072618152451 -28.56439575926629 0 0 0 0 90.476369952091773 103.67258999568367 0 103.67258999568367 -41.653058381925803 0 0 0 0 81.346584292863554 80.423951037968436 0 80.423951037968436 2.4215517583179462 0 0 0 0 -29.636138166471937 12.427878463898196 0 12.427878463898196 67.452310248148933 0 0 0 0 -2.2864490662062167 3.9092120793309988 0 3.9092120793309988 -0.78262391185647573 0 0 0 0 121.54928559819382 128.34253669853206 0 128.34253669853206 83.755028875715198 0 0 0 0 89.628603897021094 78.805782923713195 0 78.805782923713195 63.307277276304376 0 0 0 0 74.325557141841273 64.926709115719859 0 64.926709115719859 95.110883160879894 0 0 0 0 121.36709341124515 42.872583849068178 0 42.872583849068178 33.698272654175526 0 0 0 0 -12.23902888970035 22.629341736417558 0 22.629341736417558 -13.885119899941165 0 0 0 0 -131.67937170446567 108.21673454349957 0 108.21673454349957 62.502487781970558 0 0 0 0 3.481057271019381 45.27433629495772 0 45.27433629495772 40.727084036290762 0 0 0 0 -19.052220427176508 -36.115635058326006 0 -36.115635058326006 -34.439484343358345 0 0 0 0 -7.0904943542097669 19.539877645164516 0 19.539877645164516 -24.850048897034707 0 0 0 0 16.350759397748334 50.904255453737505 0 50.904255453737505 7.9248891763220399 0 0 0 0 -7.7107689137055786 20.914153051062613 0 20.914153051062613 -22.277827531497369 0 0 0 0 6.3118818683724385 51.510304395265848 0 51.510304395265848 23.300516864743258 0 0 0 0 2.4532584917324129 56.150744224287337 0 56.150744224287337 21.068412525266467 0 0 0 0 -12.098123220567558 23.951811916969248 0 23.951811916969248 -28.189244072344614 0 0 0 0 -538.9159322642081 -645.35091070881481 0 -645.35091070881481 -478.18191034148185 0 0 0 0 23.934449790894632 82.044768570314844 0 82.044768570314844 35.456521469937798 0 0 0 0 24.611558740914916 72.808983749733216 0 72.808983749733216 -0.96093616551479499 0 0 0 0 33.791633789776206 38.445508648939132 0 38.445508648939132 0.73136644522946526 0 0 0 0 5.6883808774892231 55.721784601072635 0 55.721784601072635 -42.779552844545591 0 0 0 0 19.58206509892625 64.404761763663828 0 64.404761763663828 0.63001194920389025 0 0 0 0 19.691201442921738 70.086715735898679 0 70.086715735898679 21.163354491660812 0 0 0 0 28.817949587297335 63.612491030687352 0 63.612491030687352 -13.413393705371391 0 0 0 0 4.8504961680228007 44.018151152144355 0 44.018151152144355 -5.3934506122706125 0 0 0 0 26.204420547562222 46.706812174000987 0 46.706812174000987 8.810664799668757 0 0 0 0 25.46009995202985 52.079267447868233 0 52.079267447868233 -9.0548179990200879 0 0 0 0 10.631945126184291 40.719878813192054 0 40.719878813192054 8.8419586195677766 0 0 0 0 32.001491029033787 50.495331607997059 0 50.495331607997059 13.276380337726437 0 0 0 0 8.6450456427519384 52.379694309185197 0 52.379694309185197 6.4999807934434557 0 0 0 0 11.597050975629827 47.082718030066417 0 47.082718030066417 13.293334704058452 0 0 0 0 13.657966248916637 47.047567676797598 0 47.047567676797598 13.136629688286462 0 0 0 0 17.252292992219736 45.19681480489885 0 45.19681480489885 12.547971414041967 0 0 0 0 15.825633483706042 43.993490044977307 0 43.993490044977307 12.901635321827371 0 0 0 0 -0.92904806477235979 44.329693320043248 0 44.329693320043248 17.031883537906197 0 0 0 0 -1.2038298354891594 50.140531094474682 0 50.140531094474682 15.130609147453015 0 0 0 0 -17.266456020413898 58.047461120471326 0 58.047461120471326 49.421169800616781 0 0 0 0 14.887089372667106 38.140864142182409 0 38.140864142182409 18.192161018888783 0 0 0 0 -0.68169412239875271 1.7135134786185571 0 1.7135134786185571 -0.96612636222449888 0 0 0 0 -28.515882906060142 65.609306415817969 0 65.609306415817969 155.96730194010024 0 0 0 0 -11.89233286416129 143.07868750779085 0 143.07868750779085 -87.22647395239261 0 0 0 0 -59.042654383267291 134.20469063797265 0 134.20469063797265 2.2469287904964403 0 0 0 0 11.529780362256133 26.777684724833762 0 26.777684724833762 58.828995104840942 0 0 0 0 41.60747698897103 48.633700672202622 0 48.633700672202622 34.522337387657217 0 0 0 0 20.543136378149939 33.426964349282002 0 33.426964349282002 37.756155665472079 0 0 0 0 49.440868265817699 13.779069151209114 0 13.779069151209114 -168.31440722348862 0 0 0 0 -4.3416164178737944 2.1079563715905536 0 2.1079563715905536 -1.6443767911808185 0 0 0 0 18.047117725103817 67.138504773829823 0 67.138504773829823 97.710720112394256 0 0 0 0 15.720792127140157 56.377417418482878 0 56.377417418482878 -23.911013493370774 0 0 0 0 -4.7686396010412864 61.924882624404802 0 61.924882624404802 25.390093421225629 0 0 0 0 20.297527120897939 42.529651002641458 0 42.529651002641458 16.009015093740345 0 0 0 0 -2.7329349759185391 11.201385959611077 0 11.201385959611077 -1.3811769948506472 0 0 0 0 30.945753265965322 29.325577638889399 0 29.325577638889399 -45.356443808427457 0 0 0 0 30.579366427953573 21.404240110009823 0 21.404240110009823 -7.3448726233737034 0 0 0 0 22.786450490195421 43.221964472752006 0 43.221964472752006 -13.219204843374428 0 0 0 0 17.244109643215779 42.237194495713084 0 42.237194495713084 4.3307727102976514 0 0 0 0 19.204992233634734 25.432927058709691 0 25.432927058709691 4.8340612549044684 0 0 0 0 28.269858005207425 68.83796688450218 0 68.83796688450218 -18.480270639178698 0 0 0 0 36.920995943065464 14.880354305672711 0 14.880354305672711 -23.594737410758398 0 0 0 0 22.435344927873054 26.723006014029021 0 26.723006014029021 6.1015891217856417 0 0 0 0 -11.713151658721472 60.591944982568634 0 60.591944982568634 -16.123856927145084 0 0 0 0 8.8917573705121953 4.4597251645903562 0 4.4597251645903562 -0.53567824000560638 0 0 0 0 -0.071228100126973004 5.5725457690218718 0 5.5725457690218718 35.517736813731517 0 0 0 0 31.942188197041105 36.368013809107197 0 36.368013809107197 -16.11704956049914 0 0 0 0 6.4413707028013008 8.5107133214328119 0 8.5107133214328119 -0.089964746341077095 0 0 0 0 3.580801786964912 64.401195489780434 0 64.401195489780434 43.959143433409736 0 0 0 0 19.620375878101186 54.726782087994934 0 54.726782087994934 -50.491661153232371 0 0 0 0 27.139022994997504 15.524837512366503 0 15.524837512366503 -135.38002452199248 0 0 0 0 5.3629108636723686 24.194094580555429 0 24.194094580555429 -21.241750358020226 0 0 0 0 -0.76557666788620793 -1.3683622629684664 0 -1.3683622629684664 0.48236916597540413 0 0 0 0 20.261716090699792 74.731535165308657 0 74.731535165308657 -33.424962095858518 0 0 0 0 11.269613571173977 83.299526337090583 0 83.299526337090583 -39.92487770152286 0 0 0 0 4.7674514536120114 67.370518138180046 0 67.370518138180046 -6.4559885796643357 0 0 0 0 -15.71385335427658 68.193912198243481 0 68.193912198243481 -7.5779057700387966 0 0 0 0 30.410799833258153 29.966136621823445 0 29.966136621823445 5.9642353917729487 0 0 0 0 -17.615685787550319 37.946619527347593 0 37.946619527347593 17.866379920545569 0 0 0 0 15.239568736805268 52.030276707922752 0 52.030276707922752 -18.367993682392353 0 0 0 0 -30.347997698809195 60.56772901582849 0 60.56772901582849 28.396708034042263 0 0 0 0 25.724722039319659 32.780237507383589 0 32.780237507383589 9.6298049349613848 0 0 0 0 30.342680446396145 30.545990404067648 0 30.545990404067648 2.670399693517556 0 0 0 0 54.689218854868159 14.762150034166211 0 14.762150034166211 -12.70972559000063 0 0 0 0 
</DataArray>
<DataArray type="Float64" Name="cross_section_updated" format="ascii">
1 1 1 0.01028653184330014 1 1 1 0.010286777725578553 1 1 1 1 1 1 1 1 1 1 1 1 1 1 1 1 1 1 1 1 1 1 0.0097274769270338547 1 1 1 1 1 0.0085965147429286175 1 1 1 1 1 1 1 1 1 1 1 1 0.0097282338978078847 1 1 1 1 1 0.0063440867433825305 1 1 1 1 1 1 1 1 1 1 1 1 1 1 0.004808265549062973 1 1 1 1 1 0.0033169200512744319 1 1 1 1 1 1 1 0.0098171333209246068 1 1 0.0099141930899070939 1 1 1 1 1 0.0098814541364328681 1 1 0.009343438551561084 1 1 1 1 0.0097933219594051775 1 1 1 1 0.0096037136626239226 1 1 0.0095917789694618984 0.010140047989979995 1 1 1 1 0.010139637061576501 1 1 1 1 1 1 1 1 1 1 1 1 1 1 1 1 1 1 1 1 1 1 1 1 1 1 1 1 1 1 0.01020839493521168 1 1 1 1 1 0.010061340008152422 1 1 1 1 1 1 1 1 1 1 1 1 0.010046975947214614 1 1 0.010339718017804981 1 0.010024332386561099 0.010553391931239204 1 1 1 1 1 1 1 1 1 1 1 0.010116192977516064 1 1 1 1 1 1 1 1 1 1 1 1 0.013081386046761068 0.001653610194355384 1 1 1 1 0.012887496539576378 1 1 1 0.012258036585608598 0.010589867610276704 1 1 1 1 1 1 0.010231677103879823 1 1 1 1 1 1 1 1 0.01045448137652563 1 1 1 0.0092531032313024428 1 1 1 1 1 1 1 1 1 1 1 1 1 1 1 1 1 1 1 1 1 1 1 1 0.0061416215523852815 1 1 1 1 1 1 1 1 1 1 1 0.009740797601713742 1 1 1 0.0085336084506370136 1 1 1 1 1 1 1 1 1 0.0084804244612852742 1 1 1 1 1 1 1 1 1 1 0.01190125680324459 1 1 1 1 1 1 1 1 1 0.0057589430317252438 1 1 1 1 0.0032004841869355599 1 1 1 1 1 1 0.0094019443772588845 1 1 1 0.01096841425629423 1 1 1 1 1 1 1 1 1 0.0075879831456039555 1 0.015460325326052215 1 1 0.010407299014983586 0.010435453941005151 1 1 1 1 0.0096959599807520253 1 1 0.010050679165312978 1 1 1 1 1 0.012405889382099076 1 0.0099913026851150451 1 1 1 0.015053634693862023 0.013651193853981771 1 1 1 1 1 1 1 1 1 1 1 1 1 1 1 1 1 1 1 1 1 1 1 1 1 1 1 1 1 1 0.01087055203238719 1 1 1 1 1 1 1 1 1 1 1 1 1 1 1 1 1 1 1 1 1 1 1 1 1 1 1 1 1 1 1 1 1 1 1 1 1 1 0.0099561143851740336 1 1 1 1 1 1 1 1 1 1 1 1 1 1 1 1 1 1 0.0095388781330962499 1 1 1 1 0.010000384232322936 1 1 1 1 1 1 1 1 1 1 1 1 1 0.0092558973345201155 1 1 1 0.0096309120657147168 1 1 1 1 1 1 1 1 1 1 1 1 1 1 1 1 1 1 1 1 1 1 1 1 0.009721466403962091 1 1 1 1 1 0.0098362243175875459 1 1 1 0.0096782935639674085 1 1 1 0.0086076019997648624 1 1 1 1 1 1 1 0.012151176103368407 1 0.0099900622329130075 0.014382281326057313 1 1 0.0084535499449170902 1 1 0.0099993853442779182 1 1 0.012693911761132782 1 1 0.0094856758982491043 0.0093127995300376371 1 1 1 0.0091851699570710352 1 1 1 0.011728047446135488 1 1 1 1 1 0.0082944445818341726 0.0070010559072902611 1 1 0.013260861588086283 0.0074029727771347626 0.0090561374333526581 1 0.010339004730614712 1 1 1 1 1 0.0092253140185254295 1 0.01573860345953312 0.010058135900021213 1 0.014765936217743707 1 1 0.0096820178716212433 1 1 1 1 1 1 1 1 0.0088562358714421186 1 1 1 1 1 1 1 0.010223133061250283 1 1 1 0.0099736290967255663 1 1 1 1 0.010437210444547622 1 1 1 0.0086177657870011998 1 1 1 1 1 1 0.0083118304441894553 1 1 1 1 0.010545820033459099 1 1 1 0.009090436489055647 0.0099797432770268278 1 1 1 1 1 1 1 1 1 0.010066501258972006 1 1 1 1 1 1 1 1 1 1 0.0098674411088214026 1 1 1 1 1 1 1 1 0.010476803379945847 1 1 1 1 1 1 1 1 1 1 0.010172583175458307 1 1 1 1 0.010048107156623132 1 1 1 1 1 1 1 1 1 1 1 1 1 0.01121172280251128 1 1 1 0.012094696546441106 1 1 0.010027263433656444 1 1 0.01300513334937905 1 1 0.0095748252376031632 1 1 1 1 1 1 1 0.0098400046876397432 1 1 1 1 1 1 1 1 0.010751213322218772 1 0.013327407263915908 0.010386276358643141 1 1 1 0.013108059553730192 1 1 0.0078476580612218769 1 1.5612511283791264e-17 1 1 0.016902086433024897 1 1 1 1 1 1 1 1 1 1 1 1 1 1 1 1 0.0053923313063264644 1 1 1 1 0.0010328665137454285 1 0.0028946535406447161 1 1 1 1 1 1 1 1 1 1 1 1 1 1 1 1 1 1 1 1 1 1 1 1 1 0.0083689574258270037 1 1 1 1 1 0.010018051699423235 1 1 1 1 1 1 1 1 0.010695135496100194 1 1 1 1 1 1 1 1 1 1 1 1 1 1 1 1 1 1 1 1 1 1 1 1 1 1 1 1 1 1 1 1 1 1 1 1 1 1 1 1 0.0094089132976556272 1 1 1 1 1 1 1 1 1 1 1 1 1 1 1 1 1 1 1 1 1 1 1 1 1 1 1 1 1 0.0083581283070613306 1 1 1 1 1 1 1 1 1 1 1 1 1 1 1 1 1 1 1 1 1 1 1 1 1 1 1 0.009999839200283734 1 1 1 1 1 0.0097840935942342406 1 1 1 1 0.0099202163439803415 1 1 1 1 1 1 1 1 1 0.0083297584108642415 1 1 1 1 1 1 0.0080553457681301569 1 1 1 0.012664437530414867 1 1 1 1 1 1 1 1 1 0.0099052994373670395 1 1 0.0098043851326858958 1 1 1 0.010158837925485185 0.01207819337415076 0.010029236665211846 1 1 1 1 1 1 1 1 1 1 0.0074466663348998997 1 1 1 1 1 1 1 1 1 1 0.012234226696223708 1 1 1 1 1 1 1 1 1 0.009448211115956031 1 1 0.0092258186573475238 1 1 0.011210307905826736 1 1 1 1 1 1 1 1 1 0.0098143867035472773 1 1 1 1 1 1 1 0.010822940178244044 0.0098458639322157888 1 1 1 1 1 1 1 1 1 1 1 0.0097423587076116668 1 1 1 1 1 1 1 1 1 1 1 1 0.01062634469812977 1 1 1 1 1 1 1 1 1 1 1 1 1 1 1 1 1 1 1 1 1 1 1 1 1 1 1 1 1 1 1 1 1 1 1 1 1 1 1 1 1 1 1 1 1 1 1 0.01043887142393248 1 1 1 1 1 1 1 1 1 1 1 1 0.00994768023305884 1 1 1 1 1 1 0.011619690916240873 1 1 1 1 1 0.0080572332421998405 1 1 1 1 1 1 0.011555769945948691 1 1 1 1 1 1 0.010635081161073753 1 1 0.011611416477738968 1 1 1 1 1 0.0096966879135810622 1 1 1 0.01010779938990475 1 1 0.010401510891022562 1 1 1 1 1 0.0096247199920973803 1 0.009990370879455146 1 1 1 0.010796713688339926 1 1 0.010215154263543726 1 1 1 1 1 1 1 0.010571146258772758 1 1 1 1 0.003672075472913941 1 1 1 0.0099971294807322149 1 1 1 1 1 1 1 1 1 1 1 1 1 1 1 1 1 1 1 1 1 1 0.0089091544799888827 1 1 1 1 1 1 0.0096167151675438274 1 1 1 1 1 1 1 1 1 1 1 1 1 1 0.0075350490464377922 1 1 1 1 1 1 1 1 1 1 1 1 1 1 1 1 0.0060820067999006727 1 1 1 0.010135417596591367 1 1 0.010273911248208634 1 1 1 1 1 0.010091816002359557 1 1 1 1 1 1 1 1 1 0.0098990856953188565 1 1 1 1 1 1 1 1 1 1 1 1 0.0079308427344946426 1 1 1 1 1 1 1 1 1 0.0069483806208631288 1 1 0.0063893097363077519 1 1 0.013140088143027213 1 1 1 1 0.0085158280062590675 1 1 1 1 1 1 1 1 1 1 1 1 1 1 1 1 0.012701657413144846 1 1 1 1 1 1 1 1 1 1 1 1 1 1 0.010394482783273399 1 1 1 1 1 1 1 1 1 1 0.011709521551382596 0.0098768839836022287 1 1 1 0.0089541780671154106 1 1 1 1 1 1 1 1 1 1 1 1 1 1 0.011173485078090717 1 1 0.010651491371426588 1 1 1 1 1 1 1 1 1 0.01066613637210243 1 1 1 1 1 1 1 1 1 1 1 0.01015263085260199 1 1 1 1 1 1 1 1 1 1 0.010554411485879895 0.0071194239795251213 1 1 1 1 0.0058718195857868274 1 1 1 1 0.010692536525124516 1 1 0.0046820630603226793 0.012065036764947367 1 1 1 1 0.0078014912915889967 1 1 0.010007116385543047 1 1 1 0.0098613977087413443 0.0099949304344595317 1 1 1 1 1 1 1 1 1 1 1 1 1 1 1 1 1 1 1 0.0096535245835871614 1 1 1 1 1 1 1 1 1 1 1 1 1 1 1 1 0.0089703797482715703 0.010073974063533428 1 1 0.010776262838765507 0.012198448301201974 1 1 1 1 1 1 1 1 1 1 0.012127945341632345 1 1 1 1 1 0.01351623448573001 1 1 1 1 1 1 1 0.0072984259604153105 1 1 0.0070276749408257951 1 1 1 1 1 0.010636697123625112 1 1 1 1 1 0.013336304749041548 1 1 1 0.0073919677184443354 0.0037320615508693858 1 0.0066366200678375838 1 1 1 1 1 1 1 1 1 1 1 0.0080979226122013769 1 0.0099771258148249123 1 1 1 1 1 1 0.0093314886587019166 0.0099611618781997313 1 1 1 1 1 1 1 1 1 1 1 1 1 1 1 1 1 1 0.0099601617095761378 1 1 0.010067116035417203 1 1 1 1 1 1 1 0.010165910611833983 1 0.010201957231173691 1 0.0085556474888968705 1 0.0083653193587520346 1 1 1 0.0094890413186311355 0.0080250269116461763 1 1 1 0.0099476901438952381 1 1 1 1 1 1 1 1 1 1 1 0.01187075717966397 1 1 0.0076180956069994447 1 1 1 0.009080542258901066 1 1 0.0076820893450603531 1 1 0.0092724189428866829 1 0.0050098482253444227 1 1 1 1 1 1 1 1 1 1 1 1 1 1 1 1 1 1 0.0096210377649624083 1 1 0.0098225661659351454 1 1 1 1 0.0089645347104852398 1 1 1 1 1 0.010016467637597096 1 1 1 1 1 1 1 1 1 1 1 1 1 1 1 1 1 1 1 1 1 1 1 1 1 1 1 1 1 1 1 0.0054664227950387591 1 1 1 1 1 1 1 1 1 0.0061823295186894346 1 1 1 1 1 1 1 1 1 1 0.0095484248073937055 1 1 1 1 0.0099565193165913404 0.0099978234530656226 1 1 1 1 1 1 1 1 1 1 1 1 1 1 1 1 1 1 1 0.010190019103546612 1 1 1 1 1 1 1 1 1 1 1 1 1 1 1 1 1 1 1 1 1 0.0049465201782212757 1 1 1 1 1 1 1 1 1 1 0.0079511736909962296 1 1 1 1 0.0097440383388285347 1 1 1 0.010272847515454247 1 1 1 1 1 1 1 1 1 0.012272614777340662 1 0.010435260651410087 1 0.010008511035631936 1 0.009991026955000315 1 1 1 0.013129201140857156 1 1 1 1 1 1 1 1 1 1 0.010121938150809799 1 0.0100284882507388 1 1 1 0.0096031830499216653 1 1 1 0.01000793028880821 1 1 1 0.010758776556215897 1 0.01178549186079276 0.0099548316258552816 1 0.0091247249440414048 1 1 1 0.0091734095113991734 0.011736024628846346 1 1 0.009581868876656293 1 1 1 1 1 0.01021148793823215 0.011941320151951144 1 1 0.0094126199396511231 1 1 0.0097833825998849266 0.012563536212615745 1 1 0.0093500268089515247 1 0.0093576866157117668 1 1 1 0.0099045558835975621 0.013265956603910735 1 1 1 1 1 1 1 0.012665330882663023 1 1 1 1 1 1 1 1 1 0.0086357888842145854 1 1 0.0095797444834199233 0.0099579562234155729 1 1 1 1 1 1 0.0088855681474158659 1 1 0.0096078499518635323 1 0.0094628568432075927 1 1 0.0099949981371774931 1 0.0089472026481887922 1 1 1 1 1 1 1 1 1 1 1 1 1 1 1 1 1 1 1 1 1 1 0.013786435852120117 1 0.0094919653454144468 1 1 1 1 1 1 1 1 0.010653425582817394 1 1 1 1 1 1 1 1 1 1 1 0.01205715559198367 1 1 1 1 1 0.013542164604589936 1 1 1 0.0067839382605357473 1 1 1 0.0061780516524046784 1 1 1 1 1 1 1 1 1 1 1 1 1 1 1 1 1 1 1 1 1 1 1 1 1 1 1 1 1 1 1 1 1 1 0.01154895113441193 1 1 1 1 1 1 1 1 1 1 1 1 1 1 1 1 0.0087124284622620632 1 1 1 1 1 0.010028293982078235 1 1 0.0099558711373647565 1 1 1 1 1 0.0093832659059741343 0.01053576724429291 1 1 1 1 1 1 1 1 1 1 1 1 1 1 1 1 1 1 1 1 1 1 1 1 1 1 1 1 1 1 1 1 1 1 1 1 0.014904429614556593 0.0092153204357753489 1 1 0.015892331953579072 1 1 1 0.0077116994612546463 0.0096614642470453597 1 0.0086176170946884248 0.0097787432098572664 1 1 1 0.0030709355548494688 1 1 1 0.012015311969439649 1 1 1 0.010717810809717437 1 1 1 1 1 1 1 1 1 0.012265419862682352 1 1 1 1 1 1 1 0.011200616403561625 1 1 1 0.0028667252120334104 1 0.0099672245998292646 1 1 1 1 1 1 1 1 1 1 1 1 1 1 0.0098088311032967449 1 1 1 1 0.0094715442616382407 0.012903742531281142 1 1 0.0075687999196390552 1 1 1 0.0087997452951521244 1 1 1 1 1 1 0.012501611847184377 1 1 0.0083616412203970959 0.0098109115997989365 1 1 1 1 1 1 0.0099622543228590887 0.0096581837948482227 1 1 1 1 1 1 1 1 1 1 0.0093361288599598646 1 1 0.0098032717140002206 1 1 1 1 0.0098776128053928661 1 0.0071491633393891713 1 0.013925229315213403 1 1 0.011527808092980768 1 1 1 1 1 0.014840286227093246 1 1 1 1 1 1 1 1 1 0.0096461551968811086 1 1 1 1 1 1 1 1 1 1 0.0093338957047394925 1 1 1 1 1 0.0044426474347491439 1 0.0093886711454225363 1 0.0096342702271390718 1 1 1 1 1 1 1 1 1 1 1 1 1 0.0099634680031700715 1 1 1 1 1 1 1 1 1 1 1 1 1 1 1 1 1 0.0094513650436473876 1 1 1 1 1 1 1 1 1 1 1 1 1 1 1 1 1 1 0.0096879264007361781 1 1 0.0099066811929505276 1 1 1 1 1 1 1 1 1 1 1 1 1 1 1 1 1 1 1 1 0.0098976091435797747 1 1 1 1 1 1 1 1 1 1 1 1 1 1 1 1 1 1 1 1 1 1 1 1 1 1 1 1 1 0.0096331453630375177 1 1 1 0.0098242230061963455 1 1 1 1 1 1 1 1 1 1 1 0.0099810941536786508 1 1 0.010017626150508585 1 1 1 1 1 1 1 1 1 1 1 1 1 1 1 1 1 1 1 1 1 1 1 1 0.010950820235855269 1 1 1 1 1 1 1 1 1 1 1 1 1 1 1 1 0.010353410921293861 1 1 1 1 1 1 1 1 1 1 1 1 1 1 1 1 1 1 1 1 1 1 1 1 1 1 1 1 1 1 0.0098086650501663635 1 1 1 1 1 1 1 1 1 0.0098075216255652468 1 1 1 1 1 1 1 1 0.011402291548867138 1 1 0.0090399610437489706 1 1 0.011808175996895508 1 1 0.01000421097170774 1 1 1 1 1 1 1 1 1 1 0.01006185072293094 1 1 1 1 1 1 1 0.0099353393347220136 1 0.010263249216975759 1 1 1 1 1 1 1 1 0.0099773277182433773 1 1 0.0086411325093686715 0.010030125041412891 1 1 0.010486037190312124 1 1 1 0.0097674852197284379 0.0093205188553509601 1 1 1 1 1 1 1 1 1 1 1 1 1 1 1 1 1 1 1 1 1 1 0.010076856640854632 1 1 1 1 1 1 1 1 1 1 1 1 1 1 1 1 1 1 1 0.0099145446020960128 0.010021073834913415 1 1 1 0.012089800957935132 0.010100995568256632 0.013189327249882929 1 1 1 1 1 1 1 1 1 1 1 1 1 1 1 0.010360443896765218 1 1 1 1 1 1 0.009191772680746696 1 1 0.016874862263250488 1 1 1 1 0.015827676672080484 1 1 1 0.014644973262194837 1 1 1 1 1 1 1 1 0.013798324947098775 1 1 1 0.010554773049272914 0.010691800334344711 1 1 1 1 0.01054945710640913 0.015023203864257399 1 0.010010411750271486 1 1 1 1 1 1 0.010568881660907171 1 1 1 1 1 0.010009292975350165 0.010004053443147439 1 1 1 1 1 1 1 1 0.0099407636990582072 0.010882972318045149 1 0.010542431688001317 1 1 0.010660100247377645 1 1 0.010769600883117559 1 1 1 0.0097428130657844381 0.010465498517575694 0.010002203806392811 1 1 1 1 1 1 0.011597789366716708 1 1 1 0.010153440488471738 1 1 1 1 0.011327607014878897 1 1 0.010934444536253527 1 0.010542884828556909 0.010992606858286636 1 1 1 1 1 0.0094610816322552756 1 0.010570602237469678 0.010018680811545985 1 1 0.0097948141234136081 1 1 1 0.00958539842539613 1 1 1 1 1 0.010712495167065961 0.011580060677830562 1 1 1 1 0.011516853763542376 0.0099284320783431315 0.012275101361770175 1 0.0090084049872163133 1 1 0.010062594899385111 1 1 1 0.01017420780095489 1 0.011256677426396727 1 1 1 0.012252086621143554 1 1 1 0.010004334376245393 1 0.0099771099919818192 1 1 0.0095566598538720671 1 1 1 0.009525280802471895 0.010138309205819518 1 1 0.010382856774686327 1 1 0.0098180326655097367 1 1 1 1 0.014072160206581539 0.0092415181274288476 1 1 1 1 1 1 0.01308453323219962 1 1 1 1 1 1 1 1 1 0.0087383368332137473 1 1 1 1 0.0096639902625970595 1 1 1 1 1 1 1 1 1 1 1 1 0.011884988774246369 1 1 1 0.0075210772419540411 1 1 1 1 1 1 1 1 1 1 1 0.012033985704712126 1 1 1 0.0099822536465295399 0.010003325344642064 1 1 0.0088489455699192268 1 1 1 1 1 1 1 1 1 1 1 0.011472805365110819 1 1 1 1 1 1 0.010001504386007658 0.0097634273745571248 1 1 1 1 0.010031170777623201 0.0086124323872931001 1 1 1 1 0.0088287549747702535 1 1 1 1 1 1 1 1 1 1 0.011279183975757516 1 1 1 1 0.010795011116719206 1 1 1 1 1 1 1 1 1 1 1 1 1 1 1 1 1 1 1 1 1 1 1 1 1 1 1 1 1 1 0.010963074067352337 1 1 1 1 1 1 0.010247815765631507 1 0.0069005323687090486 1 0.0099490770380350479 1 1 1 1 1 1 1 0.0096628001078864975 1 1 1 1 1 1 1 1 0.0087441761950511794 1 1 1 1 1 1 0.010021431679748683 1 1 1 0.011801937881597755 1 1 1 1 1 1 1 1 1 1 0.011433214345111603 0.01001087553791272 1 1 1 1 1 1 1 1 1 1 1 1 1 1 1 1 1 0.0098828294865641094 1 1 0.0081287385899040769 1 1 1 1 1 1 1 1 1 1 1 0.0096571318839610738 1 1 1 1 1 1 0.01289297189509849 1 1 1 1 1 1 1 1 1 1 1 0.010348763586127126 1 1 1 1 0.0098494623379243931 1 1 1 0.0097184186922040401 1 1 1 1 1 1 1 1 0.0093431949954559061 1 1 1 1 1 1 1 1 0.0097270904095000874 1 1 0.0090310992317808852 1 1 1 1 1 1 1 1 1 1 1 1 1 0.01015829215702509 1 1 1 1 0.010555860148173956 1 1 1 1 1 1 1 1 0.009929860705631538 1 0.016786480596471077 0.011752622181305423 1 1 1 1 1 1 1 1 1 1 1 1 1 1 0.010011674085793688 0.0077108833766511876 1 1 1 1 0.0085514288624431983 0.017422676723679184 1 0.0055833567539622124 1 1 0.013992447838036029 1 0.0099650520638136925 0.013277124118131809 1 1 0.010576418375644315 1 1 0.012783927307602467 1 1 0.012647356322741325 0.009042652395978892 1 0.0088117518188967122 1 1 1 1 1 0.01018180273137257 1 0.010867529190949764 1 1 1 1 1 1 0.01007576241645055 1 0.010122336596281731 1 1 0.011292065397951089 1 1 1 0.01240046817361974 0.0092778701291202411 1 1 0.010668466670844527 1 0.0071495209922665358 1 0.01000230611446374 1 1 1 1 0.012210139237651168 1 1 0.013573701223550904 1 1 1 1 1 1 1 1 1 1 1 0.013475984754934521 0.0090163738424697427 1 1 1 1 0.011000395980400406 1 1 1 1 1 0.0097371199507353314 1 1 1 1 1 1 0.0092015806004798403 1 1 1 0.013354112493659382 1 1 1 1 1 1 1 1 1 1 1 1 1 1 1 0.011431356738349118 1 1 0.011605024151922208 1 1 1 0.0097994934683254889 1 1 1 1 0.011627803139930504 1 1 0.0096594392765384507 1 0.0099819562433461993 1 1 1 1 0.010097792255942054 1 1 1 1 1 0.010004321376807627 1 1 1 1 1 0.0099066708124438789 1 1 1 1 1 1 1 1 1 1 1 1 1 1 1 1 1 0.010704537433424468 1 1 1 1 0.0088692184363153015 1 1 0.014537390855624815 1 1 0.014934305167691272 1 1 0.012549249360249566 1 1 0.011369500381005938 1 1 1 1 1 1 1 1 1 1 1 1 0.010033587695735879 1 1 1 0.0084947551151326114 1 1 1 1 1 1 1 1 1 1 1 0.011067190008484853 0.0099801623921584922 1 1 1 1 1 0.0094182696307495376 1 1 1 1 0.010139418992076326 1 1 0.010448083334312698 1 1 1 1 1 1 1 1 1 1 1 1 1 1 1 1 1 1 0.007706293288324978 1 1 1 1 0.0079792369347361919 1 1 1 1 1 1 1 1 0.0096801358858448275 0.010331822419132303 1 1 1 1 1 1 1 1 1 1 1 1 1 1 0.011753268097682939 1 1 1 0.01000316640701749 1 1 0.0073886226981028889 1 1 1 1 1 1 1 1 1 1 1 1 1 1 1 1 1 1 1 1 1 1 1 1 1 0.012381195008500186 1 1 1 1 1 1 1 1 1 1 1 1 1 1 1 1 1 1 1 1 1 0.010379194161921216 1 1 1 1 1 0.0097689959162619404 1 1 1 0.0099983811250202864 0.0130083998052007 1 1 1 0.0099281258178016332 1 1 1 1 1 1 1 1 1 1 1 1 1 0.0097285039597602811 1 1 1 1 1 1 1 1 1 0.009332057229894504 1 1 1 1 1 1 1 1 1 1 1 0.0099173713749527957 1 1 1 1 1 1 1 1 1 1 0.0095456292544533142 1 1 1 0.0097420122191881446 1 1 1 1 1 1 1 1 1 1 1 0.0098787624784670743 1 1 1 1 0.008058866245820662 1 0.0089780998922268339 1 1 1 1 0.0089006227527816898 1 1 0.0088138693152822658 0.0088997566998897468 1 1 0.009258524292826479 1 1 1 0.0096836540545649757 1 1 1 1 1 0.0097169249328799764 1 1 1 1 0.011022732567067012 1 1 1 1 1 1 1 1 1 1 1 1 1 1 1 1 1 0.010008939301576923 1 1 1 1 1 1 1 1 1 1 1 1 1 1 1 1 0.0096570788074069533 1 1 1 1 1 1 0.0071536572047785699 0.0095098568686697131 1 1 1 1 1 1 1 0.010552025541862546 1 1 1 1 1 1 0.008340432367558331 1 1 0.0064470910870514653 1 1 1 1 0.0099986476478865702 1 0.013167957753272565 1 1 1 1 0.012134525923819084 1 1 1 1 1 1 1 1 0.014396280632907902 1 1 1 1 0.0040393949169574301 1 1 0.016088796918318903 1 0.0098878215067705055 1 1 1 1 1 1 1 1 1 1 1 1 1 1 0.0078996131423915636 1 1 0.011985207395978092 1 0.011136200307745519 1 0.010072908052874075 1 0.011718315942819817 1 0.0098350357305018489 1 1 1 1 1 1 1 1 1 1 1 1 0.0095696619099606556 1 1 0.0099600107360359388 1 0.011331569271602927 1 1 0.009027685350984747 1 1 1 0.011765111014164628 1 1 0.011309686208561313 1 1 1 1 1 1 1 1 1 1 1 0.012065039686889083 0.0095440361922971423 1 1 1 1 1 1 0.011076843391847422 1 1 1 1 0.010411017168518119 1 1 1 1 1 1 1 1 1 0.010420840043982998 1 1 1 0.011475132669429067 1 1 1 1 1 1 1 1 1 1 1 1 0.0093044763877195066 1 1 1 1 0.013352468770041662 1 1 1 1 1 1 1 1 1 1 1 1 1 0.010184368383170848 0.0052569876901637676 1 1 1 0.0092337011504164401 1 1 1 1 1 1 1 1 1 1 1 1 1 1 1 1 1 1 1 0.0097527163889879146 1 1 0.0097018990711908101 1 1 1 1 1 1 1 1 1 1 1 1 1 1 1 1 1 1 1 1 1 1 1 1 1 1 1 1 1 1 1 1 1 1 1 1 1 1 1 1 1 1 1 1 1 1 0.010023797936499081 1 0.010074615254296176 1 1 1 1 1 1 1 1 1 1 1 1 1 1 1 1 1 1 1 1 1 1 1 1 1 1 1 1 1 1 1 1 1 1 1 1 1 1 0.0098954638223849589 1 1 1 1 1 1 1 0.010043243259416541 1 1 1 0.0099135249483732982 1 1 1 1 0.0099620426234805683 1 1 1 1 1 1 1 1 1 1 1 1 1 1 1 1 1 1 1 1 1 1 1 1 1 1 1 1 1 1 1 1 1 1 0.0074682994376575034 0.0091421917435532407 1 1 0.010020712648235371 1 1 0.0074826554111097864 1 1 1 0.0079187886338980551 1 1 1 1 1 0.013554208559446081 1 1 1 0.0083595430312711633 1 1 1 1 1 1 1 1 1 1 1 1 1 0.0092459712453116395 1 1 1 1 1 0.0098945292802808185 1 1 1 1 1 1 1 0.010007775210281849 1 1 1 0.0082480863696847775 1 0.010009107709289014 1 1 0.0098752163605987826 1 1 1 0.0092328299918215048 0.01001309802885513 1 0.010335861560941666 0.010063438866010282 1 0.0092758429480720838 1 1 1 0.0097310849078645796 1 0.011202558409920791 1 1 0.0096560796523806249 1 1 1 1 1 1 1 0.0095584586515821066 1 1 1 1 1 1 1 0.0098974686990705336 1 1 1 1 1 1 1 1 1 1 1 0.0095838965227696259 1 1 1 1 1 1 1 1 1 0.010151623983584641 1 1 1 1 0.012589786659869784 1 1 1 1 1 1 1 1 1 0.0097158636127224023 1 1 1 1 1 1 1 1 1 0.0098767425635725367 1 1 0.011588914041953063 1 1 0.010367158751654219 1 1 1 1 1 0.010545088048839805 1 1 1 1 1 1 1 1 1 1 1 1 1 1 1 1 1 1 1 1 1 1 1 1 0.012541124326460401 1 1 1 1 1 1 1 1 1 1 1 1 1 1 1 0.014115071779247 1 1 1 1 1 1 1 0.010153905322779939 1 1 1 0.010812737942468523 1 1 1 1 1 1 1 1 1 1 1 1 1 1 1 1 1 1 0.01053113190169554 0.010215534768069585 1 1 1 1 1 1 1 0.01090800436954701 1 1 1 1 1 1 1 1 1 0.010019724655284588 1 1 0.010544963410776396 1 1 1 1 1 1 1 1 0.010376872467851468 1 1 1 1 1 1 1 1 1 0.011755722985147252 1 1 1 1 1 1 1 0.010166183082873136 0.0095840235615306177 1 0.0099524611439645114 1 1 1 1 1 1 1 1 1 0.008792998846042812 1 1 1 1 1 1 1 1 1 1 0.010100631591630993 1 1 1 1 1 1 0.011654204468726361 1 1 1 1 1 1 0.010640360146516285 1 1 1 1 1 0.011750041734346892 1 1 0.010686570925026406 1 1 0.0098949029570322856 1 0.009873981788044878 1 1 0.009911298113570742 1 1 1 1 1 1 1 0.012302348859916202 1 1 1 1 1 1 1 1 0.012653519517668611 0.0097709115689577405 1 1 1 1 1 1 1 1 1 1 1 1 1 1 1 1 1 0.010260674106013105 0.0099834360124461171 1 1 1 1 1 1 1 1 1 1 0.010744885189131928 1 0.0096234065510929067 0.010210472044043017 1 1 1 1 1 0.010973157408718733 1 0.0091155885892112987 1 1 1 0.0096904229760542016 1 1 1 1 1 1 0.010360387135104789 1 1 1 1 1 1 1 0.011201322562020366 1 1 0.0099896933770766017 1 1 1 1 1 1 1 0.010037412923606721 1 1 1 1 1 1 1 1 1 1 1 1 1 1 1 1 1 1 1 1 1 1 1 1 1 1 1 1 1 0.011406978018565469 0.0092742557890287177 1 1 1 0.0097964896820371457 1 1 1 1 0.010920085566961427 1 1 1 1 1 0.0099906263316850569 0.010000852297641095 1 1 1 1 0.010568101044364661 1 1 0.010173352949535291 1 1 1 1 1 1 1 1 1 1 1 1 1 1 1 1 1 1 1 1 0.012351892870208263 1 1 1 0.0083818552602228126 1 1 1 1 1 1 1 1 1 1 1 1 1 0.010726970100127865 1 1 1 1 1 1 1 1 1 0.010346348722807503 1 1 0.0092689535386431283 1 1 1 1 1 0.0078782049207613315 1 0.0099107730998273958 1 1 1 1 1 1 1 1 1 0.010418948109219409 1 1 1 1 1 0.012624220414264354 1 1 0.01123959584021904 0.013234261802258916 1 1 1 1 0.0098560258384922626 1 1 1 1 1 1 1 1 1 1 1 1 1 1 1 1 1 1 1 1 1 1 1 1 1 1 1 1 1 1 1 0.013745957081076897 1 1 1 1 1 1 1 1 1 1 1 1 0.0099665746144173995 1 1 1 1 1 1 1 1 1 0.0083425620122375352 1 1 1 1 1 1 1 1 1 1 1 1 1 0.0095159748495836569 1 1 1 1 1 1 1 1 1 1 1 1 1 0.0091572747270715626 1 1 0.011076566098871022 0.0099832062526226551 1 1 1 1 1 1 1 1 1 1 1 1 1 0.0088177193912499698 1 1 1 0.0086032849178824013 1 1 1 0.013161724715097411 0.013227883955519267 0.0075159807856589878 1 1 1 1 1 0.014020008336971498 1 1 0.0073355590689276728 1 0.010512390099252856 0.0083366525263267217 1 1 1 1 1 1 1 1 1 1 1 1 1 1 1 1 1 1 1 1 1 1 0.0089025439100351537 1 1 0.0081576924888514361 1 1 1 0.0096393129586440293 1 1 1 1 1 1 1 1 1 1 1 1 1 1 1 1 1 1 1 1 1 1 1 1 1 1 1 1 1 1 1 1 1 1 1 1 1 1 1 1 1 1 1 1 1 1 1 1 1 1 1 1 0.010246947768467142 1 0.0092597176382915366 1 1 0.0090152500652423348 1 1 1 0.0099017679959494155 0.0099863925710785249 1 1 1 1 1 1 1 1 1 1 0.010438676158393796 1 1 1 0.0071765968801496844 0.01064313535335246 1 1 1 1 1 1 1 0.0093644093440164184 1 1 1 1 1 1 1 1 1 0.0082773152933240477 1 1 1 1 1 1 1 1 1 1 1 1 1 1 1 1 1 1 1 1 1 1 1 1 1 1 1 1 1 1 1 1 1 1 1 1 1 1 1 1 1 1 1 1 1 1 1 1 1 1 1 1 1 1 1 1 1 0.0096438568960128378 1 1 1 1 1 1 1 1 1 1 1 1 0.010032557660831356 1 1 1 1 1 1 1 1 1 1 1 1 1 1 1 1 1 1 1 1 1 1 1 1 1 1 1 1 1 1 1 1 1 1 1 1 1 1 1 1 1 1 1 1 1 1 1 1 1 1 1 1 1 1 1 1 1 1 1 1 1 1 1 1 1 0.01016768379586485 1 1 1 1 1 1 1 1 1 1 1 1 1 1 1 1 1 1 1 1 1 1 1 1 1 1 1 1 0.0089934500754874983 1 1 1 1 1 1 1 1 1 1 1 1 0.011011658434065447 1 1 1 1 1 1 1 1 1 1 0.0092575604064469557 1 1 1 1 1 1 0.0097025199606377999 1 1 1 1 1 1 1 1 1 1 1 1 1 1 1 0.010143817710027805 1 0.0098300739064590172 1 1 0.0089744555990505653 1 1 1 1 1 1 0.009950489459783135 1 1 1 1 1 1 1 1 1 1 0.010341948438108033 1 1 1 1 1 1 1 1 1 1 1 0.011059366602372693 1 1 1 1 1 1 1 1 1 1 1 1 1 0.010000213813113695 1 1 1 0.010367516272141979 1 1 1 1 1 1 1 1 1 1 1 1 1 1 1 1 1 1 1 1 1 1 1 1 1 1 1 1 0.010559897107568033 0.0093786824829547571 1 1 1 0.0086472146918567302 1 1 0.010263624534321159 1 1 1 1 0.0095135428571335792 1 1 0.010583372458207799 1 1 0.0087156361924838645 1 1 1 1 1 0.010075495131086239 1 1 1 1 1 1 1 1 1 1 1 1 1 1 1 1 1 1 1 1 1 1 1 1 0.0098238542824312814 0.010659702422610454 1 1 1 1 1 1 1 1 0.01177865011921422 1 1 1 1 1 1 1 0.0098096601870845488 1 1 1 1 0.0099913121443182297 1 0.009965307027018571 1 0.012348969753351912 1 1 1 1 1 1 1 0.012294509943308635 1 1 1 0.0077433176379463654 1 1 1 1 1 1 1 0.0081415226337094374 1 1 1 0.0092813860946931431 1 1 1 0.0056506008635783533 1 1 1 0.0092689362171083679 0.010420661975652503 1 1 1 1 1 1 0.005728786164665301 0.00860924038038283 1 0.010201376123599368 1 1 1 0.0096128244408667865 1 0.011085211108480793 1 -3.4694469519536142e-18 1 1 1 1 1 1 0.010328448181999791 1 1 1 1 1 1 1 0.010034399477817773 1 1 1 1 1 0.0017274959173367915 1 1 1 1 0.010153428625573103 0.012028262117868454 1 0.0032942439859078654 1 1 1 1 1 1 1 1 1 1 1 1 1 1 0.00082344965764354766 1 1 1 -6.9388939039072284e-18 1 1 1 1 1 1 1 1 1 1 1 1 1 1 0.010075759996791488 1 1 1 1 1 1 0.0096953949323866674 1 1 1 0.0098676272540002309 1 1 1 1 1 1 1 1 1 1 1 1 1 1 1 1 1 0.0099932067287559594 1 0.010266503376202137 1 1 1 1 1 1 1 1 1 0.0091336428515863283 1 1 1 0.010012295246377007 1 1 1 1 0.0097689426828760154 1 1 1 0.010898174058537978 1 1 1 1 0.0099052503447003629 1 1 1 1 1 1 1 1 1 1 1 1 0.010082386601877196 1 1 1 1 1 1 1 1 1 1 1 1 1 1 1 1 1 0.0090335538892403668 1 1 1 0.0086268604359708949 1 1 1 1 1 1 1 0.0088477066757498453 1 1 1 1 0.010935460631040882 0.0060827408088998105 1 1 0.0077053290260371225 0.011424623187379312 1 1 1 1 1 0.013016448901583513 1 1 1 1 1 0.0052447610587778928 1 1 1 1 0.009982383050982804 0.0087650723063006468 1 1 0.010017832292894401 0.011324832254251994 1 0.010019324436891274 1 1 0.0064560141161332119 0.00910076572175849 1 0.010938342253904384 1 1 0.0084086440449088092 1 1 1 1 1 0.010005947456371862 1 0.013167775845232786 1 1 1 1 0.011925159217659834 1 1 0.010813746908168602 1 1 0.0090002596396322361 0.0078289498157154882 0.0085204941956239302 0.0080820887009861522 1 1 0.012300166969470396 1 1 0.0061688644915334941 1 1 1 1 1 1 0.01236729787602763 1 1 0.012516637337051533 1 0.0090962316092466598 0.008377617044956015 0.013174644862808966 1 0.0096503043023029398 1 1 1 1 0.0097251365592613947 1 1 1 1 0.0077920667879359425 1 0.0086748103164243154 1 1 0.01001195063947938 1 1 0.0099045991528806665 1 1 0.0086352902851544143 1 1 1 1 1 1 0.009928706174927816 1 1 1 1 0.012702509850555876 1 1 1 1 1 1 1 1 1 1 1 1 1 0.010264726893986107 0.0099191486324009918 1 1 0.010030799384798039 1 1 1 1 1 1 1 0.011262446621088303 1 1 1 1 1 0.0091202178669717651 1 1 1 1 0.010035927641194188 1 1 1 1 1 1 1 1 1 1 1 1 1 1 1 1 1 1 1 1 1 1 1 1 1 1 1 1 1 1 1 1 1 1 1 1 1 1 1 1 1 1 1 1 1 1 1 1 1 1 1 1 1 1 0.0093781526557682755 1 1 1 1 1 1 1 1 0.0092415214454727133 1 1 1 1 1 1 1 1 1 1 1 1 1 0.0084318604001729306 1 0.0068300917061350306 1 1 0.0051021794570551057 1 1 1 1 0.0097770345694494203 1 1 1 1 1 1 1 1 1 1 1 1 1 1 1 0.0096404033591538582 1 1 1 1 1 0.0095726555308833089 1 1 1 1 1 1 1 1 1 1 1 1 1 1 1 1 1 1 1 1 1 1 1 1 1 1 1 1 1 1 1 1 1 1 1 1 1 1 1 1 1 1 1 1 1 1 1 0.0042304590964349345 1 1 1 0.009991711661848408 1 1 0.010092179919122451 1 0.0040008921524747141 1 1 1 1 1 1 1 1 0.0096797346088235894 1 1 1 0.0091127950352529932 1 1 1 1 1 1 1 1 1 1 1 0.0094938574528152936 1 1 1 0.009786447521473382 1 1 1 1 1 0.011078107520394009 1 1 0.01167486731259423 1 1 1 1 1 1 1 1 1 1 1 1 1 1 1 1 1 1 1 1 1 1 1 1 1 0.010392426036731307 1 1 1 1 1 1 1 1 1 0.013546102213314044 1 1 1 1 1 0.011272356940202588 1 1 1 1 1 1 0.010469937295764837 1 1 1 1 1 1 1 1 1 1 1 1 1 1 0.010896123438308827 1 1 1 0.011426645880792912 1 1 1 1 1 0.010163182571333706 1 1 0.010910142565416227 1 1 1 1 1 1 1 1 0.010012757831223511 1 1 0.011486018396518714 1 0.010598842374656458 0.005660758927278969 1 1 1 1 1 1 1 1 1 1 1 1 1 1 1 1 1 1 1 1 1 0.010067098493191526 1 1 0.0091100796669971 1 1 0.010040850885656719 1 1 1 1 1 1 1 1 0.0081015845457251667 1 1 1 1 1 1 1 1 1 1 1 1 1 1 1 1 1 1 1 1 1 1 1 1 1 1 1 1 1 1 1 0.009938285895913751 1 1 0.013345225832448826 1 1 1 1 0.012356010728934649 1 1 1 1 1 1 1 1 1 1 1 1 1 1 1 1 1 1 1 1 1 1 1 1 1 1 1 1 1 1 1 0.010117698727154964 1 1 1 1 1 1 1 1 1 1 0.01304373452414866 1 1 1 1 1 1 0.013672375519169454 1 1 1 1 1 1 0.013503853876499697 1 1 1 1 1 1 1 1 1 1 1 1 0.010011242830103653 1 1 1 1 1 1 1 1 1 1 1 1 1 1 1 1 1 1 1 1 1 1 1 1 1 1 1 1 1 1 1 1 1 1 1 1 1 1 1 0.0098641263092601981 1 1 0.009607927052010367 1 1 0.01181312584419382 1 1 0.012777190453279932 1 1 1 1 1 1 1 1 1 1 1 1 1 1 1 1 1 1 1 1 1 1 1 1 1 1 1 1 1 1 1 0.01008157964095243 1 1 0.011270646592952877 1 1 0.010453633777624944 1 1 1 0.009982457850359009 1 1 1 1 1 1 1 0.010288341576394152 0.011780349087791254 1 1 1 1 1 1 0.012083979343377772 1 0.011006303226414684 1 1 1 1 1 0.010322218645404004 1 1 1 1 1 1 1 1 1 1 1 1 1 1 1 1 1 1 0.011419482633741682 1 0.012543211802079566 1 1 1 1 1 1 1 1 1 1 1 0.012276955863985882 1 1 1 1 1 1 1 1 1 1 1 1 1 1 1 1 1 1 1 1 1 1 1 1 1 1 1 1 1 1 1 1 1 1 1 1 1 1 1 1 1 1 1 1 1 1 1 1 1 1 1 1 1 1 1 1 1 1 1 1 1 1 0.014332416937627192 1 1 1 0.013784699513839274 1 1 1 0.010414551675835266 1 1 0.012723063794943354 1 1 1 1 0.011635287174232309 1 1 1 1 1 1 0.011149949728566264 0.013050086848572652 1 1 0.010522681276791495 1 1 1 1 1 1 1 1 1 1 1 1 1 1 1 1 1 1 1 1 1 1 1 1 1 1 1 1 1 1 1 1 1 1 1 0.0093229001987658478 1 1 1 1 1 0.010087190927048718 0.0094945099088373577 0.011012993155851712 1 0.0097998203823302741 1 1 0.010091874413303673 1 1 1 0.009582677653072854 1 1 1 1 1 0.010131078169613159 1 1 1 1 1 1 1 1 1 1 1 1 1 1 1 1 1 1 1 1 1 1 1 1 1 1 1 1 1 1 1 1 1 1 1 1 1 1 1 1 0.01347024003489351 1 1 1 0.013884561277478296 1 1 0.010006007349125151 1 0.007614927500620974 0.010032781096811806 1 1 1 1 1 1 1 1 1 1 1 1 1 0.011597500195391325 1 1 1 0.012934526580499433 1 1 1 0.0061639853271493496 1 0.011823847598836618 1 0.014577839323831004 0.004056018436773055 1 1 1 1 1 1 1 1 1 1 1 1 1 1 1 1 1 1 1 1 1 1 1 1 1 1 1 0.0094940145033512238 1 0.012892102824706118 1 1 1 1 1 0.010275463493414969 1 1 1 1 1 1 0.0095057303362351374 1 1 1 1 1 1 0.012160118406264435 1 1 1 1 1 1 1 0.011361770550168467 1 1 1 1 0.0097470162114788803 1 1 1 1 1 1 1 1 1 1 1 0.01066679510921425 1 0.010185099080478273 1 1 1 1 0.0080633829252816439 1 1 1 1 1 1 1 0.0067210865321769373 1 1 1 0.0053682743095596654 1 1 1 1 1 1 1 1 1 1 1 1 1 1 1 1 1 1 1 1 1 1 1 1 1 1 1 1 1 1 1 1 1 1 1 1 1 1 1 1 1 1 1 1 1 1 1 1 1 1 1 1 1 1 1 1 1 1 1 0.0093605175179655685 1 1 1 1 1 1 1 1 1 1 1 0.010168242577215183 1 1 1 1 1 1 0.009866385440661268 1 1 0.010215750458537773 0.0094440640258470852 1 1 0.0090726771083027621 0.010000422121090735 1 1 1 1 0.010046402681779681 0.0086629009035286766 1 1 0.011093732199141944 1 0.0091612316198991985 1 1 1 0.0086247853210708533 1 0.0095078946269311175 1 0.0094247342986123282 1 0.0096753459607141108 1 1 1 0.010020047810737667 0.0098665624807005962 0.0097558149296329971 1 1 1 1 1 1 0.010000152725875715 1 0.010343382659133357 0.01061465580555347 1 1 1 1 0.010787301517825086 1 1 1 1 1 1 1 1 1 0.010275141615076469 1 1 1 1 0.010249741894165927 1 1 1 1 1 1 1 1 1 1 1 0.0099967434406902297 1 1 0.0092532494544423794 1 1 1 1 1 1 1 1 1 1 1 1 1 1 1 1 1 1 1 1 1 1 1 1 1 1 1 1 1 1 1 1 1 1 1 1 1 1 1 1 1 1 1 1 1 1 1 1 1 1 1 1 1 1 1 1 1 1 1 0.009538353004038649 1 1 1 0.0097171312598316149 1 1 1 1 1 1 1 0.0093938118499573217 1 0.0099817046091310365 1 1 1 1 1 1 1 1 1 0.0099093265208453837 1 0.0093590446276831073 1 1 1 1 1 0.0099895564963687726 0.0096998417269442902 1 1 1 0.01091763434497524 1 1 1 1 1 0.0088819424678196097 1 1 1 1 1 1 1 1 0.0046595692403591342 1 0.014136765563403847 1 0.011153466267929849 1 1 1 1 0.010313396015729186 1 1 1 1 1 0.010007850264114394 0.010508517576205686 1 1 1 0.012445489465932642 1 1 1 1 1 0.0098672078719754235 1 0.011469123410625452 1 1 1 1 1 1 1 1 1 1 1 1 1 1 1 1 1 1 1 1 1 1 1 1 0.010612563564605626 1 1 1 1 1 1 1 0.013417854659249625 1 0.0088472988991116133 1 1 1 1 0.0066181432731453899 1 1 1 1 1 1 1 1 0.0088542006350814714 1 1 1 0.0074308277552652853 1 1 1 1 1 0.013470294167234694 1 1 1 1 1 1 1 1 0.013555389258054384 1 1 1 1 1 1 1 1 1 0.013331398091594473 1 0.010180426649724877 1 1 1 1 1 1 1 1 1 1 1 1 1 1 1 0.0090167784574029363 1 1 1 0.010018235947429085 1 1 1 1 0.0095222209830968362 1 1 1 1 1 1 1 0.010039047427716895 1 1 1 1 1 1 1 1 1 1 1 1 1 1 1 1 1 1 1 1 1 1 1 1 1 1 1 1 1 1 0.010350102784462432 1 0.010214596033161574 1 1 0.010367261355488447 1 1 1 1 1 1 1 1 1 0.010109798907690591 1 1 1 1 1 1 1 1 0.013636420295978788 1 1 1 1 1 1 1 0.0094723645945250373 1 1 1 1 1 1 1 1 0.0075523983705369467 0.013682737970789482 1 0.010399652565428375 0.01394856833728538 1 1 1 0.0054624028704783559 1 1 1 0.0084374708854347835 1 1 0.013854752866053236 1 1 1 1 1 1 0.0094799035986227742 1 0.0091355919958926012 1 1 0.0085524491170337995 1 1 1 0.01029019775632747 0.010152718533971646 1 1 1 1 1 1 1 1 1 1 1 1 0.01039914360619352 0.0073378646203722236 1 1 1 1 1 1 1 1 1 1 1 1 1 1 0.0079258610858270271 1 1 1 1 1 1 1 1 1 1 1 1 1 0.0091482153118023143 1 1 1 1 1 1 1 1 1 1 1 1 1 1 1 1 1 1 1 0.009466183904162746 1 1 1 1 1 1 1 1 1 1 1 1 1 1 1 1 1 1 1 1 1 1 1 1 1 0.0073539637234032972 1 1 1 1 1 1 1 1 1 0.010462923255222524 1 1 1 0.0080634259932159565 1 1 1 0.009292991125966335 1 1 1 1 1 1 1 1 1 1 1 1 1 1 1 1 1 0.0096615361998621703 1 1 1 1 0.0096763847320276691 0.0093382865905764795 1 1 1 1 1 1 1 1 1 1 1 1 1 1 0.010927984583216671 1 1 1 1 1 1 1 1 1 1 0.01046506132799415 1 1 1 0.01374593661528784 1 1 1 1 1 1 1 0.010959726477450513 1 1 0.015989055236108433 0.0084329243550642068 1 1 0.011830303024226703 1 1 0.013046894846220425 0.015274186018195888 1 1 1 1 0.011932512717252427 1 1 1 1 1 1 0.014928943862428294 1 1 1 1 0.014469522431884232 1 1 1 1 1 1 0.012425223115624578 1 0.0094564844386187241 1 1 0.0077456662673644604 1 1 0.009544841813062763 1 0.012802828551742078 1 1 1 0.008284393952477119 0.011851437746258476 1 0.0092146654835255064 1 1 1 1 1 1 1 1 1 1 1 0.0097673894329235594 1 1 0.0072114725759091849 0.014126852693759998 1 1 0.0099957037859635944 1 1 1 1 1 1 1 1 1 0.0077767373729926825 1 1 1 1 1 1 0.0083372719581157675 1 1 0.01221184112936291 1 1 1 1 1 1 1 1 1 1 0.010000608972759797 1 1 1 1 1 1 1 1 1 0.010203373201588414 1 1 1 1 1 1 1 1 1 1 1 1 1 1 1 1 0.01082415804341774 1 0.011949831835649214 1 1 1 1 1 1 1 1 1 1 1 1 0.010017760412660698 1 1 1 1 0.013289252242129304 1 1 1 1 1 1 1 1 0.010229526295237748 1 1 1 0.0096058947355007803 1 1 1 1 1 1 1 1 1 0.0088622170599574543 1 1 1 1 0.009997247803437994 1 1 1 1 1 1 0.014043354574454619 1 1 1 1 1 1 0.007346698233983511 1 0.010197748314901512 0.010017721786648793 1 0.010159132542739016 1 1 1 1 1 1 1 1 1 1 1 1 1 1 1 1 1 1 1 1 1 1 1 1 1 1 1 1 1 1 1 1 1 1 1 1 0.010612908595846045 1 1 1 1 1 1 1 1 1 1 1 0.010001111094879878 1 1 1 1 1 1 1 1 1 1 1 1 1 1 1 1 1 1 1 1 1 1 1 1 1 1 1 1 1 1 1 1 1 1 1 1 1 1 1 1 1 1 1 0.010568657406573295 1 1 1 1 1 0.010446412359776553 1 1 1 1 0.0081712269949520428 1 0.0091396747797219107 1 1 1 0.0093399421473080099 1 0.0099796303999228966 1 1 1 0.010033479220080464 1 1 1 0.0097733080430345079 0.0082421956611507131 1 1 1 1 0.0068482664856386894 1 1 1 1 1 1 1 1 1 1 1 1 1 1 1 1 1 1 1 1 1 1 1 1 1 1 1 1 1 1 0.010199308090059974 0.0060010293194066172 0.0097996772591340056 1 1 1 1 1 1 0.0052794382805521761 1 1 1 1 1 1 1 1 1 1 1 1 1 0.008604069158559758 1 1 1 1 1 1 1 1 1 1 1 1 1 1 1 1 1 1 1 1 1 1 1 1 1 1 0.012511261813433686 1 1 0.010008887403041367 1 1 1 1 0.014605168402481206 1 1 1 0.0053773331129123893 1 0.0067878926958724328 1 0.0098434733736353398 1 1 1 1 1 1 1 1 1 1 0.0069162611536148014 1 0.009964517118863786 1 1 1 1 1 1 1 1 1 1 1 1 1 1 1 1 1 1 1 1 1 1 1 1 1 1 1 1 1 1 1 1 1 1 1 1 1 1 1 1 1 1 1 1 1 1 1 1 1 1 1 1 1 1 1 1 1 1 1 1 1 1 1 1 1 1 1 1 1 1 1 1 1 1 1 1 1 1 1 1 1 1 0.01000504101733409 1 1 1 1 0.0096340968412885197 1 0.0098667858762685259 1 1 1 1 1 1 1 1 1 1 1 1 1 1 1 1 0.0077821521279663949 1 0.0096437505008219928 1 1 0.0075357449657186843 1 1 1 0.0071365429126844827 1 0.010134690936632471 0.0099915971818077334 1 1 0.0080902010767585075 1 0.0086479463396591655 1 0.009014408783540746 1 1 1 1 1 1 1 1 1 1 1 1 1 0.0072022224283866277 1 0.0080687950184139892 1 1 0.0095240890535049794 1 1 1 1 0.0081834170521127847 0.0082110460871971155 1 0.0084659572476167323 1 1 1 1 1 1 0.0094856728937462408 0.00508844787726314 1 1 0.010000482439507862 1 1 1 1 1 1 1 1 1 1 0.010165768008139476 1 1 1 1 1 1 1 1 1 1 1 1 0.0099920591655154375 1 0.010065945885811669 1 1 1 1 1 0.012699475494435926 1 1 1 1 0.013326388822297048 1 1 0.0090606056367515328 1 1 0.0090199077270622912 0.0092747488640763584 1 1 1 1 0.0091778920626643373 1 1 1 1 0.010903607402570261 1 1 1 1 1 0.0079614637655006683 1 1 1 1 1 1 0.0085260114930040785 1 1 0.0098612015651624758 1 1 1 1 1 1 0.0068966257406323532 1 1 0.010303644634831237 1 1 0.0090808686974564248 0.010459833682478275 1 0.0090304319997909846 1 1 1 1 1 1 0.01000086347850602 1 0.0099889963400733896 1 1 0.0097191373342736878 1 1 0.0099990263768214849 0.0097886068913306621 1 1 0.0090602916032374962 1 0.010213780012924601 0.0099987967365539332 1 1 1 1 1 1 0.009827276260394497 0.010232201521418644 1 1 0.0091715798565180778 1 0.010519049508149797 0.009134110393861394 1 1 1 1 0.01085947634923186 1 1 0.0099748533861257326 1 1 1 1 1 1 1 0.011606030631282398 1 1 0.010407932849740068 1 1 1 1 0.011380563943347294 0.012025820649551667 1 1 1 1 1 0.0099806585522224898 1 1 1 1 1 1 1 1 1 1 1 1 1 1 1 1 1 1 1 1 1 1 1 1 1 0.0098202761027026877 0.01203117441418656 1 1 1 1 1 1 1 1 1 0.0091015857076493459 0.011184833580217927 1 1 1 0.0099686707680808912 1 1 1 0.010075976698896155 0.010308342437617097 1 1 1 0.012026296803007746 1 1 0.0091583428154835226 1 0.0090531919872630529 1 1 1 1 0.0099987216636102036 0.0081665990373196145 1 1 0.011809413798093775 1 0.013161120120209254 1 1 1 0.0099941726660246546 0.011794542618462151 0.010623199840837153 1 0.0092964730106222596 1 1 0.009463912932658641 1 1 1 1 1 1 0.01050278738881919 1 1 1 1 1 1 1 0.0099946312000958621 1 0.0068231357304231258 1 1 1 1 1 1 1 1 1 0.010151114200034308 1 1 1 1 1 1 0.010295551392579561 1 1 1 1 1 1 1 1 1 1 1 1 0.008554285071603801 1 1 1 1 1 1 1 1 0.010206742900291584 1 1 1 1 1 0.010024920357229192 0.0099513631759610022 1 1 1 1 1 1 1 1 1 1 1 1 1 1 1 1 1 1 1 1 0.0099349398329895752 1 1 1 0.0099742953002064129 1 0.0098318229920713752 1 1 1 1 1 1 1 1 1 1 1 1 1 1 1 1 1 1 1 1 1 1 0.010045471568447855 1 1 1 1 1 1 1 1 1 1 1 1 1 1 1 1 1 1 1 0.0099575992010406018 0.010271411183240315 0.0098530571923490153 0.0098479717595688354 1 0.010223732363557347 1 1 1 1 1 1 0.010139227773944192 1 1 1 1 1 1 1 1 1 1 1 1 1 1 1 1 1 1 1 1 1 1 0.010307749856664744 1 1 1 1 0.011481181118257038 0.010138723785641266 1 1 0.0094444045121473159 1 0.011176353790631406 0.010370133355582657 1 0.01021298939907179 1 1 0.0099407299607203684 1 1 0.010107218439592154 1 1 1 0.011248425393176314 1 1 1 1 0.0096414950422730981 1 0.0094499731864645525 1 1 0.0089720098009927352 1 1 1 1 0.012111741182841826 0.0099983995197928197 1 1 1 1 1 1 1 1 1 1 1 1 1 1 1 0.0099727797350816893 1 1 0.0099180414375194779 1 1 1 1 1 0.010233964546469859 1 0.010134352808331359 1 1 1 0.010089527353924618 1 1 1 1 1 1 0.011507334324356617 1 0.009788114257743237 1 1 0.010004829764018982 1 1 0.01172637489184334 1 1 1 0.01004055495601981 0.011878544205588931 1 1 1 1 1 0.012007229168906935 1 1 1 1 0.012569873798355224 1 0.0096308811282309979 1 1 1 1 1 1 1 0.0088028988806902308 0.01152204509582852 0.0080615423425559191 1 1 1 1 1 1 1 1 0.01051972797961748 1 1 1 1 1 1 0.0094782677631783108 1 1 1 1 1 0.011628562478171305 1 1 1 1 0.0082467420901821478 1 0.009986862961571823 1 0.010013556532460133 0.0064562718901058237 1 1 1 1 1 1 1 0.008017520508634482 1 1 1 1 1 1 1 1 1 1 1 1 1 1 1 1 1 1 1 1 0.010035903395688118 1 1 1 1 1 1 1 1 1 0.0069192145707650619 1 1 1 1 1 1 1 1 1 1 1 1 1 0.0090651874037755535 1 1 1 1 1 0.0066351410719638435 0.0090325223135236665 1 1 1 1 0.0071441272106527939 1 1 1 1 1 1 0.0098216477653413313 1 1 0.0084719609406491737 1 1 1 1 1 0.010914375321868423 1 1 0.0081303608960829124 1 1 0.010002319622224747 0.012799630874908097 1 1 1 1 1 1 1 0.0075135836590173614 1 1 1 1 1 1 1 1 0.0069632347683283129 1 1 0.0062867222145375117 1 0.0068562687763711796 0.0069378124576402155 1 0.0097872960446867031 1 1 1 1 0.01052098536293335 1 1 1 1 1 1 1 0.0094958421141853391 1 1 0.0081151438638718855 1 1 1 1 1 0.0091774523467086696 1 1 1 1 1 1 1 1 1 1 1 1 1 1 1 1 0.0099501959198139995 1 1 1 1 1 1 1 1 1 1 1 1 1 0.0099408672777035988 1 1 1 1 1 1 1 1 1 1 1 1 1 1 1 1 1 1 1 1 1 0.0098445048812426834 1 0.010015692225065816 1 0.009985411524622935 0.010840624546849285 1 1 0.012943523271224716 0.0082048996566483449 1 1 1 0.0084794601857331436 1 0.011605624294412444 0.011462902125939575 1 1 1 1 1 0.0045302364720485912 1 0.0098162060214409264 1 1 1 1 1 0.0062407675614512513 1 1 1 1 1 1 1 1 1 1 1 1 0.0099646294319784071 1 1 1 0.009962000174349157 1 1 1 1 1 0.008282611168355004 0.013840800976615959 0.0053521550941682088 0.019973418938645487 1 1 1 1 0.010341387707803686 1 0.016023560654023369 0.0094759863690220113 1 1 1 1 0.010013186830830871 1 0.0096462650237958952 1 1 1 1 1 1 1 1 1 1 1 1 0.017452623646067467 1 1 1 1 1 1 1 1 1 1 1 1 1 1 1 1 1 1 1 1 1 1 1 1 1 1 1 1 1 1 1 1 1 1 1 1 1 1 1 1 1 1 0.0044440677455186012 1 1 0.0043227921905981785 1 1 0.0077453872052178994 1 1 1 1 1 1 1 1 1 1 1 1 1 1 1 1 1 1 1 1 1 1 1 1 1 1 1 1 1 1 1 0.0080952354925852028 1 0.010014315909352443 0.009817635239073124 1 1 0.0079021880584991214 1 1 1 1 1 1 1 0.0067321009598623714 1 0.010126661079759389 0.0098221708371221163 1 1 1 1 1 1 1 1 1 1 1 1 1 0.0091992349321804515 1 1 0.0090670067947101543 0.009913638636073422 1 1 1 1 1 1 1 1 1 0.0084242945628091731 1 1 1 1 1 1 1 1 1 1 1 1 1 0.0099132842962501039 1 1 1 0.0092573483660195084 1 1 1 1 1 1 1 1 1 1 1 1 1 1 1 0.010000373651202708 1 1 1 1 1 1 1 1 1 1 1 1 1 1 1 0.0099625661752710676 1 1 1 1 1 1 0.0099268219560467667 1 1 1 1 1 1 1 1 1 1 1 1 1 1 1 0.01017409884307888 1 1 1 1 1 1 0.0089599857215840652 1 0.0079801755636410045 1 1 1 1 0.011830424374921437 1 1 0.01066270600418104 1 1 1 1 1 1 1 1 1 1 0.010435345741680256 1 0.0097709184979522211 1 1 0.011132479694584509 0.0099594106454235862 1 1 1 1 1 0.010713642883360167 1 1 1 0.010407734069426515 1 1 0.01041377526249905 1 1 1 1 1 1 1 1 1 1 1 0.010498018079275346 1 1 1 1 1 0.010207012938576163 1 1 1 0.010180713656576655 1 1 0.0097712702106226065 1 1 1 1 1 0.010465103983778057 1 1 1 1 1 1 0.0099228752147365179 1 1 0.0098136255585306933 1 1 1 1 1 1 1 1 1 1 1 1 1 1 1 1 1 1 1 1 1 1 1 1 1 1 1 1 1 1 1 0.0098763881333758397 1 1 1 1 1 1 1 1 1 1 1 1 1 1 1 1 1 1 1 1 1 0.010140711171088713 1 1 1 1 1 0.0096876421576558448 1 1 0.0095604449183717185 1 0.010152604832911664 1 1 1 1 1 0.010004570436766811 1 0.0099710293354408862 1 1 1 1 1 1 0.010276224776785775 1 0.010174939905912162 1 1 1 1 1 1 1 1 1 1 1 1 0.012967038001160155 1 1 1 1 1 0.012918157983868047 1 1 1 1 1 1 0.010142025748186904 1 1 1 1 1 1 1 1 1 0.0098701638617781154 1 1 0.0097507787909124673 1 1 1 1 1 1 0.010075339018077568 1 1 1 1 1 1 1 1 0.010883803986541747 1 1 1 1 1 1 1 1 1 0.010447394506119033 1 1 1 1 0.011268800169489713 1 1 1 1 1 1 1 1 0.0097518645587276985 1 1 1 1 1 1 1 1 0.010433568866610492 1 0.009895661371476891 1 1 1 0.010031089769072082 1 1 1 1 0.0092241493533337191 1 1 1 0.010689425001667689 1 1 1 0.010160946260243241 1 1 1 1 0.010342688714833383 1 1 1 1 0.010087711205517351 1 1 1 1 1 0.01022868307167054 1 1 1 1 1 1 1 1 1 1 1 1 1 1 1 1 0.0099613953492479618 1 1 1 1 1 0.012678588751821131 1 1 1 1 1 1 0.011355722450776555 1 1 1 1 1 1 1 1 0.010410213390440539 1 1 1 1 1 1 1 0.012044411939791357 1 1 1 1 1 1 1 1 1 1 1 1 0.013320125768006256 1 1 1 1 1 1 1 1 1 1 1 1 1 1 1 1 1 0.013353995402280728 1 1 1 1 1 0.0098408169111569195 1 0.0099399250078435631 1 1 1 1 0.0099404622213440062 1 1 0.012288037465905385 1 1 1 0.010049943447536404 1 1 1 1 1 1 1 1 1 1 0.0098747839333738017 1 1 1 0.0097157593265524232 1 1 1 1 1 1 1 1 1 1 1 1 1 1 1 1 1 1 1 0.0098615242099093139 0.0099127518577150544 1 1 1 0.0096835425760041834 1 0.010021386511662964 1 1 1 1 1 1 1 1 0.0099326905523623565 1 1 1 1 1 1 1 0.013599490557685657 1 1 1 1 1 0.013706027663175848 1 0.012470208305618137 1 1 1 1 1 1 1 1 1 1 1 1 1 1 1 1 1 1 1 1 1 1 1 1 1 1 1 1 1 1 1 1 1 1 1 1 1 1 1 1 1 1 1 1 1 1 1 1 1 1 1 1 1 1 1 1 1 1 1 1 1 1 1 1 1 1 1 1 1 1 1 1 1 0.0098717148854701176 1 1 1 0.0096229880577593779 1 1 1 1 1 1 1 1 1 1 1 1 1 1 1 1 1 1 1 1 0.010573714646143045 1 1 1 1 0.010226137469635268 1 1 1 0.010368163217822168 1 1 1 1 0.011658484717473432 1 1 1 1 0.012491472529438734 1 1 1 1 1 1 1 1 1 1 1 1 1 1 1 1 1 1 1 0.013638685817035281 0.013830471714438622 1 1 1 1 1 1 1 1 1 1 1 1 1 1 1 1 1 1 1 1 1 1 1 1 1 1 1 1 1 1 1 1 1 1 1 1 1 1 1 1 0.019908798125047141 1 1 1 1 1 0.013951858154515833 1 1 0.014832852600137959 1 1 1 1 1 1 1 1 1 1 1 1 1 1 1 1 1 1 1 1 1 1 1 1 1 1 1 1 0.020551619846820177 1 1 1 1 1 1 1 1 1 1 1 1 1 1 1 1 1 1 1 1 1 1 1 1 1 1 1 1 1 1 1 1 1 1 1 1 1 1 1 1 0.009994365144527638 1 1 1 1 1 1 1 1 1 1 1 0.021715137685986416 1 1 1 1 1 1 1 1 0.022700459035755578 1 1 1 1 1 0.023227997644231169 1 1 1 0.0065607017198872717 1 1 1 1 0.01019183053579013 1 0.0067926197148259291 1 1 1 0.0067521742999961474 1 0.0098718472123408892 1 1 1 1 1 1 1 1 1 1 1 1 1 1 1 1 1 1 1 1 1 1 1 1 1 1 1 1 1 1 1 1 0.010012459154655177 1 1 0.0055895283120603132 1 1 1 1 1 0.009911740284281885 1 0.0093008622474371107 1 1 1 1 1 1 1 1 1 1 0.0079473987910403023 1 1 1 1 1 1 1 1 1 1 1 1 1 1 0.010103439649335782 1 1 0.010206982213645452 1 1 1 1 1 1 1 1 1 1 0.010219385798853807 1 1 1 1 0.010599139804223516 1 1 1 1 1 1 1 0.010103542564309674 1 1 0.012274614570496788 1 0.012972197148982392 1 1 1 1 1 1 0.0076677137831539979 1 0.0054906662321676653 1 1 1 1 0.0064920930857177497 1 0.0094821993305648673 1 1 1 0.0099973063867827266 0.0092007048454756102 1 0.0064569341402323597 1 1 1 1 1 1 0.009997843998490543 1 0.009974344962363893 1 0.0052875754135409906 1 1 1 1 1 1 1 1 1 1 1 1 1 1 1 1 1 1 1 1 1 1 1 1 1 1 1 0.0084168106984048724 1 1 1 0.0034098498736840899 1 1 0.010068660740612356 1 1 1 1 1 1 0.002071754828212282 1 1 0.0094989884343937257 1 1 1 1 1 1 1 1 1 1 1 1 1 1 1 1 1 1 1 1 1 1 1 1 1 1 1 1 1 1 0.01057111465409309 1 1 1 0.011525699417607152 1 1 1 1 1 1 1 1 1 1 1 1 1 1 1 1 1 1 1 1 1 1 1 1 1 1 1 1 1 1 1 1 1 1 1 1 1 1 1 1 1 1 1 1 1 1 1 1 1 1 1 1 1 1 1 1 1 1 1 1 1 1 1 1 0.0097831907466774167 1 1 1 1 1 1 1 1 1 1 1 1 1 0.0087657038392708123 1 1 1 1 1 1 1 1 0.009482519288048951 1 0.01013720505911431 1 1 1 1 1 1 1 1 1 0.010872221526901728 1 0.0092225611956611268 1 1 1 1 1 1 1 1 1 1 1 1 1 1 1 1 1 1 1 1 1 1 0.010704262410989632 1 1 1 0.010446860856989711 1 1 1 0.0097204454125682203 1 1 1 1 1 1 1 1 1 1 1 0.0098616413892593773 1 1 1 0.0099910555854142869 1 1 0.010152592904396393 1 1 1 1 1 1 1 1 1 1 1 1 1 1 1 1 1 1 1 1 1 1 1 1 1 1 1 1 0.010050063289578148 1 1 1 1 1 0.009988805947144689 1 0.0059548434108970746 0.0080361876427652579 1 1 0.0086317880449476095 0.0098549000454045115 1 1 1 1 1 0.0094256818200980971 1 1 0.010417281107342859 1 1 0.0097194067317745939 1 0.0098891976686362511 1 1 1 1 1 1 0.010185469260496174 1 1 1 0.0090853531008373654 1 0.0099902313014820741 0.0046902718003420454 1 0.0084445839031238278 1 1 1 1 0.011005314370740083 1 1 1 1 1 1 1 1 0.010086804228888625 1 1 1 1 1 0.010365176086552701 1 1 0.0065358795831405494 1 1 1 1 1 1 1 0.0097875665222235848 1 1 1 1 1 1 1 1 1 1 1 1 1 1 1 1 1 1 1 1 1 1 1 1 1 1 1 1 1 1 1 1 1 1 0.0092087075093275645 1 1 1 1 1 1 1 1 1 1 1 1 1 1 1 0.0094846397802775297 1 1 0.0079323104752584868 1 0.0071367006139287145 1 1 1 1 1 1 1 0.0098798373792349219 1 1 1 1 0.0097364436954725415 1 1 0.0079372975073732782 1 1 1 1 0.010092992680988712 1 1 1 1 1 0.0088600686416558955 1 0.010457690880297795 1 1 0.01150435165373254 1 1 1 0.009999840100423308 1 1 1 1 1 1 1 1 1 0.011950356446398681 1 1 1 0.0080546126446514044 1 1 1 1 0.010284410908672947 1 0.010264794281286516 1 1 0.0086362335467800484 1 1 1 0.0077738771376707969 0.0095954504064796955 1 1 1 1 0.0087781369462933308 0.0080908702216987045 1 0.0092285242716724659 1 0.0090566229217878391 1 1 1 1 1 1 1 1 0.0088340486279416021 1 1 0.0091511086992389027 1 0.0089751714949591038 0.0099965735652513994 1 1 0.0099790438777969739 1 1 1 1 1 1 1 1 1 1 1 1 1 1 1 1 1 1 0.008902837454066146 1 0.010162196008236719 1 0.0096474729540366976 1 1 0.010015176093104098 1 1 1 1 1 1 1 1 1 0.0091965029070464888 1 1 1 1 1 1 1 0.0075897568272967966 1 1 1 1 0.0098817772261308896 1 1 1 1 1 1 0.0097238087095216554 1 1 1 1 1 1 1 1 1 1 1 1 1 0.0098420314833907643 1 1 1 1 0.010428673001786135 1 1 0.010185848963622257 1 1 1 1 1 1 1 1 1 1 1 1 1 1 1 1 1 1 1 1 1 1 1 1 1 1 1 1 1 0.009675258024879424 1 1 1 0.010218596936047132 1 1 1 1 1 1 1 1 1 1 1 1 1 1 1 1 1 1 1 1 1 1 1 1 1 1 1 1 1 1 1 1 1 1 1 1 1 1 1 1 1 1 1 1 0.010756374018676374 1 1 0.0088846883655157756 1 0.010133527170309294 1 1 1 0.0098079884253293899 1 1 1 1 1 1 1 1 0.010850035446156817 1 1 1 0.011548696483027268 1 1 1 1 1 1 1 1 1 1 1 1 1 0.0093846910723248099 0.0094695930079816519 1 1 1 1 0.0098224454937048053 1 1 1 1 0.0098925034852356854 1 1 1 1 1 1 1 1 1 1 1 1 1 1 1 1 1 1 1 1 1 0.010096173509547576 1 0.0095797028999051285 0.010020587858017592 1 1 1 1 1 0.0098409732839725289 1 1 1 1 1 1 1 1 1 1 1 1 1 0.010050356716408205 1 1 1 1 1 1 1 1 1 1 1 1 0.010085207406911424 1 1 1 0.0099314213004731838 1 1 0.010101524978413556 1 0.0099924682107628386 1 1 1 1 1 1 1 1 1 1 1 1 1 1 1 1 0.009934006506688799 1 1 1 1 1 1 1 1 1 1 1 1 1 1 0.010034039144906071 1 1 1 1 1 1 1 1 1 1 1 1 1 1 1 1 1 1 1 1 1 1 1 1 1 0.010059475988083957 1 1 1 1 1 0.0098576173961185815 1 1 1 1 0.010288093976342077 1 1 1 1 0.0056810356431874591 1 1 1 1 1 1 1 1 1 1 1 1 1 1 1 1 1 1 1 1 1 1 1 1 1 1 1 1 1 1 1 1 1 1 0.0092150505057766417 1 1 1 0.0069989799398480212 0.0088954375702619409 1 0.010035948431906149 1 1 1 1 1 1 1 1 0.0046398335881962793 1 0.0075296159233469249 1 1 1 0.0099841837748258985 1 1 1 1 1 1 1 1 1 1 1 1 1 1 1 1 1 1 1 1 1 1 0.01494417677762673 1 1 1 1 1 1 1 1 1 1 1 1 0.0098145300212038166 1 1 1 1 1 1 1 0.0094660881498657024 1 1 1 1 0.0067573808867713026 1 1 1 0.007478868971184641 1 0.007368551682116635 1 1 0.0062854262690682505 1 1 1 0.01392401020935949 0.0044587077326443854 1 1 1 1 1 1 1 1 1 1 1 1 1 1 1 1 1 0.0098278872879466791 1 1 1 1 1 1 1 0.0094673768947634469 1 1 1 1 0.00907821178304072 1 1 1 1 0.012871266650597964 1 1 0.013145403912925648 1 0.0099425265254172879 1 1 0.010078467839462327 1 1 1 1 0.010016300612050584 1 1 1 1 0.013569827078080202 1 1 1 1 0.013356565988707828 1 
</DataArray>
</CellData>
</Piece>
</UnstructuredGrid>
</VTKFile>
