<?xml version="1.0"?>
<VTKFile type="UnstructuredGrid" version="0.1" byte_order="LittleEndian">
<UnstructuredGrid>
<Piece NumberOfPoints="27484" NumberOfCells="9606">
<Points>
<DataArray type="Float64" NumberOfComponents="3" format="ascii">
-0.5 -0.5 0 -0.47612779279856948 -0.48307293842341731 0 -0.5 -0.45121029455530248 0 -0.5 -0.5 0 -0.47612779279856948 -0.48307293842341731 0 -0.466067310823158 -0.50000000000000122 0 -0.47612779279856948 -0.48307293842341731 0 -0.46147209626126973 -0.47246915419113961 0 -0.47246533241247662 -0.46349665100113002 0 -0.466067310823158 -0.50000000000000122 0 -0.45662967450936642 -0.48582286467248359 0 -0.44674108473084267 -0.49999999999999972 0 -0.466067310823158 -0.50000000000000122 0 -0.45662967450936642 -0.48582286467248359 0 -0.47612779279856948 -0.48307293842341731 0 -0.466067310823158 -0.50000000000000122 0 -0.45662967450936642 -0.48582286467248359 0 -0.47612779279856948 -0.48307293842341731 0 -0.45662967450936642 -0.48582286467248359 0 -0.46147209626126973 -0.47246915419113961 0 -0.45662967450936642 -0.48582286467248359 0 -0.46147209626126973 -0.47246915419113961 0 -0.4471920381955754 -0.47164572934496551 0 -0.45662967450936642 -0.48582286467248359 0 -0.4471920381955754 -0.47164572934496551 0 -0.4471920381955754 -0.47164572934496551 0 -0.44674108473084267 -0.49999999999999972 0 -0.42949081604070988 -0.47718801963799079 0 -0.4471920381955754 -0.47164572934496551 0 -0.44674108473084267 -0.49999999999999972 0 -0.45662967450936642 -0.48582286467248359 0 -0.4471920381955754 -0.47164572934496551 0 -0.44674108473084267 -0.49999999999999972 0 -0.44766432780042181 -0.44194992183795379 0 -0.45711460573364382 -0.44222964531902381 0 -0.4471920381955754 -0.47164572934496551 0 -0.44766432780042181 -0.44194992183795379 0 -0.45772767783510759 -0.45787240859338818 0 -0.4471920381955754 -0.47164572934496551 0 -0.42949081604070988 -0.47718801963799079 0 -0.43710445430208239 -0.45649224840644298 0 -0.4471920381955754 -0.47164572934496551 0 -0.44766432780042181 -0.44194992183795379 0 -0.43710445430208239 -0.45649224840644298 0 -0.4471920381955754 -0.47164572934496551 0 -0.44766432780042181 -0.44194992183795379 0 -0.4471920381955754 -0.47164572934496551 0 -0.43710445430208239 -0.45649224840644298 0 -0.46147209626126973 -0.47246915419113961 0 -0.4471920381955754 -0.47164572934496551 0 -0.45772767783510759 -0.45787240859338818 0 -0.46147209626126973 -0.47246915419113961 0 -0.45772767783510759 -0.45787240859338818 0 -0.47246533241247662 -0.46349665100113002 0 -0.45772767783510759 -0.45787240859338818 0 -0.4697786824296511 -0.44859597372789412 0 -0.47246533241247662 -0.46349665100113002 0 -0.44766432780042181 -0.44194992183795379 0 -0.45772767783510759 -0.45787240859338818 0 -0.45711460573364382 -0.44222964531902381 0 -0.45772767783510759 -0.45787240859338818 0 -0.45711460573364382 -0.44222964531902381 0 -0.4697786824296511 -0.44859597372789412 0 -0.44766432780042181 -0.44194992183795379 0 -0.45711460573364382 -0.44222964531902381 0 -0.45573007022931572 -0.43167121872836961 0 -0.45711460573364382 -0.44222964531902381 0 -0.4697786824296511 -0.44859597372789412 0 -0.4658735671707861 -0.43590833345207869 0 -0.4697786824296511 -0.44859597372789412 0 -0.47964036621454897 -0.43841480636365487 0 -0.5 -0.45121029455530248 0 -0.4697786824296511 -0.44859597372789412 0 -0.47964036621454897 -0.43841480636365487 0 -0.4658735671707861 -0.43590833345207869 0 -0.47612779279856948 -0.48307293842341731 0 -0.47246533241247662 -0.46349665100113002 0 -0.5 -0.45121029455530248 0 -0.4697786824296511 -0.44859597372789412 0 -0.47246533241247662 -0.46349665100113002 0 -0.5 -0.45121029455530248 0 -0.47964036621454897 -0.43841480636365487 0 -0.5 -0.45121029455530248 0 -0.49311446202793441 -0.40928350884617959 0 -0.5 -0.45121029455530248 0 -0.49311446202793441 -0.40928350884617959 0 -0.49999999999999412 -0.3861935438035704 0 -0.49311446202793441 -0.40928350884617959 0 -0.47418110132762692 -0.41623014255297369 0 -0.47255323664437882 -0.42839477968960882 0 -0.49311446202793441 -0.40928350884617959 0 -0.47391311569059602 -0.40985976062988938 0 -0.49311446202793441 -0.40928350884617959 0 -0.47391311569059602 -0.40985976062988938 0 -0.47418110132762692 -0.41623014255297369 0 -0.47418110132762692 -0.41623014255297369 0 -0.47255323664437882 -0.42839477968960882 0 -0.46411879318334948 -0.42049002703325922 0 -0.47964036621454897 -0.43841480636365487 0 -0.49311446202793441 -0.40928350884617959 0 -0.47255323664437882 -0.42839477968960882 0 -0.47964036621454897 -0.43841480636365487 0 -0.47255323664437882 -0.42839477968960882 0 -0.4658735671707861 -0.43590833345207869 0 -0.49999999999999412 -0.3861935438035704 0 -0.48269015159314238 -0.38140079204273158 0 -0.49070719048340339 -0.36732335307375691 0 -0.49999999999999412 -0.3861935438035704 0 -0.47735588467662471 -0.39831477810858201 0 -0.48269015159314238 -0.38140079204273158 0 -0.49311446202793441 -0.40928350884617959 0 -0.49999999999999412 -0.3861935438035704 0 -0.47735588467662471 -0.39831477810858201 0 -0.49999999999999412 -0.3861935438035704 0 -0.47735588467662471 -0.39831477810858201 0 -0.49311446202793441 -0.40928350884617959 0 -0.47391311569059602 -0.40985976062988938 0 -0.47735588467662471 -0.39831477810858201 0 -0.47735588467662471 -0.39831477810858201 0 -0.47473532216977787 -0.39020014126176289 0 -0.46662980299668322 -0.39849110817723271 0 -0.47735588467662471 -0.39831477810858201 0 -0.47473532216977787 -0.39020014126176289 0 -0.48269015159314238 -0.38140079204273158 0 -0.47473532216977787 -0.39020014126176289 0 -0.47190120554758053 -0.3801575868902729 0 -0.48269015159314238 -0.38140079204273158 0 -0.47190120554758053 -0.3801575868902729 0 -0.48269015159314238 -0.38140079204273158 0 -0.47344652270633231 -0.36864076809020141 0 -0.47473532216977787 -0.39020014126176289 0 -0.47190120554758053 -0.3801575868902729 0 -0.4567328257210691 -0.38038864616639539 0 -0.47190120554758053 -0.3801575868902729 0 -0.4567328257210691 -0.38038864616639539 0 -0.47344652270633231 -0.36864076809020141 0 -0.47473532216977787 -0.39020014126176289 0 -0.4567328257210691 -0.38038864616639539 0 -0.45971623578707249 -0.39501350092498688 0 -0.47473532216977787 -0.39020014126176289 0 -0.4567328257210691 -0.38038864616639539 0 -0.4567328257210691 -0.38038864616639539 0 -0.45971623578707249 -0.39501350092498688 0 -0.44781156267635031 -0.38998415719909529 0 -0.47391311569059602 -0.40985976062988938 0 -0.47735588467662471 -0.39831477810858201 0 -0.45471176935325758 -0.41043601241359751 0 -0.47735588467662471 -0.39831477810858201 0 -0.45471176935325758 -0.41043601241359751 0 -0.47735588467662471 -0.39831477810858201 0 -0.46662980299668322 -0.39849110817723271 0 -0.45471176935325758 -0.41043601241359751 0 -0.47473532216977787 -0.39020014126176289 0 -0.45971623578707249 -0.39501350092498688 0 -0.46662980299668322 -0.39849110817723271 0 -0.45971623578707249 -0.39501350092498688 0 -0.46662980299668322 -0.39849110817723271 0 -0.45471176935325758 -0.41043601241359751 0 -0.45971623578707249 -0.39501350092498688 0 -0.45155859642489232 -0.39929931093230508 0 -0.45471176935325758 -0.41043601241359751 0 -0.45155859642489232 -0.39929931093230508 0 -0.44824946450714342 -0.40515870977251628 0 -0.45471176935325758 -0.41043601241359751 0 -0.45155859642489232 -0.39929931093230508 0 -0.44824946450714342 -0.40515870977251628 0 -0.44449793567222617 -0.39779982631050159 0 -0.44824946450714342 -0.40515870977251628 0 -0.44449793567222617 -0.39779982631050159 0 -0.43745157503684018 -0.40095680411820112 0 -0.44824946450714342 -0.40515870977251628 0 -0.43462506675538343 -0.41103883463228708 0 -0.43745157503684018 -0.40095680411820112 0 -0.44449793567222617 -0.39779982631050159 0 -0.43385099614431999 -0.39052119427556342 0 -0.43745157503684018 -0.40095680411820112 0 -0.44449793567222617 -0.39779982631050159 0 -0.44781156267635031 -0.38998415719909529 0 -0.43385099614431999 -0.39052119427556342 0 -0.45155859642489232 -0.39929931093230508 0 -0.44449793567222617 -0.39779982631050159 0 -0.44781156267635031 -0.38998415719909529 0 -0.45971623578707249 -0.39501350092498688 0 -0.45155859642489232 -0.39929931093230508 0 -0.44781156267635031 -0.38998415719909529 0 -0.4567328257210691 -0.38038864616639539 0 -0.44781156267635031 -0.38998415719909529 0 -0.43873032927236028 -0.37057715107102801 0 -0.44781156267635031 -0.38998415719909529 0 -0.43385099614431999 -0.39052119427556342 0 -0.43873032927236028 -0.37057715107102801 0 -0.4567328257210691 -0.38038864616639539 0 -0.43873032927236028 -0.37057715107102801 0 -0.45988852696780758 -0.42429793817488981 0 -0.45573007022931572 -0.43167121872836961 0 -0.44812776183651393 -0.41281091944016318 0 -0.45711460573364382 -0.44222964531902381 0 -0.45573007022931572 -0.43167121872836961 0 -0.4658735671707861 -0.43590833345207869 0 -0.45988852696780758 -0.42429793817488981 0 -0.45573007022931572 -0.43167121872836961 0 -0.4658735671707861 -0.43590833345207869 0 -0.47255323664437882 -0.42839477968960882 0 -0.45988852696780758 -0.42429793817488981 0 -0.4658735671707861 -0.43590833345207869 0 -0.47255323664437882 -0.42839477968960882 0 -0.45988852696780758 -0.42429793817488981 0 -0.46411879318334948 -0.42049002703325922 0 -0.47418110132762692 -0.41623014255297369 0 -0.4498523077935852 -0.41303724771556549 0 -0.47391311569059602 -0.40985976062988938 0 -0.47418110132762692 -0.41623014255297369 0 -0.45471176935325758 -0.41043601241359751 0 -0.47418110132762692 -0.41623014255297369 0 -0.46411879318334948 -0.42049002703325922 0 -0.4498523077935852 -0.41303724771556549 0 -0.47418110132762692 -0.41623014255297369 0 -0.45471176935325758 -0.41043601241359751 0 -0.4498523077935852 -0.41303724771556549 0 -0.47391311569059602 -0.40985976062988938 0 -0.45471176935325758 -0.41043601241359751 0 -0.45988852696780758 -0.42429793817488981 0 -0.46411879318334948 -0.42049002703325922 0 -0.4498523077935852 -0.41303724771556549 0 -0.45988852696780758 -0.42429793817488981 0 -0.4498523077935852 -0.41303724771556549 0 -0.44812776183651393 -0.41281091944016318 0 -0.44824946450714342 -0.40515870977251628 0 -0.45471176935325758 -0.41043601241359751 0 -0.44816240692818438 -0.41063256539031778 0 -0.45471176935325758 -0.41043601241359751 0 -0.44816240692818438 -0.41063256539031778 0 -0.45471176935325758 -0.41043601241359751 0 -0.4498523077935852 -0.41303724771556549 0 -0.45471176935325758 -0.41043601241359751 0 -0.4498523077935852 -0.41303724771556549 0 -0.44816240692818438 -0.41063256539031778 0 -0.4498523077935852 -0.41303724771556549 0 -0.44812776183651393 -0.41281091944016318 0 -0.44816240692818438 -0.41063256539031778 0 -0.4498523077935852 -0.41303724771556549 0 -0.44812776183651393 -0.41281091944016318 0 -0.44812776183651393 -0.41281091944016318 0 -0.44816240692818438 -0.41063256539031778 0 -0.44824946450714342 -0.40515870977251628 0 -0.44816240692818438 -0.41063256539031778 0 -0.44812776183651393 -0.41281091944016318 0 -0.43462506675538343 -0.41103883463228708 0 -0.44824946450714342 -0.40515870977251628 0 -0.44816240692818438 -0.41063256539031778 0 -0.43462506675538343 -0.41103883463228708 0 -0.44816240692818438 -0.41063256539031778 0 -0.43462506675538343 -0.41103883463228708 0 -0.44812776183651393 -0.41281091944016318 0 -0.44816240692818438 -0.41063256539031778 0 -0.43462506675538343 -0.41103883463228708 0 -0.44812776183651393 -0.41281091944016318 0 -0.43361757630440412 -0.42172758431954172 0 -0.44812776183651393 -0.41281091944016318 0 -0.43361757630440412 -0.42172758431954172 0 -0.43462506675538343 -0.41103883463228708 0 -0.44766432780042181 -0.44194992183795379 0 -0.44812776183651393 -0.41281091944016318 0 -0.43667083460590322 -0.43241403038538939 0 -0.44812776183651393 -0.41281091944016318 0 -0.43667083460590322 -0.43241403038538939 0 -0.43361757630440412 -0.42172758431954172 0 -0.44766432780042181 -0.44194992183795379 0 -0.44812776183651393 -0.41281091944016318 0 -0.44766432780042181 -0.44194992183795379 0 -0.45573007022931572 -0.43167121872836961 0 -0.44812776183651393 -0.41281091944016318 0 -0.43667083460590322 -0.43241403038538939 0 -0.41912582913488722 -0.42948491378118192 0 -0.42701687040858699 -0.44133876746792211 0 -0.43667083460590322 -0.43241403038538939 0 -0.43361757630440412 -0.42172758431954172 0 -0.41912582913488722 -0.42948491378118192 0 -0.41912582913488722 -0.42948491378118192 0 -0.42701687040858699 -0.44133876746792211 0 -0.43361757630440412 -0.42172758431954172 0 -0.41912582913488722 -0.42948491378118192 0 -0.43361757630440412 -0.42172758431954172 0 -0.42069492453856672 -0.42086707337306539 0 -0.41912582913488722 -0.42948491378118192 0 -0.43361757630440412 -0.42172758431954172 0 -0.43462506675538343 -0.41103883463228708 0 -0.42344707211828808 -0.41639147128215659 0 -0.43462506675538343 -0.41103883463228708 0 -0.41405632269809423 -0.40833940621136788 0 -0.42529118636104812 -0.39962400658871472 0 -0.43462506675538343 -0.41103883463228708 0 -0.41405632269809423 -0.40833940621136788 0 -0.43361757630440412 -0.42172758431954172 0 -0.42344707211828808 -0.41639147128215659 0 -0.42069492453856672 -0.42086707337306539 0 -0.42344707211828808 -0.41639147128215659 0 -0.42069492453856672 -0.42086707337306539 0 -0.40485072087479818 -0.41193239280373217 0 -0.43462506675538343 -0.41103883463228708 0 -0.42344707211828808 -0.41639147128215659 0 -0.40485072087479818 -0.41193239280373217 0 -0.43462506675538343 -0.41103883463228708 0 -0.41405632269809423 -0.40833940621136788 0 -0.40485072087479818 -0.41193239280373217 0 -0.43462506675538343 -0.41103883463228708 0 -0.40485072087479818 -0.41193239280373217 0 -0.42069492453856672 -0.42086707337306539 0 -0.41208990561446401 -0.42073901059439622 0 -0.40485072087479818 -0.41193239280373217 0 -0.41208990561446401 -0.42073901059439622 0 -0.40565889409844791 -0.41998964627210122 0 -0.40485072087479818 -0.41193239280373217 0 -0.41912582913488722 -0.42948491378118192 0 -0.39855503947592658 -0.44049631156531721 0 -0.42701687040858699 -0.44133876746792211 0 -0.41912582913488722 -0.42948491378118192 0 -0.39855503947592658 -0.44049631156531721 0 -0.40635492721812472 -0.42679818173314349 0 -0.41912582913488722 -0.42948491378118192 0 -0.39855503947592658 -0.44049631156531721 0 -0.41208990561446401 -0.42073901059439622 0 -0.40635492721812472 -0.42679818173314349 0 -0.40565889409844791 -0.41998964627210122 0 -0.41208990561446401 -0.42073901059439622 0 -0.40635492721812472 -0.42679818173314349 0 -0.41912582913488722 -0.42948491378118192 0 -0.42069492453856672 -0.42086707337306539 0 -0.41208990561446401 -0.42073901059439622 0 -0.41912582913488722 -0.42948491378118192 0 -0.42457644841490277 -0.37647628269366418 0 -0.43385099614431999 -0.39052119427556342 0 -0.43873032927236028 -0.37057715107102801 0 -0.42457644841490277 -0.37647628269366418 0 -0.43385099614431999 -0.39052119427556342 0 -0.4204996757932567 -0.38812220060153563 0 -0.43385099614431999 -0.39052119427556342 0 -0.42529118636104812 -0.39962400658871472 0 -0.4204996757932567 -0.38812220060153563 0 -0.43385099614431999 -0.39052119427556342 0 -0.43745157503684018 -0.40095680411820112 0 -0.42529118636104812 -0.39962400658871472 0 -0.43462506675538343 -0.41103883463228708 0 -0.43745157503684018 -0.40095680411820112 0 -0.42529118636104812 -0.39962400658871472 0 -0.41405632269809423 -0.40833940621136788 0 -0.42529118636104812 -0.39962400658871472 0 -0.41028422878348941 -0.39540155545964378 0 -0.41405632269809423 -0.40833940621136788 0 -0.41028422878348941 -0.39540155545964378 0 -0.40344679595878752 -0.40226263871459578 0 -0.42529118636104812 -0.39962400658871472 0 -0.41028422878348941 -0.39540155545964378 0 -0.4204996757932567 -0.38812220060153563 0 -0.42457644841490277 -0.37647628269366418 0 -0.4204996757932567 -0.38812220060153563 0 -0.40834344326820671 -0.38021763568629108 0 -0.41028422878348941 -0.39540155545964378 0 -0.4204996757932567 -0.38812220060153563 0 -0.40834344326820671 -0.38021763568629108 0 -0.40834344326820671 -0.38021763568629108 0 -0.39186935153514629 -0.38339750431599912 0 -0.39595905371276152 -0.39966961539692281 0 -0.40834344326820671 -0.38021763568629108 0 -0.39595905371276152 -0.39966961539692281 0 -0.40834344326820671 -0.38021763568629108 0 -0.39186935153514629 -0.38339750431599912 0 -0.39723252406302212 -0.36691876215295938 0 -0.39186935153514629 -0.38339750431599912 0 -0.39595905371276152 -0.39966961539692281 0 -0.38959292999589562 -0.39512230917583879 0 -0.41405632269809423 -0.40833940621136788 0 -0.40344679595878752 -0.40226263871459578 0 -0.39348757864080502 -0.40563997779044858 0 -0.41028422878348941 -0.39540155545964378 0 -0.40834344326820671 -0.38021763568629108 0 -0.39595905371276152 -0.39966961539692281 0 -0.41028422878348941 -0.39540155545964378 0 -0.40344679595878752 -0.40226263871459578 0 -0.39595905371276152 -0.39966961539692281 0 -0.40344679595878752 -0.40226263871459578 0 -0.39595905371276152 -0.39966961539692281 0 -0.39348757864080502 -0.40563997779044858 0 -0.39595905371276152 -0.39966961539692281 0 -0.39348757864080502 -0.40563997779044858 0 -0.38959292999589562 -0.39512230917583879 0 -0.39348757864080502 -0.40563997779044858 0 -0.37291883458351571 -0.40294054936952928 0 -0.39348757864080502 -0.40563997779044858 0 -0.38311883288285048 -0.39843689552586659 0 -0.37291883458351571 -0.40294054936952928 0 -0.39348757864080502 -0.40563997779044858 0 -0.38959292999589562 -0.39512230917583879 0 -0.38311883288285048 -0.39843689552586659 0 -0.37550107464735372 -0.39377391909942883 0 -0.38311883288285048 -0.39843689552586659 0 -0.38110076493631972 -0.38911631596733143 0 -0.37550107464735372 -0.39377391909942883 0 -0.38311883288285048 -0.39843689552586659 0 -0.37291883458351571 -0.40294054936952928 0 -0.38959292999589562 -0.39512230917583879 0 -0.38311883288285048 -0.39843689552586659 0 -0.38110076493631972 -0.38911631596733143 0 -0.39186935153514629 -0.38339750431599912 0 -0.38110076493631972 -0.38911631596733143 0 -0.37469860261336391 -0.37808137265181663 0 -0.39186935153514629 -0.38339750431599912 0 -0.38959292999589562 -0.39512230917583879 0 -0.38110076493631972 -0.38911631596733143 0 -0.38110076493631972 -0.38911631596733143 0 -0.37469860261336391 -0.37808137265181663 0 -0.37182379794330872 -0.38588589503503889 0 -0.37550107464735372 -0.39377391909942883 0 -0.38110076493631972 -0.38911631596733143 0 -0.37182379794330872 -0.38588589503503889 0 -0.40635492721812472 -0.42679818173314349 0 -0.39934002268640462 -0.42048899995713301 0 -0.38957155330368781 -0.42922468499409372 0 -0.40635492721812472 -0.42679818173314349 0 -0.38957155330368781 -0.42922468499409372 0 -0.39855503947592658 -0.44049631156531721 0 -0.39934002268640462 -0.42048899995713301 0 -0.3901427186967199 -0.41869214871478028 0 -0.38957155330368781 -0.42922468499409372 0 -0.40635492721812472 -0.42679818173314349 0 -0.40565889409844791 -0.41998964627210122 0 -0.39934002268640462 -0.42048899995713301 0 -0.40565889409844791 -0.41998964627210122 0 -0.39934002268640462 -0.42048899995713301 0 -0.40485072087479818 -0.41193239280373217 0 -0.41405632269809423 -0.40833940621136788 0 -0.39348757864080502 -0.40563997779044858 0 -0.40485072087479818 -0.41193239280373217 0 -0.39348757864080502 -0.40563997779044858 0 -0.40485072087479818 -0.41193239280373217 0 -0.37507637499421298 -0.41282595097517732 0 -0.41405632269809423 -0.40833940621136788 0 -0.39348757864080502 -0.40563997779044858 0 -0.39934002268640462 -0.42048899995713301 0 -0.40485072087479818 -0.41193239280373217 0 -0.3901427186967199 -0.41869214871478028 0 -0.40485072087479818 -0.41193239280373217 0 -0.37507637499421298 -0.41282595097517732 0 -0.39348757864080502 -0.40563997779044858 0 -0.37507637499421298 -0.41282595097517732 0 -0.37291883458351571 -0.40294054936952928 0 -0.40485072087479818 -0.41193239280373217 0 -0.3901427186967199 -0.41869214871478028 0 -0.37507637499421298 -0.41282595097517732 0 -0.3901427186967199 -0.41869214871478028 0 -0.37507637499421298 -0.41282595097517732 0 -0.38060259419030451 -0.42101380144424422 0 -0.37507637499421298 -0.41282595097517732 0 -0.38060259419030451 -0.42101380144424422 0 -0.36951660438380829 -0.42080079055187231 0 -0.37716855689541778 -0.42764243543083141 0 -0.38957155330368781 -0.42922468499409372 0 -0.37056138021523238 -0.43966771330909538 0 -0.38957155330368781 -0.42922468499409372 0 -0.39855503947592658 -0.44049631156531721 0 -0.37056138021523238 -0.43966771330909538 0 -0.38060259419030451 -0.42101380144424422 0 -0.37716855689541778 -0.42764243543083141 0 -0.36951660438380829 -0.42080079055187231 0 -0.38060259419030451 -0.42101380144424422 0 -0.37716855689541778 -0.42764243543083141 0 -0.38957155330368781 -0.42922468499409372 0 -0.3901427186967199 -0.41869214871478028 0 -0.38060259419030451 -0.42101380144424422 0 -0.38957155330368781 -0.42922468499409372 0 -0.3763228418436575 -0.45239704925225133 0 -0.39855503947592658 -0.44049631156531721 0 -0.39442329516823249 -0.46002917355137368 0 -0.39855503947592658 -0.44049631156531721 0 -0.37056138021523238 -0.43966771330909538 0 -0.3763228418436575 -0.45239704925225133 0 -0.39855503947592658 -0.44049631156531721 0 -0.3763228418436575 -0.45239704925225133 0 -0.39855503947592658 -0.44049631156531721 0 -0.37056138021523238 -0.43966771330909538 0 -0.39855503947592658 -0.44049631156531721 0 -0.39442329516823249 -0.46002917355137368 0 -0.41535936020630082 -0.45869048094921278 0 -0.39442329516823249 -0.46002917355137368 0 -0.405967537393919 -0.47788384683859048 0 -0.41535936020630082 -0.45869048094921278 0 -0.3763228418436575 -0.45239704925225133 0 -0.39442329516823249 -0.46002917355137368 0 -0.37784058436929152 -0.47684849165883941 0 -0.37784058436929152 -0.47684849165883941 0 -0.39362540692542342 -0.5 0 -0.36706756802271368 -0.5 0 -0.37784058436929152 -0.47684849165883941 0 -0.39362540692542342 -0.5 0 -0.405967537393919 -0.47788384683859048 0 -0.39442329516823249 -0.46002917355137368 0 -0.37784058436929152 -0.47684849165883941 0 -0.405967537393919 -0.47788384683859048 0 -0.405967537393919 -0.47788384683859048 0 -0.42949081604070988 -0.47718801963799079 0 -0.41535936020630082 -0.45869048094921278 0 -0.405967537393919 -0.47788384683859048 0 -0.42018324582813299 -0.5 0 -0.42949081604070988 -0.47718801963799079 0 -0.39362540692542342 -0.5 0 -0.405967537393919 -0.47788384683859048 0 -0.42018324582813299 -0.5 0 -0.44674108473084267 -0.49999999999999972 0 -0.42018324582813299 -0.5 0 -0.42949081604070988 -0.47718801963799079 0 -0.42949081604070988 -0.47718801963799079 0 -0.43710445430208239 -0.45649224840644298 0 -0.41535936020630082 -0.45869048094921278 0 -0.44766432780042181 -0.44194992183795379 0 -0.42701687040858699 -0.44133876746792211 0 -0.44766432780042181 -0.44194992183795379 0 -0.43667083460590322 -0.43241403038538939 0 -0.42701687040858699 -0.44133876746792211 0 -0.44766432780042181 -0.44194992183795379 0 -0.43710445430208239 -0.45649224840644298 0 -0.42701687040858699 -0.44133876746792211 0 -0.43710445430208239 -0.45649224840644298 0 -0.42701687040858699 -0.44133876746792211 0 -0.43710445430208239 -0.45649224840644298 0 -0.42701687040858699 -0.44133876746792211 0 -0.41535936020630082 -0.45869048094921278 0 -0.39855503947592658 -0.44049631156531721 0 -0.42701687040858699 -0.44133876746792211 0 -0.39855503947592658 -0.44049631156531721 0 -0.42701687040858699 -0.44133876746792211 0 -0.41535936020630082 -0.45869048094921278 0 -0.4473760114600458 -0.25327573578158802 0 -0.45064592817966898 -0.2707641159620357 0 -0.45773347969930228 -0.25980067560645359 0 -0.4473760114600458 -0.25327573578158802 0 -0.45064592817966898 -0.2707641159620357 0 -0.43523262567337412 -0.26219922037125099 0 -0.4473760114600458 -0.25327573578158802 0 -0.43523262567337412 -0.26219922037125099 0 -0.4473760114600458 -0.25327573578158802 0 -0.43523262567337412 -0.26219922037125099 0 -0.43483749617007078 -0.2522587931588175 0 -0.45064592817966898 -0.2707641159620357 0 -0.43523262567337412 -0.26219922037125099 0 -0.45064592817966898 -0.2707641159620357 0 -0.43137381208845521 -0.28461873891090278 0 -0.43523262567337412 -0.26219922037125099 0 -0.45064592817966898 -0.2707641159620357 0 -0.46605923068596422 -0.27932901155281992 0 -0.46477741416115559 -0.26704231788320998 0 -0.45064592817966898 -0.2707641159620357 0 -0.46605923068596422 -0.27932901155281992 0 -0.44897913613354379 -0.29099801045837898 0 -0.45064592817966898 -0.2707641159620357 0 -0.46477741416115559 -0.26704231788320998 0 -0.45773347969930228 -0.25980067560645359 0 -0.45064592817966898 -0.2707641159620357 0 -0.46605923068596422 -0.27932901155281992 0 -0.46477741416115559 -0.26704231788320998 0 -0.45773347969930228 -0.25980067560645359 0 -0.4678291171310674 -0.25672632562225822 0 -0.4473760114600458 -0.25327573578158802 0 -0.45773347969930228 -0.25980067560645359 0 -0.45615179902803987 -0.25140296294314313 0 -0.45773347969930228 -0.25980067560645359 0 -0.45615179902803987 -0.25140296294314313 0 -0.4678291171310674 -0.25672632562225822 0 -0.45615179902803987 -0.25140296294314313 0 -0.4678291171310674 -0.25672632562225822 0 -0.46492396541037079 -0.24608576302758381 0 -0.4678291171310674 -0.25672632562225822 0 -0.47717873987700199 -0.26523418465063348 0 -0.48558956044911988 -0.25293611652645642 0 -0.4678291171310674 -0.25672632562225822 0 -0.48558956044911988 -0.25293611652645642 0 -0.46492396541037079 -0.24608576302758381 0 -0.46477741416115559 -0.26704231788320998 0 -0.4678291171310674 -0.25672632562225822 0 -0.47717873987700199 -0.26523418465063348 0 -0.47717873987700199 -0.26523418465063348 0 -0.48558956044911988 -0.25293611652645642 0 -0.50000000000000111 -0.27012238481621298 0 -0.48558956044911988 -0.25293611652645642 0 -0.50000000000000111 -0.27012238481621298 0 -0.48558956044911988 -0.25293611652645642 0 -0.50000000000000111 -0.27012238481621298 0 -0.5 -0.24703602734151589 0 -0.47717873987700199 -0.26523418465063348 0 -0.50000000000000111 -0.27012238481621298 0 -0.48394773194396368 -0.2776055551160313 0 -0.50000000000000111 -0.27012238481621298 0 -0.48394773194396368 -0.2776055551160313 0 -0.49667060542683072 -0.28936974241580232 0 -0.46605923068596422 -0.27932901155281992 0 -0.47717873987700199 -0.26523418465063348 0 -0.48394773194396368 -0.2776055551160313 0 -0.46605923068596422 -0.27932901155281992 0 -0.46477741416115559 -0.26704231788320998 0 -0.47717873987700199 -0.26523418465063348 0 -0.46605923068596422 -0.27932901155281992 0 -0.48394773194396368 -0.2776055551160313 0 -0.47937112574857299 -0.29051535488099128 0 -0.46605923068596422 -0.27932901155281992 0 -0.47937112574857299 -0.29051535488099128 0 -0.46405931967740649 -0.29328343398587509 0 -0.47937112574857299 -0.29051535488099128 0 -0.47595160548146642 -0.30085305008161373 0 -0.46405931967740649 -0.29328343398587509 0 -0.48394773194396368 -0.2776055551160313 0 -0.47937112574857299 -0.29051535488099128 0 -0.49667060542683072 -0.28936974241580232 0 -0.47937112574857299 -0.29051535488099128 0 -0.49667060542683072 -0.28936974241580232 0 -0.48557531812374388 -0.3019027368954228 0 -0.50000000000000111 -0.27012238481621298 0 -0.49667060542683072 -0.28936974241580232 0 -0.5 -0.29914017456305242 0 -0.48557531812374388 -0.3019027368954228 0 -0.47798390259564988 -0.31393429246209231 0 -0.49468280044568819 -0.31535427930178711 0 -0.49667060542683072 -0.28936974241580232 0 -0.48557531812374388 -0.3019027368954228 0 -0.49468280044568819 -0.31535427930178711 0 -0.49667060542683072 -0.28936974241580232 0 -0.5 -0.29914017456305242 0 -0.49468280044568819 -0.31535427930178711 0 -0.49667060542683072 -0.28936974241580232 0 -0.49468280044568819 -0.31535427930178711 0 -0.47595160548146642 -0.30085305008161373 0 -0.45244105906449172 -0.31095415492155642 0 -0.47798390259564988 -0.31393429246209231 0 -0.48557531812374388 -0.3019027368954228 0 -0.47595160548146642 -0.30085305008161373 0 -0.47798390259564988 -0.31393429246209231 0 -0.47937112574857299 -0.29051535488099128 0 -0.48557531812374388 -0.3019027368954228 0 -0.47595160548146642 -0.30085305008161373 0 -0.46405931967740649 -0.29328343398587509 0 -0.44897913613354379 -0.29099801045837898 0 -0.45244105906449172 -0.31095415492155642 0 -0.47595160548146642 -0.30085305008161373 0 -0.46405931967740649 -0.29328343398587509 0 -0.45244105906449172 -0.31095415492155642 0 -0.46605923068596422 -0.27932901155281992 0 -0.46405931967740649 -0.29328343398587509 0 -0.44897913613354379 -0.29099801045837898 0 -0.45064592817966898 -0.2707641159620357 0 -0.44897913613354379 -0.29099801045837898 0 -0.43137381208845521 -0.28461873891090278 0 -0.44897913613354379 -0.29099801045837898 0 -0.45244105906449172 -0.31095415492155642 0 -0.4298839765347679 -0.30717039709395849 0 -0.45244105906449172 -0.31095415492155642 0 -0.45648742501588357 -0.33622175349211048 0 -0.43658444594407192 -0.335859905448608 0 -0.45244105906449172 -0.31095415492155642 0 -0.43658444594407192 -0.335859905448608 0 -0.45244105906449172 -0.31095415492155642 0 -0.43658444594407192 -0.335859905448608 0 -0.4298839765347679 -0.30717039709395849 0 -0.45648742501588357 -0.33622175349211048 0 -0.44610128202925281 -0.35357506440090131 0 -0.43658444594407192 -0.335859905448608 0 -0.45648742501588357 -0.33622175349211048 0 -0.47552156661959061 -0.33968369348969057 0 -0.46543883575429751 -0.35232203417331831 0 -0.45648742501588357 -0.33622175349211048 0 -0.47215104233843441 -0.32669891181169292 0 -0.47552156661959061 -0.33968369348969057 0 -0.45244105906449172 -0.31095415492155642 0 -0.45648742501588357 -0.33622175349211048 0 -0.47215104233843441 -0.32669891181169292 0 -0.45244105906449172 -0.31095415492155642 0 -0.47215104233843441 -0.32669891181169292 0 -0.47798390259564988 -0.31393429246209231 0 -0.47215104233843441 -0.32669891181169292 0 -0.48260686149278181 -0.32740199865060698 0 -0.47798390259564988 -0.31393429246209231 0 -0.5 -0.29914017456305242 0 -0.49468280044568819 -0.31535427930178711 0 -0.5 -0.32815796430989169 0 -0.48260686149278181 -0.32740199865060698 0 -0.49468280044568819 -0.31535427930178711 0 -0.49269499546454593 -0.34133881618777201 0 -0.48260686149278181 -0.32740199865060698 0 -0.47798390259564988 -0.31393429246209231 0 -0.49468280044568819 -0.31535427930178711 0 -0.5 -0.32815796430989169 0 -0.49269499546454593 -0.34133881618777201 0 -0.5 -0.35717575405673108 0 -0.49468280044568819 -0.31535427930178711 0 -0.5 -0.32815796430989169 0 -0.49269499546454593 -0.34133881618777201 0 -0.49468280044568819 -0.31535427930178711 0 -0.49269499546454593 -0.34133881618777201 0 -0.48260686149278181 -0.32740199865060698 0 -0.49269499546454593 -0.34133881618777201 0 -0.47552156661959061 -0.33968369348969057 0 -0.47215104233843441 -0.32669891181169292 0 -0.48260686149278181 -0.32740199865060698 0 -0.47552156661959061 -0.33968369348969057 0 -0.49269499546454593 -0.34133881618777201 0 -0.47552156661959061 -0.33968369348969057 0 -0.48014557998979229 -0.35384652917915899 0 -0.47552156661959061 -0.33968369348969057 0 -0.48014557998979229 -0.35384652917915899 0 -0.46543883575429751 -0.35232203417331831 0 -0.48014557998979229 -0.35384652917915899 0 -0.47344652270633231 -0.36864076809020141 0 -0.46543883575429751 -0.35232203417331831 0 -0.49269499546454593 -0.34133881618777201 0 -0.49070719048340339 -0.36732335307375691 0 -0.49269499546454593 -0.34133881618777201 0 -0.5 -0.35717575405673108 0 -0.49070719048340339 -0.36732335307375691 0 -0.49269499546454593 -0.34133881618777201 0 -0.48014557998979229 -0.35384652917915899 0 -0.49070719048340339 -0.36732335307375691 0 -0.49999999999999412 -0.3861935438035704 0 -0.5 -0.35717575405673108 0 -0.49070719048340339 -0.36732335307375691 0 -0.48269015159314238 -0.38140079204273158 0 -0.49070719048340339 -0.36732335307375691 0 -0.47344652270633231 -0.36864076809020141 0 -0.48014557998979229 -0.35384652917915899 0 -0.49070719048340339 -0.36732335307375691 0 -0.47344652270633231 -0.36864076809020141 0 -0.47344652270633231 -0.36864076809020141 0 -0.45608995909666239 -0.36510073278036892 0 -0.46543883575429751 -0.35232203417331831 0 -0.4567328257210691 -0.38038864616639539 0 -0.47344652270633231 -0.36864076809020141 0 -0.45608995909666239 -0.36510073278036892 0 -0.45648742501588357 -0.33622175349211048 0 -0.46543883575429751 -0.35232203417331831 0 -0.44610128202925281 -0.35357506440090131 0 -0.45608995909666239 -0.36510073278036892 0 -0.46543883575429751 -0.35232203417331831 0 -0.44610128202925281 -0.35357506440090131 0 -0.45608995909666239 -0.36510073278036892 0 -0.44610128202925281 -0.35357506440090131 0 -0.43873032927236028 -0.37057715107102801 0 -0.4567328257210691 -0.38038864616639539 0 -0.45608995909666239 -0.36510073278036892 0 -0.43873032927236028 -0.37057715107102801 0 -0.42457644841490277 -0.37647628269366418 0 -0.43873032927236028 -0.37057715107102801 0 -0.420727832823652 -0.36076565597565963 0 -0.43873032927236028 -0.37057715107102801 0 -0.420727832823652 -0.36076565597565963 0 -0.44610128202925281 -0.35357506440090131 0 -0.43873032927236028 -0.37057715107102801 0 -0.420727832823652 -0.36076565597565963 0 -0.420727832823652 -0.36076565597565963 0 -0.43658444594407192 -0.335859905448608 0 -0.420727832823652 -0.36076565597565963 0 -0.41829558854148541 -0.34171658333018512 0 -0.43658444594407192 -0.335859905448608 0 -0.44610128202925281 -0.35357506440090131 0 -0.420727832823652 -0.36076565597565963 0 -0.43658444594407192 -0.335859905448608 0 -0.420727832823652 -0.36076565597565963 0 -0.39723252406302212 -0.36691876215295938 0 -0.40096869055340201 -0.34999677578031813 0 -0.420727832823652 -0.36076565597565963 0 -0.40096869055340201 -0.34999677578031813 0 -0.420727832823652 -0.36076565597565963 0 -0.40096869055340201 -0.34999677578031813 0 -0.41829558854148541 -0.34171658333018512 0 -0.42457644841490277 -0.37647628269366418 0 -0.40834344326820671 -0.38021763568629108 0 -0.420727832823652 -0.36076565597565963 0 -0.40834344326820671 -0.38021763568629108 0 -0.420727832823652 -0.36076565597565963 0 -0.39723252406302212 -0.36691876215295938 0 -0.40834344326820671 -0.38021763568629108 0 -0.420727832823652 -0.36076565597565963 0 -0.39723252406302212 -0.36691876215295938 0 -0.3802434575949224 -0.36288628698596342 0 -0.40096869055340201 -0.34999677578031813 0 -0.39186935153514629 -0.38339750431599912 0 -0.39723252406302212 -0.36691876215295938 0 -0.3802434575949224 -0.36288628698596342 0 -0.39186935153514629 -0.38339750431599912 0 -0.3802434575949224 -0.36288628698596342 0 -0.37469860261336391 -0.37808137265181663 0 -0.3802434575949224 -0.36288628698596342 0 -0.40096869055340201 -0.34999677578031813 0 -0.38155198914535082 -0.33215707895517688 0 -0.38155198914535082 -0.33215707895517688 0 -0.40952007654623879 -0.32330045893551829 0 -0.38868514625687001 -0.29640431955509122 0 -0.40096869055340201 -0.34999677578031813 0 -0.38155198914535082 -0.33215707895517688 0 -0.40952007654623879 -0.32330045893551829 0 -0.38155198914535082 -0.33215707895517688 0 -0.38868514625687001 -0.29640431955509122 0 -0.36541140654861859 -0.31350686914701159 0 -0.40096869055340201 -0.34999677578031813 0 -0.40952007654623879 -0.32330045893551829 0 -0.41829558854148541 -0.34171658333018512 0 -0.40952007654623879 -0.32330045893551829 0 -0.41829558854148541 -0.34171658333018512 0 -0.43658444594407192 -0.335859905448608 0 -0.40952007654623879 -0.32330045893551829 0 -0.43658444594407192 -0.335859905448608 0 -0.4298839765347679 -0.30717039709395849 0 -0.4298839765347679 -0.30717039709395849 0 -0.43137381208845521 -0.28461873891090278 0 -0.41184049163666497 -0.29903554663887982 0 -0.44897913613354379 -0.29099801045837898 0 -0.4298839765347679 -0.30717039709395849 0 -0.43137381208845521 -0.28461873891090278 0 -0.43137381208845521 -0.28461873891090278 0 -0.41184049163666497 -0.29903554663887982 0 -0.4119588859651217 -0.27930176996317058 0 -0.40952007654623879 -0.32330045893551829 0 -0.4298839765347679 -0.30717039709395849 0 -0.41184049163666497 -0.29903554663887982 0 -0.40952007654623879 -0.32330045893551829 0 -0.41184049163666497 -0.29903554663887982 0 -0.38868514625687001 -0.29640431955509122 0 -0.38868514625687001 -0.29640431955509122 0 -0.36541140654861859 -0.31350686914701159 0 -0.38868514625687001 -0.29640431955509122 0 -0.38719534570283698 -0.27425704418540547 0 -0.35759054835152748 -0.28689793397762547 0 -0.38868514625687001 -0.29640431955509122 0 -0.4119588859651217 -0.27930176996317058 0 -0.38868514625687001 -0.29640431955509122 0 -0.38719534570283698 -0.27425704418540547 0 -0.4119588859651217 -0.27930176996317058 0 -0.41184049163666497 -0.29903554663887982 0 -0.38868514625687001 -0.29640431955509122 0 -0.4119588859651217 -0.27930176996317058 0 -0.38719534570283698 -0.27425704418540547 0 -0.40545817697743741 -0.26431695515288461 0 -0.4119588859651217 -0.27930176996317058 0 -0.39119350268818742 -0.25635938267990532 0 -0.36828581397787841 -0.26226190378375569 0 -0.38719534570283698 -0.27425704418540547 0 -0.39119350268818742 -0.25635938267990532 0 -0.36828581397787841 -0.26226190378375569 0 -0.39119350268818742 -0.25635938267990532 0 -0.36828581397787841 -0.26226190378375569 0 -0.37735393772307563 -0.2494177228037828 0 -0.39119350268818742 -0.25635938267990532 0 -0.4141011913984961 -0.25045686157605401 0 -0.38719534570283698 -0.27425704418540547 0 -0.40545817697743741 -0.26431695515288461 0 -0.39119350268818742 -0.25635938267990532 0 -0.40545817697743741 -0.26431695515288461 0 -0.39119350268818742 -0.25635938267990532 0 -0.4141011913984961 -0.25045686157605401 0 -0.40545817697743741 -0.26431695515288461 0 -0.4141011913984961 -0.25045686157605401 0 -0.43523262567337412 -0.26219922037125099 0 -0.40545817697743741 -0.26431695515288461 0 -0.4119588859651217 -0.27930176996317058 0 -0.43523262567337412 -0.26219922037125099 0 -0.4119588859651217 -0.27930176996317058 0 -0.43523262567337412 -0.26219922037125099 0 -0.43137381208845521 -0.28461873891090278 0 -0.4119588859651217 -0.27930176996317058 0 -0.43523262567337412 -0.26219922037125099 0 -0.4141011913984961 -0.25045686157605401 0 -0.43523262567337412 -0.26219922037125099 0 -0.43483749617007078 -0.2522587931588175 0 -0.4141011913984961 -0.25045686157605401 0 -0.43523262567337412 -0.26219922037125099 0 -0.32512134978041157 -0.2508661395249745 0 -0.31824307523870682 -0.27770496015057361 0 -0.30566575396608042 -0.25979383925549898 0 -0.32512134978041157 -0.2508661395249745 0 -0.31824307523870682 -0.27770496015057361 0 -0.31824307523870682 -0.27770496015057361 0 -0.33935695395298482 -0.28023035017313558 0 -0.3432827985294879 -0.26264209135616529 0 -0.32512134978041157 -0.2508661395249745 0 -0.31824307523870682 -0.27770496015057361 0 -0.3432827985294879 -0.26264209135616529 0 -0.32512134978041157 -0.2508661395249745 0 -0.3432827985294879 -0.26264209135616529 0 -0.33938871232047058 -0.23991678868552341 0 -0.3432827985294879 -0.26264209135616529 0 -0.36828581397787841 -0.26226190378375569 0 -0.3548229401070539 -0.2411722261652002 0 -0.36828581397787841 -0.26226190378375569 0 -0.3548229401070539 -0.2411722261652002 0 -0.37735393772307563 -0.2494177228037828 0 -0.38719534570283698 -0.27425704418540547 0 -0.36828581397787841 -0.26226190378375569 0 -0.35759054835152748 -0.28689793397762547 0 -0.33935695395298482 -0.28023035017313558 0 -0.3432827985294879 -0.26264209135616529 0 -0.35759054835152748 -0.28689793397762547 0 -0.3432827985294879 -0.26264209135616529 0 -0.36828581397787841 -0.26226190378375569 0 -0.35759054835152748 -0.28689793397762547 0 -0.38868514625687001 -0.29640431955509122 0 -0.35759054835152748 -0.28689793397762547 0 -0.36541140654861859 -0.31350686914701159 0 -0.35759054835152748 -0.28689793397762547 0 -0.34342623282556112 -0.3095528316300119 0 -0.36541140654861859 -0.31350686914701159 0 -0.35759054835152748 -0.28689793397762547 0 -0.34342623282556112 -0.3095528316300119 0 -0.33217371522568317 -0.29557591095295987 0 -0.34342623282556112 -0.3095528316300119 0 -0.32842899562923261 -0.30681228077917438 0 -0.32675123376868442 -0.31757659975755348 0 -0.34342623282556112 -0.3095528316300119 0 -0.32842899562923261 -0.30681228077917438 0 -0.33217371522568317 -0.29557591095295987 0 -0.31824307523870682 -0.27770496015057361 0 -0.33935695395298482 -0.28023035017313558 0 -0.33217371522568317 -0.29557591095295987 0 -0.33935695395298482 -0.28023035017313558 0 -0.35759054835152748 -0.28689793397762547 0 -0.33217371522568317 -0.29557591095295987 0 -0.31824307523870682 -0.27770496015057361 0 -0.31136480069700179 -0.30454378077617272 0 -0.31824307523870682 -0.27770496015057361 0 -0.33217371522568317 -0.29557591095295987 0 -0.31136480069700179 -0.30454378077617272 0 -0.32842899562923261 -0.30681228077917438 0 -0.32675123376868442 -0.31757659975755348 0 -0.31136480069700179 -0.30454378077617272 0 -0.32842899562923261 -0.30681228077917438 0 -0.33217371522568317 -0.29557591095295987 0 -0.31136480069700179 -0.30454378077617272 0 -0.32675123376868442 -0.31757659975755348 0 -0.31060134037456799 -0.30752278001854549 0 -0.31136480069700179 -0.30454378077617272 0 -0.32675123376868442 -0.31757659975755348 0 -0.31136480069700179 -0.30454378077617272 0 -0.32675123376868442 -0.31757659975755348 0 -0.3119424616821313 -0.31639477425995621 0 -0.31060134037456799 -0.30752278001854549 0 -0.32105100006793358 -0.32691281713070208 0 -0.32675123376868442 -0.31757659975755348 0 -0.3292094341343037 -0.32938836938162708 0 -0.32105100006793358 -0.32691281713070208 0 -0.32675123376868442 -0.31757659975755348 0 -0.31440934236872697 -0.32319865842387091 0 -0.32675123376868442 -0.31757659975755348 0 -0.31440934236872697 -0.32319865842387091 0 -0.3119424616821313 -0.31639477425995621 0 -0.32105100006793358 -0.32691281713070208 0 -0.31440934236872697 -0.32319865842387091 0 -0.31407796152133288 -0.32877986502215051 0 -0.31440934236872697 -0.32319865842387091 0 -0.31407796152133288 -0.32877986502215051 0 -0.30927130471097702 -0.32597094110551311 0 -0.31407796152133288 -0.32877986502215051 0 -0.31796566610503241 -0.33114414250513952 0 -0.31195787065581598 -0.33296304261573972 0 -0.31796566610503241 -0.33114414250513952 0 -0.32269053638287171 -0.33453880572158001 0 -0.31195787065581598 -0.33296304261573972 0 -0.33148611238374182 -0.33843664120550038 0 -0.30440661472865838 -0.33947625163070938 0 -0.32269053638287171 -0.33453880572158001 0 -0.30440661472865838 -0.33947625163070938 0 -0.31195787065581598 -0.33296304261573972 0 -0.32269053638287171 -0.33453880572158001 0 -0.33148611238374182 -0.33843664120550038 0 -0.30440661472865838 -0.33947625163070938 0 -0.33148611238374182 -0.33843664120550038 0 -0.30440661472865838 -0.33947625163070938 0 -0.31127750086256212 -0.3419077526720507 0 -0.32105100006793358 -0.32691281713070208 0 -0.31407796152133288 -0.32877986502215051 0 -0.31796566610503241 -0.33114414250513952 0 -0.32269053638287171 -0.33453880572158001 0 -0.3292094341343037 -0.32938836938162708 0 -0.33148611238374182 -0.33843664120550038 0 -0.32105100006793358 -0.32691281713070208 0 -0.32269053638287171 -0.33453880572158001 0 -0.3292094341343037 -0.32938836938162708 0 -0.32105100006793358 -0.32691281713070208 0 -0.31796566610503241 -0.33114414250513952 0 -0.32269053638287171 -0.33453880572158001 0 -0.3292094341343037 -0.32938836938162708 0 -0.33148611238374182 -0.33843664120550038 0 -0.34213766684036789 -0.33060941873893329 0 -0.33148611238374182 -0.33843664120550038 0 -0.34107143280461649 -0.33806865066278691 0 -0.33148611238374182 -0.33843664120550038 0 -0.34107143280461649 -0.33806865066278691 0 -0.33680786958742009 -0.34385176202908602 0 -0.34107143280461649 -0.33806865066278691 0 -0.34528630903465968 -0.34625789088405179 0 -0.33680786958742009 -0.34385176202908602 0 -0.33148611238374182 -0.33843664120550038 0 -0.34213766684036789 -0.33060941873893329 0 -0.33148611238374182 -0.33843664120550038 0 -0.34107143280461649 -0.33806865066278691 0 -0.34213766684036789 -0.33060941873893329 0 -0.34342623282556112 -0.3095528316300119 0 -0.32675123376868442 -0.31757659975755348 0 -0.34213766684036789 -0.33060941873893329 0 -0.32675123376868442 -0.31757659975755348 0 -0.3292094341343037 -0.32938836938162708 0 -0.34213766684036789 -0.33060941873893329 0 -0.32675123376868442 -0.31757659975755348 0 -0.34213766684036789 -0.33060941873893329 0 -0.34213766684036789 -0.33060941873893329 0 -0.36541140654861859 -0.31350686914701159 0 -0.36257290618799559 -0.33075530492589261 0 -0.34342623282556112 -0.3095528316300119 0 -0.34213766684036789 -0.33060941873893329 0 -0.36541140654861859 -0.31350686914701159 0 -0.34213766684036789 -0.33060941873893329 0 -0.36541140654861859 -0.31350686914701159 0 -0.38155198914535082 -0.33215707895517688 0 -0.36541140654861859 -0.31350686914701159 0 -0.36257290618799559 -0.33075530492589261 0 -0.38155198914535082 -0.33215707895517688 0 -0.36257290618799559 -0.33075530492589261 0 -0.36119056221764512 -0.34674785286244858 0 -0.34213766684036789 -0.33060941873893329 0 -0.36119056221764512 -0.34674785286244858 0 -0.34107143280461649 -0.33806865066278691 0 -0.34528630903465968 -0.34625789088405179 0 -0.36119056221764512 -0.34674785286244858 0 -0.34213766684036789 -0.33060941873893329 0 -0.36257290618799559 -0.33075530492589261 0 -0.36119056221764512 -0.34674785286244858 0 -0.34107143280461649 -0.33806865066278691 0 -0.34213766684036789 -0.33060941873893329 0 -0.36119056221764512 -0.34674785286244858 0 -0.3493926004791863 -0.35379983632562872 0 -0.36119056221764512 -0.34674785286244858 0 -0.35822189297366303 -0.36642805528084582 0 -0.34528630903465968 -0.34625789088405179 0 -0.3493926004791863 -0.35379983632562872 0 -0.33834251876064109 -0.35036592192352778 0 -0.34528630903465968 -0.34625789088405179 0 -0.3493926004791863 -0.35379983632562872 0 -0.36119056221764512 -0.34674785286244858 0 -0.3493926004791863 -0.35379983632562872 0 -0.34646661532431938 -0.36234417644178318 0 -0.33711269704357438 -0.35997448964052448 0 -0.3802434575949224 -0.36288628698596342 0 -0.38155198914535082 -0.33215707895517688 0 -0.36119056221764512 -0.34674785286244858 0 -0.3802434575949224 -0.36288628698596342 0 -0.36119056221764512 -0.34674785286244858 0 -0.35822189297366303 -0.36642805528084582 0 -0.3802434575949224 -0.36288628698596342 0 -0.36119056221764512 -0.34674785286244858 0 -0.3802434575949224 -0.36288628698596342 0 -0.35822189297366303 -0.36642805528084582 0 -0.37469860261336391 -0.37808137265181663 0 -0.3493926004791863 -0.35379983632562872 0 -0.35822189297366303 -0.36642805528084582 0 -0.34646661532431938 -0.36234417644178318 0 -0.35822189297366303 -0.36642805528084582 0 -0.34646661532431938 -0.36234417644178318 0 -0.34375466240569752 -0.37078609928867101 0 -0.35822189297366303 -0.36642805528084582 0 -0.34375466240569752 -0.37078609928867101 0 -0.3508025729202125 -0.38054751967862049 0 -0.34375466240569752 -0.37078609928867101 0 -0.33204536052291239 -0.37219525046858543 0 -0.33711269704357438 -0.35997448964052448 0 -0.33204536052291239 -0.37219525046858543 0 -0.33711269704357438 -0.35997448964052448 0 -0.32665308316000602 -0.36290365374294709 0 -0.34646661532431938 -0.36234417644178318 0 -0.34375466240569752 -0.37078609928867101 0 -0.33711269704357438 -0.35997448964052448 0 -0.3493926004791863 -0.35379983632562872 0 -0.33711269704357438 -0.35997448964052448 0 -0.33834251876064109 -0.35036592192352778 0 -0.34528630903465968 -0.34625789088405179 0 -0.33680786958742009 -0.34385176202908602 0 -0.33834251876064109 -0.35036592192352778 0 -0.33148611238374182 -0.33843664120550038 0 -0.33680786958742009 -0.34385176202908602 0 -0.32859985230586253 -0.34921884423600102 0 -0.33834251876064109 -0.35036592192352778 0 -0.32859985230586253 -0.34921884423600102 0 -0.33153194493840821 -0.35471977993339188 0 -0.33680786958742009 -0.34385176202908602 0 -0.33834251876064109 -0.35036592192352778 0 -0.32859985230586253 -0.34921884423600102 0 -0.33711269704357438 -0.35997448964052448 0 -0.33834251876064109 -0.35036592192352778 0 -0.33153194493840821 -0.35471977993339188 0 -0.33711269704357438 -0.35997448964052448 0 -0.33153194493840821 -0.35471977993339188 0 -0.32665308316000602 -0.36290365374294709 0 -0.33148611238374182 -0.33843664120550038 0 -0.32859985230586253 -0.34921884423600102 0 -0.31087129034812788 -0.35358530320019022 0 -0.32859985230586253 -0.34921884423600102 0 -0.33153194493840821 -0.35471977993339188 0 -0.32293281649304678 -0.3558982265075295 0 -0.32859985230586253 -0.34921884423600102 0 -0.32293281649304678 -0.3558982265075295 0 -0.31087129034812788 -0.35358530320019022 0 -0.33153194493840821 -0.35471977993339188 0 -0.32293281649304678 -0.3558982265075295 0 -0.32665308316000602 -0.36290365374294709 0 -0.33148611238374182 -0.33843664120550038 0 -0.31087129034812788 -0.35358530320019022 0 -0.33148611238374182 -0.33843664120550038 0 -0.31087129034812788 -0.35358530320019022 0 -0.31127750086256212 -0.3419077526720507 0 -0.32293281649304678 -0.3558982265075295 0 -0.31732088959210542 -0.36284876870823829 0 -0.31087129034812788 -0.35358530320019022 0 -0.31732088959210542 -0.36284876870823829 0 -0.32003670206546619 -0.37196529370469961 0 -0.30611055589387998 -0.36989136638582532 0 -0.32003670206546619 -0.37196529370469961 0 -0.30611055589387998 -0.36989136638582532 0 -0.31358574777530551 -0.37919571753445669 0 -0.33204536052291239 -0.37219525046858543 0 -0.32003670206546619 -0.37196529370469961 0 -0.32665308316000602 -0.36290365374294709 0 -0.32293281649304678 -0.3558982265075295 0 -0.31732088959210542 -0.36284876870823829 0 -0.32665308316000602 -0.36290365374294709 0 -0.31732088959210542 -0.36284876870823829 0 -0.32003670206546619 -0.37196529370469961 0 -0.32665308316000602 -0.36290365374294709 0 -0.30611055589387998 -0.36989136638582532 0 -0.31087129034812788 -0.35358530320019022 0 -0.29025646831251423 -0.36873396519488022 0 -0.31732088959210542 -0.36284876870823829 0 -0.30611055589387998 -0.36989136638582532 0 -0.31087129034812788 -0.35358530320019022 0 -0.31087129034812788 -0.35358530320019022 0 -0.29025646831251423 -0.36873396519488022 0 -0.31087129034812788 -0.35358530320019022 0 -0.30357262057900841 -0.34618777070423551 0 -0.29400025286106812 -0.35150667519026779 0 -0.31087129034812788 -0.35358530320019022 0 -0.29400025286106812 -0.35150667519026779 0 -0.29025646831251423 -0.36873396519488022 0 -0.31087129034812788 -0.35358530320019022 0 -0.30357262057900841 -0.34618777070423551 0 -0.31127750086256212 -0.3419077526720507 0 -0.30357262057900841 -0.34618777070423551 0 -0.29578407347888303 -0.34438488345023449 0 -0.29400025286106812 -0.35150667519026779 0 -0.29400025286106812 -0.35150667519026779 0 -0.29025646831251423 -0.36873396519488022 0 -0.28080223575317209 -0.35313011570629832 0 -0.29578407347888303 -0.34438488345023449 0 -0.29400025286106812 -0.35150667519026779 0 -0.28115680574679719 -0.34036883627572562 0 -0.29400025286106812 -0.35150667519026779 0 -0.28080223575317209 -0.35313011570629832 0 -0.28115680574679719 -0.34036883627572562 0 -0.30611055589387998 -0.36989136638582532 0 -0.29025646831251423 -0.36873396519488022 0 -0.29363871700458821 -0.382047110795526 0 -0.29025646831251423 -0.36873396519488022 0 -0.26897478730447871 -0.36288182139862668 0 -0.28080223575317209 -0.35313011570629832 0 -0.29025646831251423 -0.36873396519488022 0 -0.26897478730447871 -0.36288182139862668 0 -0.26964164627690029 -0.38388262718957028 0 -0.26897478730447871 -0.36288182139862668 0 -0.25819280784631471 -0.37188716246363202 0 -0.26964164627690029 -0.38388262718957028 0 -0.26897478730447871 -0.36288182139862668 0 -0.25678753014941252 -0.3624888552073447 0 -0.26049194749962112 -0.35421533521016119 0 -0.26897478730447871 -0.36288182139862668 0 -0.25819280784631471 -0.37188716246363202 0 -0.25678753014941252 -0.3624888552073447 0 -0.25678753014941252 -0.3624888552073447 0 -0.2466206501041858 -0.36898541832739917 0 -0.2489578247536797 -0.35450973468131358 0 -0.25819280784631471 -0.37188716246363202 0 -0.25678753014941252 -0.3624888552073447 0 -0.2466206501041858 -0.36898541832739917 0 -0.25819280784631471 -0.37188716246363202 0 -0.24893942539659611 -0.38119709019521919 0 -0.2466206501041858 -0.36898541832739917 0 -0.26049194749962112 -0.35421533521016119 0 -0.25790699676493611 -0.3412614209207413 0 -0.2489578247536797 -0.35450973468131358 0 -0.25678753014941252 -0.3624888552073447 0 -0.26049194749962112 -0.35421533521016119 0 -0.2489578247536797 -0.35450973468131358 0 -0.26049194749962112 -0.35421533521016119 0 -0.26983259852559838 -0.3499348438427799 0 -0.25790699676493611 -0.3412614209207413 0 -0.26983259852559838 -0.3499348438427799 0 -0.28115680574679719 -0.34036883627572562 0 -0.25790699676493611 -0.3412614209207413 0 -0.26897478730447871 -0.36288182139862668 0 -0.26983259852559838 -0.3499348438427799 0 -0.28080223575317209 -0.35313011570629832 0 -0.26897478730447871 -0.36288182139862668 0 -0.26049194749962112 -0.35421533521016119 0 -0.26983259852559838 -0.3499348438427799 0 -0.26983259852559838 -0.3499348438427799 0 -0.28080223575317209 -0.35313011570629832 0 -0.28115680574679719 -0.34036883627572562 0 -0.28115680574679719 -0.34036883627572562 0 -0.2767816976314198 -0.32970021788777232 0 -0.25790699676493611 -0.3412614209207413 0 -0.28115680574679719 -0.34036883627572562 0 -0.25790699676493611 -0.3412614209207413 0 -0.2767816976314198 -0.32970021788777232 0 -0.25790699676493611 -0.3412614209207413 0 -0.2491567805341813 -0.31992418414483509 0 -0.25790699676493611 -0.3412614209207413 0 -0.2490993368739223 -0.33486049645542759 0 -0.2491567805341813 -0.31992418414483509 0 -0.2767816976314198 -0.32970021788777232 0 -0.2491567805341813 -0.31992418414483509 0 -0.26858815625870008 -0.31089891363683581 0 -0.25685380675311231 -0.30783100818922499 0 -0.2491567805341813 -0.31992418414483509 0 -0.2767816976314198 -0.32970021788777232 0 -0.26858815625870008 -0.31089891363683581 0 -0.2491567805341813 -0.31992418414483509 0 -0.2767816976314198 -0.32970021788777232 0 -0.28231718437669889 -0.31847091345820472 0 -0.26858815625870008 -0.31089891363683581 0 -0.28231718437669889 -0.31847091345820472 0 -0.29173695834723778 -0.31282957399383038 0 -0.29125825167602598 -0.32233256101210561 0 -0.29173695834723778 -0.31282957399383038 0 -0.30146099639271712 -0.31296294057742258 0 -0.29723356192051043 -0.3181666043565527 0 -0.29173695834723778 -0.31282957399383038 0 -0.29125825167602598 -0.32233256101210561 0 -0.29723356192051043 -0.3181666043565527 0 -0.29125825167602598 -0.32233256101210561 0 -0.29193087319762201 -0.33081096702835983 0 -0.29930507071764989 -0.32428617092256218 0 -0.29125825167602598 -0.32233256101210561 0 -0.28557200172044162 -0.32532866484661049 0 -0.29193087319762201 -0.33081096702835983 0 -0.29125825167602598 -0.32233256101210561 0 -0.29723356192051043 -0.3181666043565527 0 -0.29930507071764989 -0.32428617092256218 0 -0.28231718437669889 -0.31847091345820472 0 -0.29125825167602598 -0.32233256101210561 0 -0.28557200172044162 -0.32532866484661049 0 -0.2767816976314198 -0.32970021788777232 0 -0.28231718437669889 -0.31847091345820472 0 -0.28557200172044162 -0.32532866484661049 0 -0.2767816976314198 -0.32970021788777232 0 -0.28557200172044162 -0.32532866484661049 0 -0.29193087319762201 -0.33081096702835983 0 -0.28115680574679719 -0.34036883627572562 0 -0.30440661472865838 -0.33947625163070938 0 -0.28115680574679719 -0.34036883627572562 0 -0.2767816976314198 -0.32970021788777232 0 -0.30440661472865838 -0.33947625163070938 0 -0.2767816976314198 -0.32970021788777232 0 -0.29193087319762201 -0.33081096702835983 0 -0.30440661472865838 -0.33947625163070938 0 -0.29578407347888303 -0.34438488345023449 0 -0.28115680574679719 -0.34036883627572562 0 -0.30440661472865838 -0.33947625163070938 0 -0.2767816976314198 -0.32970021788777232 0 -0.30440661472865838 -0.33947625163070938 0 -0.29193087319762201 -0.33081096702835983 0 -0.30383471688505131 -0.33337437083474453 0 -0.30440661472865838 -0.33947625163070938 0 -0.29193087319762201 -0.33081096702835983 0 -0.30007681878498638 -0.32934610703919609 0 -0.29930507071764989 -0.32428617092256218 0 -0.29193087319762201 -0.33081096702835983 0 -0.30007681878498638 -0.32934610703919609 0 -0.30383471688505131 -0.33337437083474453 0 -0.30007681878498638 -0.32934610703919609 0 -0.30383471688505131 -0.33337437083474453 0 -0.30446051106891459 -0.32781317792424097 0 -0.30357262057900841 -0.34618777070423551 0 -0.29578407347888303 -0.34438488345023449 0 -0.30440661472865838 -0.33947625163070938 0 -0.30440661472865838 -0.33947625163070938 0 -0.31127750086256212 -0.3419077526720507 0 -0.30357262057900841 -0.34618777070423551 0 -0.30440661472865838 -0.33947625163070938 0 -0.31127750086256212 -0.3419077526720507 0 -0.30383471688505131 -0.33337437083474453 0 -0.31195787065581598 -0.33296304261573972 0 -0.30877172831194971 -0.3304648199801144 0 -0.30383471688505131 -0.33337437083474453 0 -0.30440661472865838 -0.33947625163070938 0 -0.31195787065581598 -0.33296304261573972 0 -0.30383471688505131 -0.33337437083474453 0 -0.30877172831194971 -0.3304648199801144 0 -0.30446051106891459 -0.32781317792424097 0 -0.31407796152133288 -0.32877986502215051 0 -0.31195787065581598 -0.33296304261573972 0 -0.30877172831194971 -0.3304648199801144 0 -0.31407796152133288 -0.32877986502215051 0 -0.30877172831194971 -0.3304648199801144 0 -0.30927130471097702 -0.32597094110551311 0 -0.30877172831194971 -0.3304648199801144 0 -0.30927130471097702 -0.32597094110551311 0 -0.30446051106891459 -0.32781317792424097 0 -0.30927130471097702 -0.32597094110551311 0 -0.30550342700287347 -0.32343665766331559 0 -0.30446051106891459 -0.32781317792424097 0 -0.30927130471097702 -0.32597094110551311 0 -0.30550342700287347 -0.32343665766331559 0 -0.30933682988639388 -0.3211833487901779 0 -0.30550342700287347 -0.32343665766331559 0 -0.30933682988639388 -0.3211833487901779 0 -0.30449576224235769 -0.31806703467822139 0 -0.31440934236872697 -0.32319865842387091 0 -0.30927130471097702 -0.32597094110551311 0 -0.30933682988639388 -0.3211833487901779 0 -0.31440934236872697 -0.32319865842387091 0 -0.30933682988639388 -0.3211833487901779 0 -0.3119424616821313 -0.31639477425995621 0 -0.3119424616821313 -0.31639477425995621 0 -0.30449576224235769 -0.31806703467822139 0 -0.30658950505599641 -0.31117643853188642 0 -0.30933682988639388 -0.3211833487901779 0 -0.3119424616821313 -0.31639477425995621 0 -0.30449576224235769 -0.31806703467822139 0 -0.30449576224235769 -0.31806703467822139 0 -0.30146099639271712 -0.31296294057742258 0 -0.29723356192051043 -0.3181666043565527 0 -0.30449576224235769 -0.31806703467822139 0 -0.30146099639271712 -0.31296294057742258 0 -0.30658950505599641 -0.31117643853188642 0 -0.30449576224235769 -0.31806703467822139 0 -0.29723356192051043 -0.3181666043565527 0 -0.29930507071764989 -0.32428617092256218 0 -0.30007681878498638 -0.32934610703919609 0 -0.29930507071764989 -0.32428617092256218 0 -0.30446051106891459 -0.32781317792424097 0 -0.30550342700287347 -0.32343665766331559 0 -0.29930507071764989 -0.32428617092256218 0 -0.30446051106891459 -0.32781317792424097 0 -0.30550342700287347 -0.32343665766331559 0 -0.30449576224235769 -0.31806703467822139 0 -0.29930507071764989 -0.32428617092256218 0 -0.30012107741776411 -0.30201590803747053 0 -0.2988536270419655 -0.29405925933770738 0 -0.29362208345411589 -0.30249008279121709 0 -0.30012107741776411 -0.30201590803747053 0 -0.30601901658990027 -0.30001572438670349 0 -0.2988536270419655 -0.29405925933770738 0 -0.30012107741776411 -0.30201590803747053 0 -0.30336081585402019 -0.30652465387620892 0 -0.30601901658990027 -0.30001572438670349 0 -0.30012107741776411 -0.30201590803747053 0 -0.2981389570818565 -0.30753967334970078 0 -0.29362208345411589 -0.30249008279121709 0 -0.30012107741776411 -0.30201590803747053 0 -0.2981389570818565 -0.30753967334970078 0 -0.30336081585402019 -0.30652465387620892 0 -0.29173695834723778 -0.31282957399383038 0 -0.30146099639271712 -0.31296294057742258 0 -0.2981389570818565 -0.30753967334970078 0 -0.30146099639271712 -0.31296294057742258 0 -0.2981389570818565 -0.30753967334970078 0 -0.30336081585402019 -0.30652465387620892 0 -0.30146099639271712 -0.31296294057742258 0 -0.30336081585402019 -0.30652465387620892 0 -0.30658950505599641 -0.31117643853188642 0 -0.30758709571429732 -0.30595667551790329 0 -0.30658950505599641 -0.31117643853188642 0 -0.31060134037456799 -0.30752278001854549 0 -0.3119424616821313 -0.31639477425995621 0 -0.30658950505599641 -0.31117643853188642 0 -0.31060134037456799 -0.30752278001854549 0 -0.30336081585402019 -0.30652465387620892 0 -0.30758709571429732 -0.30595667551790329 0 -0.30658950505599641 -0.31117643853188642 0 -0.30758709571429732 -0.30595667551790329 0 -0.31060134037456799 -0.30752278001854549 0 -0.31136480069700179 -0.30454378077617272 0 -0.31060134037456799 -0.30752278001854549 0 -0.31136480069700179 -0.30454378077617272 0 -0.31136480069700179 -0.30454378077617272 0 -0.30601901658990027 -0.30001572438670349 0 -0.30704739870607428 -0.29122472228192642 0 -0.31136480069700179 -0.30454378077617272 0 -0.30601901658990027 -0.30001572438670349 0 -0.30336081585402019 -0.30652465387620892 0 -0.30758709571429732 -0.30595667551790329 0 -0.30601901658990027 -0.30001572438670349 0 -0.30758709571429732 -0.30595667551790329 0 -0.31136480069700179 -0.30454378077617272 0 -0.30601901658990027 -0.30001572438670349 0 -0.31824307523870682 -0.27770496015057361 0 -0.30704739870607428 -0.29122472228192642 0 -0.30075647396279731 -0.27979988675847473 0 -0.31824307523870682 -0.27770496015057361 0 -0.31136480069700179 -0.30454378077617272 0 -0.30704739870607428 -0.29122472228192642 0 -0.30704739870607428 -0.29122472228192642 0 -0.2988536270419655 -0.29405925933770738 0 -0.30075647396279731 -0.27979988675847473 0 -0.30601901658990027 -0.30001572438670349 0 -0.30704739870607428 -0.29122472228192642 0 -0.2988536270419655 -0.29405925933770738 0 -0.28702629468368779 -0.29096797718426509 0 -0.26919974372887989 -0.28311626826109848 0 -0.28915148068341701 -0.27002870041494592 0 -0.2988536270419655 -0.29405925933770738 0 -0.28702629468368779 -0.29096797718426509 0 -0.29362208345411589 -0.30249008279121709 0 -0.2988536270419655 -0.29405925933770738 0 -0.28702629468368779 -0.29096797718426509 0 -0.30075647396279731 -0.27979988675847473 0 -0.28702629468368779 -0.29096797718426509 0 -0.28296229398787209 -0.30550754147387249 0 -0.27427798362142081 -0.29747622060262929 0 -0.28702629468368779 -0.29096797718426509 0 -0.29362208345411589 -0.30249008279121709 0 -0.28296229398787209 -0.30550754147387249 0 -0.29173695834723778 -0.31282957399383038 0 -0.29362208345411589 -0.30249008279121709 0 -0.28296229398787209 -0.30550754147387249 0 -0.29173695834723778 -0.31282957399383038 0 -0.2981389570818565 -0.30753967334970078 0 -0.29362208345411589 -0.30249008279121709 0 -0.28231718437669889 -0.31847091345820472 0 -0.29173695834723778 -0.31282957399383038 0 -0.28296229398787209 -0.30550754147387249 0 -0.28231718437669889 -0.31847091345820472 0 -0.28296229398787209 -0.30550754147387249 0 -0.26858815625870008 -0.31089891363683581 0 -0.28296229398787209 -0.30550754147387249 0 -0.27427798362142081 -0.29747622060262929 0 -0.26858815625870008 -0.31089891363683581 0 -0.27427798362142081 -0.29747622060262929 0 -0.26858815625870008 -0.31089891363683581 0 -0.26347456635887201 -0.29936227161230738 0 -0.26858815625870008 -0.31089891363683581 0 -0.26347456635887201 -0.29936227161230738 0 -0.25685380675311231 -0.30783100818922499 0 -0.25685380675311231 -0.30783100818922499 0 -0.2491567805341813 -0.31992418414483509 0 -0.24924800677434231 -0.29620383610725082 0 -0.26347456635887201 -0.29936227161230738 0 -0.25685380675311231 -0.30783100818922499 0 -0.24924800677434231 -0.29620383610725082 0 -0.26919974372887989 -0.28311626826109848 0 -0.24932136046987041 -0.27713064856006858 0 -0.24924800677434231 -0.29620383610725082 0 -0.26347456635887201 -0.29936227161230738 0 -0.26919974372887989 -0.28311626826109848 0 -0.24924800677434231 -0.29620383610725082 0 -0.26919974372887989 -0.28311626826109848 0 -0.24924800677434231 -0.29620383610725082 0 -0.27427798362142081 -0.29747622060262929 0 -0.26347456635887201 -0.29936227161230738 0 -0.26919974372887989 -0.28311626826109848 0 -0.28702629468368779 -0.29096797718426509 0 -0.27427798362142081 -0.29747622060262929 0 -0.26919974372887989 -0.28311626826109848 0 -0.26919974372887989 -0.28311626826109848 0 -0.28915148068341701 -0.27002870041494592 0 -0.26919974372887989 -0.28311626826109848 0 -0.27192622042800912 -0.26854111295939659 0 -0.28915148068341701 -0.27002870041494592 0 -0.26919974372887989 -0.28311626826109848 0 -0.27192622042800912 -0.26854111295939659 0 -0.2610560385156962 -0.2679215744971245 0 -0.25429009750358339 -0.26515906075079221 0 -0.24939471416539821 -0.25805746101288662 0 -0.24932136046987041 -0.27713064856006858 0 -0.26919974372887989 -0.28311626826109848 0 -0.2610560385156962 -0.2679215744971245 0 -0.24932136046987041 -0.27713064856006858 0 -0.2610560385156962 -0.2679215744971245 0 -0.25429009750358339 -0.26515906075079221 0 -0.24932136046987041 -0.27713064856006858 0 -0.2494069647178003 -0.25487211251985692 0 -0.24939471416539821 -0.25805746101288662 0 -0.25558038957209328 -0.24972204452367411 0 -0.24939471416539821 -0.25805746101288662 0 -0.25558038957209328 -0.24972204452367411 0 -0.25738827686336913 -0.25752655893308929 0 -0.24939471416539821 -0.25805746101288662 0 -0.25558038957209328 -0.24972204452367411 0 -0.25738827686336913 -0.25752655893308929 0 -0.25429009750358339 -0.26515906075079221 0 -0.24939471416539821 -0.25805746101288662 0 -0.2610560385156962 -0.2679215744971245 0 -0.25738827686336913 -0.25752655893308929 0 -0.25429009750358339 -0.26515906075079221 0 -0.2610560385156962 -0.2679215744971245 0 -0.25738827686336913 -0.25752655893308929 0 -0.26539778130964659 -0.25736303477650591 0 -0.26539778130964659 -0.25736303477650591 0 -0.25558038957209328 -0.24972204452367411 0 -0.26539778130964659 -0.25736303477650591 0 -0.26380354725675448 -0.24918848598989071 0 -0.25558038957209328 -0.24972204452367411 0 -0.25738827686336913 -0.25752655893308929 0 -0.26539778130964659 -0.25736303477650591 0 -0.25558038957209328 -0.24972204452367411 0 -0.26539778130964659 -0.25736303477650591 0 -0.27741646902580808 -0.25813700725753552 0 -0.27239152950306139 -0.24772131963250921 0 -0.27741646902580808 -0.25813700725753552 0 -0.28821533320490628 -0.24703086850432021 0 -0.27239152950306139 -0.24772131963250921 0 -0.26539778130964659 -0.25736303477650591 0 -0.27239152950306139 -0.24772131963250921 0 -0.26380354725675448 -0.24918848598989071 0 -0.27192622042800912 -0.26854111295939659 0 -0.27741646902580808 -0.25813700725753552 0 -0.28915148068341701 -0.27002870041494592 0 -0.27192622042800912 -0.26854111295939659 0 -0.26539778130964659 -0.25736303477650591 0 -0.27741646902580808 -0.25813700725753552 0 -0.27192622042800912 -0.26854111295939659 0 -0.2610560385156962 -0.2679215744971245 0 -0.26539778130964659 -0.25736303477650591 0 -0.28915148068341701 -0.27002870041494592 0 -0.30566575396608042 -0.25979383925549898 0 -0.28821533320490628 -0.24703086850432021 0 -0.27741646902580808 -0.25813700725753552 0 -0.28915148068341701 -0.27002870041494592 0 -0.28821533320490628 -0.24703086850432021 0 -0.28702629468368779 -0.29096797718426509 0 -0.28915148068341701 -0.27002870041494592 0 -0.30075647396279731 -0.27979988675847473 0 -0.31824307523870682 -0.27770496015057361 0 -0.30075647396279731 -0.27979988675847473 0 -0.30566575396608042 -0.25979383925549898 0 -0.28915148068341701 -0.27002870041494592 0 -0.30075647396279731 -0.27979988675847473 0 -0.30566575396608042 -0.25979383925549898 0 -0.33668601073733001 -0.45777171159353153 0 -0.33185844657911978 -0.47619852462612128 0 -0.35409064421138858 -0.46429778693918627 0 -0.33668601073733001 -0.45777171159353153 0 -0.31702904050853881 -0.46724510490233317 0 -0.33185844657911978 -0.47619852462612128 0 -0.33668601073733001 -0.45777171159353153 0 -0.34256772095453819 -0.43883911505287282 0 -0.31693423016368072 -0.45170577809885448 0 -0.34256772095453819 -0.43883911505287282 0 -0.31693423016368072 -0.45170577809885448 0 -0.31756000189847988 -0.43024869796529258 0 -0.31693423016368072 -0.45170577809885448 0 -0.31756000189847988 -0.43024869796529258 0 -0.30332850934401112 -0.44413083076435328 0 -0.31693423016368072 -0.45170577809885448 0 -0.31702904050853881 -0.46724510490233317 0 -0.30362368721434069 -0.45710250948841091 0 -0.33668601073733001 -0.45777171159353153 0 -0.31693423016368072 -0.45170577809885448 0 -0.31702904050853881 -0.46724510490233317 0 -0.31702904050853881 -0.46724510490233317 0 -0.33185844657911978 -0.47619852462612128 0 -0.30962624894685098 -0.48809926231305623 0 -0.33185844657911978 -0.47619852462612128 0 -0.30962624894685098 -0.48809926231305623 0 -0.3246168681358651 -0.48938702482968721 0 -0.33185844657911978 -0.47619852462612128 0 -0.30962624894685098 -0.48809926231305623 0 -0.31395189021729419 -0.5 0 -0.3246168681358651 -0.48938702482968721 0 -0.34050972912000399 -0.5 0 -0.31395189021729419 -0.5 0 -0.3246168681358651 -0.48938702482968721 0 -0.30962624894685098 -0.48809926231305623 0 -0.34050972912000399 -0.5 0 -0.33185844657911978 -0.47619852462612128 0 -0.35378864857135861 -0.48461706680283678 0 -0.3246168681358651 -0.48938702482968721 0 -0.34050972912000399 -0.5 0 -0.33185844657911978 -0.47619852462612128 0 -0.33185844657911978 -0.47619852462612128 0 -0.35409064421138858 -0.46429778693918627 0 -0.33185844657911978 -0.47619852462612128 0 -0.35378864857135861 -0.48461706680283678 0 -0.35409064421138858 -0.46429778693918627 0 -0.34050972912000399 -0.5 0 -0.35378864857135861 -0.48461706680283678 0 -0.36706756802271368 -0.5 0 -0.37784058436929152 -0.47684849165883941 0 -0.35378864857135861 -0.48461706680283678 0 -0.36706756802271368 -0.5 0 -0.37784058436929152 -0.47684849165883941 0 -0.35378864857135861 -0.48461706680283678 0 -0.35409064421138858 -0.46429778693918627 0 -0.3763228418436575 -0.45239704925225133 0 -0.37784058436929152 -0.47684849165883941 0 -0.35409064421138858 -0.46429778693918627 0 -0.3763228418436575 -0.45239704925225133 0 -0.35409064421138858 -0.46429778693918627 0 -0.35617364969076309 -0.44930306054244651 0 -0.3763228418436575 -0.45239704925225133 0 -0.35409064421138858 -0.46429778693918627 0 -0.33668601073733001 -0.45777171159353153 0 -0.35409064421138858 -0.46429778693918627 0 -0.35617364969076309 -0.44930306054244651 0 -0.34256772095453819 -0.43883911505287282 0 -0.37056138021523238 -0.43966771330909538 0 -0.34256772095453819 -0.43883911505287282 0 -0.35617364969076309 -0.44930306054244651 0 -0.37056138021523238 -0.43966771330909538 0 -0.33668601073733001 -0.45777171159353153 0 -0.34256772095453819 -0.43883911505287282 0 -0.35617364969076309 -0.44930306054244651 0 -0.3763228418436575 -0.45239704925225133 0 -0.35617364969076309 -0.44930306054244651 0 -0.37056138021523238 -0.43966771330909538 0 -0.37716855689541778 -0.42764243543083141 0 -0.37056138021523238 -0.43966771330909538 0 -0.36301925053193751 -0.43008399142569209 0 -0.36301925053193751 -0.43008399142569209 0 -0.36951660438380829 -0.42080079055187231 0 -0.35528199021069062 -0.42346990278378882 0 -0.37716855689541778 -0.42764243543083141 0 -0.36301925053193751 -0.43008399142569209 0 -0.36951660438380829 -0.42080079055187231 0 -0.37507637499421298 -0.41282595097517732 0 -0.36951660438380829 -0.42080079055187231 0 -0.36259069761839618 -0.4109071837255408 0 -0.37507637499421298 -0.41282595097517732 0 -0.36259069761839618 -0.4109071837255408 0 -0.37291883458351571 -0.40294054936952928 0 -0.36951660438380829 -0.42080079055187231 0 -0.36259069761839618 -0.4109071837255408 0 -0.35528199021069062 -0.42346990278378882 0 -0.36259069761839618 -0.4109071837255408 0 -0.35241992659389149 -0.41469511662622122 0 -0.35528199021069062 -0.42346990278378882 0 -0.36259069761839618 -0.4109071837255408 0 -0.35241992659389149 -0.41469511662622122 0 -0.35260341852831401 -0.40106001234736099 0 -0.35241992659389149 -0.41469511662622122 0 -0.346146115018239 -0.4085085367213257 0 -0.35260341852831401 -0.40106001234736099 0 -0.35241992659389149 -0.41469511662622122 0 -0.35528199021069062 -0.42346990278378882 0 -0.33969474266352001 -0.42142465033620752 0 -0.35241992659389149 -0.41469511662622122 0 -0.346146115018239 -0.4085085367213257 0 -0.33969474266352001 -0.42142465033620752 0 -0.34256772095453819 -0.43883911505287282 0 -0.35528199021069062 -0.42346990278378882 0 -0.33969474266352001 -0.42142465033620752 0 -0.34256772095453819 -0.43883911505287282 0 -0.37056138021523238 -0.43966771330909538 0 -0.36301925053193751 -0.43008399142569209 0 -0.34256772095453819 -0.43883911505287282 0 -0.36301925053193751 -0.43008399142569209 0 -0.35528199021069062 -0.42346990278378882 0 -0.35822189297366303 -0.36642805528084582 0 -0.36250328242522878 -0.38142294144309552 0 -0.37469860261336391 -0.37808137265181663 0 -0.36250328242522878 -0.38142294144309552 0 -0.37469860261336391 -0.37808137265181663 0 -0.37182379794330872 -0.38588589503503889 0 -0.36250328242522878 -0.38142294144309552 0 -0.36653720072157531 -0.39223499695575481 0 -0.35659152832142832 -0.39081271703508058 0 -0.36250328242522878 -0.38142294144309552 0 -0.37182379794330872 -0.38588589503503889 0 -0.36653720072157531 -0.39223499695575481 0 -0.36653720072157531 -0.39223499695575481 0 -0.36272160864409558 -0.40002948789785658 0 -0.35659152832142832 -0.39081271703508058 0 -0.36653720072157531 -0.39223499695575481 0 -0.37291883458351571 -0.40294054936952928 0 -0.36272160864409558 -0.40002948789785658 0 -0.37550107464735372 -0.39377391909942883 0 -0.37182379794330872 -0.38588589503503889 0 -0.36653720072157531 -0.39223499695575481 0 -0.37550107464735372 -0.39377391909942883 0 -0.36653720072157531 -0.39223499695575481 0 -0.37291883458351571 -0.40294054936952928 0 -0.36259069761839618 -0.4109071837255408 0 -0.37291883458351571 -0.40294054936952928 0 -0.36272160864409558 -0.40002948789785658 0 -0.36259069761839618 -0.4109071837255408 0 -0.36272160864409558 -0.40002948789785658 0 -0.35260341852831401 -0.40106001234736099 0 -0.346146115018239 -0.4085085367213257 0 -0.35260341852831401 -0.40106001234736099 0 -0.33918913651306382 -0.39748778913807731 0 -0.35260341852831401 -0.40106001234736099 0 -0.34749385321148618 -0.39059796319472811 0 -0.33918913651306382 -0.39748778913807731 0 -0.36272160864409558 -0.40002948789785658 0 -0.35260341852831401 -0.40106001234736099 0 -0.35659152832142832 -0.39081271703508058 0 -0.35260341852831401 -0.40106001234736099 0 -0.35659152832142832 -0.39081271703508058 0 -0.34749385321148618 -0.39059796319472811 0 -0.35659152832142832 -0.39081271703508058 0 -0.34749385321148618 -0.39059796319472811 0 -0.3508025729202125 -0.38054751967862049 0 -0.36250328242522878 -0.38142294144309552 0 -0.35659152832142832 -0.39081271703508058 0 -0.3508025729202125 -0.38054751967862049 0 -0.34749385321148618 -0.39059796319472811 0 -0.3508025729202125 -0.38054751967862049 0 -0.33826210253146533 -0.38341097935453988 0 -0.34375466240569752 -0.37078609928867101 0 -0.3508025729202125 -0.38054751967862049 0 -0.33826210253146533 -0.38341097935453988 0 -0.35822189297366303 -0.36642805528084582 0 -0.36250328242522878 -0.38142294144309552 0 -0.3508025729202125 -0.38054751967862049 0 -0.33204536052291239 -0.37219525046858543 0 -0.33826210253146533 -0.38341097935453988 0 -0.32444464869705553 -0.38270774895788717 0 -0.34375466240569752 -0.37078609928867101 0 -0.33204536052291239 -0.37219525046858543 0 -0.33826210253146533 -0.38341097935453988 0 -0.34749385321148618 -0.39059796319472811 0 -0.33826210253146533 -0.38341097935453988 0 -0.33918913651306382 -0.39748778913807731 0 -0.33826210253146533 -0.38341097935453988 0 -0.33094336014454467 -0.39051728939877128 0 -0.33918913651306382 -0.39748778913807731 0 -0.33826210253146533 -0.38341097935453988 0 -0.33094336014454467 -0.39051728939877128 0 -0.32444464869705553 -0.38270774895788717 0 -0.33094336014454467 -0.39051728939877128 0 -0.33918913651306382 -0.39748778913807731 0 -0.32837029840021692 -0.40504797974962059 0 -0.346146115018239 -0.4085085367213257 0 -0.33918913651306382 -0.39748778913807731 0 -0.33628097491667158 -0.40860105072704439 0 -0.33918913651306382 -0.39748778913807731 0 -0.32837029840021692 -0.40504797974962059 0 -0.33628097491667158 -0.40860105072704439 0 -0.32837029840021692 -0.40504797974962059 0 -0.32055521449791607 -0.40133903078070921 0 -0.32245196398195769 -0.39437926456647149 0 -0.32837029840021692 -0.40504797974962059 0 -0.32055521449791607 -0.40133903078070921 0 -0.31603578488651002 -0.40717087705208538 0 -0.32055521449791607 -0.40133903078070921 0 -0.31542786051473498 -0.39765491932560088 0 -0.31603578488651002 -0.40717087705208538 0 -0.31542786051473498 -0.39765491932560088 0 -0.31603578488651002 -0.40717087705208538 0 -0.30869225497356068 -0.39915778657735118 0 -0.31542786051473498 -0.39765491932560088 0 -0.32245196398195769 -0.39437926456647149 0 -0.31481119390465567 -0.38795106755478093 0 -0.32055521449791607 -0.40133903078070921 0 -0.31542786051473498 -0.39765491932560088 0 -0.32245196398195769 -0.39437926456647149 0 -0.31542786051473498 -0.39765491932560088 0 -0.31481119390465567 -0.38795106755478093 0 -0.30936217263855559 -0.39269499360694649 0 -0.33094336014454467 -0.39051728939877128 0 -0.32837029840021692 -0.40504797974962059 0 -0.32245196398195769 -0.39437926456647149 0 -0.33094336014454467 -0.39051728939877128 0 -0.32245196398195769 -0.39437926456647149 0 -0.32444464869705553 -0.38270774895788717 0 -0.32245196398195769 -0.39437926456647149 0 -0.31481119390465567 -0.38795106755478093 0 -0.32444464869705553 -0.38270774895788717 0 -0.31481119390465567 -0.38795106755478093 0 -0.31358574777530551 -0.37919571753445669 0 -0.32444464869705553 -0.38270774895788717 0 -0.32003670206546619 -0.37196529370469961 0 -0.31358574777530551 -0.37919571753445669 0 -0.32444464869705553 -0.38270774895788717 0 -0.33204536052291239 -0.37219525046858543 0 -0.32003670206546619 -0.37196529370469961 0 -0.32444464869705553 -0.38270774895788717 0 -0.34256772095453819 -0.43883911505287282 0 -0.33969474266352001 -0.42142465033620752 0 -0.31756000189847988 -0.43024869796529258 0 -0.346146115018239 -0.4085085367213257 0 -0.33969474266352001 -0.42142465033620752 0 -0.33628097491667158 -0.40860105072704439 0 -0.32837029840021692 -0.40504797974962059 0 -0.33628097491667158 -0.40860105072704439 0 -0.3257025137854524 -0.4159674206634823 0 -0.33969474266352001 -0.42142465033620752 0 -0.33628097491667158 -0.40860105072704439 0 -0.3257025137854524 -0.4159674206634823 0 -0.32837029840021692 -0.40504797974962059 0 -0.3257025137854524 -0.4159674206634823 0 -0.31603578488651002 -0.40717087705208538 0 -0.31603578488651002 -0.40717087705208538 0 -0.31459910648767142 -0.41712223867741238 0 -0.30799167631184199 -0.41096842358360258 0 -0.3257025137854524 -0.4159674206634823 0 -0.31603578488651002 -0.40717087705208538 0 -0.31459910648767142 -0.41712223867741238 0 -0.3257025137854524 -0.4159674206634823 0 -0.31459910648767142 -0.41712223867741238 0 -0.31756000189847988 -0.43024869796529258 0 -0.33969474266352001 -0.42142465033620752 0 -0.3257025137854524 -0.4159674206634823 0 -0.31756000189847988 -0.43024869796529258 0 -0.31756000189847988 -0.43024869796529258 0 -0.30478320814404902 -0.41971583409746671 0 -0.29348813724812028 -0.42953390922467583 0 -0.31756000189847988 -0.43024869796529258 0 -0.29348813724812028 -0.42953390922467583 0 -0.30332850934401112 -0.44413083076435328 0 -0.31459910648767142 -0.41712223867741238 0 -0.31756000189847988 -0.43024869796529258 0 -0.30478320814404902 -0.41971583409746671 0 -0.30478320814404902 -0.41971583409746671 0 -0.29348813724812028 -0.42953390922467583 0 -0.298693271739918 -0.40604521229956692 0 -0.31459910648767142 -0.41712223867741238 0 -0.30478320814404902 -0.41971583409746671 0 -0.30799167631184199 -0.41096842358360258 0 -0.31603578488651002 -0.40717087705208538 0 -0.30799167631184199 -0.41096842358360258 0 -0.30584701030106187 -0.40478795579148158 0 -0.30799167631184199 -0.41096842358360258 0 -0.30584701030106187 -0.40478795579148158 0 -0.298693271739918 -0.40604521229956692 0 -0.30478320814404902 -0.41971583409746671 0 -0.30799167631184199 -0.41096842358360258 0 -0.298693271739918 -0.40604521229956692 0 -0.28460238791912279 -0.41927696975474199 0 -0.29348813724812028 -0.42953390922467583 0 -0.298693271739918 -0.40604521229956692 0 -0.28460238791912279 -0.41927696975474199 0 -0.298693271739918 -0.40604521229956692 0 -0.27038939745076068 -0.41101956659697142 0 -0.29348813724812028 -0.42953390922467583 0 -0.298693271739918 -0.40604521229956692 0 -0.298693271739918 -0.40604521229956692 0 -0.27038939745076068 -0.41101956659697142 0 -0.28460238791912279 -0.41927696975474199 0 -0.29348813724812028 -0.42953390922467583 0 -0.27583874523769231 -0.43050919089775408 0 -0.29348813724812028 -0.42953390922467583 0 -0.27583874523769231 -0.43050919089775408 0 -0.27751411322904479 -0.44810593362966727 0 -0.30611055589387998 -0.36989136638582532 0 -0.30504774474519902 -0.38507068686487578 0 -0.29363871700458821 -0.382047110795526 0 -0.30611055589387998 -0.36989136638582532 0 -0.31358574777530551 -0.37919571753445669 0 -0.30504774474519902 -0.38507068686487578 0 -0.31481119390465567 -0.38795106755478093 0 -0.31358574777530551 -0.37919571753445669 0 -0.30504774474519902 -0.38507068686487578 0 -0.30504774474519902 -0.38507068686487578 0 -0.30283180905462759 -0.39364050771212372 0 -0.30936217263855559 -0.39269499360694649 0 -0.31481119390465567 -0.38795106755478093 0 -0.30504774474519902 -0.38507068686487578 0 -0.30936217263855559 -0.39269499360694649 0 -0.30504774474519902 -0.38507068686487578 0 -0.29898822363632971 -0.38869633568527201 0 -0.30283180905462759 -0.39364050771212372 0 -0.30504774474519902 -0.38507068686487578 0 -0.29898822363632971 -0.38869633568527201 0 -0.29363871700458821 -0.382047110795526 0 -0.30283180905462759 -0.39364050771212372 0 -0.30214176528608722 -0.39928430728480302 0 -0.29443462374090379 -0.39402703736856243 0 -0.29898822363632971 -0.38869633568527201 0 -0.30283180905462759 -0.39364050771212372 0 -0.29443462374090379 -0.39402703736856243 0 -0.30283180905462759 -0.39364050771212372 0 -0.30869225497356068 -0.39915778657735118 0 -0.30214176528608722 -0.39928430728480302 0 -0.31542786051473498 -0.39765491932560088 0 -0.30936217263855559 -0.39269499360694649 0 -0.30869225497356068 -0.39915778657735118 0 -0.30283180905462759 -0.39364050771212372 0 -0.30936217263855559 -0.39269499360694649 0 -0.30869225497356068 -0.39915778657735118 0 -0.31603578488651002 -0.40717087705208538 0 -0.30869225497356068 -0.39915778657735118 0 -0.30584701030106187 -0.40478795579148158 0 -0.30869225497356068 -0.39915778657735118 0 -0.30584701030106187 -0.40478795579148158 0 -0.30214176528608722 -0.39928430728480302 0 -0.30584701030106187 -0.40478795579148158 0 -0.30214176528608722 -0.39928430728480302 0 -0.29916698827787241 -0.40390751841173828 0 -0.30584701030106187 -0.40478795579148158 0 -0.298693271739918 -0.40604521229956692 0 -0.29916698827787241 -0.40390751841173828 0 -0.30584701030106187 -0.40478795579148158 0 -0.298693271739918 -0.40604521229956692 0 -0.30214176528608722 -0.39928430728480302 0 -0.29916698827787241 -0.40390751841173828 0 -0.29443462374090379 -0.39402703736856243 0 -0.298693271739918 -0.40604521229956692 0 -0.29916698827787241 -0.40390751841173828 0 -0.298693271739918 -0.40604521229956692 0 -0.28428660260066879 -0.40041115165449392 0 -0.27038939745076068 -0.41101956659697142 0 -0.298693271739918 -0.40604521229956692 0 -0.29916698827787241 -0.40390751841173828 0 -0.28428660260066879 -0.40041115165449392 0 -0.29916698827787241 -0.40390751841173828 0 -0.28428660260066879 -0.40041115165449392 0 -0.29443462374090379 -0.39402703736856243 0 -0.28428660260066879 -0.40041115165449392 0 -0.29443462374090379 -0.39402703736856243 0 -0.28268693547832119 -0.387787084152454 0 -0.29025646831251423 -0.36873396519488022 0 -0.28268693547832119 -0.387787084152454 0 -0.29363871700458821 -0.382047110795526 0 -0.29443462374090379 -0.39402703736856243 0 -0.28268693547832119 -0.387787084152454 0 -0.29363871700458821 -0.382047110795526 0 -0.29898822363632971 -0.38869633568527201 0 -0.29443462374090379 -0.39402703736856243 0 -0.29363871700458821 -0.382047110795526 0 -0.29025646831251423 -0.36873396519488022 0 -0.26964164627690029 -0.38388262718957028 0 -0.29025646831251423 -0.36873396519488022 0 -0.28268693547832119 -0.387787084152454 0 -0.26964164627690029 -0.38388262718957028 0 -0.28268693547832119 -0.387787084152454 0 -0.26964164627690029 -0.38388262718957028 0 -0.2638635549343521 -0.39762061271169108 0 -0.28428660260066879 -0.40041115165449392 0 -0.2638635549343521 -0.39762061271169108 0 -0.27038939745076068 -0.41101956659697142 0 -0.28428660260066879 -0.40041115165449392 0 -0.28268693547832119 -0.387787084152454 0 -0.2638635549343521 -0.39762061271169108 0 -0.2638635549343521 -0.39762061271169108 0 -0.27038939745076068 -0.41101956659697142 0 -0.2466226451736844 -0.40618960995121578 0 -0.2638635549343521 -0.39762061271169108 0 -0.2466226451736844 -0.40618960995121578 0 -0.2490268242412865 -0.39903128918426051 0 -0.26964164627690029 -0.38388262718957028 0 -0.2638635549343521 -0.39762061271169108 0 -0.2490268242412865 -0.39903128918426051 0 -0.26964164627690029 -0.38388262718957028 0 -0.25019891452060949 -0.38970469948637071 0 -0.2490268242412865 -0.39903128918426051 0 -0.26964164627690029 -0.38388262718957028 0 -0.2490268242412865 -0.39903128918426051 0 -0.25819280784631471 -0.37188716246363202 0 -0.26964164627690029 -0.38388262718957028 0 -0.24893942539659611 -0.38119709019521919 0 -0.26964164627690029 -0.38388262718957028 0 -0.25019891452060949 -0.38970469948637071 0 -0.24893942539659611 -0.38119709019521919 0 -0.27583874523769231 -0.43050919089775408 0 -0.27038939745076068 -0.41101956659697142 0 -0.25794727177352772 -0.43107378301327648 0 -0.27583874523769231 -0.43050919089775408 0 -0.25794727177352772 -0.43107378301327648 0 -0.26489433537037937 -0.44224050038099172 0 -0.28460238791912279 -0.41927696975474199 0 -0.27583874523769231 -0.43050919089775408 0 -0.27038939745076068 -0.41101956659697142 0 -0.27038939745076068 -0.41101956659697142 0 -0.25794727177352772 -0.43107378301327648 0 -0.24208552316160301 -0.41599392089437431 0 -0.27038939745076068 -0.41101956659697142 0 -0.24208552316160301 -0.41599392089437431 0 -0.27038939745076068 -0.41101956659697142 0 -0.24208552316160301 -0.41599392089437431 0 -0.2466226451736844 -0.40618960995121578 0 -0.25258359947070053 -0.4444580308848986 0 -0.26058794714093197 -0.45705556347936233 0 -0.24301202751956669 -0.45536439591440903 0 -0.25258359947070053 -0.4444580308848986 0 -0.26489433537037937 -0.44224050038099172 0 -0.26058794714093197 -0.45705556347936233 0 -0.25794727177352772 -0.43107378301327648 0 -0.25258359947070053 -0.4444580308848986 0 -0.26489433537037937 -0.44224050038099172 0 -0.26058794714093197 -0.45705556347936233 0 -0.2694015305631422 -0.47405296681483339 0 -0.2541620822371532 -0.46943358597204199 0 -0.26058794714093197 -0.45705556347936233 0 -0.2541620822371532 -0.46943358597204199 0 -0.24301202751956669 -0.45536439591440903 0 -0.27956912870325917 -0.46292320241729479 0 -0.27751411322904479 -0.44810593362966727 0 -0.2694015305631422 -0.47405296681483339 0 -0.26058794714093197 -0.45705556347936233 0 -0.27751411322904479 -0.44810593362966727 0 -0.2694015305631422 -0.47405296681483339 0 -0.27751411322904479 -0.44810593362966727 0 -0.2694015305631422 -0.47405296681483339 0 -0.27583874523769231 -0.43050919089775408 0 -0.26489433537037937 -0.44224050038099172 0 -0.27751411322904479 -0.44810593362966727 0 -0.26489433537037937 -0.44224050038099172 0 -0.26058794714093197 -0.45705556347936233 0 -0.27751411322904479 -0.44810593362966727 0 -0.29348813724812028 -0.42953390922467583 0 -0.28828300275632329 -0.45302260614978479 0 -0.29348813724812028 -0.42953390922467583 0 -0.28828300275632329 -0.45302260614978479 0 -0.30332850934401112 -0.44413083076435328 0 -0.29348813724812028 -0.42953390922467583 0 -0.27751411322904479 -0.44810593362966727 0 -0.28828300275632329 -0.45302260614978479 0 -0.27956912870325917 -0.46292320241729479 0 -0.28828300275632329 -0.45302260614978479 0 -0.28307786826452652 -0.47651130307489359 0 -0.28828300275632329 -0.45302260614978479 0 -0.2990366784209279 -0.4713269217372329 0 -0.28307786826452652 -0.47651130307489359 0 -0.28828300275632329 -0.45302260614978479 0 -0.28307786826452652 -0.47651130307489359 0 -0.27956912870325917 -0.46292320241729479 0 -0.27751411322904479 -0.44810593362966727 0 -0.28828300275632329 -0.45302260614978479 0 -0.28828300275632329 -0.45302260614978479 0 -0.30362368721434069 -0.45710250948841091 0 -0.2990366784209279 -0.4713269217372329 0 -0.31702904050853881 -0.46724510490233317 0 -0.30362368721434069 -0.45710250948841091 0 -0.2990366784209279 -0.4713269217372329 0 -0.31693423016368072 -0.45170577809885448 0 -0.30362368721434069 -0.45710250948841091 0 -0.30332850934401112 -0.44413083076435328 0 -0.28828300275632329 -0.45302260614978479 0 -0.30362368721434069 -0.45710250948841091 0 -0.30332850934401112 -0.44413083076435328 0 -0.30962624894685098 -0.48809926231305623 0 -0.28739405131458429 -0.499999999999995 0 -0.31395189021729419 -0.5 0 -0.30962624894685098 -0.48809926231305623 0 -0.28739405131458429 -0.499999999999995 0 -0.31702904050853881 -0.46724510490233317 0 -0.30962624894685098 -0.48809926231305623 0 -0.2990366784209279 -0.4713269217372329 0 -0.30962624894685098 -0.48809926231305623 0 -0.2990366784209279 -0.4713269217372329 0 -0.29140151614392329 -0.48718749742503481 0 -0.2990366784209279 -0.4713269217372329 0 -0.28307786826452652 -0.47651130307489359 0 -0.29140151614392329 -0.48718749742503481 0 -0.28307786826452652 -0.47651130307489359 0 -0.29140151614392329 -0.48718749742503481 0 -0.27787273377272897 -0.50000000000000244 0 -0.30962624894685098 -0.48809926231305623 0 -0.29140151614392329 -0.48718749742503481 0 -0.28739405131458429 -0.499999999999995 0 -0.29140151614392329 -0.48718749742503481 0 -0.28739405131458429 -0.499999999999995 0 -0.27787273377272897 -0.50000000000000244 0 -0.28307786826452652 -0.47651130307489359 0 -0.27787273377272897 -0.50000000000000244 0 -0.27415928281026869 -0.48685601134744538 0 -0.27415928281026869 -0.48685601134744538 0 -0.2694015305631422 -0.47405296681483339 0 -0.26128894789723972 -0.49999999999999961 0 -0.27787273377272897 -0.50000000000000244 0 -0.27415928281026869 -0.48685601134744538 0 -0.26128894789723972 -0.49999999999999961 0 -0.28307786826452652 -0.47651130307489359 0 -0.27787273377272897 -0.50000000000000244 0 -0.27956912870325917 -0.46292320241729479 0 -0.28307786826452652 -0.47651130307489359 0 -0.2694015305631422 -0.47405296681483339 0 -0.28307786826452652 -0.47651130307489359 0 -0.27415928281026869 -0.48685601134744538 0 -0.2694015305631422 -0.47405296681483339 0 -0.2694015305631422 -0.47405296681483339 0 -0.25382026894037468 -0.48410476935487567 0 -0.2541620822371532 -0.46943358597204199 0 -0.2694015305631422 -0.47405296681483339 0 -0.25382026894037468 -0.48410476935487567 0 -0.26128894789723972 -0.49999999999999961 0 -0.2694015305631422 -0.47405296681483339 0 -0.26128894789723972 -0.49999999999999961 0 -0.25382026894037468 -0.48410476935487567 0 -0.26128894789723972 -0.49999999999999961 0 -0.23452290573710841 -0.5 0 -0.25382026894037468 -0.48410476935487567 0 -0.23452290573710841 -0.5 0 -0.23976744607949849 -0.47530365745213238 0 -0.25382026894037468 -0.48410476935487567 0 -0.2541620822371532 -0.46943358597204199 0 -0.23976744607949849 -0.47530365745213238 0 -0.23976744607949849 -0.47530365745213238 0 -0.22596049030111309 -0.46361788570657281 0 -0.21861994925941691 -0.47981954437329238 0 -0.23452290573710841 -0.5 0 -0.23976744607949849 -0.47530365745213238 0 -0.21861994925941691 -0.47981954437329238 0 -0.23452290573710841 -0.5 0 -0.2077568635769772 -0.5 0 -0.21861994925941691 -0.47981954437329238 0 -0.25258359947070053 -0.4444580308848986 0 -0.24301202751956669 -0.45536439591440903 0 -0.2384731461184372 -0.43561072928955291 0 -0.23976744607949849 -0.47530365745213238 0 -0.24301202751956669 -0.45536439591440903 0 -0.22596049030111309 -0.46361788570657281 0 -0.2541620822371532 -0.46943358597204199 0 -0.23976744607949849 -0.47530365745213238 0 -0.24301202751956669 -0.45536439591440903 0 -0.24301202751956669 -0.45536439591440903 0 -0.22596049030111309 -0.46361788570657281 0 -0.22142880591278011 -0.44580596983858167 0 -0.24301202751956669 -0.45536439591440903 0 -0.22142880591278011 -0.44580596983858167 0 -0.2384731461184372 -0.43561072928955291 0 -0.22142880591278011 -0.44580596983858167 0 -0.200402297127591 -0.44587892935052742 0 -0.21378164887244541 -0.42096827519177699 0 -0.22142880591278011 -0.44580596983858167 0 -0.20697422273430341 -0.46179586095444852 0 -0.200402297127591 -0.44587892935052742 0 -0.22596049030111309 -0.46361788570657281 0 -0.20697422273430341 -0.46179586095444852 0 -0.21861994925941691 -0.47981954437329238 0 -0.22596049030111309 -0.46361788570657281 0 -0.22142880591278011 -0.44580596983858167 0 -0.20697422273430341 -0.46179586095444852 0 -0.20697422273430341 -0.46179586095444852 0 -0.1908461467201685 -0.4612825173636107 0 -0.19200216210443971 -0.4787171444697994 0 -0.20697422273430341 -0.46179586095444852 0 -0.1908461467201685 -0.4612825173636107 0 -0.200402297127591 -0.44587892935052742 0 -0.1908461467201685 -0.4612825173636107 0 -0.200402297127591 -0.44587892935052742 0 -0.18375277571830931 -0.44789249552537808 0 -0.200402297127591 -0.44587892935052742 0 -0.18375277571830931 -0.44789249552537808 0 -0.19239983064899779 -0.4349260872562325 0 -0.2077568635769772 -0.5 0 -0.21861994925941691 -0.47981954437329238 0 -0.19200216210443971 -0.4787171444697994 0 -0.20697422273430341 -0.46179586095444852 0 -0.21861994925941691 -0.47981954437329238 0 -0.19200216210443971 -0.4787171444697994 0 -0.2077568635769772 -0.5 0 -0.19200216210443971 -0.4787171444697994 0 -0.18099082141684589 -0.5 0 -0.19200216210443971 -0.4787171444697994 0 -0.18099082141684589 -0.5 0 -0.16584408230583039 -0.48096701539530989 0 -0.18099082141684589 -0.5 0 -0.16584408230583039 -0.48096701539530989 0 -0.15422477925671471 -0.5 0 -0.16584408230583039 -0.48096701539530989 0 -0.15755862629506681 -0.45760760186839938 0 -0.14686893119516639 -0.47192144610607978 0 -0.19200216210443971 -0.4787171444697994 0 -0.16584408230583039 -0.48096701539530989 0 -0.1748598334316625 -0.46423879802971441 0 -0.1908461467201685 -0.4612825173636107 0 -0.19200216210443971 -0.4787171444697994 0 -0.1748598334316625 -0.46423879802971441 0 -0.1908461467201685 -0.4612825173636107 0 -0.1748598334316625 -0.46423879802971441 0 -0.18375277571830931 -0.44789249552537808 0 -0.1748598334316625 -0.46423879802971441 0 -0.18375277571830931 -0.44789249552537808 0 -0.17027602290192601 -0.44869082547362987 0 -0.18375277571830931 -0.44789249552537808 0 -0.17858465694335571 -0.43394810672430001 0 -0.19239983064899779 -0.4349260872562325 0 -0.18375277571830931 -0.44789249552537808 0 -0.17027602290192601 -0.44869082547362987 0 -0.17858465694335571 -0.43394810672430001 0 -0.15662422212123581 -0.43976712522035771 0 -0.17027602290192601 -0.44869082547362987 0 -0.15755862629506681 -0.45760760186839938 0 -0.15662422212123581 -0.43976712522035771 0 -0.17027602290192601 -0.44869082547362987 0 -0.17858465694335571 -0.43394810672430001 0 -0.1748598334316625 -0.46423879802971441 0 -0.17027602290192601 -0.44869082547362987 0 -0.15755862629506681 -0.45760760186839938 0 -0.16584408230583039 -0.48096701539530989 0 -0.1748598334316625 -0.46423879802971441 0 -0.15755862629506681 -0.45760760186839938 0 -0.15755862629506681 -0.45760760186839938 0 -0.13466378729911591 -0.44558614371641542 0 -0.14686893119516639 -0.47192144610607978 0 -0.15662422212123581 -0.43976712522035771 0 -0.13466378729911591 -0.44558614371641542 0 -0.14481610317658239 -0.42983589764486269 0 -0.15662422212123581 -0.43976712522035771 0 -0.13466378729911591 -0.44558614371641542 0 -0.15662422212123581 -0.43976712522035771 0 -0.15755862629506681 -0.45760760186839938 0 -0.13466378729911591 -0.44558614371641542 0 -0.13466378729911591 -0.44558614371641542 0 -0.1283219182110516 -0.43023370367523572 0 -0.112703352476996 -0.45140516221247312 0 -0.13466378729911591 -0.44558614371641542 0 -0.1258551749881506 -0.46908542964519229 0 -0.14686893119516639 -0.47192144610607978 0 -0.1258551749881506 -0.46908542964519229 0 -0.1274587370965834 -0.5 0 -0.14686893119516639 -0.47192144610607978 0 -0.1274587370965834 -0.5 0 -0.15422477925671471 -0.5 0 -0.14686893119516639 -0.47192144610607978 0 -0.16584408230583039 -0.48096701539530989 0 -0.15422477925671471 -0.5 0 -0.14686893119516639 -0.47192144610607978 0 -0.1555140728948006 -0.39944383703686798 0 -0.1520667543815945 -0.38405386261215219 0 -0.13978894564032129 -0.39257866734933011 0 -0.1555140728948006 -0.39944383703686798 0 -0.13978894564032129 -0.39257866734933011 0 -0.14489614345511681 -0.40642405273722298 0 -0.1555140728948006 -0.39944383703686798 0 -0.14489614345511681 -0.40642405273722298 0 -0.15800477650125849 -0.40941352440931861 0 -0.1520667543815945 -0.38405386261215219 0 -0.1400950286548823 -0.37557528597961343 0 -0.13978894564032129 -0.39257866734933011 0 -0.1520667543815945 -0.38405386261215219 0 -0.1400950286548823 -0.37557528597961343 0 -0.15544660880074029 -0.36819507302346072 0 -0.1400950286548823 -0.37557528597961343 0 -0.12636371839967811 -0.38546837239919218 0 -0.13978894564032129 -0.39257866734933011 0 -0.1400950286548823 -0.37557528597961343 0 -0.12636371839967811 -0.38546837239919218 0 -0.12769603428736789 -0.36724377921161688 0 -0.12636371839967811 -0.38546837239919218 0 -0.13978894564032129 -0.39257866734933011 0 -0.12975374667304551 -0.4015230957360707 0 -0.13978894564032129 -0.39257866734933011 0 -0.12975374667304551 -0.4015230957360707 0 -0.14489614345511681 -0.40642405273722298 0 -0.12975374667304551 -0.4015230957360707 0 -0.1346594607982253 -0.41631572727026639 0 -0.11742214010230539 -0.4120284440832232 0 -0.1346594607982253 -0.41631572727026639 0 -0.1283219182110516 -0.43023370367523572 0 -0.11742214010230539 -0.4120284440832232 0 -0.12975374667304551 -0.4015230957360707 0 -0.1346594607982253 -0.41631572727026639 0 -0.14489614345511681 -0.40642405273722298 0 -0.13466378729911591 -0.44558614371641542 0 -0.1283219182110516 -0.43023370367523572 0 -0.14481610317658239 -0.42983589764486269 0 -0.1346594607982253 -0.41631572727026639 0 -0.1283219182110516 -0.43023370367523572 0 -0.14481610317658239 -0.42983589764486269 0 -0.14481610317658239 -0.42983589764486269 0 -0.15086217646960229 -0.41774219626369652 0 -0.16222185352667251 -0.42708100617124573 0 -0.15662422212123581 -0.43976712522035771 0 -0.14481610317658239 -0.42983589764486269 0 -0.16222185352667251 -0.42708100617124573 0 -0.1346594607982253 -0.41631572727026639 0 -0.14481610317658239 -0.42983589764486269 0 -0.15086217646960229 -0.41774219626369652 0 -0.1346594607982253 -0.41631572727026639 0 -0.14489614345511681 -0.40642405273722298 0 -0.15086217646960229 -0.41774219626369652 0 -0.14489614345511681 -0.40642405273722298 0 -0.15086217646960229 -0.41774219626369652 0 -0.15800477650125849 -0.40941352440931861 0 -0.15086217646960229 -0.41774219626369652 0 -0.16730383319977279 -0.41726435265228828 0 -0.16222185352667251 -0.42708100617124573 0 -0.15086217646960229 -0.41774219626369652 0 -0.15800477650125849 -0.40941352440931861 0 -0.16730383319977279 -0.41726435265228828 0 -0.15800477650125849 -0.40941352440931861 0 -0.16730383319977279 -0.41726435265228828 0 -0.16986029298010519 -0.40313864664094101 0 -0.15662422212123581 -0.43976712522035771 0 -0.17858465694335571 -0.43394810672430001 0 -0.15662422212123581 -0.43976712522035771 0 -0.16222185352667251 -0.42708100617124573 0 -0.17858465694335571 -0.43394810672430001 0 -0.16730383319977279 -0.41726435265228828 0 -0.16222185352667251 -0.42708100617124573 0 -0.17514012924948591 -0.4239283585219692 0 -0.16222185352667251 -0.42708100617124573 0 -0.17858465694335571 -0.43394810672430001 0 -0.17514012924948591 -0.4239283585219692 0 -0.17858465694335571 -0.43394810672430001 0 -0.17514012924948591 -0.4239283585219692 0 -0.18547777458328771 -0.42594262948917988 0 -0.17858465694335571 -0.43394810672430001 0 -0.18547777458328771 -0.42594262948917988 0 -0.19239983064899779 -0.4349260872562325 0 -0.16730383319977279 -0.41726435265228828 0 -0.18056932736074929 -0.4131162140208729 0 -0.16986029298010519 -0.40313864664094101 0 -0.16730383319977279 -0.41726435265228828 0 -0.17514012924948591 -0.4239283585219692 0 -0.18056932736074929 -0.4131162140208729 0 -0.18547777458328771 -0.42594262948917988 0 -0.18056932736074929 -0.4131162140208729 0 -0.1942946937748779 -0.41097626130604581 0 -0.17514012924948591 -0.4239283585219692 0 -0.18547777458328771 -0.42594262948917988 0 -0.18056932736074929 -0.4131162140208729 0 -0.18056932736074929 -0.4131162140208729 0 -0.18666624544282431 -0.39777221085876208 0 -0.1942946937748779 -0.41097626130604581 0 -0.18056932736074929 -0.4131162140208729 0 -0.18666624544282431 -0.39777221085876208 0 -0.16986029298010519 -0.40313864664094101 0 -0.18666624544282431 -0.39777221085876208 0 -0.16986029298010519 -0.40313864664094101 0 -0.16948911591722771 -0.38447644967148892 0 -0.1555140728948006 -0.39944383703686798 0 -0.16986029298010519 -0.40313864664094101 0 -0.16948911591722771 -0.38447644967148892 0 -0.1555140728948006 -0.39944383703686798 0 -0.15800477650125849 -0.40941352440931861 0 -0.16986029298010519 -0.40313864664094101 0 -0.1555140728948006 -0.39944383703686798 0 -0.1520667543815945 -0.38405386261215219 0 -0.16948911591722771 -0.38447644967148892 0 -0.1520667543815945 -0.38405386261215219 0 -0.16948911591722771 -0.38447644967148892 0 -0.15544660880074029 -0.36819507302346072 0 -0.18666624544282431 -0.39777221085876208 0 -0.16948911591722771 -0.38447644967148892 0 -0.1957398906403435 -0.37488273273900091 0 -0.18666624544282431 -0.39777221085876208 0 -0.2049784726150829 -0.3970819769696371 0 -0.1957398906403435 -0.37488273273900091 0 -0.18666624544282431 -0.39777221085876208 0 -0.2049784726150829 -0.3970819769696371 0 -0.1942946937748779 -0.41097626130604581 0 -0.2049784726150829 -0.3970819769696371 0 -0.2198922401542292 -0.38648965320225559 0 -0.2282815306903446 -0.40431287282052047 0 -0.2198922401542292 -0.38648965320225559 0 -0.1957398906403435 -0.37488273273900091 0 -0.2198922401542292 -0.38648965320225559 0 -0.1957398906403435 -0.37488273273900091 0 -0.20985096036775999 -0.36692782372175869 0 -0.2049784726150829 -0.3970819769696371 0 -0.2198922401542292 -0.38648965320225559 0 -0.1957398906403435 -0.37488273273900091 0 -0.200402297127591 -0.44587892935052742 0 -0.19239983064899779 -0.4349260872562325 0 -0.21378164887244541 -0.42096827519177699 0 -0.18547777458328771 -0.42594262948917988 0 -0.19239983064899779 -0.4349260872562325 0 -0.21378164887244541 -0.42096827519177699 0 -0.18547777458328771 -0.42594262948917988 0 -0.21378164887244541 -0.42096827519177699 0 -0.18547777458328771 -0.42594262948917988 0 -0.1942946937748779 -0.41097626130604581 0 -0.21378164887244541 -0.42096827519177699 0 -0.2049784726150829 -0.3970819769696371 0 -0.1942946937748779 -0.41097626130604581 0 -0.21378164887244541 -0.42096827519177699 0 -0.2049784726150829 -0.3970819769696371 0 -0.21378164887244541 -0.42096827519177699 0 -0.2282815306903446 -0.40431287282052047 0 -0.21378164887244541 -0.42096827519177699 0 -0.24208552316160301 -0.41599392089437431 0 -0.2384731461184372 -0.43561072928955291 0 -0.22142880591278011 -0.44580596983858167 0 -0.21378164887244541 -0.42096827519177699 0 -0.2384731461184372 -0.43561072928955291 0 -0.21378164887244541 -0.42096827519177699 0 -0.24208552316160301 -0.41599392089437431 0 -0.21378164887244541 -0.42096827519177699 0 -0.24208552316160301 -0.41599392089437431 0 -0.2282815306903446 -0.40431287282052047 0 -0.24208552316160301 -0.41599392089437431 0 -0.2282815306903446 -0.40431287282052047 0 -0.2466226451736844 -0.40618960995121578 0 -0.25794727177352772 -0.43107378301327648 0 -0.25258359947070053 -0.4444580308848986 0 -0.2384731461184372 -0.43561072928955291 0 -0.25794727177352772 -0.43107378301327648 0 -0.24208552316160301 -0.41599392089437431 0 -0.2384731461184372 -0.43561072928955291 0 -0.2198922401542292 -0.38648965320225559 0 -0.2393420870201495 -0.38631591719729302 0 -0.23626795933596551 -0.37453194201125878 0 -0.2198922401542292 -0.38648965320225559 0 -0.2440445896681149 -0.39809657366551038 0 -0.2198922401542292 -0.38648965320225559 0 -0.2282815306903446 -0.40431287282052047 0 -0.2440445896681149 -0.39809657366551038 0 -0.2282815306903446 -0.40431287282052047 0 -0.2466226451736844 -0.40618960995121578 0 -0.2440445896681149 -0.39809657366551038 0 -0.2466226451736844 -0.40618960995121578 0 -0.2490268242412865 -0.39903128918426051 0 -0.2440445896681149 -0.39809657366551038 0 -0.25019891452060949 -0.38970469948637071 0 -0.2490268242412865 -0.39903128918426051 0 -0.2440445896681149 -0.39809657366551038 0 -0.25019891452060949 -0.38970469948637071 0 -0.2440445896681149 -0.39809657366551038 0 -0.2393420870201495 -0.38631591719729302 0 -0.2198922401542292 -0.38648965320225559 0 -0.2440445896681149 -0.39809657366551038 0 -0.2393420870201495 -0.38631591719729302 0 -0.25019891452060949 -0.38970469948637071 0 -0.2393420870201495 -0.38631591719729302 0 -0.24893942539659611 -0.38119709019521919 0 -0.2393420870201495 -0.38631591719729302 0 -0.24893942539659611 -0.38119709019521919 0 -0.23626795933596551 -0.37453194201125878 0 -0.24893942539659611 -0.38119709019521919 0 -0.2466206501041858 -0.36898541832739917 0 -0.23626795933596551 -0.37453194201125878 0 -0.2466206501041858 -0.36898541832739917 0 -0.23817092077135679 -0.36039046701953498 0 -0.2489578247536797 -0.35450973468131358 0 -0.2466206501041858 -0.36898541832739917 0 -0.23817092077135679 -0.36039046701953498 0 -0.23626795933596551 -0.37453194201125878 0 -0.2198922401542292 -0.38648965320225559 0 -0.23626795933596551 -0.37453194201125878 0 -0.22435098187987809 -0.36177123451194598 0 -0.23817092077135679 -0.36039046701953498 0 -0.23626795933596551 -0.37453194201125878 0 -0.22435098187987809 -0.36177123451194598 0 -0.23817092077135679 -0.36039046701953498 0 -0.22435098187987809 -0.36177123451194598 0 -0.2346571877830749 -0.34215400556575692 0 -0.22435098187987809 -0.36177123451194598 0 -0.2215913448638922 -0.34742631717659239 0 -0.2346571877830749 -0.34215400556575692 0 -0.25790699676493611 -0.3412614209207413 0 -0.2489578247536797 -0.35450973468131358 0 -0.2346571877830749 -0.34215400556575692 0 -0.23817092077135679 -0.36039046701953498 0 -0.2489578247536797 -0.35450973468131358 0 -0.2346571877830749 -0.34215400556575692 0 -0.25790699676493611 -0.3412614209207413 0 -0.2346571877830749 -0.34215400556575692 0 -0.25790699676493611 -0.3412614209207413 0 -0.2490993368739223 -0.33486049645542759 0 -0.2346571877830749 -0.34215400556575692 0 -0.2490993368739223 -0.33486049645542759 0 -0.23924709738451899 -0.33329718328753299 0 -0.2491567805341813 -0.31992418414483509 0 -0.23924709738451899 -0.33329718328753299 0 -0.2358102794989814 -0.32416455691027518 0 -0.23027881735326181 -0.3289628402686347 0 -0.23924709738451899 -0.33329718328753299 0 -0.2346571877830749 -0.34215400556575692 0 -0.23027881735326181 -0.3289628402686347 0 -0.2490993368739223 -0.33486049645542759 0 -0.23924709738451899 -0.33329718328753299 0 -0.2346571877830749 -0.34215400556575692 0 -0.2491567805341813 -0.31992418414483509 0 -0.22821399417058699 -0.31251285380704891 0 -0.2491567805341813 -0.31992418414483509 0 -0.22821399417058699 -0.31251285380704891 0 -0.2370652862778343 -0.3101077175472004 0 -0.2491567805341813 -0.31992418414483509 0 -0.22821399417058699 -0.31251285380704891 0 -0.23356394321951121 -0.31937250379743137 0 -0.2491567805341813 -0.31992418414483509 0 -0.2433220623225365 -0.30920355026749302 0 -0.2370652862778343 -0.3101077175472004 0 -0.2490993368739223 -0.33486049645542759 0 -0.2491567805341813 -0.31992418414483509 0 -0.23924709738451899 -0.33329718328753299 0 -0.2491567805341813 -0.31992418414483509 0 -0.2358102794989814 -0.32416455691027518 0 -0.2491567805341813 -0.31992418414483509 0 -0.2358102794989814 -0.32416455691027518 0 -0.23356394321951121 -0.31937250379743137 0 -0.23356394321951121 -0.31937250379743137 0 -0.22665768877056641 -0.31812601430377652 0 -0.22798097312323981 -0.32213490982122112 0 -0.22821399417058699 -0.31251285380704891 0 -0.23356394321951121 -0.31937250379743137 0 -0.22665768877056641 -0.31812601430377652 0 -0.2358102794989814 -0.32416455691027518 0 -0.23356394321951121 -0.31937250379743137 0 -0.22798097312323981 -0.32213490982122112 0 -0.2358102794989814 -0.32416455691027518 0 -0.22798097312323981 -0.32213490982122112 0 -0.23027881735326181 -0.3289628402686347 0 -0.22798097312323981 -0.32213490982122112 0 -0.23027881735326181 -0.3289628402686347 0 -0.22270276891138929 -0.32818526354914779 0 -0.2221767592609423 -0.32228003462733879 0 -0.22270276891138929 -0.32818526354914779 0 -0.218720684495357 -0.32567626835212832 0 -0.2221767592609423 -0.32228003462733879 0 -0.22142560033114539 -0.31817158506206078 0 -0.21669828872374799 -0.32341618054044891 0 -0.2221767592609423 -0.32228003462733879 0 -0.21669828872374799 -0.32341618054044891 0 -0.218720684495357 -0.32567626835212832 0 -0.22665768877056641 -0.31812601430377652 0 -0.22798097312323981 -0.32213490982122112 0 -0.2221767592609423 -0.32228003462733879 0 -0.22798097312323981 -0.32213490982122112 0 -0.2221767592609423 -0.32228003462733879 0 -0.22270276891138929 -0.32818526354914779 0 -0.22821399417058699 -0.31251285380704891 0 -0.22142560033114539 -0.31817158506206078 0 -0.22795301294166029 -0.31017252851752558 0 -0.22665768877056641 -0.31812601430377652 0 -0.2221767592609423 -0.32228003462733879 0 -0.22142560033114539 -0.31817158506206078 0 -0.22821399417058699 -0.31251285380704891 0 -0.22665768877056641 -0.31812601430377652 0 -0.22142560033114539 -0.31817158506206078 0 -0.2346571877830749 -0.34215400556575692 0 -0.23027881735326181 -0.3289628402686347 0 -0.2224098559566822 -0.33558495185219539 0 -0.23027881735326181 -0.3289628402686347 0 -0.2224098559566822 -0.33558495185219539 0 -0.22270276891138929 -0.32818526354914779 0 -0.2224098559566822 -0.33558495185219539 0 -0.22270276891138929 -0.32818526354914779 0 -0.21404604198068 -0.32887934011886538 0 -0.2215913448638922 -0.34742631717659239 0 -0.2346571877830749 -0.34215400556575692 0 -0.2224098559566822 -0.33558495185219539 0 -0.2215913448638922 -0.34742631717659239 0 -0.2224098559566822 -0.33558495185219539 0 -0.21129146668058499 -0.3390242522872261 0 -0.2224098559566822 -0.33558495185219539 0 -0.21129146668058499 -0.3390242522872261 0 -0.21404604198068 -0.32887934011886538 0 -0.21129146668058499 -0.3390242522872261 0 -0.20661339284773969 -0.3315019127514881 0 -0.195907746648704 -0.33722003846999798 0 -0.21129146668058499 -0.3390242522872261 0 -0.21404604198068 -0.32887934011886538 0 -0.20661339284773969 -0.3315019127514881 0 -0.21404604198068 -0.32887934011886538 0 -0.20661339284773969 -0.3315019127514881 0 -0.20665801910897799 -0.32414122092780001 0 -0.21129146668058499 -0.3390242522872261 0 -0.195907746648704 -0.33722003846999798 0 -0.20806716079755841 -0.3509330660280684 0 -0.20665801910897799 -0.32414122092780001 0 -0.2053274895108973 -0.31743960554333889 0 -0.22795301294166029 -0.31017252851752558 0 -0.22142560033114539 -0.31817158506206078 0 -0.20665801910897799 -0.32414122092780001 0 -0.22795301294166029 -0.31017252851752558 0 -0.20665801910897799 -0.32414122092780001 0 -0.22795301294166029 -0.31017252851752558 0 -0.21404604198068 -0.32887934011886538 0 -0.21669828872374799 -0.32341618054044891 0 -0.20665801910897799 -0.32414122092780001 0 -0.22142560033114539 -0.31817158506206078 0 -0.21669828872374799 -0.32341618054044891 0 -0.20665801910897799 -0.32414122092780001 0 -0.22270276891138929 -0.32818526354914779 0 -0.21404604198068 -0.32887934011886538 0 -0.218720684495357 -0.32567626835212832 0 -0.21404604198068 -0.32887934011886538 0 -0.21669828872374799 -0.32341618054044891 0 -0.218720684495357 -0.32567626835212832 0 -0.20661339284773969 -0.3315019127514881 0 -0.20665801910897799 -0.32414122092780001 0 -0.20072168521073941 -0.32786429819439988 0 -0.20665801910897799 -0.32414122092780001 0 -0.2053274895108973 -0.31743960554333889 0 -0.20034061217425081 -0.3219125818430858 0 -0.2053274895108973 -0.31743960554333889 0 -0.19713916615798399 -0.31621442625574392 0 -0.19952756994824439 -0.30808502488997902 0 -0.2053274895108973 -0.31743960554333889 0 -0.19713916615798399 -0.31621442625574392 0 -0.20034061217425081 -0.3219125818430858 0 -0.19713916615798399 -0.31621442625574392 0 -0.20034061217425081 -0.3219125818430858 0 -0.1935792510757432 -0.32450211154853231 0 -0.20665801910897799 -0.32414122092780001 0 -0.20034061217425081 -0.3219125818430858 0 -0.20072168521073941 -0.32786429819439988 0 -0.20034061217425081 -0.3219125818430858 0 -0.20072168521073941 -0.32786429819439988 0 -0.1935792510757432 -0.32450211154853231 0 -0.19713916615798399 -0.31621442625574392 0 -0.1935792510757432 -0.32450211154853231 0 -0.1887646766216334 -0.31611010557627373 0 -0.19713916615798399 -0.31621442625574392 0 -0.1887646766216334 -0.31611010557627373 0 -0.19397519148176429 -0.31075547851048158 0 -0.1935792510757432 -0.32450211154853231 0 -0.195907746648704 -0.33722003846999798 0 -0.17922943929328661 -0.32538240469950502 0 -0.20661339284773969 -0.3315019127514881 0 -0.20072168521073941 -0.32786429819439988 0 -0.195907746648704 -0.33722003846999798 0 -0.20072168521073941 -0.32786429819439988 0 -0.1935792510757432 -0.32450211154853231 0 -0.195907746648704 -0.33722003846999798 0 -0.195907746648704 -0.33722003846999798 0 -0.1919653969297905 -0.35564948252328682 0 -0.20806716079755841 -0.3509330660280684 0 -0.195907746648704 -0.33722003846999798 0 -0.1919653969297905 -0.35564948252328682 0 -0.1778933270673286 -0.34335500761993559 0 -0.1919653969297905 -0.35564948252328682 0 -0.1957398906403435 -0.37488273273900091 0 -0.20985096036775999 -0.36692782372175869 0 -0.2198922401542292 -0.38648965320225559 0 -0.22435098187987809 -0.36177123451194598 0 -0.20985096036775999 -0.36692782372175869 0 -0.22435098187987809 -0.36177123451194598 0 -0.20985096036775999 -0.36692782372175869 0 -0.20806716079755841 -0.3509330660280684 0 -0.1919653969297905 -0.35564948252328682 0 -0.20985096036775999 -0.36692782372175869 0 -0.20806716079755841 -0.3509330660280684 0 -0.22435098187987809 -0.36177123451194598 0 -0.2215913448638922 -0.34742631717659239 0 -0.20806716079755841 -0.3509330660280684 0 -0.2215913448638922 -0.34742631717659239 0 -0.21129146668058499 -0.3390242522872261 0 -0.20806716079755841 -0.3509330660280684 0 -0.22471111823595161 -0.25302821333331221 0 -0.2313791546353918 -0.26540522475620948 0 -0.2186802876259647 -0.26580840460354632 0 -0.22471111823595161 -0.25302821333331221 0 -0.2313791546353918 -0.26540522475620948 0 -0.2379799033401335 -0.25642086291424221 0 -0.2313791546353918 -0.26540522475620948 0 -0.2379799033401335 -0.25642086291424221 0 -0.24939471416539821 -0.25805746101288662 0 -0.2379799033401335 -0.25642086291424221 0 -0.2494069647178003 -0.25487211251985692 0 -0.24939471416539821 -0.25805746101288662 0 -0.2494069647178003 -0.25487211251985692 0 -0.24939471416539821 -0.25805746101288662 0 -0.24939471416539821 -0.25805746101288662 0 -0.24932136046987041 -0.27713064856006858 0 -0.24939471416539821 -0.25805746101288662 0 -0.24932136046987041 -0.27713064856006858 0 -0.23470563928056409 -0.27785150918970369 0 -0.2313791546353918 -0.26540522475620948 0 -0.24939471416539821 -0.25805746101288662 0 -0.23470563928056409 -0.27785150918970369 0 -0.24939471416539821 -0.25805746101288662 0 -0.23470563928056409 -0.27785150918970369 0 -0.24932136046987041 -0.27713064856006858 0 -0.23470563928056409 -0.27785150918970369 0 -0.24203815194876321 -0.28622222070498221 0 -0.2313791546353918 -0.26540522475620948 0 -0.23470563928056409 -0.27785150918970369 0 -0.22089244301979841 -0.27863871618708008 0 -0.2313791546353918 -0.26540522475620948 0 -0.22089244301979841 -0.27863871618708008 0 -0.2186802876259647 -0.26580840460354632 0 -0.23470563928056409 -0.27785150918970369 0 -0.22089244301979841 -0.27863871618708008 0 -0.2200165643957307 -0.29764555736652132 0 -0.23470563928056409 -0.27785150918970369 0 -0.2348776012702761 -0.29370288896290547 0 -0.2200165643957307 -0.29764555736652132 0 -0.23470563928056409 -0.27785150918970369 0 -0.2200165643957307 -0.29764555736652132 0 -0.24932136046987041 -0.27713064856006858 0 -0.24203815194876321 -0.28622222070498221 0 -0.24924800677434231 -0.29620383610725082 0 -0.24932136046987041 -0.27713064856006858 0 -0.24924800677434231 -0.29620383610725082 0 -0.23470563928056409 -0.27785150918970369 0 -0.24203815194876321 -0.28622222070498221 0 -0.2348776012702761 -0.29370288896290547 0 -0.24203815194876321 -0.28622222070498221 0 -0.24924800677434231 -0.29620383610725082 0 -0.2348776012702761 -0.29370288896290547 0 -0.2491567805341813 -0.31992418414483509 0 -0.24924800677434231 -0.29620383610725082 0 -0.24924800677434231 -0.29620383610725082 0 -0.22795301294166029 -0.31017252851752558 0 -0.24924800677434231 -0.29620383610725082 0 -0.2370652862778343 -0.3101077175472004 0 -0.22795301294166029 -0.31017252851752558 0 -0.2491567805341813 -0.31992418414483509 0 -0.24924800677434231 -0.29620383610725082 0 -0.2433220623225365 -0.30920355026749302 0 -0.24924800677434231 -0.29620383610725082 0 -0.2348776012702761 -0.29370288896290547 0 -0.22795301294166029 -0.31017252851752558 0 -0.24924800677434231 -0.29620383610725082 0 -0.2433220623225365 -0.30920355026749302 0 -0.2370652862778343 -0.3101077175472004 0 -0.2348776012702761 -0.29370288896290547 0 -0.22795301294166029 -0.31017252851752558 0 -0.2200165643957307 -0.29764555736652132 0 -0.22821399417058699 -0.31251285380704891 0 -0.2370652862778343 -0.3101077175472004 0 -0.22795301294166029 -0.31017252851752558 0 -0.2053274895108973 -0.31743960554333889 0 -0.2200165643957307 -0.29764555736652132 0 -0.2053274895108973 -0.31743960554333889 0 -0.22795301294166029 -0.31017252851752558 0 -0.2200165643957307 -0.29764555736652132 0 -0.2053274895108973 -0.31743960554333889 0 -0.2200165643957307 -0.29764555736652132 0 -0.19952756994824439 -0.30808502488997902 0 -0.2200165643957307 -0.29764555736652132 0 -0.20357724693833029 -0.29694735750563372 0 -0.19952756994824439 -0.30808502488997902 0 -0.19713916615798399 -0.31621442625574392 0 -0.19952756994824439 -0.30808502488997902 0 -0.19397519148176429 -0.31075547851048158 0 -0.19952756994824439 -0.30808502488997902 0 -0.19397519148176429 -0.31075547851048158 0 -0.19411860046622181 -0.30280001731323941 0 -0.18852266687599109 -0.30788664519400449 0 -0.19397519148176429 -0.31075547851048158 0 -0.19411860046622181 -0.30280001731323941 0 -0.1887646766216334 -0.31611010557627373 0 -0.18852266687599109 -0.30788664519400449 0 -0.19397519148176429 -0.31075547851048158 0 -0.18852266687599109 -0.30788664519400449 0 -0.19411860046622181 -0.30280001731323941 0 -0.1880927064410976 -0.29823089736059949 0 -0.19411860046622181 -0.30280001731323941 0 -0.1880927064410976 -0.29823089736059949 0 -0.1950809216867968 -0.29299938415316512 0 -0.20357724693833029 -0.29694735750563372 0 -0.19411860046622181 -0.30280001731323941 0 -0.1950809216867968 -0.29299938415316512 0 -0.20357724693833029 -0.29694735750563372 0 -0.19952756994824439 -0.30808502488997902 0 -0.19411860046622181 -0.30280001731323941 0 -0.18755237032206629 -0.2885806968924044 0 -0.20009506140749919 -0.28456710695188542 0 -0.19774874511176441 -0.27275445000887638 0 -0.20357724693833029 -0.29694735750563372 0 -0.20225222542290269 -0.2906931290004644 0 -0.1950809216867968 -0.29299938415316512 0 -0.20225222542290269 -0.2906931290004644 0 -0.1950809216867968 -0.29299938415316512 0 -0.20009506140749919 -0.28456710695188542 0 -0.1950809216867968 -0.29299938415316512 0 -0.18984795745219021 -0.29329238942231739 0 -0.18755237032206629 -0.2885806968924044 0 -0.18984795745219021 -0.29329238942231739 0 -0.18755237032206629 -0.2885806968924044 0 -0.1854724997822669 -0.29297056483950018 0 -0.1880927064410976 -0.29823089736059949 0 -0.1950809216867968 -0.29299938415316512 0 -0.18984795745219021 -0.29329238942231739 0 -0.1880927064410976 -0.29823089736059949 0 -0.18984795745219021 -0.29329238942231739 0 -0.1854724997822669 -0.29297056483950018 0 -0.1950809216867968 -0.29299938415316512 0 -0.18755237032206629 -0.2885806968924044 0 -0.20009506140749919 -0.28456710695188542 0 -0.20225222542290269 -0.2906931290004644 0 -0.20009506140749919 -0.28456710695188542 0 -0.21025567165898451 -0.28825866739117362 0 -0.22089244301979841 -0.27863871618708008 0 -0.2200165643957307 -0.29764555736652132 0 -0.21025567165898451 -0.28825866739117362 0 -0.2200165643957307 -0.29764555736652132 0 -0.20357724693833029 -0.29694735750563372 0 -0.21025567165898451 -0.28825866739117362 0 -0.20009506140749919 -0.28456710695188542 0 -0.21025567165898451 -0.28825866739117362 0 -0.20878100956989151 -0.27433696960869908 0 -0.20357724693833029 -0.29694735750563372 0 -0.20225222542290269 -0.2906931290004644 0 -0.21025567165898451 -0.28825866739117362 0 -0.20878100956989151 -0.27433696960869908 0 -0.19774874511176441 -0.27275445000887638 0 -0.2068415367752319 -0.25653865692556183 0 -0.22089244301979841 -0.27863871618708008 0 -0.21025567165898451 -0.28825866739117362 0 -0.20878100956989151 -0.27433696960869908 0 -0.22089244301979841 -0.27863871618708008 0 -0.2186802876259647 -0.26580840460354632 0 -0.20878100956989151 -0.27433696960869908 0 -0.20009506140749919 -0.28456710695188542 0 -0.20878100956989151 -0.27433696960869908 0 -0.19774874511176441 -0.27275445000887638 0 -0.18755237032206629 -0.2885806968924044 0 -0.19774874511176441 -0.27275445000887638 0 -0.18547374748413301 -0.25974881966583119 0 -0.19774874511176441 -0.27275445000887638 0 -0.2068415367752319 -0.25653865692556183 0 -0.18547374748413301 -0.25974881966583119 0 -0.2068415367752319 -0.25653865692556183 0 -0.18547374748413301 -0.25974881966583119 0 -0.20059767064097789 -0.23733801813630681 0 -0.2186802876259647 -0.26580840460354632 0 -0.20878100956989151 -0.27433696960869908 0 -0.2068415367752319 -0.25653865692556183 0 -0.22471111823595161 -0.25302821333331221 0 -0.2186802876259647 -0.26580840460354632 0 -0.2068415367752319 -0.25653865692556183 0 -0.15670388822166961 -0.26369162072992952 0 -0.1664677794169647 -0.2521717003526891 0 -0.14621948619707489 -0.25321042972574659 0 -0.15670388822166961 -0.26369162072992952 0 -0.16968251337740661 -0.26458078113354749 0 -0.1664677794169647 -0.2521717003526891 0 -0.16968251337740661 -0.26458078113354749 0 -0.1664677794169647 -0.2521717003526891 0 -0.18547374748413301 -0.25974881966583119 0 -0.18755237032206629 -0.2885806968924044 0 -0.18547374748413301 -0.25974881966583119 0 -0.18755237032206629 -0.2885806968924044 0 -0.18547374748413301 -0.25974881966583119 0 -0.18342989016395361 -0.28603278695585432 0 -0.18547374748413301 -0.25974881966583119 0 -0.17443818580856529 -0.27484402123755602 0 -0.18342989016395361 -0.28603278695585432 0 -0.16968251337740661 -0.26458078113354749 0 -0.18547374748413301 -0.25974881966583119 0 -0.17443818580856529 -0.27484402123755602 0 -0.17443818580856529 -0.27484402123755602 0 -0.16743518759558121 -0.27997693086641778 0 -0.17261640005759679 -0.28483906406229081 0 -0.17443818580856529 -0.27484402123755602 0 -0.16743518759558121 -0.27997693086641778 0 -0.1636131349394479 -0.27325017192586198 0 -0.16968251337740661 -0.26458078113354749 0 -0.17443818580856529 -0.27484402123755602 0 -0.1636131349394479 -0.27325017192586198 0 -0.15670388822166961 -0.26369162072992952 0 -0.1636131349394479 -0.27325017192586198 0 -0.15064425846337759 -0.27530112548778207 0 -0.15670388822166961 -0.26369162072992952 0 -0.16968251337740661 -0.26458078113354749 0 -0.1636131349394479 -0.27325017192586198 0 -0.16743518759558121 -0.27997693086641778 0 -0.1636131349394479 -0.27325017192586198 0 -0.15991567222083761 -0.28276973164996239 0 -0.1636131349394479 -0.27325017192586198 0 -0.15991567222083761 -0.28276973164996239 0 -0.15064425846337759 -0.27530112548778207 0 -0.1602324743214471 -0.28903537666721152 0 -0.15991567222083761 -0.28276973164996239 0 -0.15106080865669519 -0.28606895941003208 0 -0.1602324743214471 -0.28903537666721152 0 -0.15991567222083761 -0.28276973164996239 0 -0.16601148153460421 -0.28699355436012308 0 -0.1602324743214471 -0.28903537666721152 0 -0.16754295041985129 -0.29191216201949688 0 -0.15663145877524709 -0.29743247589644278 0 -0.1602324743214471 -0.28903537666721152 0 -0.16754295041985129 -0.29191216201949688 0 -0.16601148153460421 -0.28699355436012308 0 -0.16754295041985129 -0.29191216201949688 0 -0.16601148153460421 -0.28699355436012308 0 -0.17261640005759679 -0.28483906406229081 0 -0.16743518759558121 -0.27997693086641778 0 -0.15991567222083761 -0.28276973164996239 0 -0.16601148153460421 -0.28699355436012308 0 -0.16743518759558121 -0.27997693086641778 0 -0.16601148153460421 -0.28699355436012308 0 -0.17261640005759679 -0.28483906406229081 0 -0.17443818580856529 -0.27484402123755602 0 -0.17261640005759679 -0.28483906406229081 0 -0.18342989016395361 -0.28603278695585432 0 -0.16754295041985129 -0.29191216201949688 0 -0.17261640005759679 -0.28483906406229081 0 -0.18342989016395361 -0.28603278695585432 0 -0.18342989016395361 -0.28603278695585432 0 -0.1651595461154344 -0.30568393222856621 0 -0.16754295041985129 -0.29191216201949688 0 -0.18342989016395361 -0.28603278695585432 0 -0.1651595461154344 -0.30568393222856621 0 -0.18342989016395361 -0.28603278695585432 0 -0.17843957453202669 -0.2987160535663258 0 -0.1651595461154344 -0.30568393222856621 0 -0.1880927064410976 -0.29823089736059949 0 -0.1854724997822669 -0.29297056483950018 0 -0.17843957453202669 -0.2987160535663258 0 -0.18342989016395361 -0.28603278695585432 0 -0.1854724997822669 -0.29297056483950018 0 -0.17843957453202669 -0.2987160535663258 0 -0.18755237032206629 -0.2885806968924044 0 -0.18342989016395361 -0.28603278695585432 0 -0.1854724997822669 -0.29297056483950018 0 -0.17843957453202669 -0.2987160535663258 0 -0.1757099465316169 -0.30681307918300949 0 -0.1651595461154344 -0.30568393222856621 0 -0.17843957453202669 -0.2987160535663258 0 -0.18253511921105481 -0.3037336981762746 0 -0.1757099465316169 -0.30681307918300949 0 -0.18852266687599109 -0.30788664519400449 0 -0.1880927064410976 -0.29823089736059949 0 -0.18253511921105481 -0.3037336981762746 0 -0.1880927064410976 -0.29823089736059949 0 -0.17843957453202669 -0.2987160535663258 0 -0.18253511921105481 -0.3037336981762746 0 -0.18852266687599109 -0.30788664519400449 0 -0.18253511921105481 -0.3037336981762746 0 -0.18014234484503139 -0.31191956724937497 0 -0.1887646766216334 -0.31611010557627373 0 -0.18852266687599109 -0.30788664519400449 0 -0.18014234484503139 -0.31191956724937497 0 -0.18014234484503139 -0.31191956724937497 0 -0.1757099465316169 -0.30681307918300949 0 -0.17227314795453719 -0.31401214469450611 0 -0.18253511921105481 -0.3037336981762746 0 -0.18014234484503139 -0.31191956724937497 0 -0.1757099465316169 -0.30681307918300949 0 -0.1757099465316169 -0.30681307918300949 0 -0.1651595461154344 -0.30568393222856621 0 -0.17227314795453719 -0.31401214469450611 0 -0.1651595461154344 -0.30568393222856621 0 -0.15663145877524709 -0.29743247589644278 0 -0.14877760744770521 -0.31231781570203437 0 -0.16754295041985129 -0.29191216201949688 0 -0.1651595461154344 -0.30568393222856621 0 -0.15663145877524709 -0.29743247589644278 0 -0.15663145877524709 -0.29743247589644278 0 -0.14877760744770521 -0.31231781570203437 0 -0.13659539045731109 -0.29046535081188651 0 -0.14877760744770521 -0.31231781570203437 0 -0.13659539045731109 -0.29046535081188651 0 -0.14877760744770521 -0.31231781570203437 0 -0.13480985073290919 -0.30387094256142588 0 -0.13659539045731109 -0.29046535081188651 0 -0.13480985073290919 -0.30387094256142588 0 -0.13638876631005351 -0.31623417903633361 0 -0.1197317024765692 -0.3106600555407707 0 -0.1309997174361848 -0.28851957216649943 0 -0.1197317024765692 -0.3106600555407707 0 -0.14877760744770521 -0.31231781570203437 0 -0.13480985073290919 -0.30387094256142588 0 -0.13638876631005351 -0.31623417903633361 0 -0.13480985073290919 -0.30387094256142588 0 -0.1309997174361848 -0.28851957216649943 0 -0.1197317024765692 -0.3106600555407707 0 -0.13480985073290919 -0.30387094256142588 0 -0.13659539045731109 -0.29046535081188651 0 -0.1309997174361848 -0.28851957216649943 0 -0.13659539045731109 -0.29046535081188651 0 -0.1309997174361848 -0.28851957216649943 0 -0.1309997174361848 -0.28851957216649943 0 -0.133152522464099 -0.2842895330603078 0 -0.13659539045731109 -0.29046535081188651 0 -0.133152522464099 -0.2842895330603078 0 -0.14192370251068509 -0.28211289116715199 0 -0.13659539045731109 -0.29046535081188651 0 -0.1309997174361848 -0.28851957216649943 0 -0.133152522464099 -0.2842895330603078 0 -0.13659539045731109 -0.29046535081188651 0 -0.133152522464099 -0.2842895330603078 0 -0.15663145877524709 -0.29743247589644278 0 -0.13659539045731109 -0.29046535081188651 0 -0.15106080865669519 -0.28606895941003208 0 -0.13659539045731109 -0.29046535081188651 0 -0.14192370251068509 -0.28211289116715199 0 -0.15106080865669519 -0.28606895941003208 0 -0.15663145877524709 -0.29743247589644278 0 -0.13659539045731109 -0.29046535081188651 0 -0.1602324743214471 -0.28903537666721152 0 -0.15663145877524709 -0.29743247589644278 0 -0.15106080865669519 -0.28606895941003208 0 -0.15991567222083761 -0.28276973164996239 0 -0.15106080865669519 -0.28606895941003208 0 -0.15064425846337759 -0.27530112548778207 0 -0.15670388822166961 -0.26369162072992952 0 -0.15064425846337759 -0.27530112548778207 0 -0.1394781624967403 -0.26556134353986233 0 -0.15064425846337759 -0.27530112548778207 0 -0.13816553251193989 -0.27443948706575377 0 -0.1394781624967403 -0.26556134353986233 0 -0.14192370251068509 -0.28211289116715199 0 -0.15106080865669519 -0.28606895941003208 0 -0.15064425846337759 -0.27530112548778207 0 -0.14192370251068509 -0.28211289116715199 0 -0.15064425846337759 -0.27530112548778207 0 -0.13816553251193989 -0.27443948706575377 0 -0.133152522464099 -0.2842895330603078 0 -0.14192370251068509 -0.28211289116715199 0 -0.13816553251193989 -0.27443948706575377 0 -0.133152522464099 -0.2842895330603078 0 -0.13816553251193989 -0.27443948706575377 0 -0.1309997174361848 -0.28851957216649943 0 -0.133152522464099 -0.2842895330603078 0 -0.1255241670114105 -0.27060578651146572 0 -0.133152522464099 -0.2842895330603078 0 -0.1255241670114105 -0.27060578651146572 0 -0.133152522464099 -0.2842895330603078 0 -0.13816553251193989 -0.27443948706575377 0 -0.1255241670114105 -0.27060578651146572 0 -0.13816553251193989 -0.27443948706575377 0 -0.1255241670114105 -0.27060578651146572 0 -0.1394781624967403 -0.26556134353986233 0 -0.14621948619707489 -0.25321042972574659 0 -0.11789581155871789 -0.25692203996262603 0 -0.1255241670114105 -0.27060578651146572 0 -0.1394781624967403 -0.26556134353986233 0 -0.11789581155871789 -0.25692203996262603 0 -0.1394781624967403 -0.26556134353986233 0 -0.14621948619707489 -0.25321042972574659 0 -0.11789581155871789 -0.25692203996262603 0 -0.14621948619707489 -0.25321042972574659 0 -0.11789581155871789 -0.25692203996262603 0 -0.1305179246795469 -0.24616082883940921 0 -0.15670388822166961 -0.26369162072992952 0 -0.1394781624967403 -0.26556134353986233 0 -0.14621948619707489 -0.25321042972574659 0 -0.1589061906125171 -0.34607274745993272 0 -0.17158754112645799 -0.36327581227574618 0 -0.1778933270673286 -0.34335500761993559 0 -0.1589061906125171 -0.34607274745993272 0 -0.17158754112645799 -0.36327581227574618 0 -0.15544660880074029 -0.36819507302346072 0 -0.16948911591722771 -0.38447644967148892 0 -0.17158754112645799 -0.36327581227574618 0 -0.15544660880074029 -0.36819507302346072 0 -0.1957398906403435 -0.37488273273900091 0 -0.17158754112645799 -0.36327581227574618 0 -0.1919653969297905 -0.35564948252328682 0 -0.1957398906403435 -0.37488273273900091 0 -0.17158754112645799 -0.36327581227574618 0 -0.16948911591722771 -0.38447644967148892 0 -0.1957398906403435 -0.37488273273900091 0 -0.17158754112645799 -0.36327581227574618 0 -0.1919653969297905 -0.35564948252328682 0 -0.17158754112645799 -0.36327581227574618 0 -0.1778933270673286 -0.34335500761993559 0 -0.195907746648704 -0.33722003846999798 0 -0.1778933270673286 -0.34335500761993559 0 -0.17922943929328661 -0.32538240469950502 0 -0.1778933270673286 -0.34335500761993559 0 -0.17922943929328661 -0.32538240469950502 0 -0.16734147096139321 -0.33409992893839591 0 -0.1887646766216334 -0.31611010557627373 0 -0.18014234484503139 -0.31191956724937497 0 -0.17922943929328661 -0.32538240469950502 0 -0.1935792510757432 -0.32450211154853231 0 -0.1887646766216334 -0.31611010557627373 0 -0.17922943929328661 -0.32538240469950502 0 -0.18014234484503139 -0.31191956724937497 0 -0.17922943929328661 -0.32538240469950502 0 -0.17227314795453719 -0.31401214469450611 0 -0.1651595461154344 -0.30568393222856621 0 -0.17227314795453719 -0.31401214469450611 0 -0.16402274525628641 -0.32294586498471972 0 -0.1651595461154344 -0.30568393222856621 0 -0.16402274525628641 -0.32294586498471972 0 -0.14688920206691519 -0.3253350775012781 0 -0.17922943929328661 -0.32538240469950502 0 -0.16402274525628641 -0.32294586498471972 0 -0.16734147096139321 -0.33409992893839591 0 -0.17922943929328661 -0.32538240469950502 0 -0.17227314795453719 -0.31401214469450611 0 -0.16402274525628641 -0.32294586498471972 0 -0.1589061906125171 -0.34607274745993272 0 -0.1778933270673286 -0.34335500761993559 0 -0.16734147096139321 -0.33409992893839591 0 -0.16402274525628641 -0.32294586498471972 0 -0.16734147096139321 -0.33409992893839591 0 -0.15677187116496319 -0.33393853971584703 0 -0.1589061906125171 -0.34607274745993272 0 -0.16734147096139321 -0.33409992893839591 0 -0.15677187116496319 -0.33393853971584703 0 -0.1589061906125171 -0.34607274745993272 0 -0.15677187116496319 -0.33393853971584703 0 -0.14669974692770399 -0.34123907969490869 0 -0.15677187116496319 -0.33393853971584703 0 -0.14669974692770399 -0.34123907969490869 0 -0.14688920206691519 -0.3253350775012781 0 -0.14669974692770399 -0.34123907969490869 0 -0.14688920206691519 -0.3253350775012781 0 -0.1286188580183959 -0.34498622277399021 0 -0.16402274525628641 -0.32294586498471972 0 -0.15677187116496319 -0.33393853971584703 0 -0.14688920206691519 -0.3253350775012781 0 -0.1651595461154344 -0.30568393222856621 0 -0.14688920206691519 -0.3253350775012781 0 -0.1651595461154344 -0.30568393222856621 0 -0.14877760744770521 -0.31231781570203437 0 -0.14688920206691519 -0.3253350775012781 0 -0.14877760744770521 -0.31231781570203437 0 -0.14688920206691519 -0.3253350775012781 0 -0.13638876631005351 -0.31623417903633361 0 -0.14688920206691519 -0.3253350775012781 0 -0.12862332975271989 -0.32667152477695133 0 -0.13638876631005351 -0.31623417903633361 0 -0.12862332975271989 -0.32667152477695133 0 -0.13638876631005351 -0.31623417903633361 0 -0.1197317024765692 -0.3106600555407707 0 -0.14688920206691519 -0.3253350775012781 0 -0.12862332975271989 -0.32667152477695133 0 -0.1286188580183959 -0.34498622277399021 0 -0.14688920206691519 -0.3253350775012781 0 -0.1286188580183959 -0.34498622277399021 0 -0.1286188580183959 -0.34498622277399021 0 -0.14242883136314441 -0.35705773081145559 0 -0.12769603428736789 -0.36724377921161688 0 -0.14669974692770399 -0.34123907969490869 0 -0.1286188580183959 -0.34498622277399021 0 -0.14242883136314441 -0.35705773081145559 0 -0.1589061906125171 -0.34607274745993272 0 -0.14242883136314441 -0.35705773081145559 0 -0.15544660880074029 -0.36819507302346072 0 -0.1589061906125171 -0.34607274745993272 0 -0.14669974692770399 -0.34123907969490869 0 -0.14242883136314441 -0.35705773081145559 0 -0.1400950286548823 -0.37557528597961343 0 -0.14242883136314441 -0.35705773081145559 0 -0.15544660880074029 -0.36819507302346072 0 -0.1400950286548823 -0.37557528597961343 0 -0.14242883136314441 -0.35705773081145559 0 -0.12769603428736789 -0.36724377921161688 0 -0.12769603428736789 -0.36724377921161688 0 -0.1103485139698767 -0.36463736804670221 0 -0.1166432856317894 -0.3766291746182025 0 -0.1103485139698767 -0.36463736804670221 0 -0.1166432856317894 -0.3766291746182025 0 -0.1089081329709969 -0.37594012608218907 0 -0.1103485139698767 -0.36463736804670221 0 -0.10065881391097781 -0.36882802352514932 0 -0.1089081329709969 -0.37594012608218907 0 -0.10065881391097781 -0.36882802352514932 0 -0.097195672557338353 -0.35494102228931318 0 -0.085927657597722931 -0.37708150566358439 0 -0.1103485139698767 -0.36463736804670221 0 -0.10065881391097781 -0.36882802352514932 0 -0.097195672557338353 -0.35494102228931318 0 -0.097195672557338353 -0.35494102228931318 0 -0.1084636875169538 -0.33280053891504191 0 -0.1103485139698767 -0.36463736804670221 0 -0.097195672557338353 -0.35494102228931318 0 -0.11204845983788821 -0.34856251867077248 0 -0.097195672557338353 -0.35494102228931318 0 -0.11204845983788821 -0.34856251867077248 0 -0.1084636875169538 -0.33280053891504191 0 -0.1286188580183959 -0.34498622277399021 0 -0.1103485139698767 -0.36463736804670221 0 -0.11204845983788821 -0.34856251867077248 0 -0.1286188580183959 -0.34498622277399021 0 -0.12769603428736789 -0.36724377921161688 0 -0.1103485139698767 -0.36463736804670221 0 -0.1286188580183959 -0.34498622277399021 0 -0.1103485139698767 -0.36463736804670221 0 -0.1286188580183959 -0.34498622277399021 0 -0.11204845983788821 -0.34856251867077248 0 -0.1084636875169538 -0.33280053891504191 0 -0.12862332975271989 -0.32667152477695133 0 -0.1286188580183959 -0.34498622277399021 0 -0.1084636875169538 -0.33280053891504191 0 -0.12862332975271989 -0.32667152477695133 0 -0.1084636875169538 -0.33280053891504191 0 -0.1197317024765692 -0.3106600555407707 0 -0.1084636875169538 -0.33280053891504191 0 -0.1197317024765692 -0.3106600555407707 0 -0.0956373587010763 -0.32123099921003689 0 -0.1084636875169538 -0.33280053891504191 0 -0.1197317024765692 -0.3106600555407707 0 -0.097195672557338353 -0.35494102228931318 0 -0.1084636875169538 -0.33280053891504191 0 -0.088575085520544078 -0.33944786900352159 0 -0.0956373587010763 -0.32123099921003689 0 -0.1084636875169538 -0.33280053891504191 0 -0.088575085520544078 -0.33944786900352159 0 -0.0956373587010763 -0.32123099921003689 0 -0.088575085520544078 -0.33944786900352159 0 -0.074438278712531405 -0.32633081676933617 0 -0.0956373587010763 -0.32123099921003689 0 -0.074438278712531405 -0.32633081676933617 0 -0.081380912427203161 -0.30597163323135151 0 -0.074438278712531405 -0.32633081676933617 0 -0.056718429596495347 -0.30390818500494637 0 -0.058068396008033193 -0.33417103567391809 0 -0.088575085520544078 -0.33944786900352159 0 -0.074438278712531405 -0.32633081676933617 0 -0.066824459302216893 -0.34990957171801979 0 -0.074438278712531405 -0.32633081676933617 0 -0.066824459302216893 -0.34990957171801979 0 -0.074438278712531405 -0.32633081676933617 0 -0.066824459302216893 -0.34990957171801979 0 -0.058068396008033193 -0.33417103567391809 0 -0.066824459302216893 -0.34990957171801979 0 -0.0733614202230565 -0.36515932164993009 0 -0.082819215181601624 -0.35457104296530079 0 -0.066824459302216893 -0.34990957171801979 0 -0.0733614202230565 -0.36515932164993009 0 -0.059210639891902922 -0.3734883266667034 0 -0.066824459302216893 -0.34990957171801979 0 -0.059210639891902922 -0.3734883266667034 0 -0.0733614202230565 -0.36515932164993009 0 -0.059210639891902922 -0.3734883266667034 0 -0.069834426356979576 -0.37552681332001692 0 -0.077733421367351632 -0.37309634784275109 0 -0.0733614202230565 -0.36515932164993009 0 -0.069834426356979576 -0.37552681332001692 0 -0.0733614202230565 -0.36515932164993009 0 -0.083437137491142274 -0.36518203967206347 0 -0.082819215181601624 -0.35457104296530079 0 -0.097195672557338353 -0.35494102228931318 0 -0.083437137491142274 -0.36518203967206347 0 -0.085927657597722931 -0.37708150566358439 0 -0.097195672557338353 -0.35494102228931318 0 -0.085927657597722931 -0.37708150566358439 0 -0.077733421367351632 -0.37309634784275109 0 -0.0733614202230565 -0.36515932164993009 0 -0.083437137491142274 -0.36518203967206347 0 -0.077733421367351632 -0.37309634784275109 0 -0.083437137491142274 -0.36518203967206347 0 -0.085927657597722931 -0.37708150566358439 0 -0.088575085520544078 -0.33944786900352159 0 -0.066824459302216893 -0.34990957171801979 0 -0.082819215181601624 -0.35457104296530079 0 -0.097195672557338353 -0.35494102228931318 0 -0.083437137491142274 -0.36518203967206347 0 -0.082819215181601624 -0.35457104296530079 0 -0.097195672557338353 -0.35494102228931318 0 -0.088575085520544078 -0.33944786900352159 0 -0.082819215181601624 -0.35457104296530079 0 -0.098002872045214351 -0.25952886407293307 0 -0.092391111877871412 -0.24649627641947069 0 -0.11135035235040799 -0.24518079305721749 0 -0.098002872045214351 -0.25952886407293307 0 -0.1026350403818042 -0.26106954006250888 0 -0.11789581155871789 -0.25692203996262603 0 -0.098002872045214351 -0.25952886407293307 0 -0.11789581155871789 -0.25692203996262603 0 -0.11135035235040799 -0.24518079305721749 0 -0.098002872045214351 -0.25952886407293307 0 -0.11789581155871789 -0.25692203996262603 0 -0.098002872045214351 -0.25952886407293307 0 -0.089553144933683437 -0.26063613896033522 0 -0.098002872045214351 -0.25952886407293307 0 -0.1026350403818042 -0.26106954006250888 0 -0.098002872045214351 -0.25952886407293307 0 -0.11135035235040799 -0.24518079305721749 0 -0.11789581155871789 -0.25692203996262603 0 -0.11135035235040799 -0.24518079305721749 0 -0.1255241670114105 -0.27060578651146572 0 -0.11789581155871789 -0.25692203996262603 0 -0.1255241670114105 -0.27060578651146572 0 -0.11789581155871789 -0.25692203996262603 0 -0.1136000313781 -0.26730981750758931 0 -0.1026350403818042 -0.26106954006250888 0 -0.11789581155871789 -0.25692203996262603 0 -0.1136000313781 -0.26730981750758931 0 -0.1255241670114105 -0.27060578651146572 0 -0.1136000313781 -0.26730981750758931 0 -0.10834510656046829 -0.28064190349375617 0 -0.1309997174361848 -0.28851957216649943 0 -0.1255241670114105 -0.27060578651146572 0 -0.10834510656046829 -0.28064190349375617 0 -0.1026350403818042 -0.26106954006250888 0 -0.1136000313781 -0.26730981750758931 0 -0.10834510656046829 -0.28064190349375617 0 -0.10834510656046829 -0.28064190349375617 0 -0.085690495684751733 -0.27276423482101347 0 -0.098002872045214351 -0.25952886407293307 0 -0.10834510656046829 -0.28064190349375617 0 -0.085690495684751733 -0.27276423482101347 0 -0.098002872045214351 -0.25952886407293307 0 -0.1026350403818042 -0.26106954006250888 0 -0.10834510656046829 -0.28064190349375617 0 -0.11446283811745731 -0.29491100788660962 0 -0.098864206342784505 -0.3045942599325413 0 -0.091196221061118757 -0.29070486163666481 0 -0.10834510656046829 -0.28064190349375617 0 -0.11446283811745731 -0.29491100788660962 0 -0.091196221061118757 -0.29070486163666481 0 -0.10834510656046829 -0.28064190349375617 0 -0.091196221061118757 -0.29070486163666481 0 -0.085690495684751733 -0.27276423482101347 0 -0.1309997174361848 -0.28851957216649943 0 -0.10834510656046829 -0.28064190349375617 0 -0.11446283811745731 -0.29491100788660962 0 -0.1309997174361848 -0.28851957216649943 0 -0.10834510656046829 -0.28064190349375617 0 -0.11446283811745731 -0.29491100788660962 0 -0.1197317024765692 -0.3106600555407707 0 -0.098864206342784505 -0.3045942599325413 0 -0.1309997174361848 -0.28851957216649943 0 -0.11446283811745731 -0.29491100788660962 0 -0.1197317024765692 -0.3106600555407707 0 -0.0956373587010763 -0.32123099921003689 0 -0.1197317024765692 -0.3106600555407707 0 -0.098864206342784505 -0.3045942599325413 0 -0.098864206342784505 -0.3045942599325413 0 -0.081380912427203161 -0.30597163323135151 0 -0.091196221061118757 -0.29070486163666481 0 -0.0956373587010763 -0.32123099921003689 0 -0.098864206342784505 -0.3045942599325413 0 -0.081380912427203161 -0.30597163323135151 0 -0.074438278712531405 -0.32633081676933617 0 -0.081380912427203161 -0.30597163323135151 0 -0.056718429596495347 -0.30390818500494637 0 -0.081380912427203161 -0.30597163323135151 0 -0.071204462640623953 -0.28833620991298031 0 -0.056718429596495347 -0.30390818500494637 0 -0.071204462640623953 -0.28833620991298031 0 -0.06615982778847608 -0.27557403577563511 0 -0.054817166408346579 -0.28063918632930562 0 -0.071204462640623953 -0.28833620991298031 0 -0.056718429596495347 -0.30390818500494637 0 -0.071204462640623953 -0.28833620991298031 0 -0.091196221061118757 -0.29070486163666481 0 -0.085690495684751733 -0.27276423482101347 0 -0.081380912427203161 -0.30597163323135151 0 -0.071204462640623953 -0.28833620991298031 0 -0.091196221061118757 -0.29070486163666481 0 -0.077216903444112958 -0.26981771976030933 0 -0.07184466286794787 -0.26774241595282022 0 -0.089553144933683437 -0.26063613896033522 0 -0.098002872045214351 -0.25952886407293307 0 -0.085690495684751733 -0.27276423482101347 0 -0.085690495684751733 -0.27276423482101347 0 -0.077216903444112958 -0.26981771976030933 0 -0.089553144933683437 -0.26063613896033522 0 -0.085690495684751733 -0.27276423482101347 0 -0.077216903444112958 -0.26981771976030933 0 -0.071204462640623953 -0.28833620991298031 0 -0.085690495684751733 -0.27276423482101347 0 -0.071204462640623953 -0.28833620991298031 0 -0.085690495684751733 -0.27276423482101347 0 -0.077216903444112958 -0.26981771976030933 0 -0.071204462640623953 -0.28833620991298031 0 -0.06615982778847608 -0.27557403577563511 0 -0.077216903444112958 -0.26981771976030933 0 -0.064796346331799107 -0.26997641137840228 0 -0.064079578984604688 -0.26397426331579232 0 -0.059380492395684423 -0.27250422703526839 0 -0.06615982778847608 -0.27557403577563511 0 -0.064796346331799107 -0.26997641137840228 0 -0.07184466286794787 -0.26774241595282022 0 -0.06615982778847608 -0.27557403577563511 0 -0.064796346331799107 -0.26997641137840228 0 -0.059380492395684423 -0.27250422703526839 0 -0.064796346331799107 -0.26997641137840228 0 -0.07184466286794787 -0.26774241595282022 0 -0.064079578984604688 -0.26397426331579232 0 -0.06615982778847608 -0.27557403577563511 0 -0.077216903444112958 -0.26981771976030933 0 -0.07184466286794787 -0.26774241595282022 0 -0.07184466286794787 -0.26774241595282022 0 -0.064079578984604688 -0.26397426331579232 0 -0.089553144933683437 -0.26063613896033522 0 -0.064594794866230876 -0.25980927281769062 0 -0.064079578984604688 -0.26397426331579232 0 -0.089553144933683437 -0.26063613896033522 0 -0.064079578984604688 -0.26397426331579232 0 -0.089553144933683437 -0.26063613896033522 0 -0.064594794866230876 -0.25980927281769062 0 -0.079951910847618907 -0.25129646804715311 0 -0.089553144933683437 -0.26063613896033522 0 -0.064594794866230876 -0.25980927281769062 0 -0.089553144933683437 -0.26063613896033522 0 -0.098002872045214351 -0.25952886407293307 0 -0.085690495684751733 -0.27276423482101347 0 -0.089553144933683437 -0.26063613896033522 0 -0.079951910847618907 -0.25129646804715311 0 -0.089553144933683437 -0.26063613896033522 0 -0.092391111877871412 -0.24649627641947069 0 -0.098002872045214351 -0.25952886407293307 0 -0.089553144933683437 -0.26063613896033522 0 -0.092391111877871412 -0.24649627641947069 0 -0.064594794866230876 -0.25980927281769062 0 -0.064079578984604688 -0.26397426331579232 0 -0.039636444798778432 -0.2589824066750458 0 -0.064594794866230876 -0.25980927281769062 0 -0.039636444798778432 -0.2589824066750458 0 -0.064594794866230876 -0.25980927281769062 0 -0.039636444798778432 -0.2589824066750458 0 -0.051210682556077011 -0.23511425622276519 0 -0.064079578984604688 -0.26397426331579232 0 -0.039636444798778432 -0.2589824066750458 0 -0.038606013035525889 -0.26731238767124937 0 -0.064079578984604688 -0.26397426331579232 0 -0.038606013035525889 -0.26731238767124937 0 -0.050183243211062732 -0.27295313837286739 0 -0.054817166408346579 -0.28063918632930562 0 -0.039065450300325988 -0.2824573626881427 0 -0.064079578984604688 -0.26397426331579232 0 -0.050183243211062732 -0.27295313837286739 0 -0.038606013035525889 -0.26731238767124937 0 -0.064079578984604688 -0.26397426331579232 0 -0.050183243211062732 -0.27295313837286739 0 -0.059380492395684423 -0.27250422703526839 0 -0.06615982778847608 -0.27557403577563511 0 -0.059380492395684423 -0.27250422703526839 0 -0.054817166408346579 -0.28063918632930562 0 -0.050183243211062732 -0.27295313837286739 0 -0.059380492395684423 -0.27250422703526839 0 -0.054817166408346579 -0.28063918632930562 0 -0.050183243211062732 -0.27295313837286739 0 -0.038606013035525889 -0.26731238767124937 0 -0.039065450300325988 -0.2824573626881427 0 -0.038606013035525889 -0.26731238767124937 0 -0.039065450300325988 -0.2824573626881427 0 -0.023584603763440119 -0.28122209775926249 0 -0.039065450300325988 -0.2824573626881427 0 -0.032491112795555999 -0.30428865498612268 0 -0.023584603763440119 -0.28122209775926249 0 -0.039065450300325988 -0.2824573626881427 0 -0.047382906810708517 -0.29324742882019011 0 -0.032491112795555999 -0.30428865498612268 0 -0.071204462640623953 -0.28833620991298031 0 -0.047382906810708517 -0.29324742882019011 0 -0.056718429596495347 -0.30390818500494637 0 -0.071204462640623953 -0.28833620991298031 0 -0.054817166408346579 -0.28063918632930562 0 -0.047382906810708517 -0.29324742882019011 0 -0.054817166408346579 -0.28063918632930562 0 -0.039065450300325988 -0.2824573626881427 0 -0.047382906810708517 -0.29324742882019011 0 -0.047382906810708517 -0.29324742882019011 0 -0.056718429596495347 -0.30390818500494637 0 -0.032491112795555999 -0.30428865498612268 0 -0.056718429596495347 -0.30390818500494637 0 -0.032491112795555999 -0.30428865498612268 0 -0.041397621827671857 -0.3273552122129828 0 -0.032491112795555999 -0.30428865498612268 0 -0.01446336586326448 -0.30259857122308331 0 -0.021752742448393519 -0.32104038288679959 0 -0.01446336586326448 -0.30259857122308331 0 -0.00052655649588606579 -0.28989551180493978 0 0.0024429241655047648 -0.31136478390375899 0 -0.01446336586326448 -0.30259857122308331 0 -0.021752742448393519 -0.32104038288679959 0 0.0024429241655047648 -0.31136478390375899 0 -0.00052655649588606579 -0.28989551180493978 0 -0.023584603763440119 -0.28122209775926249 0 -0.0089347321718153266 -0.27362595901405612 0 -0.01446336586326448 -0.30259857122308331 0 -0.00052655649588606579 -0.28989551180493978 0 -0.023584603763440119 -0.28122209775926249 0 -0.032491112795555999 -0.30428865498612268 0 -0.023584603763440119 -0.28122209775926249 0 -0.032491112795555999 -0.30428865498612268 0 -0.01446336586326448 -0.30259857122308331 0 -0.023584603763440119 -0.28122209775926249 0 -0.023584603763440119 -0.28122209775926249 0 -0.0089347321718153266 -0.27362595901405612 0 -0.014678094731325961 -0.25815554053240181 0 -0.023584603763440119 -0.28122209775926249 0 -0.014678094731325961 -0.25815554053240181 0 -0.038606013035525889 -0.26731238767124937 0 -0.023584603763440119 -0.28122209775926249 0 -0.014678094731325961 -0.25815554053240181 0 -0.0089347321718153266 -0.27362595901405612 0 0.0075670693673515234 -0.27352296654111902 0 0.00049130024963215009 -0.25765298090485123 0 -0.00052655649588606579 -0.28989551180493978 0 -0.0089347321718153266 -0.27362595901405612 0 0.0075670693673515234 -0.27352296654111902 0 -0.014678094731325961 -0.25815554053240181 0 -0.0063224142407883634 -0.2365155487568012 0 0.00049130024963215009 -0.25765298090485123 0 -0.0089347321718153266 -0.27362595901405612 0 -0.014678094731325961 -0.25815554053240181 0 0.00049130024963215009 -0.25765298090485123 0 -0.014678094731325961 -0.25815554053240181 0 0.00049130024963215009 -0.25765298090485123 0 -0.039636444798778432 -0.2589824066750458 0 -0.014678094731325961 -0.25815554053240181 0 -0.025179546194297148 -0.2384865864611814 0 -0.039636444798778432 -0.2589824066750458 0 -0.038606013035525889 -0.26731238767124937 0 -0.014678094731325961 -0.25815554053240181 0 -0.039636444798778432 -0.2589824066750458 0 -0.014678094731325961 -0.25815554053240181 0 -0.042559658106647913 -0.36666486092330369 0 -0.050304130859787743 -0.35042176943984299 0 -0.029808835736906219 -0.34233307699776222 0 -0.042559658106647913 -0.36666486092330369 0 -0.048884818347246548 -0.37495790638657411 0 -0.032791556812029422 -0.38177773875190862 0 -0.042559658106647913 -0.36666486092330369 0 -0.059210639891902922 -0.3734883266667034 0 -0.050304130859787743 -0.35042176943984299 0 -0.059210639891902922 -0.3734883266667034 0 -0.050304130859787743 -0.35042176943984299 0 -0.042559658106647913 -0.36666486092330369 0 -0.048884818347246548 -0.37495790638657411 0 -0.059210639891902922 -0.3734883266667034 0 -0.066824459302216893 -0.34990957171801979 0 -0.059210639891902922 -0.3734883266667034 0 -0.050304130859787743 -0.35042176943984299 0 -0.066824459302216893 -0.34990957171801979 0 -0.050304130859787743 -0.35042176943984299 0 -0.058068396008033193 -0.33417103567391809 0 -0.050304130859787743 -0.35042176943984299 0 -0.058068396008033193 -0.33417103567391809 0 -0.041397621827671857 -0.3273552122129828 0 -0.056718429596495347 -0.30390818500494637 0 -0.058068396008033193 -0.33417103567391809 0 -0.041397621827671857 -0.3273552122129828 0 -0.032491112795555999 -0.30428865498612268 0 -0.041397621827671857 -0.3273552122129828 0 -0.032491112795555999 -0.30428865498612268 0 -0.041397621827671857 -0.3273552122129828 0 -0.021752742448393519 -0.32104038288679959 0 -0.050304130859787743 -0.35042176943984299 0 -0.041397621827671857 -0.3273552122129828 0 -0.050304130859787743 -0.35042176943984299 0 -0.041397621827671857 -0.3273552122129828 0 -0.029808835736906219 -0.34233307699776222 0 -0.029808835736906219 -0.34233307699776222 0 -0.021752742448393519 -0.32104038288679959 0 -0.003867990323782395 -0.33148502347663239 0 -0.041397621827671857 -0.3273552122129828 0 -0.029808835736906219 -0.34233307699776222 0 -0.021752742448393519 -0.32104038288679959 0 -0.029808835736906219 -0.34233307699776222 0 -0.003867990323782395 -0.33148502347663239 0 -0.018329773567904641 -0.35663138111427117 0 -0.021752742448393519 -0.32104038288679959 0 -0.003867990323782395 -0.33148502347663239 0 0.0024429241655047648 -0.31136478390375899 0 -0.003867990323782395 -0.33148502347663239 0 -0.018329773567904641 -0.35663138111427117 0 0.0015555002525088151 -0.35059575599028348 0 -0.018329773567904641 -0.35663138111427117 0 -0.001872043417883932 -0.36102215386136888 0 0.0015555002525088151 -0.35059575599028348 0 -0.003867990323782395 -0.33148502347663239 0 -0.018329773567904641 -0.35663138111427117 0 -0.042559658106647913 -0.36666486092330369 0 -0.029808835736906219 -0.34233307699776222 0 -0.018329773567904641 -0.35663138111427117 0 -0.042559658106647913 -0.36666486092330369 0 -0.018329773567904641 -0.35663138111427117 0 -0.032791556812029422 -0.38177773875190862 0 -0.018329773567904641 -0.35663138111427117 0 -0.01120363266560867 -0.38140178952487519 0 -0.032791556812029422 -0.38177773875190862 0 -0.018329773567904641 -0.35663138111427117 0 -0.032791556812029422 -0.38177773875190862 0 -0.018329773567904641 -0.35663138111427117 0 -0.001872043417883932 -0.36102215386136888 0 -0.01120363266560867 -0.38140178952487519 0 -0.001872043417883932 -0.36102215386136888 0 -0.01120363266560867 -0.38140178952487519 0 0.0040705514187503629 -0.37047854953713238 0 -0.01120363266560867 -0.38140178952487519 0 0.01038429148081218 -0.38102584029784259 0 -0.01120363266560867 -0.38140178952487519 0 -0.0218874164330355 -0.39783208245186491 0 0.0038407065935028052 -0.40495343468598799 0 -0.01120363266560867 -0.38140178952487519 0 -0.0218874164330355 -0.39783208245186491 0 -0.032791556812029422 -0.38177773875190862 0 -0.01120363266560867 -0.38140178952487519 0 -0.032791556812029422 -0.38177773875190862 0 -0.048884818347246548 -0.37495790638657411 0 -0.032791556812029422 -0.38177773875190862 0 -0.056401138115172743 -0.38218889471953321 0 -0.032791556812029422 -0.38177773875190862 0 -0.043828507793127837 -0.38887710675040288 0 -0.056401138115172743 -0.38218889471953321 0 -0.032791556812029422 -0.38177773875190862 0 -0.056401138115172743 -0.38218889471953321 0 -0.0218874164330355 -0.39783208245186491 0 -0.032791556812029422 -0.38177773875190862 0 -0.044414062561592728 -0.40198711966230932 0 -0.032791556812029422 -0.38177773875190862 0 -0.044414062561592728 -0.40198711966230932 0 -0.032791556812029422 -0.38177773875190862 0 -0.043828507793127837 -0.38887710675040288 0 -0.044414062561592728 -0.40198711966230932 0 -0.043828507793127837 -0.38887710675040288 0 -0.044414062561592728 -0.40198711966230932 0 -0.046892821165841231 -0.3946043036964727 0 -0.046892821165841231 -0.3946043036964727 0 -0.050614385172145768 -0.40010952328177152 0 -0.056401138115172743 -0.38218889471953321 0 -0.050614385172145768 -0.40010952328177152 0 -0.047034195145088747 -0.40919963019435651 0 -0.069199853570728054 -0.39935893075446838 0 -0.050614385172145768 -0.40010952328177152 0 -0.059318733627643068 -0.39302563086350051 0 -0.069199853570728054 -0.39935893075446838 0 -0.047034195145088747 -0.40919963019435651 0 -0.069199853570728054 -0.39935893075446838 0 -0.047034195145088747 -0.40919963019435651 0 -0.069199853570728054 -0.39935893075446838 0 -0.063701104313555232 -0.4082065670472762 0 -0.050614385172145768 -0.40010952328177152 0 -0.056401138115172743 -0.38218889471953321 0 -0.050614385172145768 -0.40010952328177152 0 -0.059318733627643068 -0.39302563086350051 0 -0.056401138115172743 -0.38218889471953321 0 -0.044414062561592728 -0.40198711966230932 0 -0.050614385172145768 -0.40010952328177152 0 -0.047034195145088747 -0.40919963019435651 0 -0.044414062561592728 -0.40198711966230932 0 -0.046892821165841231 -0.3946043036964727 0 -0.050614385172145768 -0.40010952328177152 0 -0.059318733627643068 -0.39302563086350051 0 -0.056401138115172743 -0.38218889471953321 0 -0.062611884606088991 -0.38229705358310151 0 -0.048884818347246548 -0.37495790638657411 0 -0.059210639891902922 -0.3734883266667034 0 -0.056401138115172743 -0.38218889471953321 0 -0.059210639891902922 -0.3734883266667034 0 -0.056401138115172743 -0.38218889471953321 0 -0.059210639891902922 -0.3734883266667034 0 -0.062611884606088991 -0.38229705358310151 0 -0.056401138115172743 -0.38218889471953321 0 -0.062611884606088991 -0.38229705358310151 0 -0.059210639891902922 -0.3734883266667034 0 -0.056401138115172743 -0.38218889471953321 0 -0.062611884606088991 -0.38229705358310151 0 -0.043828507793127837 -0.38887710675040288 0 -0.046892821165841231 -0.3946043036964727 0 -0.056401138115172743 -0.38218889471953321 0 -0.06052669118351868 -0.43441401176257682 0 -0.058480279025977917 -0.41878338644699592 0 -0.042018954290287042 -0.42830127316947048 0 -0.058480279025977917 -0.41878338644699592 0 -0.047034195145088747 -0.40919963019435651 0 -0.042018954290287042 -0.42830127316947048 0 -0.058480279025977917 -0.41878338644699592 0 -0.047034195145088747 -0.40919963019435651 0 -0.063701104313555232 -0.4082065670472762 0 -0.047034195145088747 -0.40919963019435651 0 -0.024868536719449452 -0.41904032963424459 0 -0.044414062561592728 -0.40198711966230932 0 -0.047034195145088747 -0.40919963019435651 0 -0.024868536719449452 -0.41904032963424459 0 -0.047034195145088747 -0.40919963019435651 0 -0.042018954290287042 -0.42830127316947048 0 -0.024868536719449452 -0.41904032963424459 0 -0.042018954290287042 -0.42830127316947048 0 -0.024868536719449452 -0.41904032963424459 0 -0.02724563434835954 -0.44101547451718343 0 -0.016764446145468771 -0.431812663426826 0 -0.024868536719449452 -0.41904032963424459 0 -0.02724563434835954 -0.44101547451718343 0 -0.0218874164330355 -0.39783208245186491 0 -0.044414062561592728 -0.40198711966230932 0 -0.024868536719449452 -0.41904032963424459 0 -0.0218874164330355 -0.39783208245186491 0 -0.024868536719449452 -0.41904032963424459 0 0.0038407065935028052 -0.40495343468598799 0 -0.024868536719449452 -0.41904032963424459 0 -0.00270287829380995 -0.42888102907413228 0 0.0038407065935028052 -0.40495343468598799 0 -0.016764446145468771 -0.431812663426826 0 -0.024868536719449452 -0.41904032963424459 0 -0.00270287829380995 -0.42888102907413228 0 -0.024868536719449452 -0.41904032963424459 0 -0.00270287829380995 -0.42888102907413228 0 -0.016764446145468771 -0.431812663426826 0 -0.00270287829380995 -0.42888102907413228 0 -0.0053001685674761642 -0.43837840845361947 0 -0.00270287829380995 -0.42888102907413228 0 -0.0053001685674761642 -0.43837840845361947 0 -0.0053001685674761642 -0.43837840845361947 0 -0.014654417071925181 -0.44441516298634082 0 -0.0054394056822531546 -0.45119739893176541 0 -0.016764446145468771 -0.431812663426826 0 -0.0053001685674761642 -0.43837840845361947 0 -0.014654417071925181 -0.44441516298634082 0 -0.014654417071925181 -0.44441516298634082 0 -0.0054394056822531546 -0.45119739893176541 0 -0.018522430616068269 -0.4596718696023091 0 -0.0053001685674761642 -0.43837840845361947 0 -0.0054394056822531546 -0.45119739893176541 0 0.0063353841764966848 -0.45003473940183408 0 -0.0054394056822531546 -0.45119739893176541 0 -0.018522430616068269 -0.4596718696023091 0 0.0060844971887766388 -0.46422223847203981 0 -0.018522430616068269 -0.4596718696023091 0 -0.0065694574394461226 -0.48089979927036353 0 0.0060844971887766388 -0.46422223847203981 0 -0.014654417071925181 -0.44441516298634082 0 -0.018522430616068269 -0.4596718696023091 0 -0.02724563434835954 -0.44101547451718343 0 -0.018522430616068269 -0.4596718696023091 0 -0.02724563434835954 -0.44101547451718343 0 -0.047149316941032311 -0.45627600784171929 0 -0.016764446145468771 -0.431812663426826 0 -0.014654417071925181 -0.44441516298634082 0 -0.02724563434835954 -0.44101547451718343 0 -0.0065694574394461226 -0.48089979927036353 0 -0.020394568456058079 -0.50000000000000333 0 0.0088947880110828992 -0.5 0 -0.018522430616068269 -0.4596718696023091 0 -0.0065694574394461226 -0.48089979927036353 0 -0.033771942698545963 -0.47813800392086192 0 -0.020394568456058079 -0.50000000000000333 0 -0.033771942698545963 -0.47813800392086192 0 -0.0065694574394461226 -0.48089979927036353 0 -0.020394568456058079 -0.50000000000000333 0 -0.033771942698545963 -0.47813800392086192 0 -0.020394568456058079 -0.50000000000000333 0 -0.033771942698545963 -0.47813800392086192 0 -0.047160610616189418 -0.5 0 -0.033771942698545963 -0.47813800392086192 0 -0.053348672327417149 -0.48152790007274993 0 -0.047160610616189418 -0.5 0 -0.033771942698545963 -0.47813800392086192 0 -0.053348672327417149 -0.48152790007274993 0 -0.047149316941032311 -0.45627600784171929 0 -0.053348672327417149 -0.48152790007274993 0 -0.047149316941032311 -0.45627600784171929 0 -0.070869429998935071 -0.47114040754017489 0 -0.053348672327417149 -0.48152790007274993 0 -0.047160610616189418 -0.5 0 -0.073926652776320712 -0.5 0 -0.042018954290287042 -0.42830127316947048 0 -0.02724563434835954 -0.44101547451718343 0 -0.047149316941032311 -0.45627600784171929 0 -0.033771942698545963 -0.47813800392086192 0 -0.047149316941032311 -0.45627600784171929 0 -0.018522430616068269 -0.4596718696023091 0 -0.033771942698545963 -0.47813800392086192 0 -0.047149316941032311 -0.45627600784171929 0 -0.06052669118351868 -0.43441401176257682 0 -0.047149316941032311 -0.45627600784171929 0 -0.06052669118351868 -0.43441401176257682 0 -0.042018954290287042 -0.42830127316947048 0 -0.047149316941032311 -0.45627600784171929 0 -0.06052669118351868 -0.43441401176257682 0 -0.047149316941032311 -0.45627600784171929 0 -0.075664083585832029 -0.44616617132454001 0 -0.047149316941032311 -0.45627600784171929 0 -0.075664083585832029 -0.44616617132454001 0 -0.070869429998935071 -0.47114040754017489 0 -0.075664083585832029 -0.44616617132454001 0 -0.090742917654876076 -0.45722418070853083 0 -0.070869429998935071 -0.47114040754017489 0 -0.075664083585832029 -0.44616617132454001 0 -0.097893549132660254 -0.44353031070996668 0 -0.086677971604660869 -0.43299830437797149 0 -0.075664083585832029 -0.44616617132454001 0 -0.090742917654876076 -0.45722418070853083 0 -0.097893549132660254 -0.44353031070996668 0 -0.073926652776320712 -0.5 0 -0.070869429998935071 -0.47114040754017489 0 -0.087411388522375288 -0.48328356378246001 0 -0.053348672327417149 -0.48152790007274993 0 -0.073926652776320712 -0.5 0 -0.070869429998935071 -0.47114040754017489 0 -0.090742917654876076 -0.45722418070853083 0 -0.070869429998935071 -0.47114040754017489 0 -0.087411388522375288 -0.48328356378246001 0 -0.073926652776320712 -0.5 0 -0.087411388522375288 -0.48328356378246001 0 -0.1006926949364521 -0.5 0 -0.087411388522375288 -0.48328356378246001 0 -0.1006926949364521 -0.5 0 -0.1075810668728913 -0.47651439619099351 0 -0.090742917654876076 -0.45722418070853083 0 -0.087411388522375288 -0.48328356378246001 0 -0.1075810668728913 -0.47651439619099351 0 -0.1258551749881506 -0.46908542964519229 0 -0.1274587370965834 -0.5 0 -0.1075810668728913 -0.47651439619099351 0 -0.1274587370965834 -0.5 0 -0.1006926949364521 -0.5 0 -0.1075810668728913 -0.47651439619099351 0 -0.097893549132660254 -0.44353031070996668 0 -0.112703352476996 -0.45140516221247312 0 -0.11197348344289509 -0.42964117035593152 0 -0.090742917654876076 -0.45722418070853083 0 -0.097893549132660254 -0.44353031070996668 0 -0.112703352476996 -0.45140516221247312 0 -0.090742917654876076 -0.45722418070853083 0 -0.112703352476996 -0.45140516221247312 0 -0.090742917654876076 -0.45722418070853083 0 -0.1075810668728913 -0.47651439619099351 0 -0.112703352476996 -0.45140516221247312 0 -0.13466378729911591 -0.44558614371641542 0 -0.1258551749881506 -0.46908542964519229 0 -0.112703352476996 -0.45140516221247312 0 -0.1258551749881506 -0.46908542964519229 0 -0.1075810668728913 -0.47651439619099351 0 -0.112703352476996 -0.45140516221247312 0 -0.13466378729911591 -0.44558614371641542 0 -0.112703352476996 -0.45140516221247312 0 -0.1283219182110516 -0.43023370367523572 0 -0.11197348344289509 -0.42964117035593152 0 -0.11742214010230539 -0.4120284440832232 0 -0.1283219182110516 -0.43023370367523572 0 -0.112703352476996 -0.45140516221247312 0 -0.11197348344289509 -0.42964117035593152 0 -0.11197348344289509 -0.42964117035593152 0 -0.097776706581969797 -0.42765220017013311 0 -0.099942753137211141 -0.41346129968156858 0 -0.097893549132660254 -0.44353031070996668 0 -0.11197348344289509 -0.42964117035593152 0 -0.097776706581969797 -0.42765220017013311 0 -0.097893549132660254 -0.44353031070996668 0 -0.097776706581969797 -0.42765220017013311 0 -0.086677971604660869 -0.43299830437797149 0 -0.099942753137211141 -0.41346129968156858 0 -0.11742214010230539 -0.4120284440832232 0 -0.10804714213728731 -0.40437903375035561 0 -0.099942753137211141 -0.41346129968156858 0 -0.099443179462636477 -0.40075827629063993 0 -0.093247272718061103 -0.40690471497995312 0 -0.097776706581969797 -0.42765220017013311 0 -0.099942753137211141 -0.41346129968156858 0 -0.087871871527126888 -0.41747121816489718 0 -0.11197348344289509 -0.42964117035593152 0 -0.099942753137211141 -0.41346129968156858 0 -0.11742214010230539 -0.4120284440832232 0 -0.12975374667304551 -0.4015230957360707 0 -0.11742214010230539 -0.4120284440832232 0 -0.1167700386159741 -0.39659272459323591 0 -0.12636371839967811 -0.38546837239919218 0 -0.12975374667304551 -0.4015230957360707 0 -0.1167700386159741 -0.39659272459323591 0 -0.1167700386159741 -0.39659272459323591 0 -0.1125801502850358 -0.38593846133193133 0 -0.1065022110541211 -0.39358963844198719 0 -0.1167700386159741 -0.39659272459323591 0 -0.10804714213728731 -0.40437903375035561 0 -0.1065022110541211 -0.39358963844198719 0 -0.11742214010230539 -0.4120284440832232 0 -0.1167700386159741 -0.39659272459323591 0 -0.10804714213728731 -0.40437903375035561 0 -0.12636371839967811 -0.38546837239919218 0 -0.12769603428736789 -0.36724377921161688 0 -0.1166432856317894 -0.3766291746182025 0 -0.12636371839967811 -0.38546837239919218 0 -0.1125801502850358 -0.38593846133193133 0 -0.1166432856317894 -0.3766291746182025 0 -0.12636371839967811 -0.38546837239919218 0 -0.1167700386159741 -0.39659272459323591 0 -0.1125801502850358 -0.38593846133193133 0 -0.1125801502850358 -0.38593846133193133 0 -0.1166432856317894 -0.3766291746182025 0 -0.1089081329709969 -0.37594012608218907 0 -0.10065881391097781 -0.36882802352514932 0 -0.09784503500568667 -0.38957503619346112 0 -0.08728143966849139 -0.39069001960429178 0 -0.10065881391097781 -0.36882802352514932 0 -0.08728143966849139 -0.39069001960429178 0 -0.10065881391097781 -0.36882802352514932 0 -0.10473428673140139 -0.38327209052972289 0 -0.09784503500568667 -0.38957503619346112 0 -0.1125801502850358 -0.38593846133193133 0 -0.1089081329709969 -0.37594012608218907 0 -0.10473428673140139 -0.38327209052972289 0 -0.10065881391097781 -0.36882802352514932 0 -0.1089081329709969 -0.37594012608218907 0 -0.10473428673140139 -0.38327209052972289 0 -0.1125801502850358 -0.38593846133193133 0 -0.10473428673140139 -0.38327209052972289 0 -0.1065022110541211 -0.39358963844198719 0 -0.10473428673140139 -0.38327209052972289 0 -0.09784503500568667 -0.38957503619346112 0 -0.1065022110541211 -0.39358963844198719 0 -0.099942753137211141 -0.41346129968156858 0 -0.10804714213728731 -0.40437903375035561 0 -0.099443179462636477 -0.40075827629063993 0 -0.10804714213728731 -0.40437903375035561 0 -0.1065022110541211 -0.39358963844198719 0 -0.099443179462636477 -0.40075827629063993 0 -0.09784503500568667 -0.38957503619346112 0 -0.1065022110541211 -0.39358963844198719 0 -0.099443179462636477 -0.40075827629063993 0 -0.09784503500568667 -0.38957503619346112 0 -0.099443179462636477 -0.40075827629063993 0 -0.092828816511019069 -0.39801774573048548 0 -0.099443179462636477 -0.40075827629063993 0 -0.092828816511019069 -0.39801774573048548 0 -0.093247272718061103 -0.40690471497995312 0 -0.08728143966849139 -0.39069001960429178 0 -0.0842968019705405 -0.39265646657274977 0 -0.073904065426005042 -0.41255201568343441 0 -0.086149742952311995 -0.40481503503217431 0 -0.092828816511019069 -0.39801774573048548 0 -0.093247272718061103 -0.40690471497995312 0 -0.08728143966849139 -0.39069001960429178 0 -0.073904065426005042 -0.41255201568343441 0 -0.086149742952311995 -0.40481503503217431 0 -0.08728143966849139 -0.39069001960429178 0 -0.073904065426005042 -0.41255201568343441 0 -0.09784503500568667 -0.38957503619346112 0 -0.092828816511019069 -0.39801774573048548 0 -0.08728143966849139 -0.39069001960429178 0 -0.086149742952311995 -0.40481503503217431 0 -0.092828816511019069 -0.39801774573048548 0 -0.08728143966849139 -0.39069001960429178 0 -0.10065881391097781 -0.36882802352514932 0 -0.08728143966849139 -0.39069001960429178 0 -0.085927657597722931 -0.37708150566358439 0 -0.08728143966849139 -0.39069001960429178 0 -0.082093372780757193 -0.38606390345438141 0 -0.085927657597722931 -0.37708150566358439 0 -0.0842968019705405 -0.39265646657274977 0 -0.082093372780757193 -0.38606390345438141 0 -0.076196571633564428 -0.3894413712447522 0 -0.08728143966849139 -0.39069001960429178 0 -0.0842968019705405 -0.39265646657274977 0 -0.082093372780757193 -0.38606390345438141 0 -0.082093372780757193 -0.38606390345438141 0 -0.076106465167856893 -0.38253205890816089 0 -0.076196571633564428 -0.3894413712447522 0 -0.082093372780757193 -0.38606390345438141 0 -0.085927657597722931 -0.37708150566358439 0 -0.076106465167856893 -0.38253205890816089 0 -0.077733421367351632 -0.37309634784275109 0 -0.085927657597722931 -0.37708150566358439 0 -0.076106465167856893 -0.38253205890816089 0 -0.070530885439811203 -0.38788968016872921 0 -0.062611884606088991 -0.38229705358310151 0 -0.069199853570728054 -0.39935893075446838 0 -0.077733421367351632 -0.37309634784275109 0 -0.076106465167856893 -0.38253205890816089 0 -0.069834426356979576 -0.37552681332001692 0 -0.076106465167856893 -0.38253205890816089 0 -0.076196571633564428 -0.3894413712447522 0 -0.070530885439811203 -0.38788968016872921 0 -0.076106465167856893 -0.38253205890816089 0 -0.070530885439811203 -0.38788968016872921 0 -0.062611884606088991 -0.38229705358310151 0 -0.076106465167856893 -0.38253205890816089 0 -0.062611884606088991 -0.38229705358310151 0 -0.076106465167856893 -0.38253205890816089 0 -0.069834426356979576 -0.37552681332001692 0 -0.062611884606088991 -0.38229705358310151 0 -0.059210639891902922 -0.3734883266667034 0 -0.069834426356979576 -0.37552681332001692 0 -0.062611884606088991 -0.38229705358310151 0 -0.059318733627643068 -0.39302563086350051 0 -0.062611884606088991 -0.38229705358310151 0 -0.069199853570728054 -0.39935893075446838 0 -0.062611884606088991 -0.38229705358310151 0 -0.069199853570728054 -0.39935893075446838 0 -0.0842968019705405 -0.39265646657274977 0 -0.069887128399976489 -0.40113887215712563 0 -0.073904065426005042 -0.41255201568343441 0 -0.0842968019705405 -0.39265646657274977 0 -0.069887128399976489 -0.40113887215712563 0 -0.069199853570728054 -0.39935893075446838 0 -0.0842968019705405 -0.39265646657274977 0 -0.076196571633564428 -0.3894413712447522 0 -0.069199853570728054 -0.39935893075446838 0 -0.0842968019705405 -0.39265646657274977 0 -0.069199853570728054 -0.39935893075446838 0 -0.076196571633564428 -0.3894413712447522 0 -0.070530885439811203 -0.38788968016872921 0 -0.069199853570728054 -0.39935893075446838 0 -0.069887128399976489 -0.40113887215712563 0 -0.069199853570728054 -0.39935893075446838 0 -0.063701104313555232 -0.4082065670472762 0 -0.069887128399976489 -0.40113887215712563 0 -0.069199853570728054 -0.39935893075446838 0 -0.058480279025977917 -0.41878338644699592 0 -0.063701104313555232 -0.4082065670472762 0 -0.073904065426005042 -0.41255201568343441 0 -0.069887128399976489 -0.40113887215712563 0 -0.063701104313555232 -0.4082065670472762 0 -0.073904065426005042 -0.41255201568343441 0 -0.06052669118351868 -0.43441401176257682 0 -0.075664083585832029 -0.44616617132454001 0 -0.075788708585140974 -0.42757997633084027 0 -0.06052669118351868 -0.43441401176257682 0 -0.073904065426005042 -0.41255201568343441 0 -0.06052669118351868 -0.43441401176257682 0 -0.058480279025977917 -0.41878338644699592 0 -0.073904065426005042 -0.41255201568343441 0 -0.06052669118351868 -0.43441401176257682 0 -0.073904065426005042 -0.41255201568343441 0 -0.075788708585140974 -0.42757997633084027 0 -0.075664083585832029 -0.44616617132454001 0 -0.075788708585140974 -0.42757997633084027 0 -0.086677971604660869 -0.43299830437797149 0 -0.075788708585140974 -0.42757997633084027 0 -0.086677971604660869 -0.43299830437797149 0 -0.087871871527126888 -0.41747121816489718 0 -0.097776706581969797 -0.42765220017013311 0 -0.086677971604660869 -0.43299830437797149 0 -0.087871871527126888 -0.41747121816489718 0 -0.099942753137211141 -0.41346129968156858 0 -0.087871871527126888 -0.41747121816489718 0 -0.093247272718061103 -0.40690471497995312 0 -0.086149742952311995 -0.40481503503217431 0 -0.087871871527126888 -0.41747121816489718 0 -0.093247272718061103 -0.40690471497995312 0 -0.086149742952311995 -0.40481503503217431 0 -0.073904065426005042 -0.41255201568343441 0 -0.087871871527126888 -0.41747121816489718 0 -0.073904065426005042 -0.41255201568343441 0 -0.075788708585140974 -0.42757997633084027 0 -0.087871871527126888 -0.41747121816489718 0 -0.073171939548779694 -0.075837995770341421 0 -0.089396569668795445 -0.10033949659248979 0 -0.100890856484172 -0.080668385473937745 0 -0.073171939548779694 -0.075837995770341421 0 -0.100890856484172 -0.080668385473937745 0 -0.073171939548779694 -0.075837995770341421 0 -0.100890856484172 -0.080668385473937745 0 -0.088017581119623489 -0.058176843104553379 0 -0.073171939548779694 -0.075837995770341421 0 -0.065690448402063006 -0.1038760347496915 0 -0.054597319559215568 -0.087965776951871813 0 -0.073171939548779694 -0.075837995770341421 0 -0.065690448402063006 -0.1038760347496915 0 -0.089396569668795445 -0.10033949659248979 0 -0.065690448402063006 -0.1038760347496915 0 -0.073818102188176998 -0.1189988000096784 0 -0.089396569668795445 -0.10033949659248979 0 -0.073818102188176998 -0.1189988000096784 0 -0.091211270652079415 -0.1223817969241543 0 -0.089396569668795445 -0.10033949659248979 0 -0.089396569668795445 -0.10033949659248979 0 -0.1071607378124973 -0.10765520408119771 0 -0.1109846477341819 -0.094530780978030471 0 -0.091211270652079415 -0.1223817969241543 0 -0.089396569668795445 -0.10033949659248979 0 -0.1071607378124973 -0.10765520408119771 0 -0.091211270652079415 -0.1223817969241543 0 -0.1071607378124973 -0.10765520408119771 0 -0.091211270652079415 -0.1223817969241543 0 -0.1071607378124973 -0.10765520408119771 0 -0.11060896458926051 -0.12363251322696769 0 -0.1071607378124973 -0.10765520408119771 0 -0.11060896458926051 -0.12363251322696769 0 -0.1196691713961652 -0.1162650446367363 0 -0.1196691713961652 -0.1162650446367363 0 -0.12436052293626131 -0.10401872468774299 0 -0.13018881971292251 -0.1175972240143824 0 -0.1196691713961652 -0.1162650446367363 0 -0.1227000772094413 -0.12655164204693281 0 -0.13018881971292251 -0.1175972240143824 0 -0.11060896458926051 -0.12363251322696769 0 -0.1196691713961652 -0.1162650446367363 0 -0.1227000772094413 -0.12655164204693281 0 -0.1071607378124973 -0.10765520408119771 0 -0.1196691713961652 -0.1162650446367363 0 -0.12436052293626131 -0.10401872468774299 0 -0.1071607378124973 -0.10765520408119771 0 -0.1109846477341819 -0.094530780978030471 0 -0.12436052293626131 -0.10401872468774299 0 -0.1109846477341819 -0.094530780978030471 0 -0.12436052293626131 -0.10401872468774299 0 -0.1286097734195642 -0.085498775177534084 0 -0.1109846477341819 -0.094530780978030471 0 -0.100890856484172 -0.080668385473937745 0 -0.1286097734195642 -0.085498775177534084 0 -0.100890856484172 -0.080668385473937745 0 -0.1286097734195642 -0.085498775177534084 0 -0.089396569668795445 -0.10033949659248979 0 -0.1109846477341819 -0.094530780978030471 0 -0.100890856484172 -0.080668385473937745 0 -0.100890856484172 -0.080668385473937745 0 -0.112977220397683 -0.063821349315184434 0 -0.088017581119623489 -0.058176843104553379 0 -0.100890856484172 -0.080668385473937745 0 -0.112977220397683 -0.063821349315184434 0 -0.1286097734195642 -0.085498775177534084 0 -0.112977220397683 -0.063821349315184434 0 -0.1233769461207906 -0.049144869087001108 0 -0.10082225532559159 -0.037167780682419452 0 -0.112977220397683 -0.063821349315184434 0 -0.1233769461207906 -0.049144869087001108 0 -0.1379368596757424 -0.069465855525815468 0 -0.1233769461207906 -0.049144869087001108 0 -0.1233324771521329 -0.03140357873960653 0 -0.10082225532559159 -0.037167780682419452 0 -0.112977220397683 -0.063821349315184434 0 -0.10082225532559159 -0.037167780682419452 0 -0.088017581119623489 -0.058176843104553379 0 -0.112977220397683 -0.063821349315184434 0 -0.088017581119623489 -0.058176843104553379 0 -0.1233324771521329 -0.03140357873960653 0 -0.1194977520419831 -0.0085087356347324471 0 -0.109777056740581 -0.022185280524175031 0 -0.1233324771521329 -0.03140357873960653 0 -0.10082225532559159 -0.037167780682419452 0 -0.109777056740581 -0.022185280524175031 0 -0.10082225532559159 -0.037167780682419452 0 -0.109777056740581 -0.022185280524175031 0 -0.095455742442616467 -0.011661027039941679 0 -0.1194977520419831 -0.0085087356347324471 0 -0.095455742442616467 -0.011661027039941679 0 -0.1030930190128809 0.0017653671389950959 0 -0.1194977520419831 -0.0085087356347324471 0 -0.109777056740581 -0.022185280524175031 0 -0.095455742442616467 -0.011661027039941679 0 -0.095455742442616467 -0.011661027039941679 0 -0.070900949219184065 -0.0086148189653756507 0 -0.08664531155877378 0.01199269100287245 0 -0.095455742442616467 -0.011661027039941679 0 -0.083068869464867301 -0.024123224058537798 0 -0.070900949219184065 -0.0086148189653756507 0 -0.10082225532559159 -0.037167780682419452 0 -0.095455742442616467 -0.011661027039941679 0 -0.083068869464867301 -0.024123224058537798 0 -0.083068869464867301 -0.024123224058537798 0 -0.070900949219184065 -0.0086148189653756507 0 -0.06859272745401758 -0.032192170468149033 0 -0.070900949219184065 -0.0086148189653756507 0 -0.06859272745401758 -0.032192170468149033 0 -0.057312671339690063 -0.02305136731801604 0 -0.088017581119623489 -0.058176843104553379 0 -0.082107283915954843 -0.039494621157816018 0 -0.071302291732188341 -0.050070236485926817 0 -0.10082225532559159 -0.037167780682419452 0 -0.083068869464867301 -0.024123224058537798 0 -0.082107283915954843 -0.039494621157816018 0 -0.10082225532559159 -0.037167780682419452 0 -0.088017581119623489 -0.058176843104553379 0 -0.082107283915954843 -0.039494621157816018 0 -0.06859272745401758 -0.032192170468149033 0 -0.071302291732188341 -0.050070236485926817 0 -0.059095503573533242 -0.047699157452173888 0 -0.082107283915954843 -0.039494621157816018 0 -0.06859272745401758 -0.032192170468149033 0 -0.071302291732188341 -0.050070236485926817 0 -0.083068869464867301 -0.024123224058537798 0 -0.082107283915954843 -0.039494621157816018 0 -0.06859272745401758 -0.032192170468149033 0 -0.073171939548779694 -0.075837995770341421 0 -0.088017581119623489 -0.058176843104553379 0 -0.071302291732188341 -0.050070236485926817 0 -0.073171939548779694 -0.075837995770341421 0 -0.071302291732188341 -0.050070236485926817 0 -0.055324869661338837 -0.059548630555852113 0 -0.059095503573533242 -0.047699157452173888 0 -0.055324869661338837 -0.059548630555852113 0 -0.042915537873801549 -0.046849689621061022 0 -0.071302291732188341 -0.050070236485926817 0 -0.059095503573533242 -0.047699157452173888 0 -0.055324869661338837 -0.059548630555852113 0 -0.06859272745401758 -0.032192170468149033 0 -0.050446064290618167 -0.038765239329326039 0 -0.057312671339690063 -0.02305136731801604 0 -0.059095503573533242 -0.047699157452173888 0 -0.050446064290618167 -0.038765239329326039 0 -0.042915537873801549 -0.046849689621061022 0 -0.06859272745401758 -0.032192170468149033 0 -0.059095503573533242 -0.047699157452173888 0 -0.050446064290618167 -0.038765239329326039 0 -0.042915537873801549 -0.046849689621061022 0 -0.02803704921220616 -0.053166545663704219 0 -0.02916591478074548 -0.037060150018562742 0 -0.050446064290618167 -0.038765239329326039 0 -0.042915537873801549 -0.046849689621061022 0 -0.02916591478074548 -0.037060150018562742 0 -0.055324869661338837 -0.059548630555852113 0 -0.02803704921220616 -0.053166545663704219 0 -0.045453022613387579 -0.07100760606674511 0 -0.055324869661338837 -0.059548630555852113 0 -0.02803704921220616 -0.053166545663704219 0 -0.055324869661338837 -0.059548630555852113 0 -0.042915537873801549 -0.046849689621061022 0 -0.02803704921220616 -0.053166545663704219 0 -0.070900949219184065 -0.0086148189653756507 0 -0.057312671339690063 -0.02305136731801604 0 -0.043732332514038907 -0.01216191284732155 0 -0.070900949219184065 -0.0086148189653756507 0 -0.043732332514038907 -0.01216191284732155 0 -0.05829875024733229 0.012736324323919549 0 -0.050446064290618167 -0.038765239329326039 0 -0.057312671339690063 -0.02305136731801604 0 -0.043732332514038907 -0.01216191284732155 0 -0.050446064290618167 -0.038765239329326039 0 -0.043732332514038907 -0.01216191284732155 0 -0.02916591478074548 -0.037060150018562742 0 -0.043732332514038907 -0.01216191284732155 0 -0.02574299206179367 -0.01610916285387096 0 -0.02916591478074548 -0.037060150018562742 0 -0.043732332514038907 -0.01216191284732155 0 -0.02916591478074548 -0.037060150018562742 0 -0.043732332514038907 -0.01216191284732155 0 -0.02574299206179367 -0.01610916285387096 0 -0.026201306873520111 0.00155463584421072 0 -0.02574299206179367 -0.01610916285387096 0 -0.01099324388464553 -0.02216079228255444 0 -0.01053138900806062 -0.0016732157023093791 0 -0.02574299206179367 -0.01610916285387096 0 -0.01053138900806062 -0.0016732157023093791 0 -0.026201306873520111 0.00155463584421072 0 -0.02574299206179367 -0.01610916285387096 0 -0.01099324388464553 -0.02216079228255444 0 -0.02916591478074548 -0.037060150018562742 0 -0.01099324388464553 -0.02216079228255444 0 -0.013825499638108991 -0.038614128682809452 0 0.010733998625292149 -0.026185843662049318 0 -0.01099324388464553 -0.02216079228255444 0 -0.01053138900806062 -0.0016732157023093791 0 0.0042224259336068716 -0.0095401143416764724 0 -0.01099324388464553 -0.02216079228255444 0 -0.02916591478074548 -0.037060150018562742 0 -0.013825499638108991 -0.038614128682809452 0 -0.02803704921220616 -0.053166545663704219 0 -0.02916591478074548 -0.037060150018562742 0 -0.013825499638108991 -0.038614128682809452 0 -0.00074922876307530716 -0.04678446077154845 0 -0.013825499638108991 -0.038614128682809452 0 0.010733998625292149 -0.026185843662049318 0 -0.02803704921220616 -0.053166545663704219 0 -0.00074922876307530716 -0.04678446077154845 0 -0.013825499638108991 -0.038614128682809452 0 -0.02803704921220616 -0.053166545663704219 0 -0.00074922876307530716 -0.04678446077154845 0 -0.00074922876307530716 -0.04678446077154845 0 -0.01539000565512187 -0.07304709123117685 0 -0.01773410567799551 -0.066177216363148814 0 -0.00074922876307530716 -0.04678446077154845 0 -0.01539000565512187 -0.07304709123117685 0 -0.00074922876307530716 -0.04678446077154845 0 -0.01539000565512187 -0.07304709123117685 0 0.0092477650977098626 -0.064368816240441773 0 -0.02803704921220616 -0.053166545663704219 0 -0.00074922876307530716 -0.04678446077154845 0 -0.01773410567799551 -0.066177216363148814 0 -0.01539000565512187 -0.07304709123117685 0 0.0050540432637859716 -0.084113766953887337 0 0.0092477650977098626 -0.064368816240441773 0 -0.01539000565512187 -0.07304709123117685 0 -0.0077232851748614091 -0.10638989326261419 0 0.0050540432637859716 -0.084113766953887337 0 -0.01539000565512187 -0.07304709123117685 0 -0.030030782547163709 -0.099309721690807901 0 -0.0077232851748614091 -0.10638989326261419 0 -0.01539000565512187 -0.07304709123117685 0 -0.030030782547163709 -0.099309721690807901 0 -0.01539000565512187 -0.07304709123117685 0 -0.030415166572472469 -0.075633398918624334 0 -0.030030782547163709 -0.099309721690807901 0 -0.01773410567799551 -0.066177216363148814 0 -0.030415166572472469 -0.075633398918624334 0 -0.045453022613387579 -0.07100760606674511 0 -0.02803704921220616 -0.053166545663704219 0 -0.01773410567799551 -0.066177216363148814 0 -0.045453022613387579 -0.07100760606674511 0 -0.01539000565512187 -0.07304709123117685 0 -0.01773410567799551 -0.066177216363148814 0 -0.030415166572472469 -0.075633398918624334 0 -0.01773410567799551 -0.066177216363148814 0 -0.045453022613387579 -0.07100760606674511 0 -0.030415166572472469 -0.075633398918624334 0 -0.045453022613387579 -0.07100760606674511 0 -0.041466013456513462 -0.087032805599828067 0 -0.030415166572472469 -0.075633398918624334 0 -0.041466013456513462 -0.087032805599828067 0 -0.030030782547163709 -0.099309721690807901 0 -0.041466013456513462 -0.087032805599828067 0 -0.054597319559215568 -0.087965776951871813 0 -0.047576571560340099 -0.1029013607744147 0 -0.045453022613387579 -0.07100760606674511 0 -0.041466013456513462 -0.087032805599828067 0 -0.054597319559215568 -0.087965776951871813 0 -0.073171939548779694 -0.075837995770341421 0 -0.045453022613387579 -0.07100760606674511 0 -0.054597319559215568 -0.087965776951871813 0 -0.073171939548779694 -0.075837995770341421 0 -0.045453022613387579 -0.07100760606674511 0 -0.073171939548779694 -0.075837995770341421 0 -0.055324869661338837 -0.059548630555852113 0 -0.045453022613387579 -0.07100760606674511 0 -0.065690448402063006 -0.1038760347496915 0 -0.047576571560340099 -0.1029013607744147 0 -0.044671559439205553 -0.12557235215043899 0 -0.065690448402063006 -0.1038760347496915 0 -0.073818102188176998 -0.1189988000096784 0 -0.044671559439205553 -0.12557235215043899 0 -0.065690448402063006 -0.1038760347496915 0 -0.054597319559215568 -0.087965776951871813 0 -0.047576571560340099 -0.1029013607744147 0 -0.041466013456513462 -0.087032805599828067 0 -0.047576571560340099 -0.1029013607744147 0 -0.030030782547163709 -0.099309721690807901 0 -0.047576571560340099 -0.1029013607744147 0 -0.030030782547163709 -0.099309721690807901 0 -0.044671559439205553 -0.12557235215043899 0 -0.030030782547163709 -0.099309721690807901 0 -0.044671559439205553 -0.12557235215043899 0 -0.023415826783802881 -0.1158739938968187 0 -0.030030782547163709 -0.099309721690807901 0 -0.044671559439205553 -0.12557235215043899 0 -0.023415826783802881 -0.1158739938968187 0 -0.016442343145422322 -0.13127636453166461 0 -0.044671559439205553 -0.12557235215043899 0 -0.023415826783802881 -0.1158739938968187 0 -0.0090128145860792486 -0.1200830596595137 0 -0.016442343145422322 -0.13127636453166461 0 -0.023415826783802881 -0.1158739938968187 0 -0.030030782547163709 -0.099309721690807901 0 -0.0077232851748614091 -0.10638989326261419 0 -0.023415826783802881 -0.1158739938968187 0 -0.0077232851748614091 -0.10638989326261419 0 -0.0090128145860792486 -0.1200830596595137 0 -0.0077232851748614091 -0.10638989326261419 0 -0.0090128145860792486 -0.1200830596595137 0 0.0058329922717625807 -0.12546816913575429 0 -0.0090128145860792486 -0.1200830596595137 0 -0.016442343145422322 -0.13127636453166461 0 0.0058329922717625807 -0.12546816913575429 0 -0.016442343145422322 -0.13127636453166461 0 -0.0033235935641301711 -0.15019260388118941 0 0.0058329922717625807 -0.12546816913575429 0 -0.019684724481916549 -0.1483222166137825 0 -0.02465752429125254 -0.1646908104176498 0 -0.034315436926861169 -0.14712908762462601 0 -0.016442343145422322 -0.13127636453166461 0 -0.019684724481916549 -0.1483222166137825 0 -0.034315436926861169 -0.14712908762462601 0 -0.019684724481916549 -0.1483222166137825 0 -0.0033235935641301711 -0.15019260388118941 0 -0.02465752429125254 -0.1646908104176498 0 -0.016442343145422322 -0.13127636453166461 0 -0.019684724481916549 -0.1483222166137825 0 -0.0033235935641301711 -0.15019260388118941 0 -0.0029564485302149561 -0.16814319192382471 0 -0.015177235016545269 -0.1780716355406492 0 -0.02465752429125254 -0.1646908104176498 0 -0.0029564485302149561 -0.16814319192382471 0 -0.02465752429125254 -0.1646908104176498 0 -0.0033235935641301711 -0.15019260388118941 0 -0.0029564485302149561 -0.16814319192382471 0 -0.02465752429125254 -0.1646908104176498 0 -0.001562610981016798 -0.18361050673851009 0 -0.015177235016545269 -0.1780716355406492 0 -0.015686860836063181 -0.19552963611168009 0 -0.0029564485302149561 -0.16814319192382471 0 -0.001562610981016798 -0.18361050673851009 0 -0.015177235016545269 -0.1780716355406492 0 -0.015177235016545269 -0.1780716355406492 0 -0.031022730444178869 -0.17838403251158111 0 -0.02465752429125254 -0.1646908104176498 0 -0.015177235016545269 -0.1780716355406492 0 -0.031022730444178869 -0.17838403251158111 0 -0.015686860836063181 -0.19552963611168009 0 -0.031022730444178869 -0.17838403251158111 0 -0.015686860836063181 -0.19552963611168009 0 -0.031022730444178869 -0.17838403251158111 0 -0.045131795969413441 -0.16492827545185251 0 -0.046358600052290727 -0.1612384289114788 0 -0.02465752429125254 -0.1646908104176498 0 -0.046358600052290727 -0.1612384289114788 0 -0.034315436926861169 -0.14712908762462601 0 -0.031022730444178869 -0.17838403251158111 0 -0.02465752429125254 -0.1646908104176498 0 -0.046358600052290727 -0.1612384289114788 0 -0.02465752429125254 -0.1646908104176498 0 -0.046358600052290727 -0.1612384289114788 0 -0.031022730444178869 -0.17838403251158111 0 -0.046358600052290727 -0.1612384289114788 0 -0.031022730444178869 -0.17838403251158111 0 -0.043876192133855463 -0.17773663446638069 0 -0.033931237669560577 -0.1971848220075362 0 -0.031022730444178869 -0.17838403251158111 0 -0.045131795969413441 -0.16492827545185251 0 -0.043876192133855463 -0.17773663446638069 0 -0.057703457846249341 -0.17464155515731031 0 -0.054444151650934178 -0.1889008042058955 0 -0.075141764134988701 -0.18022981547054739 0 -0.043876192133855463 -0.17773663446638069 0 -0.057703457846249341 -0.17464155515731031 0 -0.054444151650934178 -0.1889008042058955 0 -0.043876192133855463 -0.17773663446638069 0 -0.057703457846249341 -0.17464155515731031 0 -0.05198294658161446 -0.16776103203540879 0 -0.057703457846249341 -0.17464155515731031 0 -0.05198294658161446 -0.16776103203540879 0 -0.06307223472985421 -0.15857948960832099 0 -0.046358600052290727 -0.1612384289114788 0 -0.054157273542541143 -0.15251946039602149 0 -0.046358600052290727 -0.1612384289114788 0 -0.049704542652148069 -0.1607061294771176 0 -0.054157273542541143 -0.15251946039602149 0 -0.049704542652148069 -0.1607061294771176 0 -0.059312336331246537 -0.1518349826100707 0 -0.045131795969413441 -0.16492827545185251 0 -0.046358600052290727 -0.1612384289114788 0 -0.049704542652148069 -0.1607061294771176 0 -0.046358600052290727 -0.1612384289114788 0 -0.049704542652148069 -0.1607061294771176 0 -0.045131795969413441 -0.16492827545185251 0 -0.049704542652148069 -0.1607061294771176 0 -0.045131795969413441 -0.16492827545185251 0 -0.043876192133855463 -0.17773663446638069 0 -0.05198294658161446 -0.16776103203540879 0 -0.045131795969413441 -0.16492827545185251 0 -0.049704542652148069 -0.1607061294771176 0 -0.05198294658161446 -0.16776103203540879 0 -0.049704542652148069 -0.1607061294771176 0 -0.059312336331246537 -0.1518349826100707 0 -0.06307223472985421 -0.15857948960832099 0 -0.049704542652148069 -0.1607061294771176 0 -0.06307223472985421 -0.15857948960832099 0 -0.049704542652148069 -0.1607061294771176 0 -0.05198294658161446 -0.16776103203540879 0 -0.06307223472985421 -0.15857948960832099 0 -0.059312336331246537 -0.1518349826100707 0 -0.054157273542541143 -0.15251946039602149 0 -0.044671559439205553 -0.12557235215043899 0 -0.059312336331246537 -0.1518349826100707 0 -0.06307223472985421 -0.15857948960832099 0 -0.049704542652148069 -0.1607061294771176 0 -0.059312336331246537 -0.1518349826100707 0 -0.054157273542541143 -0.15251946039602149 0 -0.059312336331246537 -0.1518349826100707 0 -0.044671559439205553 -0.12557235215043899 0 -0.075261803491661505 -0.1371083897671109 0 -0.059312336331246537 -0.1518349826100707 0 -0.044671559439205553 -0.12557235215043899 0 -0.016442343145422322 -0.13127636453166461 0 -0.044671559439205553 -0.12557235215043899 0 -0.034315436926861169 -0.14712908762462601 0 -0.046358600052290727 -0.1612384289114788 0 -0.054157273542541143 -0.15251946039602149 0 -0.034315436926861169 -0.14712908762462601 0 -0.054157273542541143 -0.15251946039602149 0 -0.044671559439205553 -0.12557235215043899 0 -0.034315436926861169 -0.14712908762462601 0 -0.014678094731325961 -0.25815554053240181 0 -0.0063224142407883634 -0.2365155487568012 0 -0.014678094731325961 -0.25815554053240181 0 -0.025179546194297148 -0.2384865864611814 0 -0.0063224142407883634 -0.2365155487568012 0 -0.025179546194297148 -0.2384865864611814 0 -0.0063224142407883634 -0.2365155487568012 0 -0.010819416060726981 -0.22272115483281549 0 -0.0063224142407883634 -0.2365155487568012 0 -0.010819416060726981 -0.22272115483281549 0 0.0020332662497475049 -0.21487555698120009 0 -0.0063224142407883634 -0.2365155487568012 0 0.0020332662497475049 -0.21487555698120009 0 -0.025179546194297148 -0.2384865864611814 0 -0.010819416060726981 -0.22272115483281549 0 -0.028410224778086159 -0.21943061174725989 0 -0.028410224778086159 -0.21943061174725989 0 -0.017839746114476879 -0.20950829288221409 0 -0.033931237669560577 -0.1971848220075362 0 -0.010819416060726981 -0.22272115483281549 0 -0.028410224778086159 -0.21943061174725989 0 -0.017839746114476879 -0.20950829288221409 0 -0.00035099122794750298 -0.2126752397117791 0 -0.015686860836063181 -0.19552963611168009 0 -0.010819416060726981 -0.22272115483281549 0 -0.017839746114476879 -0.20950829288221409 0 -0.00035099122794750298 -0.2126752397117791 0 -0.017839746114476879 -0.20950829288221409 0 -0.00035099122794750298 -0.2126752397117791 0 -0.015686860836063181 -0.19552963611168009 0 -0.010819416060726981 -0.22272115483281549 0 -0.00035099122794750298 -0.2126752397117791 0 0.0020332662497475049 -0.21487555698120009 0 -0.00035099122794750298 -0.2126752397117791 0 -0.00202087689091199 -0.19757434369856569 0 -0.015686860836063181 -0.19552963611168009 0 -0.001562610981016798 -0.18361050673851009 0 -0.00202087689091199 -0.19757434369856569 0 -0.015686860836063181 -0.19552963611168009 0 -0.031022730444178869 -0.17838403251158111 0 -0.015686860836063181 -0.19552963611168009 0 -0.033931237669560577 -0.1971848220075362 0 -0.017839746114476879 -0.20950829288221409 0 -0.015686860836063181 -0.19552963611168009 0 -0.033931237669560577 -0.1971848220075362 0 -0.033931237669560577 -0.1971848220075362 0 -0.054444151650934178 -0.1889008042058955 0 -0.05034842878766202 -0.21110126502724599 0 -0.043876192133855463 -0.17773663446638069 0 -0.033931237669560577 -0.1971848220075362 0 -0.054444151650934178 -0.1889008042058955 0 -0.054444151650934178 -0.1889008042058955 0 -0.05034842878766202 -0.21110126502724599 0 -0.067705329984972765 -0.19980024605527649 0 -0.028410224778086159 -0.21943061174725989 0 -0.033931237669560577 -0.1971848220075362 0 -0.05034842878766202 -0.21110126502724599 0 -0.025179546194297148 -0.2384865864611814 0 -0.028410224778086159 -0.21943061174725989 0 -0.051210682556077011 -0.23511425622276519 0 -0.028410224778086159 -0.21943061174725989 0 -0.05034842878766202 -0.21110126502724599 0 -0.051210682556077011 -0.23511425622276519 0 -0.05034842878766202 -0.21110126502724599 0 -0.051210682556077011 -0.23511425622276519 0 -0.071381011811151057 -0.21688920423992211 0 -0.039636444798778432 -0.2589824066750458 0 -0.025179546194297148 -0.2384865864611814 0 -0.051210682556077011 -0.23511425622276519 0 -0.079951910847618907 -0.25129646804715311 0 -0.092391111877871412 -0.24649627641947069 0 -0.076491077987640349 -0.23885901955888719 0 -0.092391111877871412 -0.24649627641947069 0 -0.076491077987640349 -0.23885901955888719 0 -0.099280822945267022 -0.22353046719499481 0 -0.064594794866230876 -0.25980927281769062 0 -0.051210682556077011 -0.23511425622276519 0 -0.076491077987640349 -0.23885901955888719 0 -0.064594794866230876 -0.25980927281769062 0 -0.079951910847618907 -0.25129646804715311 0 -0.076491077987640349 -0.23885901955888719 0 -0.051210682556077011 -0.23511425622276519 0 -0.076491077987640349 -0.23885901955888719 0 -0.071381011811151057 -0.21688920423992211 0 -0.076491077987640349 -0.23885901955888719 0 -0.071381011811151057 -0.21688920423992211 0 -0.099280822945267022 -0.22353046719499481 0 -0.071381011811151057 -0.21688920423992211 0 -0.087211293540127827 -0.2018801413327711 0 -0.099280822945267022 -0.22353046719499481 0 -0.087211293540127827 -0.2018801413327711 0 -0.099280822945267022 -0.22353046719499481 0 -0.071381011811151057 -0.21688920423992211 0 -0.067705329984972765 -0.19980024605527649 0 -0.087211293540127827 -0.2018801413327711 0 -0.05034842878766202 -0.21110126502724599 0 -0.071381011811151057 -0.21688920423992211 0 -0.067705329984972765 -0.19980024605527649 0 -0.067705329984972765 -0.19980024605527649 0 -0.087211293540127827 -0.2018801413327711 0 -0.075141764134988701 -0.18022981547054739 0 -0.054444151650934178 -0.1889008042058955 0 -0.067705329984972765 -0.19980024605527649 0 -0.075141764134988701 -0.18022981547054739 0 -0.087211293540127827 -0.2018801413327711 0 -0.075141764134988701 -0.18022981547054739 0 -0.096360301468366868 -0.18265994331687149 0 -0.087211293540127827 -0.2018801413327711 0 -0.075141764134988701 -0.18022981547054739 0 -0.087211293540127827 -0.2018801413327711 0 -0.1144382026687881 -0.20081538747976849 0 -0.096360301468366868 -0.18265994331687149 0 -0.1144382026687881 -0.20081538747976849 0 -0.1161165848277368 -0.17480054429075981 0 -0.13334122165256651 -0.18819639036300639 0 -0.1144382026687881 -0.20081538747976849 0 -0.099280822945267022 -0.22353046719499481 0 -0.1222443592470721 -0.2216770978624566 0 -0.087211293540127827 -0.2018801413327711 0 -0.1144382026687881 -0.20081538747976849 0 -0.099280822945267022 -0.22353046719499481 0 -0.099280822945267022 -0.22353046719499481 0 -0.11135035235040799 -0.24518079305721749 0 -0.099280822945267022 -0.22353046719499481 0 -0.1222443592470721 -0.2216770978624566 0 -0.1156926967271093 -0.23462297832611051 0 -0.1222443592470721 -0.2216770978624566 0 -0.1156926967271093 -0.23462297832611051 0 -0.12527350641570109 -0.23436137325179399 0 -0.1145226842202007 -0.24177064807762019 0 -0.1156926967271093 -0.23462297832611051 0 -0.11135035235040799 -0.24518079305721749 0 -0.1145226842202007 -0.24177064807762019 0 -0.1156926967271093 -0.23462297832611051 0 -0.1211581471458954 -0.24074464914343971 0 -0.1156926967271093 -0.23462297832611051 0 -0.1211581471458954 -0.24074464914343971 0 -0.12527350641570109 -0.23436137325179399 0 -0.1211581471458954 -0.24074464914343971 0 -0.1197839236869192 -0.24680741722226421 0 -0.1305179246795469 -0.24616082883940921 0 -0.11789581155871789 -0.25692203996262603 0 -0.1197839236869192 -0.24680741722226421 0 -0.1305179246795469 -0.24616082883940921 0 -0.1145226842202007 -0.24177064807762019 0 -0.1211581471458954 -0.24074464914343971 0 -0.1197839236869192 -0.24680741722226421 0 -0.11789581155871789 -0.25692203996262603 0 -0.1197839236869192 -0.24680741722226421 0 -0.11135035235040799 -0.24518079305721749 0 -0.1145226842202007 -0.24177064807762019 0 -0.1197839236869192 -0.24680741722226421 0 -0.11135035235040799 -0.24518079305721749 0 -0.1145226842202007 -0.24177064807762019 0 -0.11135035235040799 -0.24518079305721749 0 -0.092391111877871412 -0.24649627641947069 0 -0.099280822945267022 -0.22353046719499481 0 -0.11135035235040799 -0.24518079305721749 0 -0.099280822945267022 -0.22353046719499481 0 -0.1156926967271093 -0.23462297832611051 0 -0.11135035235040799 -0.24518079305721749 0 -0.092009510359593566 -0.15397591528217611 0 -0.075261803491661505 -0.1371083897671109 0 -0.094427905504517962 -0.13792195477076749 0 -0.091211270652079415 -0.1223817969241543 0 -0.075261803491661505 -0.1371083897671109 0 -0.094427905504517962 -0.13792195477076749 0 -0.091211270652079415 -0.1223817969241543 0 -0.075261803491661505 -0.1371083897671109 0 -0.073818102188176998 -0.1189988000096784 0 -0.091211270652079415 -0.1223817969241543 0 -0.075261803491661505 -0.1371083897671109 0 -0.073818102188176998 -0.1189988000096784 0 -0.044671559439205553 -0.12557235215043899 0 -0.075261803491661505 -0.1371083897671109 0 -0.092009510359593566 -0.15397591528217611 0 -0.075261803491661505 -0.1371083897671109 0 -0.06307223472985421 -0.15857948960832099 0 -0.059312336331246537 -0.1518349826100707 0 -0.075261803491661505 -0.1371083897671109 0 -0.059312336331246537 -0.1518349826100707 0 -0.075261803491661505 -0.1371083897671109 0 -0.06307223472985421 -0.15857948960832099 0 -0.092009510359593566 -0.15397591528217611 0 -0.06307223472985421 -0.15857948960832099 0 -0.075141764134988701 -0.18022981547054739 0 -0.057703457846249341 -0.17464155515731031 0 -0.06307223472985421 -0.15857948960832099 0 -0.075141764134988701 -0.18022981547054739 0 -0.092009510359593566 -0.15397591528217611 0 -0.06307223472985421 -0.15857948960832099 0 -0.06307223472985421 -0.15857948960832099 0 -0.075141764134988701 -0.18022981547054739 0 -0.092009510359593566 -0.15397591528217611 0 -0.075141764134988701 -0.18022981547054739 0 -0.096360301468366868 -0.18265994331687149 0 -0.092009510359593566 -0.15397591528217611 0 -0.096360301468366868 -0.18265994331687149 0 -0.1161165848277368 -0.17480054429075981 0 -0.1144382026687881 -0.20081538747976849 0 -0.096360301468366868 -0.18265994331687149 0 -0.1161165848277368 -0.17480054429075981 0 -0.092009510359593566 -0.15397591528217611 0 -0.1161165848277368 -0.17480054429075981 0 -0.1209467859893332 -0.149372340956033 0 -0.1209467859893332 -0.149372340956033 0 -0.10910510696024329 -0.14304418723595499 0 -0.12666728047907311 -0.13685585373490139 0 -0.092009510359593566 -0.15397591528217611 0 -0.10910510696024329 -0.14304418723595499 0 -0.094427905504517962 -0.13792195477076749 0 -0.092009510359593566 -0.15397591528217611 0 -0.1209467859893332 -0.149372340956033 0 -0.10910510696024329 -0.14304418723595499 0 -0.092009510359593566 -0.15397591528217611 0 -0.1209467859893332 -0.149372340956033 0 -0.091211270652079415 -0.1223817969241543 0 -0.11060896458926051 -0.12363251322696769 0 -0.1040571051952919 -0.13190754138111771 0 -0.091211270652079415 -0.1223817969241543 0 -0.094427905504517962 -0.13792195477076749 0 -0.1040571051952919 -0.13190754138111771 0 -0.10910510696024329 -0.14304418723595499 0 -0.094427905504517962 -0.13792195477076749 0 -0.1040571051952919 -0.13190754138111771 0 -0.10910510696024329 -0.14304418723595499 0 -0.1040571051952919 -0.13190754138111771 0 -0.11493227827035871 -0.13255725474774399 0 -0.11060896458926051 -0.12363251322696769 0 -0.11493227827035871 -0.13255725474774399 0 -0.1227000772094413 -0.12655164204693281 0 -0.11060896458926051 -0.12363251322696769 0 -0.1040571051952919 -0.13190754138111771 0 -0.11493227827035871 -0.13255725474774399 0 -0.10910510696024329 -0.14304418723595499 0 -0.12666728047907311 -0.13685585373490139 0 -0.10910510696024329 -0.14304418723595499 0 -0.11493227827035871 -0.13255725474774399 0 -0.12666728047907311 -0.13685585373490139 0 -0.11493227827035871 -0.13255725474774399 0 -0.1227000772094413 -0.12655164204693281 0 -0.12666728047907311 -0.13685585373490139 0 -0.12666728047907311 -0.13685585373490139 0 -0.14422945399790249 -0.13066752023384701 0 -0.12761807176733331 -0.1436990655821484 0 -0.12666728047907311 -0.13685585373490139 0 -0.14422945399790249 -0.13066752023384701 0 -0.12666728047907311 -0.13685585373490139 0 -0.13286269498203271 -0.1266229671247838 0 -0.14422945399790249 -0.13066752023384701 0 -0.1227000772094413 -0.12655164204693281 0 -0.12666728047907311 -0.13685585373490139 0 -0.13286269498203271 -0.1266229671247838 0 -0.14422945399790249 -0.13066752023384701 0 -0.149884061619073 -0.14476876662988991 0 -0.12761807176733331 -0.1436990655821484 0 -0.14422945399790249 -0.13066752023384701 0 -0.12761807176733331 -0.1436990655821484 0 -0.13286269498203271 -0.1266229671247838 0 -0.14422945399790249 -0.13066752023384701 0 -0.14012968958766539 -0.1207407504025738 0 -0.14422945399790249 -0.13066752023384701 0 -0.149884061619073 -0.14476876662988991 0 -0.16293305548758411 -0.13385823867163371 0 -0.1209467859893332 -0.149372340956033 0 -0.149884061619073 -0.14476876662988991 0 -0.13907077379378771 -0.16993853231237349 0 -0.1209467859893332 -0.149372340956033 0 -0.149884061619073 -0.14476876662988991 0 -0.12761807176733331 -0.1436990655821484 0 -0.1209467859893332 -0.149372340956033 0 -0.149884061619073 -0.14476876662988991 0 -0.1209467859893332 -0.149372340956033 0 -0.12666728047907311 -0.13685585373490139 0 -0.12761807176733331 -0.1436990655821484 0 -0.1161165848277368 -0.17480054429075981 0 -0.1209467859893332 -0.149372340956033 0 -0.13907077379378771 -0.16993853231237349 0 -0.1161165848277368 -0.17480054429075981 0 -0.13907077379378771 -0.16993853231237349 0 -0.13334122165256651 -0.18819639036300639 0 -0.13907077379378771 -0.16993853231237349 0 -0.13334122165256651 -0.18819639036300639 0 -0.15851207708721579 -0.18923827387428391 0 -0.13907077379378771 -0.16993853231237349 0 -0.16118914106487101 -0.16738785601308839 0 -0.15851207708721579 -0.18923827387428391 0 -0.149884061619073 -0.14476876662988991 0 -0.13907077379378771 -0.16993853231237349 0 -0.16118914106487101 -0.16738785601308839 0 -0.149884061619073 -0.14476876662988991 0 -0.16118914106487101 -0.16738785601308839 0 -0.17831104560594499 -0.1575677697666171 0 -0.16118914106487101 -0.16738785601308839 0 -0.17923787897033311 -0.17325318798611161 0 -0.15851207708721579 -0.18923827387428391 0 -0.17923787897033311 -0.17325318798611161 0 -0.18131650180826639 -0.20208506521268471 0 -0.1989853245618961 -0.18617767850856759 0 -0.17923787897033311 -0.17325318798611161 0 -0.17831104560594499 -0.1575677697666171 0 -0.20136090996649189 -0.16719051841460181 0 -0.16118914106487101 -0.16738785601308839 0 -0.17923787897033311 -0.17325318798611161 0 -0.17831104560594499 -0.1575677697666171 0 -0.17831104560594499 -0.1575677697666171 0 -0.1788213372488128 -0.1401651923037468 0 -0.19937294476608861 -0.1526410972522643 0 -0.1738531097519716 -0.13110606625433999 0 -0.18753698526676549 -0.12704902531249351 0 -0.1708044045125543 -0.12130337994777581 0 -0.1738531097519716 -0.13110606625433999 0 -0.1788213372488128 -0.1401651923037468 0 -0.18753698526676549 -0.12704902531249351 0 -0.14422945399790249 -0.13066752023384701 0 -0.1708044045125543 -0.12130337994777581 0 -0.149884061619073 -0.14476876662988991 0 -0.1788213372488128 -0.1401651923037468 0 -0.16293305548758411 -0.13385823867163371 0 -0.14422945399790249 -0.13066752023384701 0 -0.16293305548758411 -0.13385823867163371 0 -0.1708044045125543 -0.12130337994777581 0 -0.1738531097519716 -0.13110606625433999 0 -0.1788213372488128 -0.1401651923037468 0 -0.16293305548758411 -0.13385823867163371 0 -0.1738531097519716 -0.13110606625433999 0 -0.16293305548758411 -0.13385823867163371 0 -0.1708044045125543 -0.12130337994777581 0 -0.149884061619073 -0.14476876662988991 0 -0.1788213372488128 -0.1401651923037468 0 -0.149884061619073 -0.14476876662988991 0 -0.17831104560594499 -0.1575677697666171 0 -0.1788213372488128 -0.1401651923037468 0 -0.14621948619707489 -0.25321042972574659 0 -0.13644247725428449 -0.23066821507469371 0 -0.15674635510558629 -0.23464493831809 0 -0.14621948619707489 -0.25321042972574659 0 -0.1305179246795469 -0.24616082883940921 0 -0.13644247725428449 -0.23066821507469371 0 -0.1211581471458954 -0.24074464914343971 0 -0.1305179246795469 -0.24616082883940921 0 -0.12527350641570109 -0.23436137325179399 0 -0.1305179246795469 -0.24616082883940921 0 -0.13644247725428449 -0.23066821507469371 0 -0.12527350641570109 -0.23436137325179399 0 -0.1222443592470721 -0.2216770978624566 0 -0.13644247725428449 -0.23066821507469371 0 -0.1385684698853043 -0.20618921385784669 0 -0.1222443592470721 -0.2216770978624566 0 -0.13644247725428449 -0.23066821507469371 0 -0.12527350641570109 -0.23436137325179399 0 -0.13644247725428449 -0.23066821507469371 0 -0.15198979576542571 -0.2189681592680606 0 -0.15674635510558629 -0.23464493831809 0 -0.13644247725428449 -0.23066821507469371 0 -0.15198979576542571 -0.2189681592680606 0 -0.1385684698853043 -0.20618921385784669 0 -0.15198979576542571 -0.2189681592680606 0 -0.1385684698853043 -0.20618921385784669 0 -0.16188722311947959 -0.20507076654327411 0 -0.1144382026687881 -0.20081538747976849 0 -0.1222443592470721 -0.2216770978624566 0 -0.1385684698853043 -0.20618921385784669 0 -0.1144382026687881 -0.20081538747976849 0 -0.1385684698853043 -0.20618921385784669 0 -0.13334122165256651 -0.18819639036300639 0 -0.1385684698853043 -0.20618921385784669 0 -0.13334122165256651 -0.18819639036300639 0 -0.15851207708721579 -0.18923827387428391 0 -0.1385684698853043 -0.20618921385784669 0 -0.15851207708721579 -0.18923827387428391 0 -0.16188722311947959 -0.20507076654327411 0 -0.15851207708721579 -0.18923827387428391 0 -0.18131650180826639 -0.20208506521268471 0 -0.16188722311947959 -0.20507076654327411 0 -0.17923787897033311 -0.17325318798611161 0 -0.15851207708721579 -0.18923827387428391 0 -0.18131650180826639 -0.20208506521268471 0 -0.17923787897033311 -0.17325318798611161 0 -0.18131650180826639 -0.20208506521268471 0 -0.18131650180826639 -0.20208506521268471 0 -0.16630445346247361 -0.21826766254639871 0 -0.1833951246461997 -0.23091694243925781 0 -0.18131650180826639 -0.20208506521268471 0 -0.1833951246461997 -0.23091694243925781 0 -0.19569718737408859 -0.21872818430970589 0 -0.18131650180826639 -0.20208506521268471 0 -0.1833951246461997 -0.23091694243925781 0 -0.18131650180826639 -0.20208506521268471 0 -0.16630445346247361 -0.21826766254639871 0 -0.16188722311947959 -0.20507076654327411 0 -0.15198979576542571 -0.2189681592680606 0 -0.16630445346247361 -0.21826766254639871 0 -0.16188722311947959 -0.20507076654327411 0 -0.15198979576542571 -0.2189681592680606 0 -0.16630445346247361 -0.21826766254639871 0 -0.15674635510558629 -0.23464493831809 0 -0.16630445346247361 -0.21826766254639871 0 -0.1833951246461997 -0.23091694243925781 0 -0.15674635510558629 -0.23464493831809 0 -0.18547374748413301 -0.25974881966583119 0 -0.1833951246461997 -0.23091694243925781 0 -0.1664677794169647 -0.2521717003526891 0 -0.18547374748413301 -0.25974881966583119 0 -0.1833951246461997 -0.23091694243925781 0 -0.1664677794169647 -0.2521717003526891 0 -0.14621948619707489 -0.25321042972574659 0 -0.15674635510558629 -0.23464493831809 0 -0.1664677794169647 -0.2521717003526891 0 -0.1833951246461997 -0.23091694243925781 0 -0.15674635510558629 -0.23464493831809 0 -0.2068415367752319 -0.25653865692556183 0 -0.21707965942470761 -0.23988077807417479 0 -0.20059767064097789 -0.23733801813630681 0 -0.22471111823595161 -0.25302821333331221 0 -0.2068415367752319 -0.25653865692556183 0 -0.21707965942470761 -0.23988077807417479 0 -0.18547374748413301 -0.25974881966583119 0 -0.1833951246461997 -0.23091694243925781 0 -0.20059767064097789 -0.23733801813630681 0 -0.1833951246461997 -0.23091694243925781 0 -0.20059767064097789 -0.23733801813630681 0 -0.19569718737408859 -0.21872818430970589 0 -0.21707965942470761 -0.23988077807417479 0 -0.20059767064097789 -0.23733801813630681 0 -0.2150987681415068 -0.21821472740330949 0 -0.20059767064097789 -0.23733801813630681 0 -0.2150987681415068 -0.21821472740330949 0 -0.19569718737408859 -0.21872818430970589 0 -0.2150987681415068 -0.21821472740330949 0 -0.19485795742621351 -0.2024610688431272 0 -0.2150987681415068 -0.21821472740330949 0 -0.19485795742621351 -0.2024610688431272 0 -0.21637815745326111 -0.19646002063797699 0 -0.18131650180826639 -0.20208506521268471 0 -0.19569718737408859 -0.21872818430970589 0 -0.19485795742621351 -0.2024610688431272 0 -0.2150987681415068 -0.21821472740330949 0 -0.19569718737408859 -0.21872818430970589 0 -0.19485795742621351 -0.2024610688431272 0 -0.18131650180826639 -0.20208506521268471 0 -0.19485795742621351 -0.2024610688431272 0 -0.1989853245618961 -0.18617767850856759 0 -0.19485795742621351 -0.2024610688431272 0 -0.21637815745326111 -0.19646002063797699 0 -0.1989853245618961 -0.18617767850856759 0 -0.21637815745326111 -0.19646002063797699 0 -0.23174648731811329 -0.18767657338958979 0 -0.23502418643221959 -0.20399791085229149 0 -0.23174648731811329 -0.18767657338958979 0 -0.24868486391579919 -0.18796213951684759 0 -0.23502418643221959 -0.20399791085229149 0 -0.24868486391579919 -0.18796213951684759 0 -0.23502418643221959 -0.20399791085229149 0 -0.25752020739770898 -0.20528389174516379 0 -0.23502418643221959 -0.20399791085229149 0 -0.24676798427015451 -0.2187083904431695 0 -0.25752020739770898 -0.20528389174516379 0 -0.2150987681415068 -0.21821472740330949 0 -0.23502418643221959 -0.20399791085229149 0 -0.23533957885680001 -0.23396838596349179 0 -0.2150987681415068 -0.21821472740330949 0 -0.21637815745326111 -0.19646002063797699 0 -0.23502418643221959 -0.20399791085229149 0 -0.2150987681415068 -0.21821472740330949 0 -0.23533957885680001 -0.23396838596349179 0 -0.21707965942470761 -0.23988077807417479 0 -0.2150987681415068 -0.21821472740330949 0 -0.23533957885680001 -0.23396838596349179 0 -0.24676798427015451 -0.2187083904431695 0 -0.23533957885680001 -0.23396838596349179 0 -0.25168425449510728 -0.23370766544817551 0 -0.23502418643221959 -0.20399791085229149 0 -0.24676798427015451 -0.2187083904431695 0 -0.23533957885680001 -0.23396838596349179 0 -0.23533957885680001 -0.23396838596349179 0 -0.25558038957209328 -0.24972204452367411 0 -0.25168425449510728 -0.23370766544817551 0 -0.2379799033401335 -0.25642086291424221 0 -0.2494069647178003 -0.25487211251985692 0 -0.23533957885680001 -0.23396838596349179 0 -0.2494069647178003 -0.25487211251985692 0 -0.23533957885680001 -0.23396838596349179 0 -0.25558038957209328 -0.24972204452367411 0 -0.23533957885680001 -0.23396838596349179 0 -0.25558038957209328 -0.24972204452367411 0 -0.22471111823595161 -0.25302821333331221 0 -0.2379799033401335 -0.25642086291424221 0 -0.23533957885680001 -0.23396838596349179 0 -0.22471111823595161 -0.25302821333331221 0 -0.21707965942470761 -0.23988077807417479 0 -0.23533957885680001 -0.23396838596349179 0 -0.19937294476608861 -0.1526410972522643 0 -0.21882188674909911 -0.16053871258937141 0 -0.22066385315675291 -0.14521881174269141 0 -0.20775861287855221 -0.13556161797760261 0 -0.19937294476608861 -0.1526410972522643 0 -0.20775861287855221 -0.13556161797760261 0 -0.19937294476608861 -0.1526410972522643 0 -0.22066385315675291 -0.14521881174269141 0 -0.20775861287855221 -0.13556161797760261 0 -0.2158564592102043 -0.1190683586766168 0 -0.20775861287855221 -0.13556161797760261 0 -0.23123711114361031 -0.13182646981741089 0 -0.2158564592102043 -0.1190683586766168 0 -0.20775861287855221 -0.13556161797760261 0 -0.2158564592102043 -0.1190683586766168 0 -0.20213285309568199 -0.1234045604071045 0 -0.1788213372488128 -0.1401651923037468 0 -0.20775861287855221 -0.13556161797760261 0 -0.1788213372488128 -0.1401651923037468 0 -0.20775861287855221 -0.13556161797760261 0 -0.18753698526676549 -0.12704902531249351 0 -0.20775861287855221 -0.13556161797760261 0 -0.18753698526676549 -0.12704902531249351 0 -0.20213285309568199 -0.1234045604071045 0 -0.1788213372488128 -0.1401651923037468 0 -0.20775861287855221 -0.13556161797760261 0 -0.19937294476608861 -0.1526410972522643 0 -0.17831104560594499 -0.1575677697666171 0 -0.19937294476608861 -0.1526410972522643 0 -0.20136090996649189 -0.16719051841460181 0 -0.17923787897033311 -0.17325318798611161 0 -0.20136090996649189 -0.16719051841460181 0 -0.1989853245618961 -0.18617767850856759 0 -0.20136090996649189 -0.16719051841460181 0 -0.1989853245618961 -0.18617767850856759 0 -0.21917232526941319 -0.1774874846705029 0 -0.21637815745326111 -0.19646002063797699 0 -0.1989853245618961 -0.18617767850856759 0 -0.21917232526941319 -0.1774874846705029 0 -0.20136090996649189 -0.16719051841460181 0 -0.21882188674909911 -0.16053871258937141 0 -0.21917232526941319 -0.1774874846705029 0 -0.19937294476608861 -0.1526410972522643 0 -0.20136090996649189 -0.16719051841460181 0 -0.21882188674909911 -0.16053871258937141 0 -0.21882188674909911 -0.16053871258937141 0 -0.21917232526941319 -0.1774874846705029 0 -0.23947290351987341 -0.17247531127033011 0 -0.21882188674909911 -0.16053871258937141 0 -0.23947290351987341 -0.17247531127033011 0 -0.2381875314995541 -0.15521962820468291 0 -0.21637815745326111 -0.19646002063797699 0 -0.23174648731811329 -0.18767657338958979 0 -0.21917232526941319 -0.1774874846705029 0 -0.23174648731811329 -0.18767657338958979 0 -0.21917232526941319 -0.1774874846705029 0 -0.23947290351987341 -0.17247531127033011 0 -0.23174648731811329 -0.18767657338958979 0 -0.24868486391579919 -0.18796213951684759 0 -0.23947290351987341 -0.17247531127033011 0 -0.24868486391579919 -0.18796213951684759 0 -0.23947290351987341 -0.17247531127033011 0 -0.25982137679546302 -0.16640212109525401 0 -0.23947290351987341 -0.17247531127033011 0 -0.2381875314995541 -0.15521962820468291 0 -0.25982137679546302 -0.16640212109525401 0 -0.2381875314995541 -0.15521962820468291 0 -0.25982137679546302 -0.16640212109525401 0 -0.25057129346695012 -0.14478884791314511 0 -0.2381875314995541 -0.15521962820468291 0 -0.23123711114361031 -0.13182646981741089 0 -0.25057129346695012 -0.14478884791314511 0 -0.21882188674909911 -0.16053871258937141 0 -0.2381875314995541 -0.15521962820468291 0 -0.22066385315675291 -0.14521881174269141 0 -0.2381875314995541 -0.15521962820468291 0 -0.22066385315675291 -0.14521881174269141 0 -0.23123711114361031 -0.13182646981741089 0 -0.20775861287855221 -0.13556161797760261 0 -0.22066385315675291 -0.14521881174269141 0 -0.23123711114361031 -0.13182646981741089 0 -0.20775861287855221 -0.13556161797760261 0 -0.23123711114361031 -0.13182646981741089 0 -0.23123711114361031 -0.13182646981741089 0 -0.25471560940866822 -0.12809132165721801 0 -0.23123711114361031 -0.13182646981741089 0 -0.25057129346695012 -0.14478884791314511 0 -0.25471560940866822 -0.12809132165721801 0 -0.23123711114361031 -0.13182646981741089 0 -0.2430557325499377 -0.11232564710196211 0 -0.25471560940866822 -0.12809132165721801 0 -0.2430557325499377 -0.11232564710196211 0 -0.22395430554185711 -0.1025750993756315 0 -0.25037983538806913 -0.093263610028651356 0 -0.22395430554185711 -0.1025750993756315 0 -0.2344339959758282 -0.092578491295239082 0 -0.25037983538806913 -0.093263610028651356 0 -0.22395430554185711 -0.1025750993756315 0 -0.25037983538806913 -0.093263610028651356 0 -0.22395430554185711 -0.1025750993756315 0 -0.2240485248079721 -0.085997823774925319 0 -0.21674251001289699 -0.093247003314956736 0 -0.23123711114361031 -0.13182646981741089 0 -0.2430557325499377 -0.11232564710196211 0 -0.22863302677184871 -0.11610301276921869 0 -0.2430557325499377 -0.11232564710196211 0 -0.22395430554185711 -0.1025750993756315 0 -0.22863302677184871 -0.11610301276921869 0 -0.22395430554185711 -0.1025750993756315 0 -0.22863302677184871 -0.11610301276921869 0 -0.2158564592102043 -0.1190683586766168 0 -0.23123711114361031 -0.13182646981741089 0 -0.22863302677184871 -0.11610301276921869 0 -0.2158564592102043 -0.1190683586766168 0 -0.22395430554185711 -0.1025750993756315 0 -0.2158564592102043 -0.1190683586766168 0 -0.2416644132709555 -0.080029501278382931 0 -0.22339956606956909 -0.057866165169063212 0 -0.25120690514992161 -0.058966791698368992 0 -0.2386990601460062 -0.085778261587771243 0 -0.2344339959758282 -0.092578491295239082 0 -0.25037983538806913 -0.093263610028651356 0 -0.2359349714024768 -0.078173521407265356 0 -0.2386990601460062 -0.085778261587771243 0 -0.2344339959758282 -0.092578491295239082 0 -0.2359349714024768 -0.078173521407265356 0 -0.2386990601460062 -0.085778261587771243 0 -0.2416644132709555 -0.080029501278382931 0 -0.2386990601460062 -0.085778261587771243 0 -0.2416644132709555 -0.080029501278382931 0 -0.25037983538806913 -0.093263610028651356 0 -0.22395430554185711 -0.1025750993756315 0 -0.2359349714024768 -0.078173521407265356 0 -0.22395430554185711 -0.1025750993756315 0 -0.2359349714024768 -0.078173521407265356 0 -0.2344339959758282 -0.092578491295239082 0 -0.22395430554185711 -0.1025750993756315 0 -0.2359349714024768 -0.078173521407265356 0 -0.2240485248079721 -0.085997823774925319 0 -0.2240485248079721 -0.085997823774925319 0 -0.2211663526670169 -0.07326732244675381 0 -0.21281577750992089 -0.086399374157708611 0 -0.2359349714024768 -0.078173521407265356 0 -0.2240485248079721 -0.085997823774925319 0 -0.2211663526670169 -0.07326732244675381 0 -0.2359349714024768 -0.078173521407265356 0 -0.2211663526670169 -0.07326732244675381 0 -0.22339956606956909 -0.057866165169063212 0 -0.2416644132709555 -0.080029501278382931 0 -0.22339956606956909 -0.057866165169063212 0 -0.2359349714024768 -0.078173521407265356 0 -0.2416644132709555 -0.080029501278382931 0 -0.22339956606956909 -0.057866165169063212 0 -0.2211663526670169 -0.07326732244675381 0 -0.20409913426247339 -0.066936599850255588 0 -0.21054381131914399 -0.075733587020244478 0 -0.2211663526670169 -0.07326732244675381 0 -0.20409913426247339 -0.066936599850255588 0 -0.22339956606956909 -0.057866165169063212 0 -0.21281577750992089 -0.086399374157708611 0 -0.20273934960212189 -0.084120636902216953 0 -0.21054381131914399 -0.075733587020244478 0 -0.21281577750992089 -0.086399374157708611 0 -0.20273934960212189 -0.084120636902216953 0 -0.2211663526670169 -0.07326732244675381 0 -0.21054381131914399 -0.075733587020244478 0 -0.21281577750992089 -0.086399374157708611 0 -0.2240485248079721 -0.085997823774925319 0 -0.21674251001289699 -0.093247003314956736 0 -0.21281577750992089 -0.086399374157708611 0 -0.21674251001289699 -0.093247003314956736 0 -0.21281577750992089 -0.086399374157708611 0 -0.2061514321918381 -0.0980157159515615 0 -0.21281577750992089 -0.086399374157708611 0 -0.20273934960212189 -0.084120636902216953 0 -0.2061514321918381 -0.0980157159515615 0 -0.1878561382318614 -0.080754867947077563 0 -0.20273934960212189 -0.084120636902216953 0 -0.18311762232973561 -0.10015994885329541 0 -0.20273934960212189 -0.084120636902216953 0 -0.18311762232973561 -0.10015994885329541 0 -0.21054381131914399 -0.075733587020244478 0 -0.1878561382318614 -0.080754867947077563 0 -0.20273934960212189 -0.084120636902216953 0 -0.1878561382318614 -0.080754867947077563 0 -0.20273934960212189 -0.084120636902216953 0 -0.20409913426247339 -0.066936599850255588 0 -0.1878561382318614 -0.080754867947077563 0 -0.1859794112466901 -0.065583160866922105 0 -0.20409913426247339 -0.066936599850255588 0 -0.21054381131914399 -0.075733587020244478 0 -0.1878561382318614 -0.080754867947077563 0 -0.22395430554185711 -0.1025750993756315 0 -0.2158564592102043 -0.1190683586766168 0 -0.19737935502720569 -0.1119392396617038 0 -0.2158564592102043 -0.1190683586766168 0 -0.19737935502720569 -0.1119392396617038 0 -0.20213285309568199 -0.1234045604071045 0 -0.22395430554185711 -0.1025750993756315 0 -0.21674251001289699 -0.093247003314956736 0 -0.2061514321918381 -0.0980157159515615 0 -0.22395430554185711 -0.1025750993756315 0 -0.2061514321918381 -0.0980157159515615 0 -0.19737935502720569 -0.1119392396617038 0 -0.22395430554185711 -0.1025750993756315 0 -0.19737935502720569 -0.1119392396617038 0 -0.2061514321918381 -0.0980157159515615 0 -0.19737935502720569 -0.1119392396617038 0 -0.18311762232973561 -0.10015994885329541 0 -0.20273934960212189 -0.084120636902216953 0 -0.2061514321918381 -0.0980157159515615 0 -0.18311762232973561 -0.10015994885329541 0 -0.18753698526676549 -0.12704902531249351 0 -0.19737935502720569 -0.1119392396617038 0 -0.20213285309568199 -0.1234045604071045 0 -0.19737935502720569 -0.1119392396617038 0 -0.1708044045125543 -0.12130337994777581 0 -0.18311762232973561 -0.10015994885329541 0 -0.1708044045125543 -0.12130337994777581 0 -0.1636735381638188 -0.1154137345435709 0 -0.18311762232973561 -0.10015994885329541 0 -0.19737935502720569 -0.1119392396617038 0 -0.1708044045125543 -0.12130337994777581 0 -0.18753698526676549 -0.12704902531249351 0 -0.19737935502720569 -0.1119392396617038 0 -0.1708044045125543 -0.12130337994777581 0 -0.14422945399790249 -0.13066752023384701 0 -0.1708044045125543 -0.12130337994777581 0 -0.1636735381638188 -0.1154137345435709 0 -0.1636735381638188 -0.1154137345435709 0 -0.1662479827669418 -0.1008737503907626 0 -0.18311762232973561 -0.10015994885329541 0 -0.1662479827669418 -0.1008737503907626 0 -0.15516578076719989 -0.1069195434915311 0 -0.155994806101932 -0.094396913798192483 0 -0.1636735381638188 -0.1154137345435709 0 -0.1662479827669418 -0.1008737503907626 0 -0.15516578076719989 -0.1069195434915311 0 -0.1662479827669418 -0.1008737503907626 0 -0.17122260967685449 -0.090259168545154908 0 -0.155994806101932 -0.094396913798192483 0 -0.1662479827669418 -0.1008737503907626 0 -0.18311762232973561 -0.10015994885329541 0 -0.17122260967685449 -0.090259168545154908 0 -0.1636735381638188 -0.1154137345435709 0 -0.18311762232973561 -0.10015994885329541 0 -0.1878561382318614 -0.080754867947077563 0 -0.1628964989538019 -0.075110361736446501 0 -0.17122260967685449 -0.090259168545154908 0 -0.1878561382318614 -0.080754867947077563 0 -0.18311762232973561 -0.10015994885329541 0 -0.17122260967685449 -0.090259168545154908 0 -0.1878561382318614 -0.080754867947077563 0 -0.1628964989538019 -0.075110361736446501 0 -0.1878561382318614 -0.080754867947077563 0 -0.1859794112466901 -0.065583160866922105 0 -0.1628964989538019 -0.075110361736446501 0 -0.1859794112466901 -0.065583160866922105 0 -0.1628964989538019 -0.075110361736446501 0 -0.17735847640795641 -0.052677015687394337 0 -0.1628964989538019 -0.075110361736446501 0 -0.17122260967685449 -0.090259168545154908 0 -0.155994806101932 -0.094396913798192483 0 -0.145464015249884 -0.084574205087839957 0 -0.13754947168413281 -0.094380403265910517 0 -0.155994806101932 -0.094396913798192483 0 -0.1628964989538019 -0.075110361736446501 0 -0.145464015249884 -0.084574205087839957 0 -0.155994806101932 -0.094396913798192483 0 -0.1628964989538019 -0.075110361736446501 0 -0.1379368596757424 -0.069465855525815468 0 -0.1628964989538019 -0.075110361736446501 0 -0.1379368596757424 -0.069465855525815468 0 -0.15794706268900549 -0.055471177952915618 0 -0.1628964989538019 -0.075110361736446501 0 -0.145464015249884 -0.084574205087839957 0 -0.1379368596757424 -0.069465855525815468 0 -0.112977220397683 -0.063821349315184434 0 -0.1379368596757424 -0.069465855525815468 0 -0.1286097734195642 -0.085498775177534084 0 -0.112977220397683 -0.063821349315184434 0 -0.1379368596757424 -0.069465855525815468 0 -0.145464015249884 -0.084574205087839957 0 -0.1286097734195642 -0.085498775177534084 0 -0.13754947168413281 -0.094380403265910517 0 -0.145464015249884 -0.084574205087839957 0 -0.1379368596757424 -0.069465855525815468 0 -0.1286097734195642 -0.085498775177534084 0 -0.12436052293626131 -0.10401872468774299 0 -0.1286097734195642 -0.085498775177534084 0 -0.13754947168413281 -0.094380403265910517 0 -0.12436052293626131 -0.10401872468774299 0 -0.13018881971292251 -0.1175972240143824 0 -0.14098021145631431 -0.10650605983276661 0 -0.12436052293626131 -0.10401872468774299 0 -0.13754947168413281 -0.094380403265910517 0 -0.14098021145631431 -0.10650605983276661 0 -0.1227000772094413 -0.12655164204693281 0 -0.13286269498203271 -0.1266229671247838 0 -0.13018881971292251 -0.1175972240143824 0 -0.13286269498203271 -0.1266229671247838 0 -0.13018881971292251 -0.1175972240143824 0 -0.14012968958766539 -0.1207407504025738 0 -0.13018881971292251 -0.1175972240143824 0 -0.14012968958766539 -0.1207407504025738 0 -0.14098021145631431 -0.10650605983276661 0 -0.14891536557921189 -0.1161898907391142 0 -0.15516578076719989 -0.1069195434915311 0 -0.14098021145631431 -0.10650605983276661 0 -0.14422945399790249 -0.13066752023384701 0 -0.1636735381638188 -0.1154137345435709 0 -0.14422945399790249 -0.13066752023384701 0 -0.1636735381638188 -0.1154137345435709 0 -0.14891536557921189 -0.1161898907391142 0 -0.14012968958766539 -0.1207407504025738 0 -0.14891536557921189 -0.1161898907391142 0 -0.14098021145631431 -0.10650605983276661 0 -0.14422945399790249 -0.13066752023384701 0 -0.14012968958766539 -0.1207407504025738 0 -0.14891536557921189 -0.1161898907391142 0 -0.1636735381638188 -0.1154137345435709 0 -0.14891536557921189 -0.1161898907391142 0 -0.15516578076719989 -0.1069195434915311 0 -0.13754947168413281 -0.094380403265910517 0 -0.155994806101932 -0.094396913798192483 0 -0.14098021145631431 -0.10650605983276661 0 -0.15516578076719989 -0.1069195434915311 0 -0.155994806101932 -0.094396913798192483 0 -0.14098021145631431 -0.10650605983276661 0 -0.14251747733261211 -0.021961654997755369 0 -0.16163601419095999 -0.036918828504668003 0 -0.16378912651909691 -0.015991704765109121 0 -0.14251747733261211 -0.021961654997755369 0 -0.16378912651909691 -0.015991704765109121 0 -0.14494553756910519 0.00094052200413920727 0 -0.1194977520419831 -0.0085087356347324471 0 -0.14251747733261211 -0.021961654997755369 0 -0.14494553756910519 0.00094052200413920727 0 -0.1233324771521329 -0.03140357873960653 0 -0.1194977520419831 -0.0085087356347324471 0 -0.14251747733261211 -0.021961654997755369 0 -0.1233324771521329 -0.03140357873960653 0 -0.14251747733261211 -0.021961654997755369 0 -0.141815918052803 -0.043865781171979652 0 -0.1233769461207906 -0.049144869087001108 0 -0.1233324771521329 -0.03140357873960653 0 -0.141815918052803 -0.043865781171979652 0 -0.1233769461207906 -0.049144869087001108 0 -0.1379368596757424 -0.069465855525815468 0 -0.141815918052803 -0.043865781171979652 0 -0.1379368596757424 -0.069465855525815468 0 -0.141815918052803 -0.043865781171979652 0 -0.15794706268900549 -0.055471177952915618 0 -0.14251747733261211 -0.021961654997755369 0 -0.141815918052803 -0.043865781171979652 0 -0.16163601419095999 -0.036918828504668003 0 -0.141815918052803 -0.043865781171979652 0 -0.16163601419095999 -0.036918828504668003 0 -0.15794706268900549 -0.055471177952915618 0 -0.16163601419095999 -0.036918828504668003 0 -0.15794706268900549 -0.055471177952915618 0 -0.17735847640795641 -0.052677015687394337 0 -0.1628964989538019 -0.075110361736446501 0 -0.15794706268900549 -0.055471177952915618 0 -0.17735847640795641 -0.052677015687394337 0 -0.1859794112466901 -0.065583160866922105 0 -0.17735847640795641 -0.052677015687394337 0 -0.19651809733867051 -0.051883102547917927 0 -0.16163601419095999 -0.036918828504668003 0 -0.17735847640795641 -0.052677015687394337 0 -0.18313727717715131 -0.032532844654128902 0 -0.17735847640795641 -0.052677015687394337 0 -0.18313727717715131 -0.032532844654128902 0 -0.19651809733867051 -0.051883102547917927 0 -0.18313727717715131 -0.032532844654128902 0 -0.1833671386655116 -0.01132701720910397 0 -0.19577029171335991 -0.02333427936419415 0 -0.18313727717715131 -0.032532844654128902 0 -0.16378912651909691 -0.015991704765109121 0 -0.1833671386655116 -0.01132701720910397 0 -0.16163601419095999 -0.036918828504668003 0 -0.18313727717715131 -0.032532844654128902 0 -0.16378912651909691 -0.015991704765109121 0 -0.16378912651909691 -0.015991704765109121 0 -0.14494553756910519 0.00094052200413920727 0 -0.1671313141792414 0.0058495947708622816 0 -0.16378912651909691 -0.015991704765109121 0 -0.1833671386655116 -0.01132701720910397 0 -0.1671313141792414 0.0058495947708622816 0 -0.1833671386655116 -0.01132701720910397 0 -0.20301096411690919 -0.0096867645411115172 0 -0.1916548222591517 0.007546146536057027 0 -0.1833671386655116 -0.01132701720910397 0 -0.20301096411690919 -0.0096867645411115172 0 -0.19577029171335991 -0.02333427936419415 0 -0.18313727717715131 -0.032532844654128902 0 -0.19577029171335991 -0.02333427936419415 0 -0.20513471886818271 -0.035702829059743479 0 -0.20301096411690919 -0.0096867645411115172 0 -0.19577029171335991 -0.02333427936419415 0 -0.2109966971384214 -0.022942987278985031 0 -0.19577029171335991 -0.02333427936419415 0 -0.2109966971384214 -0.022942987278985031 0 -0.20513471886818271 -0.035702829059743479 0 -0.2109966971384214 -0.022942987278985031 0 -0.21703471511174449 -0.012351917514772029 0 -0.2252305215439698 -0.019068280381855061 0 -0.20301096411690919 -0.0096867645411115172 0 -0.21703471511174449 -0.012351917514772029 0 -0.21718081599890129 0.0060219845867891947 0 -0.20301096411690919 -0.0096867645411115172 0 -0.2109966971384214 -0.022942987278985031 0 -0.21703471511174449 -0.012351917514772029 0 -0.20409913426247339 -0.066936599850255588 0 -0.1859794112466901 -0.065583160866922105 0 -0.19651809733867051 -0.051883102547917927 0 -0.18313727717715131 -0.032532844654128902 0 -0.19651809733867051 -0.051883102547917927 0 -0.20513471886818271 -0.035702829059743479 0 -0.2109966971384214 -0.022942987278985031 0 -0.20513471886818271 -0.035702829059743479 0 -0.2225734088548888 -0.036314190728965183 0 -0.20513471886818271 -0.035702829059743479 0 -0.22339956606956909 -0.057866165169063212 0 -0.2225734088548888 -0.036314190728965183 0 -0.20513471886818271 -0.035702829059743479 0 -0.22339956606956909 -0.057866165169063212 0 -0.19651809733867051 -0.051883102547917927 0 -0.20513471886818271 -0.035702829059743479 0 -0.22339956606956909 -0.057866165169063212 0 -0.20409913426247339 -0.066936599850255588 0 -0.19651809733867051 -0.051883102547917927 0 -0.22339956606956909 -0.057866165169063212 0 -0.22339956606956909 -0.057866165169063212 0 -0.2225734088548888 -0.036314190728965183 0 -0.23998074095522101 -0.037525165828533429 0 -0.23998074095522101 -0.037525165828533429 0 -0.25120690514992161 -0.058966791698368992 0 -0.22339956606956909 -0.057866165169063212 0 -0.23998074095522101 -0.037525165828533429 0 -0.25120690514992161 -0.058966791698368992 0 -0.2287545767605208 -0.01608353995869766 0 -0.21718081599890129 0.0060219845867891947 0 -0.21703471511174449 -0.012351917514772029 0 -0.2287545767605208 -0.01608353995869766 0 -0.21718081599890129 0.0060219845867891947 0 -0.2287545767605208 -0.01608353995869766 0 -0.21718081599890129 0.0060219845867891947 0 -0.23317872129111211 0.0018064826288033029 0 -0.21703471511174449 -0.012351917514772029 0 -0.2252305215439698 -0.019068280381855061 0 -0.2287545767605208 -0.01608353995869766 0 -0.2225734088548888 -0.036314190728965183 0 -0.23998074095522101 -0.037525165828533429 0 -0.2252305215439698 -0.019068280381855061 0 -0.23998074095522101 -0.037525165828533429 0 -0.2287545767605208 -0.01608353995869766 0 -0.23998074095522101 -0.037525165828533429 0 -0.2252305215439698 -0.019068280381855061 0 -0.2287545767605208 -0.01608353995869766 0 -0.2109966971384214 -0.022942987278985031 0 -0.2225734088548888 -0.036314190728965183 0 -0.2252305215439698 -0.019068280381855061 0 -0.2252305215439698 -0.019068280381855061 0 -0.2287545767605208 -0.01608353995869766 0 -0.23998074095522101 -0.037525165828533429 0 -0.2287545767605208 -0.01608353995869766 0 -0.25022961817961298 -0.016643235011223199 0 -0.2287545767605208 -0.01608353995869766 0 -0.25022961817961298 -0.016643235011223199 0 -0.25104969481709388 0.0027995750929572191 0 -0.2287545767605208 -0.01608353995869766 0 -0.25104969481709388 0.0027995750929572191 0 -0.2287545767605208 -0.01608353995869766 0 -0.25104969481709388 0.0027995750929572191 0 -0.23317872129111211 0.0018064826288033029 0 -0.26269519603942998 -0.029393424931917361 0 -0.28257518246405222 -0.015723830221792062 0 -0.2809690030364218 -0.047893439153089773 0 -0.25022961817961298 -0.016643235011223199 0 -0.26866788232579908 -0.00301361942992469 0 -0.25104969481709388 0.0027995750929572191 0 -0.23998074095522101 -0.037525165828533429 0 -0.25022961817961298 -0.016643235011223199 0 -0.26269519603942998 -0.029393424931917361 0 -0.25022961817961298 -0.016643235011223199 0 -0.26269519603942998 -0.029393424931917361 0 -0.26866788232579908 -0.00301361942992469 0 -0.26269519603942998 -0.029393424931917361 0 -0.26866788232579908 -0.00301361942992469 0 -0.28257518246405222 -0.015723830221792062 0 -0.26866788232579908 -0.00301361942992469 0 -0.28257518246405222 -0.015723830221792062 0 -0.28910755669714538 0.01242098748723785 0 -0.28257518246405222 -0.015723830221792062 0 -0.31157846232882469 -0.0020487417102012791 0 -0.28910755669714538 0.01242098748723785 0 -0.28257518246405222 -0.015723830221792062 0 -0.28910755669714538 0.01242098748723785 0 -0.28257518246405222 -0.015723830221792062 0 -0.31117914465059487 -0.021146085649034061 0 -0.30268335140773039 -0.035987989378029508 0 -0.28257518246405222 -0.015723830221792062 0 -0.31117914465059487 -0.021146085649034061 0 -0.31157846232882469 -0.0020487417102012791 0 -0.28257518246405222 -0.015723830221792062 0 -0.30268335140773039 -0.035987989378029508 0 -0.2809690030364218 -0.047893439153089773 0 -0.31056568888580283 -0.055202762711431527 0 -0.30268335140773039 -0.035987989378029508 0 -0.2809690030364218 -0.047893439153089773 0 -0.2809690030364218 -0.047893439153089773 0 -0.27597320475221021 -0.068280743105931394 0 -0.29628928514845898 -0.071159151886589819 0 -0.31056568888580283 -0.055202762711431527 0 -0.2809690030364218 -0.047893439153089773 0 -0.29628928514845898 -0.071159151886589819 0 -0.2809690030364218 -0.047893439153089773 0 -0.25120690514992161 -0.058966791698368992 0 -0.27597320475221021 -0.068280743105931394 0 -0.23998074095522101 -0.037525165828533429 0 -0.26269519603942998 -0.029393424931917361 0 -0.25120690514992161 -0.058966791698368992 0 -0.26269519603942998 -0.029393424931917361 0 -0.2809690030364218 -0.047893439153089773 0 -0.25120690514992161 -0.058966791698368992 0 -0.25120690514992161 -0.058966791698368992 0 -0.26243306934462218 -0.080408417568204688 0 -0.25120690514992161 -0.058966791698368992 0 -0.26243306934462218 -0.080408417568204688 0 -0.27597320475221021 -0.068280743105931394 0 -0.2416644132709555 -0.080029501278382931 0 -0.25120690514992161 -0.058966791698368992 0 -0.26243306934462218 -0.080408417568204688 0 -0.2416644132709555 -0.080029501278382931 0 -0.26243306934462218 -0.080408417568204688 0 -0.25992926047234183 -0.1021928373877025 0 -0.2416644132709555 -0.080029501278382931 0 -0.25992926047234183 -0.1021928373877025 0 -0.2416644132709555 -0.080029501278382931 0 -0.25037983538806913 -0.093263610028651356 0 -0.25992926047234183 -0.1021928373877025 0 -0.26243306934462218 -0.080408417568204688 0 -0.27597320475221021 -0.068280743105931394 0 -0.28388514349548971 -0.087883553932684794 0 -0.26243306934462218 -0.080408417568204688 0 -0.27365923353932292 -0.1018500434380404 0 -0.26243306934462218 -0.080408417568204688 0 -0.27365923353932292 -0.1018500434380404 0 -0.28388514349548971 -0.087883553932684794 0 -0.2430557325499377 -0.11232564710196211 0 -0.25897367752616851 -0.116741494910977 0 -0.25992926047234183 -0.1021928373877025 0 -0.25897367752616851 -0.116741494910977 0 -0.2781941076737261 -0.12435617349702389 0 -0.25471560940866822 -0.12809132165721801 0 -0.2430557325499377 -0.11232564710196211 0 -0.25897367752616851 -0.116741494910977 0 -0.25471560940866822 -0.12809132165721801 0 -0.2430557325499377 -0.11232564710196211 0 -0.25037983538806913 -0.093263610028651356 0 -0.25992926047234183 -0.1021928373877025 0 -0.26243306934462218 -0.080408417568204688 0 -0.25992926047234183 -0.1021928373877025 0 -0.27365923353932292 -0.1018500434380404 0 -0.25992926047234183 -0.1021928373877025 0 -0.2781941076737261 -0.12435617349702389 0 -0.27365923353932292 -0.1018500434380404 0 -0.2781941076737261 -0.12435617349702389 0 -0.28488539773402061 -0.12329166930787749 0 -0.25992926047234183 -0.1021928373877025 0 -0.27365923353932292 -0.1018500434380404 0 -0.2781941076737261 -0.12435617349702389 0 -0.25897367752616851 -0.116741494910977 0 -0.25992926047234183 -0.1021928373877025 0 -0.2781941076737261 -0.12435617349702389 0 -0.27365923353932292 -0.1018500434380404 0 -0.28488539773402061 -0.12329166930787749 0 -0.27365923353932292 -0.1018500434380404 0 -0.28488539773402061 -0.12329166930787749 0 -0.28690305795626581 -0.1043777695058036 0 -0.28488539773402061 -0.12329166930787749 0 -0.29367788630506902 -0.10953228142720001 0 -0.28690305795626581 -0.1043777695058036 0 -0.2857246799396207 -0.12489467232293271 0 -0.28488539773402061 -0.12329166930787749 0 -0.2781941076737261 -0.12435617349702389 0 -0.2857246799396207 -0.12489467232293271 0 -0.28488539773402061 -0.12329166930787749 0 -0.2781941076737261 -0.12435617349702389 0 -0.28488539773402061 -0.12329166930787749 0 -0.28690305795626581 -0.1043777695058036 0 -0.29200963593825219 -0.097543943554858167 0 -0.28388514349548971 -0.087883553932684794 0 -0.27365923353932292 -0.1018500434380404 0 -0.28690305795626581 -0.1043777695058036 0 -0.28388514349548971 -0.087883553932684794 0 -0.29473370627285828 -0.1062215596556927 0 -0.28690305795626581 -0.1043777695058036 0 -0.29200963593825219 -0.097543943554858167 0 -0.29367788630506902 -0.10953228142720001 0 -0.29473370627285828 -0.1062215596556927 0 -0.28690305795626581 -0.1043777695058036 0 -0.29473370627285828 -0.1062215596556927 0 -0.29200963593825219 -0.097543943554858167 0 -0.3025166360283954 -0.091692891125251544 0 -0.29473370627285828 -0.1062215596556927 0 -0.31804393359918398 -0.098700530482993293 0 -0.29473370627285828 -0.1062215596556927 0 -0.31268443741710339 -0.1188691747021728 0 -0.31804393359918398 -0.098700530482993293 0 -0.29473370627285828 -0.1062215596556927 0 -0.3025166360283954 -0.091692891125251544 0 -0.31804393359918398 -0.098700530482993293 0 -0.29367788630506902 -0.10953228142720001 0 -0.29473370627285828 -0.1062215596556927 0 -0.31268443741710339 -0.1188691747021728 0 -0.28488539773402061 -0.12329166930787749 0 -0.31268443741710339 -0.1188691747021728 0 -0.30072336737345062 -0.12867749736411371 0 -0.28488539773402061 -0.12329166930787749 0 -0.29367788630506902 -0.10953228142720001 0 -0.31268443741710339 -0.1188691747021728 0 -0.28488539773402061 -0.12329166930787749 0 -0.31268443741710339 -0.1188691747021728 0 -0.29367788630506902 -0.10953228142720001 0 -0.31268443741710339 -0.1188691747021728 0 -0.27597320475221021 -0.068280743105931394 0 -0.29628928514845898 -0.071159151886589819 0 -0.28388514349548971 -0.087883553932684794 0 -0.29628928514845898 -0.071159151886589819 0 -0.28388514349548971 -0.087883553932684794 0 -0.3025166360283954 -0.091692891125251544 0 -0.29200963593825219 -0.097543943554858167 0 -0.28388514349548971 -0.087883553932684794 0 -0.3025166360283954 -0.091692891125251544 0 -0.29628928514845898 -0.071159151886589819 0 -0.3025166360283954 -0.091692891125251544 0 -0.32102512956941759 -0.077043719251289125 0 -0.31056568888580283 -0.055202762711431527 0 -0.29628928514845898 -0.071159151886589819 0 -0.32102512956941759 -0.077043719251289125 0 -0.3025166360283954 -0.091692891125251544 0 -0.32102512956941759 -0.077043719251289125 0 -0.31804393359918398 -0.098700530482993293 0 -0.32102512956941759 -0.077043719251289125 0 -0.34135416092550991 -0.091179501310293856 0 -0.31804393359918398 -0.098700530482993293 0 -0.32102512956941759 -0.077043719251289125 0 -0.34135416092550991 -0.091179501310293856 0 -0.34232701589482228 -0.072640926641177397 0 -0.32102512956941759 -0.077043719251289125 0 -0.34232701589482228 -0.072640926641177397 0 -0.33540380817943671 -0.05524437394508995 0 -0.31268443741710339 -0.1188691747021728 0 -0.33560458578211178 -0.1152228533305704 0 -0.31268443741710339 -0.1188691747021728 0 -0.33560458578211178 -0.1152228533305704 0 -0.33167268349219592 -0.1281970756999517 0 -0.31268443741710339 -0.1188691747021728 0 -0.32872391765489312 -0.1055742326245767 0 -0.33560458578211178 -0.1152228533305704 0 -0.31268443741710339 -0.1188691747021728 0 -0.33167268349219592 -0.1281970756999517 0 -0.31268443741710339 -0.1188691747021728 0 -0.31804393359918398 -0.098700530482993293 0 -0.32872391765489312 -0.1055742326245767 0 -0.34135416092550991 -0.091179501310293856 0 -0.31804393359918398 -0.098700530482993293 0 -0.32872391765489312 -0.1055742326245767 0 -0.34135416092550991 -0.091179501310293856 0 -0.31804393359918398 -0.098700530482993293 0 -0.34135416092550991 -0.091179501310293856 0 -0.34038145218669802 -0.1046779146734334 0 -0.32872391765489312 -0.1055742326245767 0 -0.34038145218669802 -0.1046779146734334 0 -0.32872391765489312 -0.1055742326245767 0 -0.33560458578211178 -0.1152228533305704 0 -0.34038145218669802 -0.1046779146734334 0 -0.33560458578211178 -0.1152228533305704 0 -0.34366461481158639 -0.1129173056612071 0 -0.33560458578211178 -0.1152228533305704 0 -0.33167268349219592 -0.1281970756999517 0 -0.34495935454284787 -0.1251407647014629 0 -0.33560458578211178 -0.1152228533305704 0 -0.34366461481158639 -0.1129173056612071 0 -0.34495935454284787 -0.1251407647014629 0 -0.35379634143147931 -0.1076694899740229 0 -0.34495935454284787 -0.1251407647014629 0 -0.3514128458085482 -0.13788979598524601 0 -0.35932950631025701 -0.12422349843181101 0 -0.35379634143147931 -0.1076694899740229 0 -0.3514128458085482 -0.13788979598524601 0 -0.34366461481158639 -0.1129173056612071 0 -0.35379634143147931 -0.1076694899740229 0 -0.34495935454284787 -0.1251407647014629 0 -0.35379634143147931 -0.1076694899740229 0 -0.3514128458085482 -0.13788979598524601 0 -0.34135416092550991 -0.091179501310293856 0 -0.35379634143147931 -0.1076694899740229 0 -0.36466438825183572 -0.08365847213759442 0 -0.34135416092550991 -0.091179501310293856 0 -0.34038145218669802 -0.1046779146734334 0 -0.35379634143147931 -0.1076694899740229 0 -0.34038145218669802 -0.1046779146734334 0 -0.34366461481158639 -0.1129173056612071 0 -0.35379634143147931 -0.1076694899740229 0 -0.35379634143147931 -0.1076694899740229 0 -0.3724683787152856 -0.1081555192371309 0 -0.36466438825183572 -0.08365847213759442 0 -0.3724683787152856 -0.1081555192371309 0 -0.36466438825183572 -0.08365847213759442 0 -0.38086521377009458 -0.0928811691749237 0 -0.35932950631025701 -0.12422349843181101 0 -0.35379634143147931 -0.1076694899740229 0 -0.36607966076597132 -0.1164579966992426 0 -0.3724683787152856 -0.1081555192371309 0 -0.36607966076597132 -0.1164579966992426 0 -0.37548059262229422 -0.12539350184767159 0 -0.35379634143147931 -0.1076694899740229 0 -0.3724683787152856 -0.1081555192371309 0 -0.36607966076597132 -0.1164579966992426 0 -0.36607966076597132 -0.1164579966992426 0 -0.36643106197787378 -0.1269433362002248 0 -0.37548059262229422 -0.12539350184767159 0 -0.35932950631025701 -0.12422349843181101 0 -0.36607966076597132 -0.1164579966992426 0 -0.36643106197787378 -0.1269433362002248 0 -0.34232701589482228 -0.072640926641177397 0 -0.36466438825183572 -0.08365847213759442 0 -0.35739464521320269 -0.06060016736498542 0 -0.34232701589482228 -0.072640926641177397 0 -0.35739464521320269 -0.06060016736498542 0 -0.33540380817943671 -0.05524437394508995 0 -0.34135416092550991 -0.091179501310293856 0 -0.34232701589482228 -0.072640926641177397 0 -0.36466438825183572 -0.08365847213759442 0 -0.34135416092550991 -0.091179501310293856 0 -0.36466438825183572 -0.08365847213759442 0 -0.36466438825183572 -0.08365847213759442 0 -0.35739464521320269 -0.06060016736498542 0 -0.37900057952374278 -0.055202559376056573 0 -0.35739464521320269 -0.06060016736498542 0 -0.37002654346932251 -0.034267675787211349 0 -0.37900057952374278 -0.055202559376056573 0 -0.35739464521320269 -0.06060016736498542 0 -0.34740357028336699 -0.035751483642194763 0 -0.33540380817943671 -0.05524437394508995 0 -0.35739464521320269 -0.06060016736498542 0 -0.34740357028336699 -0.035751483642194763 0 -0.37002654346932251 -0.034267675787211349 0 -0.37002654346932251 -0.034267675787211349 0 -0.37900057952374278 -0.055202559376056573 0 -0.37002654346932251 -0.034267675787211349 0 -0.3610525074149023 -0.01333279219836611 0 -0.34740357028336699 -0.035751483642194763 0 -0.37002654346932251 -0.034267675787211349 0 -0.3610525074149023 -0.01333279219836611 0 -0.37002654346932251 -0.034267675787211349 0 -0.3610525074149023 -0.01333279219836611 0 -0.37822993127843479 -0.014327170553603569 0 -0.3610525074149023 -0.01333279219836611 0 -0.37822993127843479 -0.014327170553603569 0 -0.37203850882461698 0.0062848957372474042 0 -0.3610525074149023 -0.01333279219836611 0 -0.33355794075559592 -0.015570385215977809 0 -0.35207847136047882 0.0076020913904775072 0 -0.3610525074149023 -0.01333279219836611 0 -0.35207847136047882 0.0076020913904775072 0 -0.34740357028336699 -0.035751483642194763 0 -0.3610525074149023 -0.01333279219836611 0 -0.33355794075559592 -0.015570385215977809 0 -0.34740357028336699 -0.035751483642194763 0 -0.33355794075559592 -0.015570385215977809 0 -0.32550078629677143 -0.036399481719169652 0 -0.33355794075559592 -0.015570385215977809 0 -0.35207847136047882 0.0076020913904775072 0 -0.33355794075559592 -0.015570385215977809 0 -0.33181605002713671 0.0068701727920727103 0 -0.35207847136047882 0.0076020913904775072 0 -0.31117914465059487 -0.021146085649034061 0 -0.31157846232882469 -0.0020487417102012791 0 -0.33355794075559592 -0.015570385215977809 0 -0.31157846232882469 -0.0020487417102012791 0 -0.33355794075559592 -0.015570385215977809 0 -0.33181605002713671 0.0068701727920727103 0 -0.31117914465059487 -0.021146085649034061 0 -0.30268335140773039 -0.035987989378029508 0 -0.32550078629677143 -0.036399481719169652 0 -0.31117914465059487 -0.021146085649034061 0 -0.33355794075559592 -0.015570385215977809 0 -0.32550078629677143 -0.036399481719169652 0 -0.31056568888580283 -0.055202762711431527 0 -0.30268335140773039 -0.035987989378029508 0 -0.32550078629677143 -0.036399481719169652 0 -0.31056568888580283 -0.055202762711431527 0 -0.32102512956941759 -0.077043719251289125 0 -0.33540380817943671 -0.05524437394508995 0 -0.31056568888580283 -0.055202762711431527 0 -0.32550078629677143 -0.036399481719169652 0 -0.33540380817943671 -0.05524437394508995 0 -0.34740357028336699 -0.035751483642194763 0 -0.32550078629677143 -0.036399481719169652 0 -0.33540380817943671 -0.05524437394508995 0 -0.30566575396608042 -0.25979383925549898 0 -0.28821533320490628 -0.24703086850432021 0 -0.31250681092624383 -0.2333324801797052 0 -0.28697423690046953 -0.22988060379665551 0 -0.29718296924001719 -0.2181096132843163 0 -0.31250681092624383 -0.2333324801797052 0 -0.29718296924001719 -0.2181096132843163 0 -0.32535039935808208 -0.2098768038654332 0 -0.31250681092624383 -0.2333324801797052 0 -0.28697423690046953 -0.22988060379665551 0 -0.27416663545386888 -0.22154602505489421 0 -0.29718296924001719 -0.2181096132843163 0 -0.28697423690046953 -0.22988060379665551 0 -0.28821533320490628 -0.24703086850432021 0 -0.27255879707692537 -0.234259838070421 0 -0.28697423690046953 -0.22988060379665551 0 -0.28821533320490628 -0.24703086850432021 0 -0.31250681092624383 -0.2333324801797052 0 -0.28821533320490628 -0.24703086850432021 0 -0.27239152950306139 -0.24772131963250921 0 -0.27255879707692537 -0.234259838070421 0 -0.27239152950306139 -0.24772131963250921 0 -0.26184117408945629 -0.241285415850122 0 -0.27255879707692537 -0.234259838070421 0 -0.27239152950306139 -0.24772131963250921 0 -0.26380354725675448 -0.24918848598989071 0 -0.26184117408945629 -0.241285415850122 0 -0.26184117408945629 -0.241285415850122 0 -0.25558038957209328 -0.24972204452367411 0 -0.25168425449510728 -0.23370766544817551 0 -0.26380354725675448 -0.24918848598989071 0 -0.26184117408945629 -0.241285415850122 0 -0.25558038957209328 -0.24972204452367411 0 -0.26184117408945629 -0.241285415850122 0 -0.25558038957209328 -0.24972204452367411 0 -0.26184117408945629 -0.241285415850122 0 -0.25168425449510728 -0.23370766544817551 0 -0.25889214568703262 -0.2248540904604201 0 -0.26184117408945629 -0.241285415850122 0 -0.25889214568703262 -0.2248540904604201 0 -0.27255879707692537 -0.234259838070421 0 -0.24676798427015451 -0.2187083904431695 0 -0.25168425449510728 -0.23370766544817551 0 -0.25889214568703262 -0.2248540904604201 0 -0.25889214568703262 -0.2248540904604201 0 -0.27255879707692537 -0.234259838070421 0 -0.27416663545386888 -0.22154602505489421 0 -0.28697423690046953 -0.22988060379665551 0 -0.27255879707692537 -0.234259838070421 0 -0.27416663545386888 -0.22154602505489421 0 -0.27416663545386888 -0.22154602505489421 0 -0.27882714552729199 -0.20436556034527439 0 -0.25752020739770898 -0.20528389174516379 0 -0.24676798427015451 -0.2187083904431695 0 -0.25889214568703262 -0.2248540904604201 0 -0.25752020739770898 -0.20528389174516379 0 -0.25889214568703262 -0.2248540904604201 0 -0.27416663545386888 -0.22154602505489421 0 -0.25752020739770898 -0.20528389174516379 0 -0.24868486391579919 -0.18796213951684759 0 -0.25752020739770898 -0.20528389174516379 0 -0.26514012646121321 -0.18919234858798301 0 -0.27882714552729199 -0.20436556034527439 0 -0.26514012646121321 -0.18919234858798301 0 -0.28287111735792592 -0.19045557283605569 0 -0.27882714552729199 -0.20436556034527439 0 -0.25752020739770898 -0.20528389174516379 0 -0.26514012646121321 -0.18919234858798301 0 -0.28287111735792592 -0.19045557283605569 0 -0.29788536857708031 -0.1979235037894129 0 -0.2988385564342122 -0.18287218812975961 0 -0.27882714552729199 -0.20436556034527439 0 -0.28287111735792592 -0.19045557283605569 0 -0.29788536857708031 -0.1979235037894129 0 -0.27416663545386888 -0.22154602505489421 0 -0.27882714552729199 -0.20436556034527439 0 -0.29718296924001719 -0.2181096132843163 0 -0.27882714552729199 -0.20436556034527439 0 -0.29718296924001719 -0.2181096132843163 0 -0.29788536857708031 -0.1979235037894129 0 -0.29718296924001719 -0.2181096132843163 0 -0.31333080762152432 -0.20021405617774321 0 -0.32535039935808208 -0.2098768038654332 0 -0.29718296924001719 -0.2181096132843163 0 -0.29788536857708031 -0.1979235037894129 0 -0.31333080762152432 -0.20021405617774321 0 -0.29718296924001719 -0.2181096132843163 0 -0.32535039935808208 -0.2098768038654332 0 -0.31017200652755578 -0.1913245692091442 0 -0.29788536857708031 -0.1979235037894129 0 -0.31333080762152432 -0.20021405617774321 0 -0.31017200652755578 -0.1913245692091442 0 -0.29788536857708031 -0.1979235037894129 0 -0.2988385564342122 -0.18287218812975961 0 -0.2988385564342122 -0.18287218812975961 0 -0.30526419513160802 -0.17227836184191689 0 -0.29604615108518151 -0.16886456597970451 0 -0.31017200652755578 -0.1913245692091442 0 -0.2988385564342122 -0.18287218812975961 0 -0.31429700711694208 -0.18039830115161029 0 -0.30526419513160802 -0.17227836184191689 0 -0.31455036581947959 -0.16959483113325671 0 -0.31429700711694208 -0.18039830115161029 0 -0.2988385564342122 -0.18287218812975961 0 -0.30526419513160802 -0.17227836184191689 0 -0.31429700711694208 -0.18039830115161029 0 -0.30526419513160802 -0.17227836184191689 0 -0.31024333499856988 -0.15908467028445691 0 -0.31455036581947959 -0.16959483113325671 0 -0.30526419513160802 -0.17227836184191689 0 -0.31024333499856988 -0.15908467028445691 0 -0.3002923217554414 -0.16053759504690659 0 -0.31024333499856988 -0.15908467028445691 0 -0.3002923217554414 -0.16053759504690659 0 -0.30027729288523508 -0.1512862881513552 0 -0.30526419513160802 -0.17227836184191689 0 -0.3002923217554414 -0.16053759504690659 0 -0.29604615108518151 -0.16886456597970451 0 -0.29604615108518151 -0.16886456597970451 0 -0.28904221939464408 -0.15859852056212079 0 -0.28670192375267811 -0.17487705778329901 0 -0.28904221939464408 -0.15859852056212079 0 -0.28670192375267811 -0.17487705778329901 0 -0.27746461741119938 -0.16716161344743999 0 -0.3002923217554414 -0.16053759504690659 0 -0.29604615108518151 -0.16886456597970451 0 -0.28904221939464408 -0.15859852056212079 0 -0.3002923217554414 -0.16053759504690659 0 -0.28904221939464408 -0.15859852056212079 0 -0.30027729288523508 -0.1512862881513552 0 -0.28287111735792592 -0.19045557283605569 0 -0.2988385564342122 -0.18287218812975961 0 -0.28670192375267811 -0.17487705778329901 0 -0.2988385564342122 -0.18287218812975961 0 -0.29604615108518151 -0.16886456597970451 0 -0.28670192375267811 -0.17487705778329901 0 -0.28287111735792592 -0.19045557283605569 0 -0.28670192375267811 -0.17487705778329901 0 -0.2750506992726281 -0.1792011488458462 0 -0.26514012646121321 -0.18919234858798301 0 -0.28287111735792592 -0.19045557283605569 0 -0.2750506992726281 -0.1792011488458462 0 -0.26514012646121321 -0.18919234858798301 0 -0.2750506992726281 -0.1792011488458462 0 -0.25982137679546302 -0.16640212109525401 0 -0.28670192375267811 -0.17487705778329901 0 -0.2750506992726281 -0.1792011488458462 0 -0.27746461741119938 -0.16716161344743999 0 -0.24868486391579919 -0.18796213951684759 0 -0.26514012646121321 -0.18919234858798301 0 -0.25982137679546302 -0.16640212109525401 0 -0.25982137679546302 -0.16640212109525401 0 -0.27746461741119938 -0.16716161344743999 0 -0.27445440705028967 -0.15617372891406101 0 -0.2750506992726281 -0.1792011488458462 0 -0.25982137679546302 -0.16640212109525401 0 -0.27746461741119938 -0.16716161344743999 0 -0.28904221939464408 -0.15859852056212079 0 -0.27746461741119938 -0.16716161344743999 0 -0.27445440705028967 -0.15617372891406101 0 -0.25982137679546302 -0.16640212109525401 0 -0.27445440705028967 -0.15617372891406101 0 -0.26580218947000461 -0.14613038707795051 0 -0.27445440705028967 -0.15617372891406101 0 -0.26580218947000461 -0.14613038707795051 0 -0.28139045628403508 -0.1454711335750497 0 -0.26580218947000461 -0.14613038707795051 0 -0.27326989332786428 -0.13563540690571491 0 -0.28139045628403508 -0.1454711335750497 0 -0.25982137679546302 -0.16640212109525401 0 -0.26580218947000461 -0.14613038707795051 0 -0.25057129346695012 -0.14478884791314511 0 -0.26580218947000461 -0.14613038707795051 0 -0.25471560940866822 -0.12809132165721801 0 -0.27326989332786428 -0.13563540690571491 0 -0.26580218947000461 -0.14613038707795051 0 -0.25057129346695012 -0.14478884791314511 0 -0.25471560940866822 -0.12809132165721801 0 -0.2781941076737261 -0.12435617349702389 0 -0.25471560940866822 -0.12809132165721801 0 -0.27326989332786428 -0.13563540690571491 0 -0.2781941076737261 -0.12435617349702389 0 -0.25471560940866822 -0.12809132165721801 0 -0.27326989332786428 -0.13563540690571491 0 -0.28624710380288709 -0.13412801872133109 0 -0.28139045628403508 -0.1454711335750497 0 -0.2781941076737261 -0.12435617349702389 0 -0.27326989332786428 -0.13563540690571491 0 -0.28624710380288709 -0.13412801872133109 0 -0.2781941076737261 -0.12435617349702389 0 -0.2857246799396207 -0.12489467232293271 0 -0.2866817685771279 -0.128758193125803 0 -0.2781941076737261 -0.12435617349702389 0 -0.28624710380288709 -0.13412801872133109 0 -0.28488539773402061 -0.12329166930787749 0 -0.29263151827858702 -0.12913533517098291 0 -0.30072336737345062 -0.12867749736411371 0 -0.2781941076737261 -0.12435617349702389 0 -0.2866817685771279 -0.128758193125803 0 -0.28624710380288709 -0.13412801872133109 0 -0.2866817685771279 -0.128758193125803 0 -0.29263151827858702 -0.12913533517098291 0 -0.28624710380288709 -0.13412801872133109 0 -0.2857246799396207 -0.12489467232293271 0 -0.2866817685771279 -0.128758193125803 0 -0.29263151827858702 -0.12913533517098291 0 -0.2857246799396207 -0.12489467232293271 0 -0.28488539773402061 -0.12329166930787749 0 -0.29263151827858702 -0.12913533517098291 0 -0.29263151827858702 -0.12913533517098291 0 -0.29341189507897159 -0.1369277514009172 0 -0.30072336737345062 -0.12867749736411371 0 -0.29263151827858702 -0.12913533517098291 0 -0.29341189507897159 -0.1369277514009172 0 -0.28624710380288709 -0.13412801872133109 0 -0.29341189507897159 -0.1369277514009172 0 -0.28624710380288709 -0.13412801872133109 0 -0.28768081176619448 -0.14148594467710299 0 -0.28624710380288709 -0.13412801872133109 0 -0.28139045628403508 -0.1454711335750497 0 -0.28768081176619448 -0.14148594467710299 0 -0.28139045628403508 -0.1454711335750497 0 -0.28768081176619448 -0.14148594467710299 0 -0.29211781321559438 -0.14608490884219341 0 -0.28904221939464408 -0.15859852056212079 0 -0.28139045628403508 -0.1454711335750497 0 -0.29211781321559438 -0.14608490884219341 0 -0.28904221939464408 -0.15859852056212079 0 -0.27445440705028967 -0.15617372891406101 0 -0.28139045628403508 -0.1454711335750497 0 -0.28904221939464408 -0.15859852056212079 0 -0.29211781321559438 -0.14608490884219341 0 -0.30027729288523508 -0.1512862881513552 0 -0.29341189507897159 -0.1369277514009172 0 -0.29211781321559438 -0.14608490884219341 0 -0.30107075603711619 -0.1420548036297794 0 -0.29341189507897159 -0.1369277514009172 0 -0.28768081176619448 -0.14148594467710299 0 -0.29211781321559438 -0.14608490884219341 0 -0.30107075603711619 -0.1420548036297794 0 -0.30027729288523508 -0.1512862881513552 0 -0.30962456979434338 -0.14674103454572479 0 -0.29211781321559438 -0.14608490884219341 0 -0.30107075603711619 -0.1420548036297794 0 -0.30027729288523508 -0.1512862881513552 0 -0.31024333499856988 -0.15908467028445691 0 -0.30027729288523508 -0.1512862881513552 0 -0.30962456979434338 -0.14674103454572479 0 -0.30107075603711619 -0.1420548036297794 0 -0.30962456979434338 -0.14674103454572479 0 -0.30906771936870192 -0.13521987196888879 0 -0.31268443741710339 -0.1188691747021728 0 -0.30906771936870192 -0.13521987196888879 0 -0.30072336737345062 -0.12867749736411371 0 -0.30107075603711619 -0.1420548036297794 0 -0.30906771936870192 -0.13521987196888879 0 -0.30072336737345062 -0.12867749736411371 0 -0.29341189507897159 -0.1369277514009172 0 -0.30107075603711619 -0.1420548036297794 0 -0.30072336737345062 -0.12867749736411371 0 -0.31268443741710339 -0.1188691747021728 0 -0.30906771936870192 -0.13521987196888879 0 -0.3212354662214959 -0.13975684960265361 0 -0.31268443741710339 -0.1188691747021728 0 -0.3212354662214959 -0.13975684960265361 0 -0.33167268349219592 -0.1281970756999517 0 -0.3212354662214959 -0.13975684960265361 0 -0.33069286022361261 -0.14194417186609801 0 -0.33167268349219592 -0.1281970756999517 0 -0.30962456979434338 -0.14674103454572479 0 -0.30906771936870192 -0.13521987196888879 0 -0.3212354662214959 -0.13975684960265361 0 -0.30962456979434338 -0.14674103454572479 0 -0.3212354662214959 -0.13975684960265361 0 -0.3221795436236583 -0.15145232020228741 0 -0.31024333499856988 -0.15908467028445691 0 -0.30962456979434338 -0.14674103454572479 0 -0.3221795436236583 -0.15145232020228741 0 -0.3221795436236583 -0.15145232020228741 0 -0.33260794159092782 -0.15101753139688251 0 -0.32908610878398048 -0.15870412504627901 0 -0.3212354662214959 -0.13975684960265361 0 -0.3221795436236583 -0.15145232020228741 0 -0.33069286022361261 -0.14194417186609801 0 -0.3221795436236583 -0.15145232020228741 0 -0.33069286022361261 -0.14194417186609801 0 -0.33260794159092782 -0.15101753139688251 0 -0.33069286022361261 -0.14194417186609801 0 -0.33260794159092782 -0.15101753139688251 0 -0.33771088952775569 -0.144346590234669 0 -0.33069286022361261 -0.14194417186609801 0 -0.33771088952775569 -0.144346590234669 0 -0.33897978556715719 -0.137549044730333 0 -0.33963921368875888 -0.15101847220421971 0 -0.34451119291681032 -0.15274820810885451 0 -0.33867524443936398 -0.1596664043237466 0 -0.33260794159092782 -0.15101753139688251 0 -0.33963921368875888 -0.15101847220421971 0 -0.33867524443936398 -0.1596664043237466 0 -0.33260794159092782 -0.15101753139688251 0 -0.33963921368875888 -0.15101847220421971 0 -0.33771088952775569 -0.144346590234669 0 -0.33963921368875888 -0.15101847220421971 0 -0.34336562767810042 -0.14610434312598661 0 -0.34451119291681032 -0.15274820810885451 0 -0.33771088952775569 -0.144346590234669 0 -0.34267930808507618 -0.14138123869717839 0 -0.33897978556715719 -0.137549044730333 0 -0.33963921368875888 -0.15101847220421971 0 -0.33771088952775569 -0.144346590234669 0 -0.34336562767810042 -0.14610434312598661 0 -0.33771088952775569 -0.144346590234669 0 -0.34336562767810042 -0.14610434312598661 0 -0.34267930808507618 -0.14138123869717839 0 -0.33167268349219592 -0.1281970756999517 0 -0.34495935454284787 -0.1251407647014629 0 -0.3514128458085482 -0.13788979598524601 0 -0.33167268349219592 -0.1281970756999517 0 -0.3514128458085482 -0.13788979598524601 0 -0.33897978556715719 -0.137549044730333 0 -0.33167268349219592 -0.1281970756999517 0 -0.3514128458085482 -0.13788979598524601 0 -0.33069286022361261 -0.14194417186609801 0 -0.33897978556715719 -0.137549044730333 0 -0.33167268349219592 -0.1281970756999517 0 -0.34267930808507618 -0.14138123869717839 0 -0.33897978556715719 -0.137549044730333 0 -0.3514128458085482 -0.13788979598524601 0 -0.35932950631025701 -0.12422349843181101 0 -0.3514128458085482 -0.13788979598524601 0 -0.35918444598107441 -0.1325652746419729 0 -0.35918444598107441 -0.1325652746419729 0 -0.36643106197787378 -0.1269433362002248 0 -0.36776390347314591 -0.1364564448924673 0 -0.35932950631025701 -0.12422349843181101 0 -0.35918444598107441 -0.1325652746419729 0 -0.36643106197787378 -0.1269433362002248 0 -0.3514128458085482 -0.13788979598524601 0 -0.35918444598107441 -0.1325652746419729 0 -0.36776390347314591 -0.1364564448924673 0 -0.36643106197787378 -0.1269433362002248 0 -0.36776390347314591 -0.1364564448924673 0 -0.37548059262229422 -0.12539350184767159 0 -0.3514128458085482 -0.13788979598524601 0 -0.36776390347314591 -0.1364564448924673 0 -0.37661891319430191 -0.15027673378034501 0 -0.3514128458085482 -0.13788979598524601 0 -0.36120607745102262 -0.15147910053462851 0 -0.37661891319430191 -0.15027673378034501 0 -0.3514128458085482 -0.13788979598524601 0 -0.37661891319430191 -0.15027673378034501 0 -0.36120607745102262 -0.15147910053462851 0 -0.36467804377015939 -0.1586086769005759 0 -0.37661891319430191 -0.15027673378034501 0 -0.3514128458085482 -0.13788979598524601 0 -0.35211450703108099 -0.15914119547234731 0 -0.3514128458085482 -0.13788979598524601 0 -0.3475646046288644 -0.1670082765306756 0 -0.3514128458085482 -0.13788979598524601 0 -0.36120607745102262 -0.15147910053462851 0 -0.35211450703108099 -0.15914119547234731 0 -0.3514128458085482 -0.13788979598524601 0 -0.3475646046288644 -0.1670082765306756 0 -0.35211450703108099 -0.15914119547234731 0 -0.3514128458085482 -0.13788979598524601 0 -0.34451119291681032 -0.15274820810885451 0 -0.3475646046288644 -0.1670082765306756 0 -0.34336562767810042 -0.14610434312598661 0 -0.34267930808507618 -0.14138123869717839 0 -0.3514128458085482 -0.13788979598524601 0 -0.34336562767810042 -0.14610434312598661 0 -0.3514128458085482 -0.13788979598524601 0 -0.34451119291681032 -0.15274820810885451 0 -0.3475646046288644 -0.1670082765306756 0 -0.35211450703108099 -0.15914119547234731 0 -0.35281616825361389 -0.18039259495944859 0 -0.35211450703108099 -0.15914119547234731 0 -0.36134201918869618 -0.1694738122483678 0 -0.35281616825361389 -0.18039259495944859 0 -0.35211450703108099 -0.15914119547234731 0 -0.35281616825361389 -0.18039259495944859 0 -0.36120607745102262 -0.15147910053462851 0 -0.35211450703108099 -0.15914119547234731 0 -0.36467804377015939 -0.1586086769005759 0 -0.35211450703108099 -0.15914119547234731 0 -0.36467804377015939 -0.1586086769005759 0 -0.36134201918869618 -0.1694738122483678 0 -0.36467804377015939 -0.1586086769005759 0 -0.37427090347885528 -0.17444914149081159 0 -0.37661891319430191 -0.15027673378034501 0 -0.36467804377015939 -0.1586086769005759 0 -0.36134201918869618 -0.1694738122483678 0 -0.37427090347885528 -0.17444914149081159 0 -0.37427090347885528 -0.17444914149081159 0 -0.36389791897402962 -0.1823205202184485 0 -0.37114627341524559 -0.19649153223420979 0 -0.36134201918869618 -0.1694738122483678 0 -0.37427090347885528 -0.17444914149081159 0 -0.36389791897402962 -0.1823205202184485 0 -0.3475646046288644 -0.1670082765306756 0 -0.35281616825361389 -0.18039259495944859 0 -0.34446827969043459 -0.19649157636362569 0 -0.36389791897402962 -0.1823205202184485 0 -0.35281616825361389 -0.18039259495944859 0 -0.35991423053373672 -0.19079552015940471 0 -0.3475646046288644 -0.1670082765306756 0 -0.34446827969043459 -0.19649157636362569 0 -0.3475646046288644 -0.1670082765306756 0 -0.34095191427441679 -0.17968697676924031 0 -0.34446827969043459 -0.19649157636362569 0 -0.36134201918869618 -0.1694738122483678 0 -0.36389791897402962 -0.1823205202184485 0 -0.35281616825361389 -0.18039259495944859 0 -0.33383181671514478 -0.17565309094595299 0 -0.34095191427441679 -0.17968697676924031 0 -0.33751073104039397 -0.18868267949450959 0 -0.33383181671514478 -0.17565309094595299 0 -0.32734343332047272 -0.1808097180359351 0 -0.33751073104039397 -0.18868267949450959 0 -0.33383181671514478 -0.17565309094595299 0 -0.34095191427441679 -0.17968697676924031 0 -0.33851404112711098 -0.16967207734226489 0 -0.3475646046288644 -0.1670082765306756 0 -0.34095191427441679 -0.17968697676924031 0 -0.33851404112711098 -0.16967207734226489 0 -0.33851404112711098 -0.16967207734226489 0 -0.33867524443936398 -0.1596664043237466 0 -0.33100490449440578 -0.16678755463514611 0 -0.3475646046288644 -0.1670082765306756 0 -0.33851404112711098 -0.16967207734226489 0 -0.33867524443936398 -0.1596664043237466 0 -0.34451119291681032 -0.15274820810885451 0 -0.3475646046288644 -0.1670082765306756 0 -0.33867524443936398 -0.1596664043237466 0 -0.33867524443936398 -0.1596664043237466 0 -0.32908610878398048 -0.15870412504627901 0 -0.33100490449440578 -0.16678755463514611 0 -0.33260794159092782 -0.15101753139688251 0 -0.33867524443936398 -0.1596664043237466 0 -0.32908610878398048 -0.15870412504627901 0 -0.33383181671514478 -0.17565309094595299 0 -0.33851404112711098 -0.16967207734226489 0 -0.33100490449440578 -0.16678755463514611 0 -0.33383181671514478 -0.17565309094595299 0 -0.33100490449440578 -0.16678755463514611 0 -0.32199730661780129 -0.1729037535859502 0 -0.33100490449440578 -0.16678755463514611 0 -0.32094998523247698 -0.1633090688023488 0 -0.32199730661780129 -0.1729037535859502 0 -0.3221795436236583 -0.15145232020228741 0 -0.32908610878398048 -0.15870412504627901 0 -0.32094998523247698 -0.1633090688023488 0 -0.32908610878398048 -0.15870412504627901 0 -0.33100490449440578 -0.16678755463514611 0 -0.32094998523247698 -0.1633090688023488 0 -0.31024333499856988 -0.15908467028445691 0 -0.3221795436236583 -0.15145232020228741 0 -0.32094998523247698 -0.1633090688023488 0 -0.31024333499856988 -0.15908467028445691 0 -0.32094998523247698 -0.1633090688023488 0 -0.31455036581947959 -0.16959483113325671 0 -0.32094998523247698 -0.1633090688023488 0 -0.31455036581947959 -0.16959483113325671 0 -0.32199730661780129 -0.1729037535859502 0 -0.31455036581947959 -0.16959483113325671 0 -0.31429700711694208 -0.18039830115161029 0 -0.32199730661780129 -0.1729037535859502 0 -0.31017200652755578 -0.1913245692091442 0 -0.31429700711694208 -0.18039830115161029 0 -0.32010449422781001 -0.1894993257077949 0 -0.31429700711694208 -0.18039830115161029 0 -0.32734343332047272 -0.1808097180359351 0 -0.32010449422781001 -0.1894993257077949 0 -0.31429700711694208 -0.18039830115161029 0 -0.32734343332047272 -0.1808097180359351 0 -0.32199730661780129 -0.1729037535859502 0 -0.33383181671514478 -0.17565309094595299 0 -0.32734343332047272 -0.1808097180359351 0 -0.32199730661780129 -0.1729037535859502 0 -0.32010449422781001 -0.1894993257077949 0 -0.31333080762152432 -0.20021405617774321 0 -0.32928960779860039 -0.19455052121035771 0 -0.31333080762152432 -0.20021405617774321 0 -0.32535039935808208 -0.2098768038654332 0 -0.32928960779860039 -0.19455052121035771 0 -0.32734343332047272 -0.1808097180359351 0 -0.32010449422781001 -0.1894993257077949 0 -0.32928960779860039 -0.19455052121035771 0 -0.31017200652755578 -0.1913245692091442 0 -0.32010449422781001 -0.1894993257077949 0 -0.31333080762152432 -0.20021405617774321 0 -0.32535039935808208 -0.2098768038654332 0 -0.3412595594869865 -0.2142390568793083 0 -0.35351782947614713 -0.2016439944465499 0 -0.32535039935808208 -0.2098768038654332 0 -0.3412595594869865 -0.2142390568793083 0 -0.33199962432211638 -0.22402731889937519 0 -0.32535039935808208 -0.2098768038654332 0 -0.35351782947614713 -0.2016439944465499 0 -0.34095191427441679 -0.17968697676924031 0 -0.33751073104039397 -0.18868267949450959 0 -0.34446827969043459 -0.19649157636362569 0 -0.32535039935808208 -0.2098768038654332 0 -0.32928960779860039 -0.19455052121035771 0 -0.34446827969043459 -0.19649157636362569 0 -0.32535039935808208 -0.2098768038654332 0 -0.35351782947614713 -0.2016439944465499 0 -0.34446827969043459 -0.19649157636362569 0 -0.32734343332047272 -0.1808097180359351 0 -0.32928960779860039 -0.19455052121035771 0 -0.33751073104039397 -0.18868267949450959 0 -0.32928960779860039 -0.19455052121035771 0 -0.33751073104039397 -0.18868267949450959 0 -0.34446827969043459 -0.19649157636362569 0 -0.35281616825361389 -0.18039259495944859 0 -0.35351782947614713 -0.2016439944465499 0 -0.35991423053373672 -0.19079552015940471 0 -0.35281616825361389 -0.18039259495944859 0 -0.35351782947614713 -0.2016439944465499 0 -0.34446827969043459 -0.19649157636362569 0 -0.35281616825361389 -0.18039259495944859 0 -0.35351782947614713 -0.2016439944465499 0 -0.36389791897402962 -0.1823205202184485 0 -0.35991423053373672 -0.19079552015940471 0 -0.37114627341524559 -0.19649153223420979 0 -0.35351782947614713 -0.2016439944465499 0 -0.37114627341524559 -0.19649153223420979 0 -0.35351782947614713 -0.2016439944465499 0 -0.35991423053373672 -0.19079552015940471 0 -0.37114627341524559 -0.19649153223420979 0 -0.35351782947614713 -0.2016439944465499 0 -0.37114627341524559 -0.19649153223420979 0 -0.36715236310326199 -0.20901173170009479 0 -0.36715236310326199 -0.20901173170009479 0 -0.35417038479160029 -0.22140811030587509 0 -0.37622023134996507 -0.21920493981024289 0 -0.37114627341524559 -0.19649153223420979 0 -0.36715236310326199 -0.20901173170009479 0 -0.38257337829338378 -0.20448306666089419 0 -0.3412595594869865 -0.2142390568793083 0 -0.35351782947614713 -0.2016439944465499 0 -0.35417038479160029 -0.22140811030587509 0 -0.35351782947614713 -0.2016439944465499 0 -0.35417038479160029 -0.22140811030587509 0 -0.35351782947614713 -0.2016439944465499 0 -0.36715236310326199 -0.20901173170009479 0 -0.35417038479160029 -0.22140811030587509 0 -0.35417038479160029 -0.22140811030587509 0 -0.3548229401070539 -0.2411722261652002 0 -0.35417038479160029 -0.22140811030587509 0 -0.3548229401070539 -0.2411722261652002 0 -0.33938871232047058 -0.23991678868552341 0 -0.35417038479160029 -0.22140811030587509 0 -0.3754993097207226 -0.23524687009465081 0 -0.37622023134996507 -0.21920493981024289 0 -0.35417038479160029 -0.22140811030587509 0 -0.3548229401070539 -0.2411722261652002 0 -0.3754993097207226 -0.23524687009465081 0 -0.3548229401070539 -0.2411722261652002 0 -0.3754993097207226 -0.23524687009465081 0 -0.37735393772307563 -0.2494177228037828 0 -0.3432827985294879 -0.26264209135616529 0 -0.3548229401070539 -0.2411722261652002 0 -0.33938871232047058 -0.23991678868552341 0 -0.32512134978041157 -0.2508661395249745 0 -0.33199962432211638 -0.22402731889937519 0 -0.32512134978041157 -0.2508661395249745 0 -0.33938871232047058 -0.23991678868552341 0 -0.33199962432211638 -0.22402731889937519 0 -0.3412595594869865 -0.2142390568793083 0 -0.35417038479160029 -0.22140811030587509 0 -0.33199962432211638 -0.22402731889937519 0 -0.35417038479160029 -0.22140811030587509 0 -0.33938871232047058 -0.23991678868552341 0 -0.33199962432211638 -0.22402731889937519 0 -0.32535039935808208 -0.2098768038654332 0 -0.33199962432211638 -0.22402731889937519 0 -0.31250681092624383 -0.2333324801797052 0 -0.32512134978041157 -0.2508661395249745 0 -0.33199962432211638 -0.22402731889937519 0 -0.31250681092624383 -0.2333324801797052 0 -0.32512134978041157 -0.2508661395249745 0 -0.30566575396608042 -0.25979383925549898 0 -0.31250681092624383 -0.2333324801797052 0 -0.42560965366873688 -0.23681483041811191 0 -0.43812499988343118 -0.22813027293135829 0 -0.44264015614836749 -0.24310335490637699 0 -0.4141011913984961 -0.25045686157605401 0 -0.44264015614836749 -0.24310335490637699 0 -0.4141011913984961 -0.25045686157605401 0 -0.43483749617007078 -0.2522587931588175 0 -0.44264015614836749 -0.24310335490637699 0 -0.4141011913984961 -0.25045686157605401 0 -0.42560965366873688 -0.23681483041811191 0 -0.44264015614836749 -0.24310335490637699 0 -0.42302930982535819 -0.22574294172529441 0 -0.43467758313468841 -0.20944998880521459 0 -0.43812499988343118 -0.22813027293135829 0 -0.42560965366873688 -0.23681483041811191 0 -0.42302930982535819 -0.22574294172529441 0 -0.43812499988343118 -0.22813027293135829 0 -0.42302930982535819 -0.22574294172529441 0 -0.41186249285477688 -0.23567087563081809 0 -0.40365695236287352 -0.2228154789512263 0 -0.42560965366873688 -0.23681483041811191 0 -0.42302930982535819 -0.22574294172529441 0 -0.41186249285477688 -0.23567087563081809 0 -0.4141011913984961 -0.25045686157605401 0 -0.41186249285477688 -0.23567087563081809 0 -0.39633512055191028 -0.24058457484208859 0 -0.4141011913984961 -0.25045686157605401 0 -0.42560965366873688 -0.23681483041811191 0 -0.41186249285477688 -0.23567087563081809 0 -0.39119350268818742 -0.25635938267990532 0 -0.4141011913984961 -0.25045686157605401 0 -0.39633512055191028 -0.24058457484208859 0 -0.4141011913984961 -0.25045686157605401 0 -0.39633512055191028 -0.24058457484208859 0 -0.39633512055191028 -0.24058457484208859 0 -0.3754993097207226 -0.23524687009465081 0 -0.38791439371221181 -0.2282417343202309 0 -0.39119350268818742 -0.25635938267990532 0 -0.39633512055191028 -0.24058457484208859 0 -0.37735393772307563 -0.2494177228037828 0 -0.39633512055191028 -0.24058457484208859 0 -0.3754993097207226 -0.23524687009465081 0 -0.37735393772307563 -0.2494177228037828 0 -0.3754993097207226 -0.23524687009465081 0 -0.37622023134996507 -0.21920493981024289 0 -0.38791439371221181 -0.2282417343202309 0 -0.37622023134996507 -0.21920493981024289 0 -0.38791439371221181 -0.2282417343202309 0 -0.39001155847860991 -0.21683812577971209 0 -0.38791439371221181 -0.2282417343202309 0 -0.40365695236287352 -0.2228154789512263 0 -0.39001155847860991 -0.21683812577971209 0 -0.41186249285477688 -0.23567087563081809 0 -0.39633512055191028 -0.24058457484208859 0 -0.40365695236287352 -0.2228154789512263 0 -0.39633512055191028 -0.24058457484208859 0 -0.38791439371221181 -0.2282417343202309 0 -0.40365695236287352 -0.2228154789512263 0 -0.40004729455784821 -0.20478859511917921 0 -0.39001155847860991 -0.21683812577971209 0 -0.38257337829338378 -0.20448306666089419 0 -0.40365695236287352 -0.2228154789512263 0 -0.40004729455784821 -0.20478859511917921 0 -0.39001155847860991 -0.21683812577971209 0 -0.37622023134996507 -0.21920493981024289 0 -0.39001155847860991 -0.21683812577971209 0 -0.38257337829338378 -0.20448306666089419 0 -0.36715236310326199 -0.20901173170009479 0 -0.37622023134996507 -0.21920493981024289 0 -0.38257337829338378 -0.20448306666089419 0 -0.37114627341524559 -0.19649153223420979 0 -0.3887747173543441 -0.19133907002186959 0 -0.37114627341524559 -0.19649153223420979 0 -0.38257337829338378 -0.20448306666089419 0 -0.3887747173543441 -0.19133907002186959 0 -0.40004729455784821 -0.20478859511917921 0 -0.38257337829338378 -0.20448306666089419 0 -0.3887747173543441 -0.19133907002186959 0 -0.40004729455784821 -0.20478859511917921 0 -0.3887747173543441 -0.19133907002186959 0 -0.40988174022316642 -0.18323550187879381 0 -0.40004729455784821 -0.20478859511917921 0 -0.41769079714432522 -0.2045516332153621 0 -0.40988174022316642 -0.18323550187879381 0 -0.41769079714432522 -0.2045516332153621 0 -0.4257785134900669 -0.18966171594336301 0 -0.40988174022316642 -0.18323550187879381 0 -0.40365695236287352 -0.2228154789512263 0 -0.40004729455784821 -0.20478859511917921 0 -0.41769079714432522 -0.2045516332153621 0 -0.42302930982535819 -0.22574294172529441 0 -0.40365695236287352 -0.2228154789512263 0 -0.41769079714432522 -0.2045516332153621 0 -0.42302930982535819 -0.22574294172529441 0 -0.41769079714432522 -0.2045516332153621 0 -0.43467758313468841 -0.20944998880521459 0 -0.41769079714432522 -0.2045516332153621 0 -0.43467758313468841 -0.20944998880521459 0 -0.4257785134900669 -0.18966171594336301 0 -0.43467758313468841 -0.20944998880521459 0 -0.4257785134900669 -0.18966171594336301 0 -0.44025193128699991 -0.19444643101885539 0 -0.4257785134900669 -0.18966171594336301 0 -0.43468575454226638 -0.1858065130594776 0 -0.44025193128699991 -0.19444643101885539 0 -0.4257785134900669 -0.18966171594336301 0 -0.42966501055011558 -0.1733939683697574 0 -0.43468575454226638 -0.1858065130594776 0 -0.42966501055011558 -0.1733939683697574 0 -0.4368028737993303 -0.17816822094641879 0 -0.44001611074789271 -0.17258063013766839 0 -0.42966501055011558 -0.1733939683697574 0 -0.43468575454226638 -0.1858065130594776 0 -0.4368028737993303 -0.17816822094641879 0 -0.42966501055011558 -0.1733939683697574 0 -0.4351539059675798 -0.15996373035151901 0 -0.44001611074789271 -0.17258063013766839 0 -0.42966501055011558 -0.1733939683697574 0 -0.41773771044109448 -0.14556962737119311 0 -0.42966501055011558 -0.1733939683697574 0 -0.4351539059675798 -0.15996373035151901 0 -0.41773771044109448 -0.14556962737119311 0 -0.42966501055011558 -0.1733939683697574 0 -0.41442825626146812 -0.16398573355941101 0 -0.41773771044109448 -0.14556962737119311 0 -0.41442825626146812 -0.16398573355941101 0 -0.40988174022316642 -0.18323550187879381 0 -0.40182678382757248 -0.1626600008131151 0 -0.41442825626146812 -0.16398573355941101 0 -0.40182678382757248 -0.1626600008131151 0 -0.40821059347708261 -0.15265162394669771 0 -0.42966501055011558 -0.1733939683697574 0 -0.41442825626146812 -0.16398573355941101 0 -0.40988174022316642 -0.18323550187879381 0 -0.4257785134900669 -0.18966171594336301 0 -0.42966501055011558 -0.1733939683697574 0 -0.40988174022316642 -0.18323550187879381 0 -0.40988174022316642 -0.18323550187879381 0 -0.39078198909141171 -0.1749430120680267 0 -0.40182678382757248 -0.1626600008131151 0 -0.3887747173543441 -0.19133907002186959 0 -0.40988174022316642 -0.18323550187879381 0 -0.39078198909141171 -0.1749430120680267 0 -0.37427090347885528 -0.17444914149081159 0 -0.37114627341524559 -0.19649153223420979 0 -0.3887747173543441 -0.19133907002186959 0 -0.37427090347885528 -0.17444914149081159 0 -0.3887747173543441 -0.19133907002186959 0 -0.39078198909141171 -0.1749430120680267 0 -0.39078198909141171 -0.1749430120680267 0 -0.40182678382757248 -0.1626600008131151 0 -0.37661891319430191 -0.15027673378034501 0 -0.37427090347885528 -0.17444914149081159 0 -0.39078198909141171 -0.1749430120680267 0 -0.37661891319430191 -0.15027673378034501 0 -0.40182678382757248 -0.1626600008131151 0 -0.37661891319430191 -0.15027673378034501 0 -0.40182678382757248 -0.1626600008131151 0 -0.39583737328284729 -0.1455617826162755 0 -0.40821059347708261 -0.15265162394669771 0 -0.40182678382757248 -0.1626600008131151 0 -0.39583737328284729 -0.1455617826162755 0 -0.37661891319430191 -0.15027673378034501 0 -0.40422218044480368 -0.14266140180958201 0 -0.39583737328284729 -0.1455617826162755 0 -0.40821059347708261 -0.15265162394669771 0 -0.36776390347314591 -0.1364564448924673 0 -0.37661891319430191 -0.15027673378034501 0 -0.38392245162874511 -0.13736771814253779 0 -0.39583737328284729 -0.1455617826162755 0 -0.37661891319430191 -0.15027673378034501 0 -0.38392245162874511 -0.13736771814253779 0 -0.36776390347314591 -0.1364564448924673 0 -0.38392245162874511 -0.13736771814253779 0 -0.37548059262229422 -0.12539350184767159 0 -0.38392245162874511 -0.13736771814253779 0 -0.37548059262229422 -0.12539350184767159 0 -0.39510304457819029 -0.12686257330416181 0 -0.39583737328284729 -0.1455617826162755 0 -0.38392245162874511 -0.13736771814253779 0 -0.39510304457819029 -0.12686257330416181 0 -0.40422218044480368 -0.14266140180958201 0 -0.39510304457819029 -0.12686257330416181 0 -0.41773771044109448 -0.14556962737119311 0 -0.40422218044480368 -0.14266140180958201 0 -0.39583737328284729 -0.1455617826162755 0 -0.39510304457819029 -0.12686257330416181 0 -0.39510304457819029 -0.12686257330416181 0 -0.40687371126195848 -0.13445343334098689 0 -0.40643005408294708 -0.1191908087343031 0 -0.39510304457819029 -0.12686257330416181 0 -0.40687371126195848 -0.13445343334098689 0 -0.41773771044109448 -0.14556962737119311 0 -0.41565777333533799 -0.14071749161900421 0 -0.42759677899676318 -0.1271969377861501 0 -0.41611301888908908 -0.117362088379437 0 -0.40687371126195848 -0.13445343334098689 0 -0.41565777333533799 -0.14071749161900421 0 -0.40643005408294708 -0.1191908087343031 0 -0.41565777333533799 -0.14071749161900421 0 -0.41611301888908908 -0.117362088379437 0 -0.40643005408294708 -0.1191908087343031 0 -0.41565777333533799 -0.14071749161900421 0 -0.40643005408294708 -0.1191908087343031 0 -0.39510304457819029 -0.12686257330416181 0 -0.41773771044109448 -0.14556962737119311 0 -0.40687371126195848 -0.13445343334098689 0 -0.41565777333533799 -0.14071749161900421 0 -0.41773771044109448 -0.14556962737119311 0 -0.40687371126195848 -0.13445343334098689 0 -0.41565777333533799 -0.14071749161900421 0 -0.41442825626146812 -0.16398573355941101 0 -0.40821059347708261 -0.15265162394669771 0 -0.41773771044109448 -0.14556962737119311 0 -0.40422218044480368 -0.14266140180958201 0 -0.40821059347708261 -0.15265162394669771 0 -0.41773771044109448 -0.14556962737119311 0 -0.41565777333533799 -0.14071749161900421 0 -0.41773771044109448 -0.14556962737119311 0 -0.41565777333533799 -0.14071749161900421 0 -0.43447332420946588 -0.15413516856891621 0 -0.43356001221392682 -0.13875457570197861 0 -0.4351539059675798 -0.15996373035151901 0 -0.41773771044109448 -0.14556962737119311 0 -0.41565777333533799 -0.14071749161900421 0 -0.43447332420946588 -0.15413516856891621 0 -0.41565777333533799 -0.14071749161900421 0 -0.41773771044109448 -0.14556962737119311 0 -0.43447332420946588 -0.15413516856891621 0 -0.4351539059675798 -0.15996373035151901 0 -0.41773771044109448 -0.14556962737119311 0 -0.43447332420946588 -0.15413516856891621 0 -0.41565777333533799 -0.14071749161900421 0 -0.43356001221392682 -0.13875457570197861 0 -0.42759677899676318 -0.1271969377861501 0 -0.43356001221392682 -0.13875457570197861 0 -0.42759677899676318 -0.1271969377861501 0 -0.44083147780029591 -0.12651229668786751 0 -0.44083147780029591 -0.12651229668786751 0 -0.44924070672777011 -0.1452109838479555 0 -0.46348522202683068 -0.13151134872946821 0 -0.43356001221392682 -0.13875457570197861 0 -0.44083147780029591 -0.12651229668786751 0 -0.44924070672777011 -0.1452109838479555 0 -0.43447332420946588 -0.15413516856891621 0 -0.44924070672777011 -0.1452109838479555 0 -0.45328887508359472 -0.16755284551882721 0 -0.43447332420946588 -0.15413516856891621 0 -0.43356001221392682 -0.13875457570197861 0 -0.44924070672777011 -0.1452109838479555 0 -0.44924070672777011 -0.1452109838479555 0 -0.47273985297401039 -0.15331153849889731 0 -0.45328887508359472 -0.16755284551882721 0 -0.44924070672777011 -0.1452109838479555 0 -0.46348522202683068 -0.13151134872946821 0 -0.47273985297401039 -0.15331153849889731 0 -0.46348522202683068 -0.13151134872946821 0 -0.48318267150509259 -0.13493245361459719 0 -0.47825668394664378 -0.1122159609709556 0 -0.46348522202683068 -0.13151134872946821 0 -0.48318267150509259 -0.13493245361459719 0 -0.47273985297401039 -0.15331153849889731 0 -0.48318267150509259 -0.13493245361459719 0 -0.5 -0.14957449463747011 0 -0.5 -0.1243657435865113 0 -0.5 -0.14957449463747011 0 -0.47273985297401039 -0.15331153849889731 0 -0.48801620914027333 -0.16457713141077721 0 -0.48318267150509259 -0.13493245361459719 0 -0.5 -0.14957449463747011 0 -0.47273985297401039 -0.15331153849889731 0 -0.47273985297401039 -0.15331153849889731 0 -0.48801620914027333 -0.16457713141077721 0 -0.47210442595772351 -0.18097052246873821 0 -0.5 -0.14957449463747011 0 -0.48801620914027333 -0.16457713141077721 0 -0.5 -0.17478324568842871 0 -0.48801620914027333 -0.16457713141077721 0 -0.5 -0.17478324568842871 0 -0.48876988323932408 -0.1816113153847588 0 -0.5 -0.17478324568842871 0 -0.49999999999999911 -0.18933714222917661 0 -0.49280880426677232 -0.1933374779372001 0 -0.5 -0.17478324568842871 0 -0.49280880426677232 -0.1933374779372001 0 -0.5 -0.17478324568842871 0 -0.48876988323932408 -0.1816113153847588 0 -0.49280880426677232 -0.1933374779372001 0 -0.48876988323932408 -0.1816113153847588 0 -0.47210442595772351 -0.18097052246873821 0 -0.49208074638817939 -0.19521596316706899 0 -0.48801620914027333 -0.16457713141077721 0 -0.48876988323932408 -0.1816113153847588 0 -0.47210442595772351 -0.18097052246873821 0 -0.47210442595772351 -0.18097052246873821 0 -0.45359069741047908 -0.18508632008424239 0 -0.45257010149406462 -0.1743578333318456 0 -0.47210442595772351 -0.18097052246873821 0 -0.45328887508359472 -0.16755284551882721 0 -0.47210442595772351 -0.18097052246873821 0 -0.45328887508359472 -0.16755284551882721 0 -0.45257010149406462 -0.1743578333318456 0 -0.47210442595772351 -0.18097052246873821 0 -0.45359069741047908 -0.18508632008424239 0 -0.46022771410847518 -0.1941658748877112 0 -0.47273985297401039 -0.15331153849889731 0 -0.47210442595772351 -0.18097052246873821 0 -0.45328887508359472 -0.16755284551882721 0 -0.4351539059675798 -0.15996373035151901 0 -0.43447332420946588 -0.15413516856891621 0 -0.45328887508359472 -0.16755284551882721 0 -0.4351539059675798 -0.15996373035151901 0 -0.45328887508359472 -0.16755284551882721 0 -0.45257010149406462 -0.1743578333318456 0 -0.4351539059675798 -0.15996373035151901 0 -0.45257010149406462 -0.1743578333318456 0 -0.4351539059675798 -0.15996373035151901 0 -0.44001611074789271 -0.17258063013766839 0 -0.45257010149406462 -0.1743578333318456 0 -0.43447332420946588 -0.15413516856891621 0 -0.45328887508359472 -0.16755284551882721 0 -0.4368028737993303 -0.17816822094641879 0 -0.44001611074789271 -0.17258063013766839 0 -0.44279931420513241 -0.18149093871406169 0 -0.44001611074789271 -0.17258063013766839 0 -0.44279931420513241 -0.18149093871406169 0 -0.45257010149406462 -0.1743578333318456 0 -0.43468575454226638 -0.1858065130594776 0 -0.4368028737993303 -0.17816822094641879 0 -0.44279931420513241 -0.18149093871406169 0 -0.43468575454226638 -0.1858065130594776 0 -0.44279931420513241 -0.18149093871406169 0 -0.44025193128699991 -0.19444643101885539 0 -0.45359069741047908 -0.18508632008424239 0 -0.44279931420513241 -0.18149093871406169 0 -0.44025193128699991 -0.19444643101885539 0 -0.45359069741047908 -0.18508632008424239 0 -0.44279931420513241 -0.18149093871406169 0 -0.45257010149406462 -0.1743578333318456 0 -0.43467758313468841 -0.20944998880521459 0 -0.44025193128699991 -0.19444643101885539 0 -0.45108468557112119 -0.20467601708330521 0 -0.44025193128699991 -0.19444643101885539 0 -0.45108468557112119 -0.20467601708330521 0 -0.46022771410847518 -0.1941658748877112 0 -0.45359069741047908 -0.18508632008424239 0 -0.44025193128699991 -0.19444643101885539 0 -0.46022771410847518 -0.1941658748877112 0 -0.43467758313468841 -0.20944998880521459 0 -0.45108468557112119 -0.20467601708330521 0 -0.44678284474151642 -0.21894090971896399 0 -0.45108468557112119 -0.20467601708330521 0 -0.46885141078668408 -0.20666455456880711 0 -0.44678284474151642 -0.21894090971896399 0 -0.46885141078668408 -0.20666455456880711 0 -0.46130442565026047 -0.2219706544510317 0 -0.44678284474151642 -0.21894090971896399 0 -0.46885141078668408 -0.20666455456880711 0 -0.44678284474151642 -0.21894090971896399 0 -0.46885141078668408 -0.20666455456880711 0 -0.47091233432833401 -0.22073580751013261 0 -0.46130442565026047 -0.2219706544510317 0 -0.45108468557112119 -0.20467601708330521 0 -0.46022771410847518 -0.1941658748877112 0 -0.46885141078668408 -0.20666455456880711 0 -0.46022771410847518 -0.1941658748877112 0 -0.47302588192118372 -0.19404728783597641 0 -0.46885141078668408 -0.20666455456880711 0 -0.47210442595772351 -0.18097052246873821 0 -0.46022771410847518 -0.1941658748877112 0 -0.47302588192118372 -0.19404728783597641 0 -0.47210442595772351 -0.18097052246873821 0 -0.49208074638817939 -0.19521596316706899 0 -0.49208074638817939 -0.19521596316706899 0 -0.46885141078668408 -0.20666455456880711 0 -0.47302588192118372 -0.19404728783597641 0 -0.49208074638817939 -0.19521596316706899 0 -0.46885141078668408 -0.20666455456880711 0 -0.47210442595772351 -0.18097052246873821 0 -0.47302588192118372 -0.19404728783597641 0 -0.49208074638817939 -0.19521596316706899 0 -0.48876988323932408 -0.1816113153847588 0 -0.49208074638817939 -0.19521596316706899 0 -0.49280880426677232 -0.1933374779372001 0 -0.49208074638817939 -0.19521596316706899 0 -0.48637909646288718 -0.20992697102160801 0 -0.49208074638817939 -0.19521596316706899 0 -0.50000000000000699 -0.2008633123921216 0 -0.48637909646288718 -0.20992697102160801 0 -0.49208074638817939 -0.19521596316706899 0 -0.50000000000000699 -0.2008633123921216 0 -0.49208074638817939 -0.19521596316706899 0 -0.50000000000000699 -0.2008633123921216 0 -0.49280880426677232 -0.1933374779372001 0 -0.50000000000000699 -0.2008633123921216 0 -0.49999999999999911 -0.18933714222917661 0 -0.49280880426677232 -0.1933374779372001 0 -0.49999999999999911 -0.18933714222917661 0 -0.49280880426677232 -0.1933374779372001 0 -0.49208074638817939 -0.19521596316706899 0 -0.49280880426677232 -0.1933374779372001 0 -0.50000000000000699 -0.2008633123921216 0 -0.48637909646288718 -0.20992697102160801 0 -0.5 -0.22394966986681869 0 -0.48637909646288718 -0.20992697102160801 0 -0.47721916448242752 -0.2154467587522311 0 -0.4806774465375957 -0.2246379788761472 0 -0.49208074638817939 -0.19521596316706899 0 -0.48637909646288718 -0.20992697102160801 0 -0.46885141078668408 -0.20666455456880711 0 -0.48637909646288718 -0.20992697102160801 0 -0.47721916448242752 -0.2154467587522311 0 -0.46885141078668408 -0.20666455456880711 0 -0.48637909646288718 -0.20992697102160801 0 -0.4806774465375957 -0.2246379788761472 0 -0.47721916448242752 -0.2154467587522311 0 -0.46885141078668408 -0.20666455456880711 0 -0.47091233432833401 -0.22073580751013261 0 -0.47091233432833401 -0.22073580751013261 0 -0.47384278403025187 -0.2275793999843341 0 -0.4806774465375957 -0.2246379788761472 0 -0.47721916448242752 -0.2154467587522311 0 -0.47091233432833401 -0.22073580751013261 0 -0.4806774465375957 -0.2246379788761472 0 -0.47091233432833401 -0.22073580751013261 0 -0.47384278403025187 -0.2275793999843341 0 -0.46730089567807431 -0.2311245750875722 0 -0.47384278403025187 -0.2275793999843341 0 -0.47117912089823888 -0.2357498482366997 0 -0.46730089567807431 -0.2311245750875722 0 -0.47384278403025187 -0.2275793999843341 0 -0.47728299461901308 -0.23417709055224989 0 -0.47117912089823888 -0.2357498482366997 0 -0.47117912089823888 -0.2357498482366997 0 -0.46730089567807431 -0.2311245750875722 0 -0.47384278403025187 -0.2275793999843341 0 -0.47728299461901308 -0.23417709055224989 0 -0.4806774465375957 -0.2246379788761472 0 -0.48385154185139151 -0.23114097346645479 0 -0.47728299461901308 -0.23417709055224989 0 -0.4806774465375957 -0.2246379788761472 0 -0.48637909646288718 -0.20992697102160801 0 -0.48925464322942208 -0.22432886661455051 0 -0.5 -0.22394966986681869 0 -0.48637909646288718 -0.20992697102160801 0 -0.4806774465375957 -0.2246379788761472 0 -0.48925464322942208 -0.22432886661455051 0 -0.48385154185139151 -0.23114097346645479 0 -0.4806774465375957 -0.2246379788761472 0 -0.48925464322942208 -0.22432886661455051 0 -0.48385154185139151 -0.23114097346645479 0 -0.48925464322942208 -0.22432886661455051 0 -0.49066905120876769 -0.2335669548894499 0 -0.48925464322942208 -0.22432886661455051 0 -0.49066905120876769 -0.2335669548894499 0 -0.5 -0.22394966986681869 0 -0.49066905120876769 -0.2335669548894499 0 -0.5 -0.22394966986681869 0 -0.5 -0.24703602734151589 0 -0.48558956044911988 -0.25293611652645642 0 -0.5 -0.24703602734151589 0 -0.48435846708016578 -0.24226264723980451 0 -0.49066905120876769 -0.2335669548894499 0 -0.5 -0.24703602734151589 0 -0.48435846708016578 -0.24226264723980451 0 -0.48385154185139151 -0.23114097346645479 0 -0.49066905120876769 -0.2335669548894499 0 -0.48435846708016578 -0.24226264723980451 0 -0.48558956044911988 -0.25293611652645642 0 -0.47117912089823888 -0.2357498482366997 0 -0.48558956044911988 -0.25293611652645642 0 -0.48435846708016578 -0.24226264723980451 0 -0.47117912089823888 -0.2357498482366997 0 -0.48558956044911988 -0.25293611652645642 0 -0.47117912089823888 -0.2357498482366997 0 -0.46492396541037079 -0.24608576302758381 0 -0.48385154185139151 -0.23114097346645479 0 -0.47728299461901308 -0.23417709055224989 0 -0.48435846708016578 -0.24226264723980451 0 -0.47728299461901308 -0.23417709055224989 0 -0.48435846708016578 -0.24226264723980451 0 -0.47117912089823888 -0.2357498482366997 0 -0.47728299461901308 -0.23417709055224989 0 -0.47117912089823888 -0.2357498482366997 0 -0.45615179902803987 -0.25140296294314313 0 -0.46492396541037079 -0.24608576302758381 0 -0.44264015614836749 -0.24310335490637699 0 -0.47117912089823888 -0.2357498482366997 0 -0.44264015614836749 -0.24310335490637699 0 -0.47117912089823888 -0.2357498482366997 0 -0.45267464271669372 -0.2323874253696824 0 -0.44264015614836749 -0.24310335490637699 0 -0.47117912089823888 -0.2357498482366997 0 -0.46492396541037079 -0.24608576302758381 0 -0.44264015614836749 -0.24310335490637699 0 -0.47117912089823888 -0.2357498482366997 0 -0.46730089567807431 -0.2311245750875722 0 -0.45267464271669372 -0.2323874253696824 0 -0.47091233432833401 -0.22073580751013261 0 -0.46730089567807431 -0.2311245750875722 0 -0.46130442565026047 -0.2219706544510317 0 -0.46130442565026047 -0.2219706544510317 0 -0.45267464271669372 -0.2323874253696824 0 -0.44678284474151642 -0.21894090971896399 0 -0.46730089567807431 -0.2311245750875722 0 -0.46130442565026047 -0.2219706544510317 0 -0.45267464271669372 -0.2323874253696824 0 -0.43467758313468841 -0.20944998880521459 0 -0.44678284474151642 -0.21894090971896399 0 -0.43812499988343118 -0.22813027293135829 0 -0.45267464271669372 -0.2323874253696824 0 -0.44678284474151642 -0.21894090971896399 0 -0.43812499988343118 -0.22813027293135829 0 -0.45267464271669372 -0.2323874253696824 0 -0.43812499988343118 -0.22813027293135829 0 -0.44264015614836749 -0.24310335490637699 0 -0.4473760114600458 -0.25327573578158802 0 -0.43483749617007078 -0.2522587931588175 0 -0.44264015614836749 -0.24310335490637699 0 -0.4473760114600458 -0.25327573578158802 0 -0.45615179902803987 -0.25140296294314313 0 -0.44264015614836749 -0.24310335490637699 0 -0.41649780656492752 -0.04534210696750833 0 -0.41974636942932708 -0.033862033505057461 0 -0.4122800869620814 -0.028598884326619941 0 -0.41649780656492752 -0.04534210696750833 0 -0.4122800869620814 -0.028598884326619941 0 -0.39650704434373829 -0.041383542723349799 0 -0.41649780656492752 -0.04534210696750833 0 -0.41974636942932708 -0.033862033505057461 0 -0.42812000033645481 -0.032573032021073173 0 -0.42411767318733279 -0.060836050807194432 0 -0.40407650012165919 -0.054710257374691221 0 -0.41057940428521611 -0.068844023088356104 0 -0.41649780656492752 -0.04534210696750833 0 -0.42411767318733279 -0.060836050807194432 0 -0.40407650012165919 -0.054710257374691221 0 -0.42411767318733279 -0.060836050807194432 0 -0.42812000033645481 -0.032573032021073173 0 -0.4381222490503231 -0.049970061366739212 0 -0.42411767318733279 -0.060836050807194432 0 -0.44630624249104789 -0.072386315151701811 0 -0.4381222490503231 -0.049970061366739212 0 -0.41649780656492752 -0.04534210696750833 0 -0.42411767318733279 -0.060836050807194432 0 -0.42812000033645481 -0.032573032021073173 0 -0.4299382556095982 -0.027553807581776529 0 -0.4381222490503231 -0.049970061366739212 0 -0.42812000033645481 -0.032573032021073173 0 -0.4299382556095982 -0.027553807581776529 0 -0.4381222490503231 -0.049970061366739212 0 -0.42411767318733279 -0.060836050807194432 0 -0.42812000033645481 -0.032573032021073173 0 -0.4299382556095982 -0.027553807581776529 0 -0.44045172714724268 -0.036076150142014943 0 -0.4381222490503231 -0.049970061366739212 0 -0.41974636942932708 -0.033862033505057461 0 -0.42812000033645481 -0.032573032021073173 0 -0.42208758385384493 -0.02893411070502842 0 -0.4299382556095982 -0.027553807581776529 0 -0.43739478407495919 -0.02581069325070523 0 -0.44045172714724268 -0.036076150142014943 0 -0.4299382556095982 -0.027553807581776529 0 -0.42175426216887341 -0.005137553796813861 0 -0.4299382556095982 -0.027553807581776529 0 -0.42175426216887341 -0.005137553796813861 0 -0.42054033720783579 -0.019489957548575139 0 -0.4299382556095982 -0.027553807581776529 0 -0.43051757258218032 -0.01426206563311996 0 -0.42175426216887341 -0.005137553796813861 0 -0.4299382556095982 -0.027553807581776529 0 -0.43739478407495919 -0.02581069325070523 0 -0.43454207902688818 -0.020035262867850401 0 -0.4299382556095982 -0.027553807581776529 0 -0.43454207902688818 -0.020035262867850401 0 -0.43051757258218032 -0.01426206563311996 0 -0.43454207902688818 -0.020035262867850401 0 -0.43529006643690998 -0.01321861184352708 0 -0.44075671410489958 -0.017346925169080561 0 -0.43454207902688818 -0.020035262867850401 0 -0.43529006643690998 -0.01321861184352708 0 -0.43051757258218032 -0.01426206563311996 0 -0.42812000033645481 -0.032573032021073173 0 -0.4299382556095982 -0.027553807581776529 0 -0.42208758385384493 -0.02893411070502842 0 -0.4299382556095982 -0.027553807581776529 0 -0.42208758385384493 -0.02893411070502842 0 -0.42054033720783579 -0.019489957548575139 0 -0.4319698267172376 -0.0048192968139492707 0 -0.4396681739785489 -0.003160910463601947 0 -0.43610390198486609 0.0066665912690996188 0 -0.4319698267172376 -0.0048192968139492707 0 -0.4396681739785489 -0.003160910463601947 0 -0.43866413975334451 -0.0096295087336352135 0 -0.4319698267172376 -0.0048192968139492707 0 -0.43529006643690998 -0.01321861184352708 0 -0.43866413975334451 -0.0096295087336352135 0 -0.4319698267172376 -0.0048192968139492707 0 -0.43529006643690998 -0.01321861184352708 0 -0.43051757258218032 -0.01426206563311996 0 -0.4319698267172376 -0.0048192968139492707 0 -0.43051757258218032 -0.01426206563311996 0 -0.42175426216887341 -0.005137553796813861 0 -0.4319698267172376 -0.0048192968139492707 0 -0.42175426216887341 -0.005137553796813861 0 -0.42652813608172818 0.0058763536974351313 0 -0.42175426216887341 -0.005137553796813861 0 -0.41687496604597613 -0.01472162196031117 0 -0.42054033720783579 -0.019489957548575139 0 -0.42175426216887341 -0.005137553796813861 0 -0.41687496604597613 -0.01472162196031117 0 -0.41292517784511401 -0.0056600921692357489 0 -0.41292517784511401 -0.0056600921692357489 0 -0.4122800869620814 -0.028598884326619941 0 -0.40359227636847522 -0.017018698422124411 0 -0.41292517784511401 -0.0056600921692357489 0 -0.4122800869620814 -0.028598884326619941 0 -0.41687496604597613 -0.01472162196031117 0 -0.41292517784511401 -0.0056600921692357489 0 -0.4122800869620814 -0.028598884326619941 0 -0.42208758385384493 -0.02893411070502842 0 -0.42054033720783579 -0.019489957548575139 0 -0.4122800869620814 -0.028598884326619941 0 -0.41974636942932708 -0.033862033505057461 0 -0.42208758385384493 -0.02893411070502842 0 -0.4122800869620814 -0.028598884326619941 0 -0.41687496604597613 -0.01472162196031117 0 -0.42054033720783579 -0.019489957548575139 0 -0.4122800869620814 -0.028598884326619941 0 -0.4122800869620814 -0.028598884326619941 0 -0.40359227636847522 -0.017018698422124411 0 -0.39816866339141122 -0.02654549307935793 0 -0.40359227636847522 -0.017018698422124411 0 -0.39303400581126829 -0.015628007624786749 0 -0.39816866339141122 -0.02654549307935793 0 -0.39303400581126829 -0.015628007624786749 0 -0.39816866339141122 -0.02654549307935793 0 -0.38542990347149292 -0.030098332299908728 0 -0.39303400581126829 -0.015628007624786749 0 -0.40064194747235438 -0.0061909982198865531 0 -0.38799160400118982 0.00053726488159549742 0 -0.41292517784511401 -0.0056600921692357489 0 -0.40064194747235438 -0.0061909982198865531 0 -0.40121647270610322 0.0050087728499328011 0 -0.40359227636847522 -0.017018698422124411 0 -0.39303400581126829 -0.015628007624786749 0 -0.40064194747235438 -0.0061909982198865531 0 -0.41292517784511401 -0.0056600921692357489 0 -0.40359227636847522 -0.017018698422124411 0 -0.40064194747235438 -0.0061909982198865531 0 -0.40064194747235438 -0.0061909982198865531 0 -0.38799160400118982 0.00053726488159549742 0 -0.40121647270610322 0.0050087728499328011 0 -0.39303400581126829 -0.015628007624786749 0 -0.37822993127843479 -0.014327170553603569 0 -0.38799160400118982 0.00053726488159549742 0 -0.37822993127843479 -0.014327170553603569 0 -0.38799160400118982 0.00053726488159549742 0 -0.37203850882461698 0.0062848957372474042 0 -0.39303400581126829 -0.015628007624786749 0 -0.37822993127843479 -0.014327170553603569 0 -0.38542990347149292 -0.030098332299908728 0 -0.37002654346932251 -0.034267675787211349 0 -0.37822993127843479 -0.014327170553603569 0 -0.38542990347149292 -0.030098332299908728 0 -0.38542990347149292 -0.030098332299908728 0 -0.39650704434373829 -0.041383542723349799 0 -0.37900057952374278 -0.055202559376056573 0 -0.37002654346932251 -0.034267675787211349 0 -0.38542990347149292 -0.030098332299908728 0 -0.37900057952374278 -0.055202559376056573 0 -0.4122800869620814 -0.028598884326619941 0 -0.39816866339141122 -0.02654549307935793 0 -0.39650704434373829 -0.041383542723349799 0 -0.39816866339141122 -0.02654549307935793 0 -0.38542990347149292 -0.030098332299908728 0 -0.39650704434373829 -0.041383542723349799 0 -0.39650704434373829 -0.041383542723349799 0 -0.40407650012165919 -0.054710257374691221 0 -0.37900057952374278 -0.055202559376056573 0 -0.41649780656492752 -0.04534210696750833 0 -0.39650704434373829 -0.041383542723349799 0 -0.40407650012165919 -0.054710257374691221 0 -0.40407650012165919 -0.054710257374691221 0 -0.37900057952374278 -0.055202559376056573 0 -0.38797461557816348 -0.076137442964901575 0 -0.37900057952374278 -0.055202559376056573 0 -0.38797461557816348 -0.076137442964901575 0 -0.36466438825183572 -0.08365847213759442 0 -0.37900057952374278 -0.055202559376056573 0 -0.38797461557816348 -0.076137442964901575 0 -0.36466438825183572 -0.08365847213759442 0 -0.38797461557816348 -0.076137442964901575 0 -0.38086521377009458 -0.0928811691749237 0 -0.38797461557816348 -0.076137442964901575 0 -0.38086521377009458 -0.0928811691749237 0 -0.397202334830555 -0.097664125849602407 0 -0.36466438825183572 -0.08365847213759442 0 -0.38797461557816348 -0.076137442964901575 0 -0.38797461557816348 -0.076137442964901575 0 -0.397202334830555 -0.097664125849602407 0 -0.38797461557816348 -0.076137442964901575 0 -0.40507929427344302 -0.083805690821403295 0 -0.397202334830555 -0.097664125849602407 0 -0.38797461557816348 -0.076137442964901575 0 -0.40507929427344302 -0.083805690821403295 0 -0.41057940428521611 -0.068844023088356104 0 -0.40407650012165919 -0.054710257374691221 0 -0.38797461557816348 -0.076137442964901575 0 -0.41057940428521611 -0.068844023088356104 0 -0.38797461557816348 -0.076137442964901575 0 -0.41057940428521611 -0.068844023088356104 0 -0.3724683787152856 -0.1081555192371309 0 -0.39510304457819029 -0.12686257330416181 0 -0.3724683787152856 -0.1081555192371309 0 -0.39510304457819029 -0.12686257330416181 0 -0.39029723865292731 -0.1088097988161788 0 -0.3724683787152856 -0.1081555192371309 0 -0.37548059262229422 -0.12539350184767159 0 -0.39510304457819029 -0.12686257330416181 0 -0.3724683787152856 -0.1081555192371309 0 -0.38086521377009458 -0.0928811691749237 0 -0.39029723865292731 -0.1088097988161788 0 -0.38086521377009458 -0.0928811691749237 0 -0.39029723865292731 -0.1088097988161788 0 -0.397202334830555 -0.097664125849602407 0 -0.397202334830555 -0.097664125849602407 0 -0.40643005408294708 -0.1191908087343031 0 -0.39029723865292731 -0.1088097988161788 0 -0.397202334830555 -0.097664125849602407 0 -0.40643005408294708 -0.1191908087343031 0 -0.397202334830555 -0.097664125849602407 0 -0.40643005408294708 -0.1191908087343031 0 -0.40894647016639618 -0.102564680266027 0 -0.40507929427344302 -0.083805690821403295 0 -0.397202334830555 -0.097664125849602407 0 -0.40894647016639618 -0.102564680266027 0 -0.39510304457819029 -0.12686257330416181 0 -0.39029723865292731 -0.1088097988161788 0 -0.40643005408294708 -0.1191908087343031 0 -0.41611301888908908 -0.117362088379437 0 -0.40643005408294708 -0.1191908087343031 0 -0.40894647016639618 -0.102564680266027 0 -0.41611301888908908 -0.117362088379437 0 -0.40894647016639618 -0.102564680266027 0 -0.42011534603821099 -0.089099069593315705 0 -0.41611301888908908 -0.117362088379437 0 -0.42011534603821099 -0.089099069593315705 0 -0.41611301888908908 -0.117362088379437 0 -0.43168022151334229 -0.096532273180783029 0 -0.42011534603821099 -0.089099069593315705 0 -0.41611301888908908 -0.117362088379437 0 -0.43168022151334229 -0.096532273180783029 0 -0.43475613668666879 -0.1131501071606856 0 -0.43168022151334229 -0.096532273180783029 0 -0.43475613668666879 -0.1131501071606856 0 -0.44493764252321433 -0.10148361485379299 0 -0.42759677899676318 -0.1271969377861501 0 -0.41611301888908908 -0.117362088379437 0 -0.43475613668666879 -0.1131501071606856 0 -0.42759677899676318 -0.1271969377861501 0 -0.44083147780029591 -0.12651229668786751 0 -0.43475613668666879 -0.1131501071606856 0 -0.42411767318733279 -0.060836050807194432 0 -0.41057940428521611 -0.068844023088356104 0 -0.42011534603821099 -0.089099069593315705 0 -0.40507929427344302 -0.083805690821403295 0 -0.40894647016639618 -0.102564680266027 0 -0.42011534603821099 -0.089099069593315705 0 -0.40507929427344302 -0.083805690821403295 0 -0.41057940428521611 -0.068844023088356104 0 -0.42011534603821099 -0.089099069593315705 0 -0.43168022151334229 -0.096532273180783029 0 -0.42011534603821099 -0.089099069593315705 0 -0.43026162562602221 -0.076120990384032236 0 -0.43168022151334229 -0.096532273180783029 0 -0.43026162562602221 -0.076120990384032236 0 -0.44630624249104789 -0.072386315151701811 0 -0.42411767318733279 -0.060836050807194432 0 -0.43026162562602221 -0.076120990384032236 0 -0.44630624249104789 -0.072386315151701811 0 -0.42411767318733279 -0.060836050807194432 0 -0.42011534603821099 -0.089099069593315705 0 -0.43026162562602221 -0.076120990384032236 0 -0.42411767318733279 -0.060836050807194432 0 -0.42011534603821099 -0.089099069593315705 0 -0.43168022151334229 -0.096532273180783029 0 -0.44630624249104789 -0.072386315151701811 0 -0.44493764252321433 -0.10148361485379299 0 -0.44630624249104789 -0.072386315151701811 0 -0.46329176168214298 -0.092305157064059881 0 -0.44493764252321433 -0.10148361485379299 0 -0.44630624249104789 -0.072386315151701811 0 -0.46329176168214298 -0.092305157064059881 0 -0.46555082291855832 -0.07388203920457645 0 -0.46555082291855832 -0.07388203920457645 0 -0.4699724267593644 -0.056166214755276223 0 -0.4548940153951353 -0.059763330728659851 0 -0.44630624249104789 -0.072386315151701811 0 -0.46555082291855832 -0.07388203920457645 0 -0.4548940153951353 -0.059763330728659851 0 -0.44083147780029591 -0.12651229668786751 0 -0.43475613668666879 -0.1131501071606856 0 -0.45503363089570342 -0.11558802486870361 0 -0.43475613668666879 -0.1131501071606856 0 -0.44493764252321433 -0.10148361485379299 0 -0.45503363089570342 -0.11558802486870361 0 -0.44083147780029591 -0.12651229668786751 0 -0.46348522202683068 -0.13151134872946821 0 -0.45503363089570342 -0.11558802486870361 0 -0.46329176168214298 -0.092305157064059881 0 -0.44493764252321433 -0.10148361485379299 0 -0.45503363089570342 -0.11558802486870361 0 -0.46329176168214298 -0.092305157064059881 0 -0.44493764252321433 -0.10148361485379299 0 -0.46329176168214298 -0.092305157064059881 0 -0.45503363089570342 -0.11558802486870361 0 -0.47825668394664378 -0.1122159609709556 0 -0.46348522202683068 -0.13151134872946821 0 -0.45503363089570342 -0.11558802486870361 0 -0.47825668394664378 -0.1122159609709556 0 -0.46329176168214298 -0.092305157064059881 0 -0.47825668394664378 -0.1122159609709556 0 -0.48164588084107163 -0.083126699274326837 0 -0.47825668394664378 -0.1122159609709556 0 -0.5 -0.099156992535552546 0 -0.48164588084107163 -0.083126699274326837 0 -0.47825668394664378 -0.1122159609709556 0 -0.5 -0.099156992535552546 0 -0.5 -0.1243657435865113 0 -0.48318267150509259 -0.13493245361459719 0 -0.47825668394664378 -0.1122159609709556 0 -0.5 -0.1243657435865113 0 -0.46555082291855832 -0.07388203920457645 0 -0.48388226212590663 -0.064573863282729294 0 -0.48164588084107163 -0.083126699274326837 0 -0.46555082291855832 -0.07388203920457645 0 -0.48388226212590663 -0.064573863282729294 0 -0.4699724267593644 -0.056166214755276223 0 -0.46329176168214298 -0.092305157064059881 0 -0.46555082291855832 -0.07388203920457645 0 -0.48164588084107163 -0.083126699274326837 0 -0.46329176168214298 -0.092305157064059881 0 -0.48164588084107163 -0.083126699274326837 0 -0.48164588084107163 -0.083126699274326837 0 -0.50000000000000022 -0.073948241484593752 0 -0.5 -0.099156992535552546 0 -0.48164588084107163 -0.083126699274326837 0 -0.50000000000000022 -0.073948241484593752 0 -0.48388226212590663 -0.064573863282729294 0 -0.48164588084107163 -0.083126699274326837 0 -0.50000000000000022 -0.073948241484593752 0 -0.48388226212590663 -0.064573863282729294 0 -0.5 -0.04795938665817967 0 -0.48308088631480128 -0.048368915253091983 0 -0.48388226212590663 -0.064573863282729294 0 -0.50000000000000022 -0.073948241484593752 0 -0.5 -0.04795938665817967 0 -0.5 -0.04795938665817967 0 -0.48255563422973019 -0.031414406658079423 0 -0.5 -0.02197053183176545 0 -0.5 -0.04795938665817967 0 -0.48255563422973019 -0.031414406658079423 0 -0.48308088631480128 -0.048368915253091983 0 -0.48255563422973019 -0.031414406658079423 0 -0.48308088631480128 -0.048368915253091983 0 -0.46760962616869067 -0.038994855486935438 0 -0.48308088631480128 -0.048368915253091983 0 -0.4699724267593644 -0.056166214755276223 0 -0.46760962616869067 -0.038994855486935438 0 -0.48388226212590663 -0.064573863282729294 0 -0.48308088631480128 -0.048368915253091983 0 -0.4699724267593644 -0.056166214755276223 0 -0.4699724267593644 -0.056166214755276223 0 -0.46760962616869067 -0.038994855486935438 0 -0.45451833575638267 -0.046412023165005527 0 -0.4699724267593644 -0.056166214755276223 0 -0.4548940153951353 -0.059763330728659851 0 -0.45451833575638267 -0.046412023165005527 0 -0.46760962616869067 -0.038994855486935438 0 -0.45451833575638267 -0.046412023165005527 0 -0.45315415686787991 -0.0303345047798966 0 -0.45451833575638267 -0.046412023165005527 0 -0.44045172714724268 -0.036076150142014943 0 -0.45315415686787991 -0.0303345047798966 0 -0.45451833575638267 -0.046412023165005527 0 -0.44045172714724268 -0.036076150142014943 0 -0.4381222490503231 -0.049970061366739212 0 -0.4548940153951353 -0.059763330728659851 0 -0.45451833575638267 -0.046412023165005527 0 -0.4381222490503231 -0.049970061366739212 0 -0.44630624249104789 -0.072386315151701811 0 -0.4381222490503231 -0.049970061366739212 0 -0.44630624249104789 -0.072386315151701811 0 -0.4548940153951353 -0.059763330728659851 0 -0.4381222490503231 -0.049970061366739212 0 -0.44540032395552559 -0.0089953294304930317 0 -0.44075671410489958 -0.017346925169080561 0 -0.45100689484472062 -0.017503876694877761 0 -0.44540032395552559 -0.0089953294304930317 0 -0.45100689484472062 -0.017503876694877761 0 -0.45599351980265812 -0.0052566741754170422 0 -0.44540032395552559 -0.0089953294304930317 0 -0.45599351980265812 -0.0052566741754170422 0 -0.44620267748177073 0.00097299139096816104 0 -0.44540032395552559 -0.0089953294304930317 0 -0.4396681739785489 -0.003160910463601947 0 -0.44620267748177073 0.00097299139096816104 0 -0.44540032395552559 -0.0089953294304930317 0 -0.4396681739785489 -0.003160910463601947 0 -0.43866413975334451 -0.0096295087336352135 0 -0.44540032395552559 -0.0089953294304930317 0 -0.43866413975334451 -0.0096295087336352135 0 -0.44075671410489958 -0.017346925169080561 0 -0.43529006643690998 -0.01321861184352708 0 -0.43866413975334451 -0.0096295087336352135 0 -0.44075671410489958 -0.017346925169080561 0 -0.43739478407495919 -0.02581069325070523 0 -0.43454207902688818 -0.020035262867850401 0 -0.44075671410489958 -0.017346925169080561 0 -0.43739478407495919 -0.02581069325070523 0 -0.44075671410489958 -0.017346925169080561 0 -0.44410101076828151 -0.025317166003612439 0 -0.44075671410489958 -0.017346925169080561 0 -0.44410101076828151 -0.025317166003612439 0 -0.45100689484472062 -0.017503876694877761 0 -0.43739478407495919 -0.02581069325070523 0 -0.44045172714724268 -0.036076150142014943 0 -0.44410101076828151 -0.025317166003612439 0 -0.44045172714724268 -0.036076150142014943 0 -0.44410101076828151 -0.025317166003612439 0 -0.45315415686787991 -0.0303345047798966 0 -0.44410101076828151 -0.025317166003612439 0 -0.45100689484472062 -0.017503876694877761 0 -0.45315415686787991 -0.0303345047798966 0 -0.45100689484472062 -0.017503876694877761 0 -0.45315415686787991 -0.0303345047798966 0 -0.4653195407607284 -0.019310595238361521 0 -0.46760962616869067 -0.038994855486935438 0 -0.45315415686787991 -0.0303345047798966 0 -0.4653195407607284 -0.019310595238361521 0 -0.4653195407607284 -0.019310595238361521 0 -0.45599351980265812 -0.0052566741754170422 0 -0.46852336220917778 -0.0036033625566901811 0 -0.45100689484472062 -0.017503876694877761 0 -0.4653195407607284 -0.019310595238361521 0 -0.45599351980265812 -0.0052566741754170422 0 -0.45599351980265812 -0.0052566741754170422 0 -0.46852336220917778 -0.0036033625566901811 0 -0.46170636079101351 0.0024612676253565721 0 -0.46852336220917778 -0.0036033625566901811 0 -0.47988936537257432 -0.01261086935719246 0 -0.47827070410916478 0.0028191691975869792 0 -0.4653195407607284 -0.019310595238361521 0 -0.46852336220917778 -0.0036033625566901811 0 -0.47988936537257432 -0.01261086935719246 0 -0.47988936537257432 -0.01261086935719246 0 -0.48906576234328131 -0.0032339399572213611 0 -0.47827070410916478 0.0028191691975869792 0 -0.48255563422973019 -0.031414406658079423 0 -0.4653195407607284 -0.019310595238361521 0 -0.47988936537257432 -0.01261086935719246 0 -0.48255563422973019 -0.031414406658079423 0 -0.46760962616869067 -0.038994855486935438 0 -0.4653195407607284 -0.019310595238361521 0 -0.48255563422973019 -0.031414406658079423 0 -0.47988936537257432 -0.01261086935719246 0 -0.5 -0.02197053183176545 0 -0.47988936537257432 -0.01261086935719246 0 -0.5 -0.02197053183176545 0 -0.48906576234328131 -0.0032339399572213611 0 -0.5 -0.02197053183176545 0 -0.48906576234328131 -0.0032339399572213611 0 -0.5 0.0040183229946486598 0 -0.5 0.0040183229946486598 0 -0.4872662025175597 0.0106670552007546 0 -0.5 0.03000717782106271 0 -0.48906576234328131 -0.0032339399572213611 0 -0.5 0.0040183229946486598 0 -0.4872662025175597 0.0106670552007546 0 -0.48906576234328131 -0.0032339399572213611 0 -0.4872662025175597 0.0106670552007546 0 -0.47827070410916478 0.0028191691975869792 0 -0.4872662025175597 0.0106670552007546 0 -0.5 0.03000717782106271 0 -0.49363310125877963 0.033331543924115768 0 -0.4872662025175597 0.0106670552007546 0 -0.49363310125877963 0.033331543924115768 0 -0.4872662025175597 0.0106670552007546 0 -0.48420168866030899 0.023754474792558562 0 -0.49363310125877963 0.033331543924115768 0 -0.48420168866030899 0.023754474792558562 0 -0.49363310125877963 0.033331543924115768 0 -0.48577400809527738 0.033072167522047967 0 -0.4872662025175597 0.0106670552007546 0 -0.48420168866030899 0.023754474792558562 0 -0.47626184871248922 0.016671211900412611 0 -0.48420168866030899 0.023754474792558562 0 -0.47694918957578553 0.024653506553816991 0 -0.47626184871248922 0.016671211900412611 0 -0.48420168866030899 0.023754474792558562 0 -0.48577400809527738 0.033072167522047967 0 -0.47914743128594522 0.031395416985315311 0 -0.48420168866030899 0.023754474792558562 0 -0.47694918957578553 0.024653506553816991 0 -0.47914743128594522 0.031395416985315311 0 -0.47694918957578553 0.024653506553816991 0 -0.47235094423243468 0.029809853139463448 0 -0.46708382278232252 0.021665821725143738 0 -0.47694918957578553 0.024653506553816991 0 -0.47235094423243468 0.029809853139463448 0 -0.47914743128594522 0.031395416985315311 0 -0.47694918957578553 0.024653506553816991 0 -0.47626184871248922 0.016671211900412611 0 -0.46708382278232252 0.021665821725143738 0 -0.47626184871248922 0.016671211900412611 0 -0.46861768349990662 0.0090249199554586559 0 -0.46708382278232252 0.021665821725143738 0 -0.47626184871248922 0.016671211900412611 0 -0.47827070410916478 0.0028191691975869792 0 -0.46861768349990662 0.0090249199554586559 0 -0.46852336220917778 -0.0036033625566901811 0 -0.47827070410916478 0.0028191691975869792 0 -0.46861768349990662 0.0090249199554586559 0 -0.4872662025175597 0.0106670552007546 0 -0.47626184871248922 0.016671211900412611 0 -0.47827070410916478 0.0028191691975869792 0 -0.48753344807825211 0.059567678193687558 0 -0.49999999999999972 0.055996032647476823 0 -0.49136037183617548 0.046038781974193962 0 -0.48753344807825211 0.059567678193687558 0 -0.49136037183617548 0.046038781974193962 0 -0.48112553520694618 0.04611170967916596 0 -0.5 0.03000717782106271 0 -0.49999999999999972 0.055996032647476823 0 -0.49363310125877963 0.033331543924115768 0 -0.49999999999999972 0.055996032647476823 0 -0.49136037183617548 0.046038781974193962 0 -0.49363310125877963 0.033331543924115768 0 -0.49999999999999972 0.055996032647476823 0 -0.49363310125877963 0.033331543924115768 0 -0.49136037183617548 0.046038781974193962 0 -0.48755149441403989 0.039179087219208278 0 -0.49363310125877963 0.033331543924115768 0 -0.49136037183617548 0.046038781974193962 0 -0.48755149441403989 0.039179087219208278 0 -0.48112553520694618 0.04611170967916596 0 -0.48755149441403989 0.039179087219208278 0 -0.49363310125877963 0.033331543924115768 0 -0.48577400809527738 0.033072167522047967 0 -0.48755149441403989 0.039179087219208278 0 -0.48577400809527738 0.033072167522047967 0 -0.48232658041516607 0.037765257543742152 0 -0.48232658041516607 0.037765257543742152 0 -0.47914743128594522 0.031395416985315311 0 -0.47270424038497011 0.038964275754874073 0 -0.48577400809527738 0.033072167522047967 0 -0.48232658041516607 0.037765257543742152 0 -0.47914743128594522 0.031395416985315311 0 -0.47235094423243468 0.029809853139463448 0 -0.47914743128594522 0.031395416985315311 0 -0.47270424038497011 0.038964275754874073 0 -0.47235094423243468 0.029809853139463448 0 -0.47270424038497011 0.038964275754874073 0 -0.46570625959720002 0.031969914277797148 0 -0.47270424038497011 0.038964275754874073 0 -0.47110990889056348 0.047756187485433123 0 -0.46555873076886489 0.044898213685321001 0 -0.47270424038497011 0.038964275754874073 0 -0.48112553520694618 0.04611170967916596 0 -0.47110990889056348 0.047756187485433123 0 -0.48755149441403989 0.039179087219208278 0 -0.48232658041516607 0.037765257543742152 0 -0.48112553520694618 0.04611170967916596 0 -0.48232658041516607 0.037765257543742152 0 -0.47270424038497011 0.038964275754874073 0 -0.48112553520694618 0.04611170967916596 0 -0.48753344807825211 0.059567678193687558 0 -0.48112553520694618 0.04611170967916596 0 -0.47575898016347462 0.055100643166107632 0 -0.48112553520694618 0.04611170967916596 0 -0.47110990889056348 0.047756187485433123 0 -0.47575898016347462 0.055100643166107632 0 -0.47110990889056348 0.047756187485433123 0 -0.47575898016347462 0.055100643166107632 0 -0.46521797051976188 0.055192616930261278 0 -0.47575898016347462 0.055100643166107632 0 -0.46521797051976188 0.055192616930261278 0 -0.47380803812184941 0.066875023541990153 0 -0.48753344807825211 0.059567678193687558 0 -0.47575898016347462 0.055100643166107632 0 -0.47380803812184941 0.066875023541990153 0 -0.45970209855547811 0.047398421260801071 0 -0.45299829225712401 0.056658043399806193 0 -0.46033843571384991 0.06340020303934954 0 -0.46521797051976188 0.055192616930261278 0 -0.45970209855547811 0.047398421260801071 0 -0.46033843571384991 0.06340020303934954 0 -0.45970209855547811 0.047398421260801071 0 -0.46033843571384991 0.06340020303934954 0 -0.45299829225712401 0.056658043399806193 0 -0.44997629742716361 0.066080799567643164 0 -0.46033843571384991 0.06340020303934954 0 -0.46521797051976188 0.055192616930261278 0 -0.46033843571384991 0.06340020303934954 0 -0.47380803812184941 0.066875023541990153 0 -0.47110990889056348 0.047756187485433123 0 -0.46521797051976188 0.055192616930261278 0 -0.46555873076886489 0.044898213685321001 0 -0.46521797051976188 0.055192616930261278 0 -0.45970209855547811 0.047398421260801071 0 -0.46555873076886489 0.044898213685321001 0 -0.45970209855547811 0.047398421260801071 0 -0.45057319417202568 0.050120928928533398 0 -0.45299829225712401 0.056658043399806193 0 -0.45970209855547811 0.047398421260801071 0 -0.45500361827378888 0.042428456788454028 0 -0.45057319417202568 0.050120928928533398 0 -0.45500361827378888 0.042428456788454028 0 -0.46034367822250161 0.041707877428163891 0 -0.45787386852993528 0.035009271728245923 0 -0.45970209855547811 0.047398421260801071 0 -0.45500361827378888 0.042428456788454028 0 -0.46034367822250161 0.041707877428163891 0 -0.45970209855547811 0.047398421260801071 0 -0.46034367822250161 0.041707877428163891 0 -0.46555873076886489 0.044898213685321001 0 -0.47270424038497011 0.038964275754874073 0 -0.46555873076886489 0.044898213685321001 0 -0.46427448803991422 0.038369903252392597 0 -0.46034367822250161 0.041707877428163891 0 -0.46555873076886489 0.044898213685321001 0 -0.46427448803991422 0.038369903252392597 0 -0.46570625959720002 0.031969914277797148 0 -0.45787386852993528 0.035009271728245923 0 -0.45995019361362349 0.028000360066663149 0 -0.46570625959720002 0.031969914277797148 0 -0.46427448803991422 0.038369903252392597 0 -0.45787386852993528 0.035009271728245923 0 -0.47270424038497011 0.038964275754874073 0 -0.46570625959720002 0.031969914277797148 0 -0.46427448803991422 0.038369903252392597 0 -0.45500361827378888 0.042428456788454028 0 -0.45787386852993528 0.035009271728245923 0 -0.447423776275577 0.032955092905814713 0 -0.46034367822250161 0.041707877428163891 0 -0.46427448803991422 0.038369903252392597 0 -0.45787386852993528 0.035009271728245923 0 -0.447423776275577 0.032955092905814713 0 -0.43988957079569918 0.021878131359032011 0 -0.43454670744966328 0.039090526833594298 0 -0.45500361827378888 0.042428456788454028 0 -0.447423776275577 0.032955092905814713 0 -0.43454670744966328 0.039090526833594298 0 -0.45500361827378888 0.042428456788454028 0 -0.44340352780941428 0.047814975958086432 0 -0.43454670744966328 0.039090526833594298 0 -0.45500361827378888 0.042428456788454028 0 -0.43454670744966328 0.039090526833594298 0 -0.45787386852993528 0.035009271728245923 0 -0.447423776275577 0.032955092905814713 0 -0.45241772168159888 0.026060030904514791 0 -0.45500361827378888 0.042428456788454028 0 -0.45057319417202568 0.050120928928533398 0 -0.44340352780941428 0.047814975958086432 0 -0.45057319417202568 0.050120928928533398 0 -0.44440143541710247 0.056289864202703793 0 -0.45299829225712401 0.056658043399806193 0 -0.45057319417202568 0.050120928928533398 0 -0.44340352780941428 0.047814975958086432 0 -0.44440143541710247 0.056289864202703793 0 -0.44340352780941428 0.047814975958086432 0 -0.44440143541710247 0.056289864202703793 0 -0.43535776096569062 0.054255988717860817 0 -0.44340352780941428 0.047814975958086432 0 -0.43454670744966328 0.039090526833594298 0 -0.43535776096569062 0.054255988717860817 0 -0.44440143541710247 0.056289864202703793 0 -0.44997629742716361 0.066080799567643164 0 -0.43850867289383599 0.064822036947734987 0 -0.44440143541710247 0.056289864202703793 0 -0.43535776096569062 0.054255988717860817 0 -0.43850867289383599 0.064822036947734987 0 -0.44440143541710247 0.056289864202703793 0 -0.45299829225712401 0.056658043399806193 0 -0.44997629742716361 0.066080799567643164 0 -0.46002660805604778 0.013810403178941199 0 -0.4538952122781818 0.0066858730012277602 0 -0.45122445644406362 0.017173559637686239 0 -0.46002660805604778 0.013810403178941199 0 -0.4538952122781818 0.0066858730012277602 0 -0.46170636079101351 0.0024612676253565721 0 -0.45599351980265812 -0.0052566741754170422 0 -0.4538952122781818 0.0066858730012277602 0 -0.46170636079101351 0.0024612676253565721 0 -0.46852336220917778 -0.0036033625566901811 0 -0.46170636079101351 0.0024612676253565721 0 -0.46861768349990662 0.0090249199554586559 0 -0.46002660805604778 0.013810403178941199 0 -0.46861768349990662 0.0090249199554586559 0 -0.46708382278232252 0.021665821725143738 0 -0.46002660805604778 0.013810403178941199 0 -0.46170636079101351 0.0024612676253565721 0 -0.46861768349990662 0.0090249199554586559 0 -0.46002660805604778 0.013810403178941199 0 -0.46708382278232252 0.021665821725143738 0 -0.45814446443069512 0.021343769729646751 0 -0.46570625959720002 0.031969914277797148 0 -0.46708382278232252 0.021665821725143738 0 -0.45995019361362349 0.028000360066663149 0 -0.47235094423243468 0.029809853139463448 0 -0.46570625959720002 0.031969914277797148 0 -0.46708382278232252 0.021665821725143738 0 -0.46708382278232252 0.021665821725143738 0 -0.45995019361362349 0.028000360066663149 0 -0.45814446443069512 0.021343769729646751 0 -0.45787386852993528 0.035009271728245923 0 -0.45995019361362349 0.028000360066663149 0 -0.45241772168159888 0.026060030904514791 0 -0.45995019361362349 0.028000360066663149 0 -0.45814446443069512 0.021343769729646751 0 -0.45241772168159888 0.026060030904514791 0 -0.46002660805604778 0.013810403178941199 0 -0.45814446443069512 0.021343769729646751 0 -0.45122445644406362 0.017173559637686239 0 -0.45814446443069512 0.021343769729646751 0 -0.45122445644406362 0.017173559637686239 0 -0.45241772168159888 0.026060030904514791 0 -0.45122445644406362 0.017173559637686239 0 -0.43988957079569918 0.021878131359032011 0 -0.44540461867477149 0.010828638469587841 0 -0.45122445644406362 0.017173559637686239 0 -0.45241772168159888 0.026060030904514791 0 -0.43988957079569918 0.021878131359032011 0 -0.447423776275577 0.032955092905814713 0 -0.45241772168159888 0.026060030904514791 0 -0.43988957079569918 0.021878131359032011 0 -0.43988957079569918 0.021878131359032011 0 -0.44540461867477149 0.010828638469587841 0 -0.43610390198486609 0.0066665912690996188 0 -0.4538952122781818 0.0066858730012277602 0 -0.45122445644406362 0.017173559637686239 0 -0.44540461867477149 0.010828638469587841 0 -0.45599351980265812 -0.0052566741754170422 0 -0.4538952122781818 0.0066858730012277602 0 -0.44620267748177073 0.00097299139096816104 0 -0.4538952122781818 0.0066858730012277602 0 -0.44540461867477149 0.010828638469587841 0 -0.44620267748177073 0.00097299139096816104 0 -0.44540461867477149 0.010828638469587841 0 -0.44620267748177073 0.00097299139096816104 0 -0.43610390198486609 0.0066665912690996188 0 -0.4396681739785489 -0.003160910463601947 0 -0.44620267748177073 0.00097299139096816104 0 -0.43610390198486609 0.0066665912690996188 0 -0.4319698267172376 -0.0048192968139492707 0 -0.43610390198486609 0.0066665912690996188 0 -0.42652813608172818 0.0058763536974351313 0 -0.43610390198486609 0.0066665912690996188 0 -0.42652813608172818 0.0058763536974351313 0 -0.42802432140325519 0.01580637820796579 0 -0.43988957079569918 0.021878131359032011 0 -0.43610390198486609 0.0066665912690996188 0 -0.42802432140325519 0.01580637820796579 0 -0.42652813608172818 0.0058763536974351313 0 -0.41357026872814762 0.017278699988148492 0 -0.42802432140325519 0.01580637820796579 0 -0.42175426216887341 -0.005137553796813861 0 -0.42652813608172818 0.0058763536974351313 0 -0.41357026872814762 0.017278699988148492 0 -0.42175426216887341 -0.005137553796813861 0 -0.41357026872814762 0.017278699988148492 0 -0.42175426216887341 -0.005137553796813861 0 -0.41292517784511401 -0.0056600921692357489 0 -0.41357026872814762 0.017278699988148492 0 -0.41292517784511401 -0.0056600921692357489 0 -0.41357026872814762 0.017278699988148492 0 -0.40121647270610322 0.0050087728499328011 0 -0.41292517784511401 -0.0056600921692357489 0 -0.41357026872814762 0.017278699988148492 0 -0.41357026872814762 0.017278699988148492 0 -0.4250472822700313 0.026632702444165279 0 -0.41408979662553769 0.035752596878734708 0 -0.41357026872814762 0.017278699988148492 0 -0.41408979662553769 0.035752596878734708 0 -0.41357026872814762 0.017278699988148492 0 -0.41408979662553769 0.035752596878734708 0 -0.40723400839516788 0.034633946018149182 0 -0.41357026872814762 0.017278699988148492 0 -0.40723400839516788 0.034633946018149182 0 -0.43988957079569918 0.021878131359032011 0 -0.4250472822700313 0.026632702444165279 0 -0.43454670744966328 0.039090526833594298 0 -0.41357026872814762 0.017278699988148492 0 -0.4250472822700313 0.026632702444165279 0 -0.42802432140325519 0.01580637820796579 0 -0.43988957079569918 0.021878131359032011 0 -0.4250472822700313 0.026632702444165279 0 -0.42802432140325519 0.01580637820796579 0 -0.43454670744966328 0.039090526833594298 0 -0.42365899635180981 0.052196672807742303 0 -0.41408979662553769 0.035752596878734708 0 -0.43454670744966328 0.039090526833594298 0 -0.41408979662553769 0.035752596878734708 0 -0.4250472822700313 0.026632702444165279 0 -0.43454670744966328 0.039090526833594298 0 -0.41408979662553769 0.035752596878734708 0 -0.42365899635180981 0.052196672807742303 0 -0.41501480874818192 0.068645110759304365 0 -0.42839260163492732 0.063236959837940518 0 -0.43535776096569062 0.054255988717860817 0 -0.42839260163492732 0.063236959837940518 0 -0.43850867289383599 0.064822036947734987 0 -0.43454670744966328 0.039090526833594298 0 -0.43535776096569062 0.054255988717860817 0 -0.42365899635180981 0.052196672807742303 0 -0.43535776096569062 0.054255988717860817 0 -0.42365899635180981 0.052196672807742303 0 -0.42839260163492732 0.063236959837940518 0 -0.42365899635180981 0.052196672807742303 0 -0.41455230268685861 0.052198853819019543 0 -0.41501480874818192 0.068645110759304365 0 -0.41455230268685861 0.052198853819019543 0 -0.41501480874818192 0.068645110759304365 0 -0.41455230268685861 0.052198853819019543 0 -0.40694859559318469 0.058648961602106461 0 -0.41501480874818192 0.068645110759304365 0 -0.41455230268685861 0.052198853819019543 0 -0.40694859559318469 0.058648961602106461 0 -0.40182042644428911 0.04946194261608404 0 -0.41455230268685861 0.052198853819019543 0 -0.40926141011737538 0.043776359883622558 0 -0.40182042644428911 0.04946194261608404 0 -0.41455230268685861 0.052198853819019543 0 -0.41408979662553769 0.035752596878734708 0 -0.41455230268685861 0.052198853819019543 0 -0.41408979662553769 0.035752596878734708 0 -0.40926141011737538 0.043776359883622558 0 -0.42365899635180981 0.052196672807742303 0 -0.41455230268685861 0.052198853819019543 0 -0.41408979662553769 0.035752596878734708 0 -0.41408979662553769 0.035752596878734708 0 -0.40926141011737538 0.043776359883622558 0 -0.40723400839516788 0.034633946018149182 0 -0.41408979662553769 0.035752596878734708 0 -0.40723400839516788 0.034633946018149182 0 -0.40723400839516788 0.034633946018149182 0 -0.39425640710604021 0.04217349572115902 0 -0.38794302393325708 0.031486258889445201 0 -0.40723400839516788 0.034633946018149182 0 -0.38794302393325708 0.031486258889445201 0 -0.40926141011737538 0.043776359883622558 0 -0.40723400839516788 0.034633946018149182 0 -0.40182042644428911 0.04946194261608404 0 -0.40723400839516788 0.034633946018149182 0 -0.40182042644428911 0.04946194261608404 0 -0.40723400839516788 0.034633946018149182 0 -0.39425640710604021 0.04217349572115902 0 -0.40182042644428911 0.04946194261608404 0 -0.39425640710604021 0.04217349572115902 0 -0.40182042644428911 0.04946194261608404 0 -0.39284748947410908 0.048967163849670182 0 -0.40182042644428911 0.04946194261608404 0 -0.39640684449340913 0.064289939214018488 0 -0.40694859559318469 0.058648961602106461 0 -0.40182042644428911 0.04946194261608404 0 -0.39640684449340913 0.064289939214018488 0 -0.40182042644428911 0.04946194261608404 0 -0.39284748947410908 0.048967163849670182 0 -0.39399140307362268 0.060042620787378043 0 -0.40182042644428911 0.04946194261608404 0 -0.39399140307362268 0.060042620787378043 0 -0.39640684449340913 0.064289939214018488 0 -0.39399140307362268 0.060042620787378043 0 -0.37561655745812911 0.059423997659388147 0 -0.39640684449340913 0.064289939214018488 0 -0.37561655745812911 0.059423997659388147 0 -0.39640684449340913 0.064289939214018488 0 -0.39284748947410908 0.048967163849670182 0 -0.39399140307362268 0.060042620787378043 0 -0.38132172127248459 0.044190596274059572 0 -0.39399140307362268 0.060042620787378043 0 -0.37561655745812911 0.059423997659388147 0 -0.38132172127248459 0.044190596274059572 0 -0.39399140307362268 0.060042620787378043 0 -0.38132172127248459 0.044190596274059572 0 -0.38794302393325708 0.031486258889445201 0 -0.38132172127248459 0.044190596274059572 0 -0.36865203947134628 0.028338571760741161 0 -0.39425640710604021 0.04217349572115902 0 -0.39284748947410908 0.048967163849670182 0 -0.38132172127248459 0.044190596274059572 0 -0.39425640710604021 0.04217349572115902 0 -0.38794302393325708 0.031486258889445201 0 -0.38132172127248459 0.044190596274059572 0 -0.38794302393325708 0.031486258889445201 0 -0.36865203947134628 0.028338571760741161 0 -0.39062368591687968 0.016686380554853959 0 -0.36865203947134628 0.028338571760741161 0 -0.37203850882461698 0.0062848957372474042 0 -0.38794302393325708 0.031486258889445201 0 -0.39062368591687968 0.016686380554853959 0 -0.36865203947134628 0.028338571760741161 0 -0.39062368591687968 0.016686380554853959 0 -0.38799160400118982 0.00053726488159549742 0 -0.37203850882461698 0.0062848957372474042 0 -0.39062368591687968 0.016686380554853959 0 -0.38799160400118982 0.00053726488159549742 0 -0.40121647270610322 0.0050087728499328011 0 -0.41357026872814762 0.017278699988148492 0 -0.39062368591687968 0.016686380554853959 0 -0.40121647270610322 0.0050087728499328011 0 -0.40723400839516788 0.034633946018149182 0 -0.38794302393325708 0.031486258889445201 0 -0.39062368591687968 0.016686380554853959 0 -0.41357026872814762 0.017278699988148492 0 -0.40723400839516788 0.034633946018149182 0 -0.39062368591687968 0.016686380554853959 0 -0.39997911409589598 0.093993594418459905 0 -0.39858797057805062 0.10760521555803609 0 -0.38082135493457497 0.106979158339639 0 -0.39997911409589598 0.093993594418459905 0 -0.39858797057805062 0.10760521555803609 0 -0.41111074691029142 0.1060312458039247 0 -0.39858797057805062 0.10760521555803609 0 -0.40556261572202251 0.1239381393789144 0 -0.41111074691029142 0.1060312458039247 0 -0.39858797057805062 0.10760521555803609 0 -0.40556261572202251 0.1239381393789144 0 -0.38380875914537871 0.1219181120282609 0 -0.38380875914537871 0.1219181120282609 0 -0.38082135493457497 0.106979158339639 0 -0.36654009362007028 0.11006274568212231 0 -0.39858797057805062 0.10760521555803609 0 -0.38380875914537871 0.1219181120282609 0 -0.38082135493457497 0.106979158339639 0 -0.38082135493457497 0.106979158339639 0 -0.38861409971399269 0.085634548776828995 0 -0.36993578940360339 0.092431574776179748 0 -0.39997911409589598 0.093993594418459905 0 -0.38082135493457497 0.106979158339639 0 -0.38861409971399269 0.085634548776828995 0 -0.38082135493457497 0.106979158339639 0 -0.38861409971399269 0.085634548776828995 0 -0.38861409971399269 0.085634548776828995 0 -0.37646238291840012 0.075332510733272295 0 -0.36993578940360339 0.092431574776179748 0 -0.38861409971399269 0.085634548776828995 0 -0.37646238291840012 0.075332510733272295 0 -0.39640684449340913 0.064289939214018488 0 -0.37561655745812911 0.059423997659388147 0 -0.37646238291840012 0.075332510733272295 0 -0.39640684449340913 0.064289939214018488 0 -0.38861409971399269 0.085634548776828995 0 -0.39640684449340913 0.064289939214018488 0 -0.38861409971399269 0.085634548776828995 0 -0.39640684449340913 0.064289939214018488 0 -0.40347297672387439 0.078964590091695513 0 -0.39640684449340913 0.064289939214018488 0 -0.40347297672387439 0.078964590091695513 0 -0.41501480874818192 0.068645110759304365 0 -0.40694859559318469 0.058648961602106461 0 -0.39640684449340913 0.064289939214018488 0 -0.41501480874818192 0.068645110759304365 0 -0.39640684449340913 0.064289939214018488 0 -0.41501480874818192 0.068645110759304365 0 -0.39997911409589598 0.093993594418459905 0 -0.38861409971399269 0.085634548776828995 0 -0.40347297672387439 0.078964590091695513 0 -0.39997911409589598 0.093993594418459905 0 -0.40347297672387439 0.078964590091695513 0 -0.41551796541753261 0.086536863013836673 0 -0.41551796541753261 0.086536863013836673 0 -0.41501480874818192 0.068645110759304365 0 -0.40347297672387439 0.078964590091695513 0 -0.41551796541753261 0.086536863013836673 0 -0.41501480874818192 0.068645110759304365 0 -0.41551796541753261 0.086536863013836673 0 -0.41501480874818192 0.068645110759304365 0 -0.42755784123963858 0.071580792355124906 0 -0.41501480874818192 0.068645110759304365 0 -0.42755784123963858 0.071580792355124906 0 -0.42755784123963858 0.071580792355124906 0 -0.44426630705593267 0.075491388586509639 0 -0.42755784123963858 0.071580792355124906 0 -0.43529541959224799 0.085042938565252829 0 -0.44426630705593267 0.075491388586509639 0 -0.42755784123963858 0.071580792355124906 0 -0.43850867289383599 0.064822036947734987 0 -0.44426630705593267 0.075491388586509639 0 -0.42839260163492732 0.063236959837940518 0 -0.42755784123963858 0.071580792355124906 0 -0.41501480874818192 0.068645110759304365 0 -0.42839260163492732 0.063236959837940518 0 -0.42755784123963858 0.071580792355124906 0 -0.42839260163492732 0.063236959837940518 0 -0.42755784123963858 0.071580792355124906 0 -0.43850867289383599 0.064822036947734987 0 -0.41551796541753261 0.086536863013836673 0 -0.42755784123963858 0.071580792355124906 0 -0.42485821896262838 0.098564818269808702 0 -0.43529541959224799 0.085042938565252829 0 -0.42485821896262838 0.098564818269808702 0 -0.44449931111079177 0.094534755049570401 0 -0.42755784123963858 0.071580792355124906 0 -0.43529541959224799 0.085042938565252829 0 -0.42485821896262838 0.098564818269808702 0 -0.42755784123963858 0.071580792355124906 0 -0.42485821896262838 0.098564818269808702 0 -0.42485821896262838 0.098564818269808702 0 -0.44311024861290371 0.1152547470022225 0 -0.44449931111079177 0.094534755049570401 0 -0.41551796541753261 0.086536863013836673 0 -0.42485821896262838 0.098564818269808702 0 -0.41111074691029142 0.1060312458039247 0 -0.39997911409589598 0.093993594418459905 0 -0.41551796541753261 0.086536863013836673 0 -0.41111074691029142 0.1060312458039247 0 -0.42485821896262838 0.098564818269808702 0 -0.41111074691029142 0.1060312458039247 0 -0.4221585966856185 0.1255488441844925 0 -0.40556261572202251 0.1239381393789144 0 -0.41111074691029142 0.1060312458039247 0 -0.4221585966856185 0.1255488441844925 0 -0.42485821896262838 0.098564818269808702 0 -0.44311024861290371 0.1152547470022225 0 -0.4221585966856185 0.1255488441844925 0 -0.42485821896262838 0.098564818269808702 0 -0.4221585966856185 0.1255488441844925 0 -0.44311024861290371 0.1152547470022225 0 -0.44449931111079177 0.094534755049570401 0 -0.46195214148219849 0.1039795833571272 0 -0.46195214148219849 0.1039795833571272 0 -0.4788100484614306 0.119378447231138 0 -0.46292951009217548 0.12855718189635651 0 -0.44311024861290371 0.1152547470022225 0 -0.46195214148219849 0.1039795833571272 0 -0.46292951009217548 0.12855718189635651 0 -0.46195214148219849 0.1039795833571272 0 -0.46292951009217548 0.12855718189635651 0 -0.44997629742716361 0.066080799567643164 0 -0.44426630705593267 0.075491388586509639 0 -0.46097477287222599 0.079401984817897814 0 -0.44426630705593267 0.075491388586509639 0 -0.46097477287222599 0.079401984817897814 0 -0.44997629742716361 0.066080799567643164 0 -0.43850867289383599 0.064822036947734987 0 -0.44426630705593267 0.075491388586509639 0 -0.44449931111079177 0.094534755049570401 0 -0.44426630705593267 0.075491388586509639 0 -0.46097477287222599 0.079401984817897814 0 -0.43529541959224799 0.085042938565252829 0 -0.44449931111079177 0.094534755049570401 0 -0.44426630705593267 0.075491388586509639 0 -0.44449931111079177 0.094534755049570401 0 -0.46195214148219849 0.1039795833571272 0 -0.46097477287222599 0.079401984817897814 0 -0.46195214148219849 0.1039795833571272 0 -0.46097477287222599 0.079401984817897814 0 -0.48048738643611411 0.083968888440672129 0 -0.46195214148219849 0.1039795833571272 0 -0.46097477287222599 0.079401984817897814 0 -0.46097477287222599 0.079401984817897814 0 -0.46033843571384991 0.06340020303934954 0 -0.47380803812184941 0.066875023541990153 0 -0.46097477287222599 0.079401984817897814 0 -0.46033843571384991 0.06340020303934954 0 -0.44997629742716361 0.066080799567643164 0 -0.46097477287222599 0.079401984817897814 0 -0.46033843571384991 0.06340020303934954 0 -0.47380803812184941 0.066875023541990153 0 -0.48048738643611411 0.083968888440672129 0 -0.48831342519597648 0.07350847146086438 0 -0.46097477287222599 0.079401984817897814 0 -0.47380803812184941 0.066875023541990153 0 -0.48048738643611411 0.083968888440672129 0 -0.48753344807825211 0.059567678193687558 0 -0.47380803812184941 0.066875023541990153 0 -0.48831342519597648 0.07350847146086438 0 -0.46097477287222599 0.079401984817897814 0 -0.48048738643611411 0.083968888440672129 0 -0.48048738643611411 0.083968888440672129 0 -0.50000000000000178 0.088535792063448027 0 -0.48831342519597648 0.07350847146086438 0 -0.48048738643611411 0.083968888440672129 0 -0.50000000000000178 0.088535792063448027 0 -0.48455578225695761 0.1032104770171401 0 -0.48048738643611411 0.083968888440672129 0 -0.50000000000000178 0.088535792063448027 0 -0.48753344807825211 0.059567678193687558 0 -0.49999999999999972 0.055996032647476823 0 -0.5 0.072265912355462425 0 -0.50000000000000178 0.088535792063448027 0 -0.48831342519597648 0.07350847146086438 0 -0.5 0.072265912355462425 0 -0.48753344807825211 0.059567678193687558 0 -0.48831342519597648 0.07350847146086438 0 -0.5 0.072265912355462425 0 -0.46195214148219849 0.1039795833571272 0 -0.48048738643611411 0.083968888440672129 0 -0.48455578225695761 0.1032104770171401 0 -0.46195214148219849 0.1039795833571272 0 -0.4788100484614306 0.119378447231138 0 -0.48455578225695761 0.1032104770171401 0 -0.50000000000000178 0.088535792063448027 0 -0.48455578225695761 0.1032104770171401 0 -0.5 0.11825759158349319 0 -0.4788100484614306 0.119378447231138 0 -0.48455578225695761 0.1032104770171401 0 -0.5 0.11825759158349319 0 -0.4788100484614306 0.119378447231138 0 -0.5 0.11825759158349319 0 -0.48155413866573588 0.13902323748192871 0 -0.5 0.11825759158349319 0 -0.48155413866573588 0.13902323748192871 0 -0.5 0.14797939110353839 0 -0.48155413866573588 0.13902323748192871 0 -0.46292951009217548 0.12855718189635651 0 -0.46390687870215253 0.1531347804355857 0 -0.4788100484614306 0.119378447231138 0 -0.48155413866573588 0.13902323748192871 0 -0.46292951009217548 0.12855718189635651 0 -0.48155413866573588 0.13902323748192871 0 -0.48214905983361428 0.16489995023163809 0 -0.46390687870215253 0.1531347804355857 0 -0.48155413866573588 0.13902323748192871 0 -0.5 0.14797939110353839 0 -0.48214905983361428 0.16489995023163809 0 -0.5 0.14797939110353839 0 -0.5 0.1777011906235835 0 -0.48214905983361428 0.16489995023163809 0 -0.5 0.1777011906235835 0 -0.48214905983361428 0.16489995023163809 0 -0.48061046406153157 0.19473257120408169 0 -0.48214905983361428 0.16489995023163809 0 -0.46488424731212952 0.17771237897481479 0 -0.48061046406153157 0.19473257120408169 0 -0.48214905983361428 0.16489995023163809 0 -0.46488424731212952 0.17771237897481479 0 -0.46390687870215253 0.1531347804355857 0 -0.46488424731212952 0.17771237897481479 0 -0.44063977771452351 0.16530383423460709 0 -0.46390687870215253 0.1531347804355857 0 -0.46488424731212952 0.17771237897481479 0 -0.46390687870215253 0.1531347804355857 0 -0.46488424731212952 0.17771237897481479 0 -0.46126439410218512 0.19629585824007259 0 -0.43780673053106273 0.18757789005654929 0 -0.46488424731212952 0.17771237897481479 0 -0.44063977771452351 0.16530383423460709 0 -0.43780673053106273 0.18757789005654929 0 -0.44063977771452351 0.16530383423460709 0 -0.44226371334400982 0.14034329925597991 0 -0.46390687870215253 0.1531347804355857 0 -0.44311024861290371 0.1152547470022225 0 -0.44226371334400982 0.14034329925597991 0 -0.46292951009217548 0.12855718189635651 0 -0.46292951009217548 0.12855718189635651 0 -0.46390687870215253 0.1531347804355857 0 -0.44226371334400982 0.14034329925597991 0 -0.46292951009217548 0.12855718189635651 0 -0.46390687870215253 0.1531347804355857 0 -0.47673242000928312 0.238187032335541 0 -0.5 0.23714478966367389 0 -0.47302303718544603 0.25958121429268488 0 -0.5 0.23714478966367389 0 -0.47141434013985939 0.21743741731325411 0 -0.5 0.20742299014362869 0 -0.47673242000928312 0.238187032335541 0 -0.5 0.23714478966367389 0 -0.47141434013985939 0.21743741731325411 0 -0.47141434013985939 0.21743741731325411 0 -0.5 0.20742299014362869 0 -0.48061046406153157 0.19473257120408169 0 -0.5 0.1777011906235835 0 -0.5 0.20742299014362869 0 -0.48061046406153157 0.19473257120408169 0 -0.47141434013985939 0.21743741731325411 0 -0.48061046406153157 0.19473257120408169 0 -0.46126439410218512 0.19629585824007259 0 -0.46488424731212952 0.17771237897481479 0 -0.48061046406153157 0.19473257120408169 0 -0.46126439410218512 0.19629585824007259 0 -0.46126439410218512 0.19629585824007259 0 -0.43780673053106273 0.18757789005654929 0 -0.44604952605624493 0.20657768140380639 0 -0.44604952605624493 0.20657768140380639 0 -0.44561804360186291 0.2239499988804084 0 -0.42962390525570388 0.22150045507212979 0 -0.47141434013985939 0.21743741731325411 0 -0.44604952605624493 0.20657768140380639 0 -0.44561804360186291 0.2239499988804084 0 -0.47141434013985939 0.21743741731325411 0 -0.46126439410218512 0.19629585824007259 0 -0.44604952605624493 0.20657768140380639 0 -0.47141434013985939 0.21743741731325411 0 -0.44561804360186291 0.2239499988804084 0 -0.45501906069854481 0.23821090683912119 0 -0.47673242000928312 0.238187032335541 0 -0.47141434013985939 0.21743741731325411 0 -0.45501906069854481 0.23821090683912119 0 -0.44561804360186291 0.2239499988804084 0 -0.45501906069854481 0.23821090683912119 0 -0.43236073322226581 0.23724272307596 0 -0.45501906069854481 0.23821090683912119 0 -0.43236073322226581 0.23724272307596 0 -0.4441612365741977 0.25673511424400958 0 -0.45501906069854481 0.23821090683912119 0 -0.43236073322226581 0.23724272307596 0 -0.47673242000928312 0.238187032335541 0 -0.45501906069854481 0.23821090683912119 0 -0.47302303718544603 0.25958121429268488 0 -0.40970240574598671 0.23627453931279879 0 -0.43236073322226581 0.23724272307596 0 -0.40970240574598671 0.23627453931279879 0 -0.41484550209894672 0.24432320826459319 0 -0.43236073322226581 0.23724272307596 0 -0.40970240574598671 0.23627453931279879 0 -0.43236073322226581 0.23724272307596 0 -0.41136010757757879 0.2334849478432279 0 -0.40692657036651952 0.24995822303149989 0 -0.41484550209894672 0.24432320826459319 0 -0.40497217216454651 0.24311070177407321 0 -0.40692657036651952 0.24995822303149989 0 -0.41484550209894672 0.24432320826459319 0 -0.42026562899541509 0.25502985412863438 0 -0.40970240574598671 0.23627453931279879 0 -0.41484550209894672 0.24432320826459319 0 -0.40497217216454651 0.24311070177407321 0 -0.41484550209894672 0.24432320826459319 0 -0.43236073322226581 0.23724272307596 0 -0.42026562899541509 0.25502985412863438 0 -0.43236073322226581 0.23724272307596 0 -0.4441612365741977 0.25673511424400958 0 -0.42026562899541509 0.25502985412863438 0 -0.43236073322226581 0.23724272307596 0 -0.42962390525570388 0.22150045507212979 0 -0.41136010757757879 0.2334849478432279 0 -0.44561804360186291 0.2239499988804084 0 -0.43236073322226581 0.23724272307596 0 -0.42962390525570388 0.22150045507212979 0 -0.41136010757757879 0.2334849478432279 0 -0.41405972985458872 0.20650092192854411 0 -0.41136010757757879 0.2334849478432279 0 -0.41405972985458872 0.20650092192854411 0 -0.40136404820102128 0.2196134198369378 0 -0.42962390525570388 0.22150045507212979 0 -0.41136010757757879 0.2334849478432279 0 -0.41405972985458872 0.20650092192854411 0 -0.40970240574598671 0.23627453931279879 0 -0.41136010757757879 0.2334849478432279 0 -0.40269360099429469 0.23066071478144781 0 -0.44604952605624493 0.20657768140380639 0 -0.42962390525570388 0.22150045507212979 0 -0.41405972985458872 0.20650092192854411 0 -0.43780673053106273 0.18757789005654929 0 -0.44604952605624493 0.20657768140380639 0 -0.41405972985458872 0.20650092192854411 0 -0.43780673053106273 0.18757789005654929 0 -0.41405972985458872 0.20650092192854411 0 -0.41675935213159859 0.1795168960138602 0 -0.41405972985458872 0.20650092192854411 0 -0.39085030017333688 0.19884865152152051 0 -0.41675935213159859 0.1795168960138602 0 -0.41405972985458872 0.20650092192854411 0 -0.41675935213159859 0.1795168960138602 0 -0.39085030017333688 0.19884865152152051 0 -0.3730730263439706 0.18657069553749289 0 -0.37068706204900431 0.20414520148325219 0 -0.39085030017333688 0.19884865152152051 0 -0.3797241371123517 0.21395283887230351 0 -0.38949593234818408 0.21578950112436279 0 -0.39085030017333688 0.19884865152152051 0 -0.3797241371123517 0.21395283887230351 0 -0.37068706204900431 0.20414520148325219 0 -0.3797241371123517 0.21395283887230351 0 -0.38949593234818408 0.21578950112436279 0 -0.3844105622791999 0.22412614587951249 0 -0.41405972985458872 0.20650092192854411 0 -0.39085030017333688 0.19884865152152051 0 -0.40136404820102128 0.2196134198369378 0 -0.39085030017333688 0.19884865152152051 0 -0.38949593234818408 0.21578950112436279 0 -0.40136404820102128 0.2196134198369378 0 -0.40970240574598671 0.23627453931279879 0 -0.40269360099429469 0.23066071478144781 0 -0.3907624828866324 0.23364316989043871 0 -0.40136404820102128 0.2196134198369378 0 -0.40269360099429469 0.23066071478144781 0 -0.39915455535105088 0.22677747532139611 0 -0.41136010757757879 0.2334849478432279 0 -0.40136404820102128 0.2196134198369378 0 -0.40269360099429469 0.23066071478144781 0 -0.40269360099429469 0.23066071478144781 0 -0.39915455535105088 0.22677747532139611 0 -0.39548283501803277 0.2288950999333583 0 -0.39915455535105088 0.22677747532139611 0 -0.39548283501803277 0.2288950999333583 0 -0.39355296065267881 0.22429503237975459 0 -0.40269360099429469 0.23066071478144781 0 -0.39548283501803277 0.2288950999333583 0 -0.3907624828866324 0.23364316989043871 0 -0.39548283501803277 0.2288950999333583 0 -0.3907624828866324 0.23364316989043871 0 -0.39016197150273041 0.2281515507765158 0 -0.39548283501803277 0.2288950999333583 0 -0.39355296065267881 0.22429503237975459 0 -0.39016197150273041 0.2281515507765158 0 -0.38949593234818408 0.21578950112436279 0 -0.40136404820102128 0.2196134198369378 0 -0.39355296065267881 0.22429503237975459 0 -0.40136404820102128 0.2196134198369378 0 -0.39915455535105088 0.22677747532139611 0 -0.39355296065267881 0.22429503237975459 0 -0.38949593234818408 0.21578950112436279 0 -0.39355296065267881 0.22429503237975459 0 -0.3844105622791999 0.22412614587951249 0 -0.39355296065267881 0.22429503237975459 0 -0.3844105622791999 0.22412614587951249 0 -0.39016197150273041 0.2281515507765158 0 -0.37953675136023612 0.22936726202726279 0 -0.38704407826970783 0.23530635554963711 0 -0.37060934380322141 0.2346041041112216 0 -0.3844105622791999 0.22412614587951249 0 -0.37953675136023612 0.22936726202726279 0 -0.3719237393343221 0.22122333495940219 0 -0.3797241371123517 0.21395283887230351 0 -0.3844105622791999 0.22412614587951249 0 -0.3719237393343221 0.22122333495940219 0 -0.37953675136023612 0.22936726202726279 0 -0.38660101667710778 0.22979830579951499 0 -0.38704407826970783 0.23530635554963711 0 -0.3844105622791999 0.22412614587951249 0 -0.37953675136023612 0.22936726202726279 0 -0.38660101667710778 0.22979830579951499 0 -0.3844105622791999 0.22412614587951249 0 -0.38660101667710778 0.22979830579951499 0 -0.39016197150273041 0.2281515507765158 0 -0.3907624828866324 0.23364316989043871 0 -0.38660101667710778 0.22979830579951499 0 -0.39016197150273041 0.2281515507765158 0 -0.3907624828866324 0.23364316989043871 0 -0.38660101667710778 0.22979830579951499 0 -0.38704407826970783 0.23530635554963711 0 -0.38704407826970783 0.23530635554963711 0 -0.38761511271137639 0.24174476991737229 0 -0.38111790534787121 0.2440677382871172 0 -0.38704407826970783 0.23530635554963711 0 -0.38111790534787121 0.2440677382871172 0 -0.36235234653569892 0.24635059047066729 0 -0.38704407826970783 0.23530635554963711 0 -0.37060934380322141 0.2346041041112216 0 -0.3907624828866324 0.23364316989043871 0 -0.38704407826970783 0.23530635554963711 0 -0.38704407826970783 0.23530635554963711 0 -0.38761511271137639 0.24174476991737229 0 -0.391792338904629 0.2403814233099838 0 -0.38761511271137639 0.24174476991737229 0 -0.38111790534787121 0.2440677382871172 0 -0.39050612832329762 0.24722356252275121 0 -0.38111790534787121 0.2440677382871172 0 -0.39050612832329762 0.24722356252275121 0 -0.37826527845029989 0.25176026066619023 0 -0.38761511271137639 0.24174476991737229 0 -0.39050612832329762 0.24722356252275121 0 -0.391792338904629 0.2403814233099838 0 -0.39050612832329762 0.24722356252275121 0 -0.39846739545131299 0.24563645714437701 0 -0.39772511417130868 0.25529034627664898 0 -0.40970240574598671 0.23627453931279879 0 -0.38704407826970783 0.23530635554963711 0 -0.39050612832329762 0.24722356252275121 0 -0.39530951495719618 0.2426279295274435 0 -0.39846739545131299 0.24563645714437701 0 -0.40970240574598671 0.23627453931279879 0 -0.38704407826970783 0.23530635554963711 0 -0.39793151703518259 0.24008048359181139 0 -0.40970240574598671 0.23627453931279879 0 -0.3907624828866324 0.23364316989043871 0 -0.38704407826970783 0.23530635554963711 0 -0.39530951495719618 0.2426279295274435 0 -0.39793151703518259 0.24008048359181139 0 -0.39846739545131299 0.24563645714437701 0 -0.39050612832329762 0.24722356252275121 0 -0.39530951495719618 0.2426279295274435 0 -0.391792338904629 0.2403814233099838 0 -0.38704407826970783 0.23530635554963711 0 -0.391792338904629 0.2403814233099838 0 -0.39793151703518259 0.24008048359181139 0 -0.39530951495719618 0.2426279295274435 0 -0.391792338904629 0.2403814233099838 0 -0.39793151703518259 0.24008048359181139 0 -0.40970240574598671 0.23627453931279879 0 -0.39793151703518259 0.24008048359181139 0 -0.40497217216454651 0.24311070177407321 0 -0.40692657036651952 0.24995822303149989 0 -0.40497217216454651 0.24311070177407321 0 -0.39846739545131299 0.24563645714437701 0 -0.39793151703518259 0.24008048359181139 0 -0.40497217216454651 0.24311070177407321 0 -0.39846739545131299 0.24563645714437701 0 -0.40556261572202251 0.1239381393789144 0 -0.41945897440860858 0.1525328700991764 0 -0.39650107630712822 0.1377826036727976 0 -0.40556261572202251 0.1239381393789144 0 -0.41945897440860858 0.1525328700991764 0 -0.4221585966856185 0.1255488441844925 0 -0.41945897440860858 0.1525328700991764 0 -0.4221585966856185 0.1255488441844925 0 -0.44226371334400982 0.14034329925597991 0 -0.41945897440860858 0.1525328700991764 0 -0.4221585966856185 0.1255488441844925 0 -0.44311024861290371 0.1152547470022225 0 -0.44226371334400982 0.14034329925597991 0 -0.4221585966856185 0.1255488441844925 0 -0.44063977771452351 0.16530383423460709 0 -0.44226371334400982 0.14034329925597991 0 -0.41945897440860858 0.1525328700991764 0 -0.44063977771452351 0.16530383423460709 0 -0.41945897440860858 0.1525328700991764 0 -0.41675935213159859 0.1795168960138602 0 -0.44063977771452351 0.16530383423460709 0 -0.43780673053106273 0.18757789005654929 0 -0.41675935213159859 0.1795168960138602 0 -0.41945897440860858 0.1525328700991764 0 -0.41675935213159859 0.1795168960138602 0 -0.41945897440860858 0.1525328700991764 0 -0.41675935213159859 0.1795168960138602 0 -0.3992234739170214 0.15308675169421329 0 -0.39085030017333688 0.19884865152152051 0 -0.38283211101335612 0.164965534760113 0 -0.3730730263439706 0.18657069553749289 0 -0.39085030017333688 0.19884865152152051 0 -0.41675935213159859 0.1795168960138602 0 -0.38283211101335612 0.164965534760113 0 -0.41675935213159859 0.1795168960138602 0 -0.38283211101335612 0.164965534760113 0 -0.3992234739170214 0.15308675169421329 0 -0.38283211101335612 0.164965534760113 0 -0.38079696567351651 0.14090490263795119 0 -0.3992234739170214 0.15308675169421329 0 -0.41945897440860858 0.1525328700991764 0 -0.3992234739170214 0.15308675169421329 0 -0.39650107630712822 0.1377826036727976 0 -0.38079696567351651 0.14090490263795119 0 -0.3992234739170214 0.15308675169421329 0 -0.39650107630712822 0.1377826036727976 0 -0.40556261572202251 0.1239381393789144 0 -0.38380875914537871 0.1219181120282609 0 -0.39650107630712822 0.1377826036727976 0 -0.38380875914537871 0.1219181120282609 0 -0.38079696567351651 0.14090490263795119 0 -0.39650107630712822 0.1377826036727976 0 -0.38380875914537871 0.1219181120282609 0 -0.38079696567351651 0.14090490263795119 0 -0.36536776775110069 0.125091990334742 0 -0.38079696567351651 0.14090490263795119 0 -0.36536776775110069 0.125091990334742 0 -0.3597026358461668 0.14159015088512869 0 -0.36536776775110069 0.125091990334742 0 -0.3597026358461668 0.14159015088512869 0 -0.36536776775110069 0.125091990334742 0 -0.35201084841478819 0.12964123374150921 0 -0.3597026358461668 0.14159015088512869 0 -0.35201084841478819 0.12964123374150921 0 -0.34395308509305977 0.1404918607576689 0 -0.3597026358461668 0.14159015088512869 0 -0.35201084841478819 0.12964123374150921 0 -0.34395308509305977 0.1404918607576689 0 -0.33877415096397662 0.12487259899829969 0 -0.34395308509305977 0.1404918607576689 0 -0.3597026358461668 0.14159015088512869 0 -0.35403750394123601 0.15808831143551649 0 -0.3597026358461668 0.14159015088512869 0 -0.35403750394123601 0.15808831143551649 0 -0.38283211101335612 0.164965534760113 0 -0.3597026358461668 0.14159015088512869 0 -0.35403750394123601 0.15808831143551649 0 -0.38283211101335612 0.164965534760113 0 -0.38079696567351651 0.14090490263795119 0 -0.3597026358461668 0.14159015088512869 0 -0.38283211101335612 0.164965534760113 0 -0.36332829605651662 0.17445862259705899 0 -0.35403750394123601 0.15808831143551649 0 -0.38283211101335612 0.164965534760113 0 -0.35403750394123601 0.15808831143551649 0 -0.38283211101335612 0.164965534760113 0 -0.3730730263439706 0.18657069553749289 0 -0.36332829605651662 0.17445862259705899 0 -0.3730730263439706 0.18657069553749289 0 -0.36332829605651662 0.17445862259705899 0 -0.35761747989275089 0.19359045655184251 0 -0.36332829605651662 0.17445862259705899 0 -0.34690343978674459 0.1788643388559894 0 -0.35761747989275089 0.19359045655184251 0 -0.34690343978674459 0.1788643388559894 0 -0.35403750394123601 0.15808831143551649 0 -0.33976603567990749 0.16480064004342879 0 -0.34690343978674459 0.1788643388559894 0 -0.35403750394123601 0.15808831143551649 0 -0.36332829605651662 0.17445862259705899 0 -0.34690343978674459 0.1788643388559894 0 -0.35403750394123601 0.15808831143551649 0 -0.33976603567990749 0.16480064004342879 0 -0.31654027774332211 0.1610546260524911 0 -0.33006816305607178 0.15236354117566309 0 -0.33976603567990749 0.16480064004342879 0 -0.32896530630339832 0.18085675438645379 0 -0.31654027774332211 0.1610546260524911 0 -0.35403750394123601 0.15808831143551649 0 -0.33976603567990749 0.16480064004342879 0 -0.33006816305607178 0.15236354117566309 0 -0.34690343978674459 0.1788643388559894 0 -0.32896530630339832 0.18085675438645379 0 -0.33976937563225618 0.19964036627646339 0 -0.34690343978674459 0.1788643388559894 0 -0.33976603567990749 0.16480064004342879 0 -0.32896530630339832 0.18085675438645379 0 -0.32896530630339832 0.18085675438645379 0 -0.32054074535086369 0.19488366941319579 0 -0.31119094707992823 0.17723599075179669 0 -0.32896530630339832 0.18085675438645379 0 -0.31654027774332211 0.1610546260524911 0 -0.31119094707992823 0.17723599075179669 0 -0.31441211703180583 0.13629084620275461 0 -0.33006816305607178 0.15236354117566309 0 -0.30609882217090761 0.1466387709158094 0 -0.31441211703180583 0.13629084620275461 0 -0.32997088367159932 0.13474508429625351 0 -0.33006816305607178 0.15236354117566309 0 -0.33006816305607178 0.15236354117566309 0 -0.30609882217090761 0.1466387709158094 0 -0.31654027774332211 0.1610546260524911 0 -0.33006816305607178 0.15236354117566309 0 -0.30609882217090761 0.1466387709158094 0 -0.31441211703180583 0.13629084620275461 0 -0.32997088367159932 0.13474508429625351 0 -0.32264690221308262 0.1197065743468811 0 -0.32997088367159932 0.13474508429625351 0 -0.33877415096397662 0.12487259899829969 0 -0.32264690221308262 0.1197065743468811 0 -0.34395308509305977 0.1404918607576689 0 -0.32997088367159932 0.13474508429625351 0 -0.33877415096397662 0.12487259899829969 0 -0.34395308509305977 0.1404918607576689 0 -0.32997088367159932 0.13474508429625351 0 -0.33006816305607178 0.15236354117566309 0 -0.35403750394123601 0.15808831143551649 0 -0.33006816305607178 0.15236354117566309 0 -0.34395308509305977 0.1404918607576689 0 -0.35403750394123601 0.15808831143551649 0 -0.33006816305607178 0.15236354117566309 0 -0.34569496300427188 0.2440017587673283 0 -0.36235234653569892 0.24635059047066729 0 -0.3376606148016903 0.25739482539169811 0 -0.34569496300427188 0.2440017587673283 0 -0.36235234653569892 0.24635059047066729 0 -0.35417460933673522 0.23390185267280561 0 -0.34569496300427188 0.2440017587673283 0 -0.35417460933673522 0.23390185267280561 0 -0.33981316914066578 0.2337869247610618 0 -0.36235234653569892 0.24635059047066729 0 -0.37060934380322141 0.2346041041112216 0 -0.35417460933673522 0.23390185267280561 0 -0.38111790534787121 0.2440677382871172 0 -0.36235234653569892 0.24635059047066729 0 -0.37826527845029989 0.25176026066619023 0 -0.38704407826970783 0.23530635554963711 0 -0.36235234653569892 0.24635059047066729 0 -0.37060934380322141 0.2346041041112216 0 -0.38704407826970783 0.23530635554963711 0 -0.36235234653569892 0.24635059047066729 0 -0.37060934380322141 0.2346041041112216 0 -0.36066872620289608 0.22409251842501851 0 -0.35417460933673522 0.23390185267280561 0 -0.37060934380322141 0.2346041041112216 0 -0.35417460933673522 0.23390185267280561 0 -0.37953675136023612 0.22936726202726279 0 -0.37060934380322141 0.2346041041112216 0 -0.3719237393343221 0.22122333495940219 0 -0.37060934380322141 0.2346041041112216 0 -0.3719237393343221 0.22122333495940219 0 -0.36066872620289608 0.22409251842501851 0 -0.3719237393343221 0.22122333495940219 0 -0.36066872620289608 0.22409251842501851 0 -0.35780535600140789 0.21221622439284299 0 -0.36066872620289608 0.22409251842501851 0 -0.34680943300339873 0.22173259612981641 0 -0.35780535600140789 0.21221622439284299 0 -0.36066872620289608 0.22409251842501851 0 -0.35417460933673522 0.23390185267280561 0 -0.34680943300339873 0.22173259612981641 0 -0.35417460933673522 0.23390185267280561 0 -0.34680943300339873 0.22173259612981641 0 -0.33981316914066578 0.2337869247610618 0 -0.34680943300339873 0.22173259612981641 0 -0.35780535600140789 0.21221622439284299 0 -0.33976937563225618 0.19964036627646339 0 -0.3797241371123517 0.21395283887230351 0 -0.3719237393343221 0.22122333495940219 0 -0.37068706204900431 0.20414520148325219 0 -0.3719237393343221 0.22122333495940219 0 -0.35780535600140789 0.21221622439284299 0 -0.37068706204900431 0.20414520148325219 0 -0.35780535600140789 0.21221622439284299 0 -0.37068706204900431 0.20414520148325219 0 -0.35761747989275089 0.19359045655184251 0 -0.3730730263439706 0.18657069553749289 0 -0.37068706204900431 0.20414520148325219 0 -0.35761747989275089 0.19359045655184251 0 -0.34690343978674459 0.1788643388559894 0 -0.35761747989275089 0.19359045655184251 0 -0.33976937563225618 0.19964036627646339 0 -0.35780535600140789 0.21221622439284299 0 -0.35761747989275089 0.19359045655184251 0 -0.33976937563225618 0.19964036627646339 0 -0.34690343978674459 0.1788643388559894 0 -0.33976937563225618 0.19964036627646339 0 -0.32896530630339832 0.18085675438645379 0 -0.33976937563225618 0.19964036627646339 0 -0.32054074535086369 0.19488366941319579 0 -0.33976937563225618 0.19964036627646339 0 -0.32054074535086369 0.19488366941319579 0 -0.32493194979751611 0.208566676650841 0 -0.32054074535086369 0.19488366941319579 0 -0.32493194979751611 0.208566676650841 0 -0.31272307914969921 0.20748618597364701 0 -0.32493194979751611 0.208566676650841 0 -0.31272307914969921 0.20748618597364701 0 -0.31899123737699342 0.22040676789396119 0 -0.32493194979751611 0.208566676650841 0 -0.33263531147776781 0.2204163936969375 0 -0.31899123737699342 0.22040676789396119 0 -0.33976937563225618 0.19964036627646339 0 -0.32493194979751611 0.208566676650841 0 -0.33263531147776781 0.2204163936969375 0 -0.33976937563225618 0.19964036627646339 0 -0.33263531147776781 0.2204163936969375 0 -0.34680943300339873 0.22173259612981641 0 -0.33976937563225618 0.19964036627646339 0 -0.33263531147776781 0.2204163936969375 0 -0.34680943300339873 0.22173259612981641 0 -0.33981316914066578 0.2337869247610618 0 -0.33263531147776781 0.2204163936969375 0 -0.33981316914066578 0.2337869247610618 0 -0.33263531147776781 0.2204163936969375 0 -0.32559401777877423 0.23338632668689249 0 -0.31899123737699342 0.22040676789396119 0 -0.32559401777877423 0.23338632668689249 0 -0.30982455351041871 0.23264793601633019 0 -0.33263531147776781 0.2204163936969375 0 -0.31899123737699342 0.22040676789396119 0 -0.32559401777877423 0.23338632668689249 0 -0.32559401777877423 0.23338632668689249 0 -0.31875924685522528 0.24616042079054279 0 -0.33354058831157429 0.24689951696252191 0 -0.32559401777877423 0.23338632668689249 0 -0.31875924685522528 0.24616042079054279 0 -0.30982455351041871 0.23264793601633019 0 -0.33981316914066578 0.2337869247610618 0 -0.32559401777877423 0.23338632668689249 0 -0.33354058831157429 0.24689951696252191 0 -0.34569496300427188 0.2440017587673283 0 -0.33981316914066578 0.2337869247610618 0 -0.33354058831157429 0.24689951696252191 0 -0.34569496300427188 0.2440017587673283 0 -0.33354058831157429 0.24689951696252191 0 -0.3376606148016903 0.25739482539169811 0 -0.28600277993529832 0.23838996215932051 0 -0.2871715501425276 0.25146481010122479 0 -0.27536664966378049 0.25081494847495139 0 -0.28600277993529832 0.23838996215932051 0 -0.29624449644572542 0.24640028867459079 0 -0.29982447122616079 0.23687339641714589 0 -0.28600277993529832 0.23838996215932051 0 -0.29624449644572542 0.24640028867459079 0 -0.2871715501425276 0.25146481010122479 0 -0.29624449644572542 0.24640028867459079 0 -0.30673695490874908 0.24460114126013249 0 -0.30324097338677741 0.25261313164408389 0 -0.29624449644572542 0.24640028867459079 0 -0.30673695490874908 0.24460114126013249 0 -0.29982447122616079 0.23687339641714589 0 -0.31875924685522528 0.24616042079054279 0 -0.30673695490874908 0.24460114126013249 0 -0.3100089513962373 0.25057921991536941 0 -0.30673695490874908 0.24460114126013249 0 -0.3100089513962373 0.25057921991536941 0 -0.30324097338677741 0.25261313164408389 0 -0.30673695490874908 0.24460114126013249 0 -0.29982447122616079 0.23687339641714589 0 -0.30982455351041871 0.23264793601633019 0 -0.31875924685522528 0.24616042079054279 0 -0.30673695490874908 0.24460114126013249 0 -0.30982455351041871 0.23264793601633019 0 -0.29982447122616079 0.23687339641714589 0 -0.30982455351041871 0.23264793601633019 0 -0.29642128947606328 0.2269454574420777 0 -0.30982455351041871 0.23264793601633019 0 -0.30554851311663761 0.22021219176469231 0 -0.29642128947606328 0.2269454574420777 0 -0.31899123737699342 0.22040676789396119 0 -0.30982455351041871 0.23264793601633019 0 -0.30554851311663761 0.22021219176469231 0 -0.30554851311663761 0.22021219176469231 0 -0.29642128947606328 0.2269454574420777 0 -0.29422345445479697 0.2168027626923173 0 -0.29642128947606328 0.2269454574420777 0 -0.28650594173796851 0.22403886843039819 0 -0.29422345445479697 0.2168027626923173 0 -0.28600277993529832 0.23838996215932051 0 -0.29642128947606328 0.2269454574420777 0 -0.28650594173796851 0.22403886843039819 0 -0.28600277993529832 0.23838996215932051 0 -0.29982447122616079 0.23687339641714589 0 -0.29642128947606328 0.2269454574420777 0 -0.28600277993529832 0.23838996215932051 0 -0.28650594173796851 0.22403886843039819 0 -0.27543488604545913 0.2251316058186244 0 -0.28650594173796851 0.22403886843039819 0 -0.28331647558898099 0.21382056530693749 0 -0.27543488604545913 0.2251316058186244 0 -0.28650594173796851 0.22403886843039819 0 -0.28331647558898099 0.21382056530693749 0 -0.29422345445479697 0.2168027626923173 0 -0.28331647558898099 0.21382056530693749 0 -0.29243303778448593 0.20568199622285799 0 -0.28081102774886968 0.20187381708954999 0 -0.29243303778448593 0.20568199622285799 0 -0.29422345445479697 0.2168027626923173 0 -0.3014655988928624 0.21008436198072761 0 -0.28331647558898099 0.21382056530693749 0 -0.29243303778448593 0.20568199622285799 0 -0.29422345445479697 0.2168027626923173 0 -0.30554851311663761 0.22021219176469231 0 -0.29422345445479697 0.2168027626923173 0 -0.3014655988928624 0.21008436198072761 0 -0.31272307914969921 0.20748618597364701 0 -0.30554851311663761 0.22021219176469231 0 -0.3014655988928624 0.21008436198072761 0 -0.31272307914969921 0.20748618597364701 0 -0.31899123737699342 0.22040676789396119 0 -0.30554851311663761 0.22021219176469231 0 -0.31272307914969921 0.20748618597364701 0 -0.3014655988928624 0.21008436198072761 0 -0.30375011112767192 0.19600975833567971 0 -0.29243303778448593 0.20568199622285799 0 -0.3014655988928624 0.21008436198072761 0 -0.30375011112767192 0.19600975833567971 0 -0.32054074535086369 0.19488366941319579 0 -0.30375011112767192 0.19600975833567971 0 -0.31119094707992823 0.17723599075179669 0 -0.32054074535086369 0.19488366941319579 0 -0.31272307914969921 0.20748618597364701 0 -0.30375011112767192 0.19600975833567971 0 -0.30375011112767192 0.19600975833567971 0 -0.29103155889373372 0.19550071193193591 0 -0.29437029651895857 0.18198338583178311 0 -0.29243303778448593 0.20568199622285799 0 -0.30375011112767192 0.19600975833567971 0 -0.29103155889373372 0.19550071193193591 0 -0.29103155889373372 0.19550071193193591 0 -0.28083694750733518 0.19186544845063161 0 -0.28081102774886968 0.20187381708954999 0 -0.29243303778448593 0.20568199622285799 0 -0.29103155889373372 0.19550071193193591 0 -0.28081102774886968 0.20187381708954999 0 -0.29103155889373372 0.19550071193193591 0 -0.28083694750733518 0.19186544845063161 0 -0.29437029651895857 0.18198338583178311 0 -0.28083694750733518 0.19186544845063161 0 -0.27721137922020261 0.19753336956887771 0 -0.27137896781182319 0.19586016192013969 0 -0.28083694750733518 0.19186544845063161 0 -0.28081102774886968 0.20187381708954999 0 -0.27721137922020261 0.19753336956887771 0 -0.28081102774886968 0.20187381708954999 0 -0.27417285122415969 0.20228355923108221 0 -0.27721137922020261 0.19753336956887771 0 -0.27417285122415969 0.20228355923108221 0 -0.27721137922020261 0.19753336956887771 0 -0.27395777048543668 0.19879906553127311 0 -0.27721137922020261 0.19753336956887771 0 -0.27395777048543668 0.19879906553127311 0 -0.27137896781182319 0.19586016192013969 0 -0.27417285122415969 0.20228355923108221 0 -0.27137896781182319 0.19586016192013969 0 -0.27167204095554781 0.20844628786344649 0 -0.27417285122415969 0.20228355923108221 0 -0.27395777048543668 0.19879906553127311 0 -0.27137896781182319 0.19586016192013969 0 -0.27137896781182319 0.19586016192013969 0 -0.25518017195996012 0.2005698172994633 0 -0.25142495546179461 0.18412353535203721 0 -0.27137896781182319 0.19586016192013969 0 -0.25142495546179461 0.18412353535203721 0 -0.25518017195996012 0.2005698172994633 0 -0.26293896620582108 0.21554923493476319 0 -0.24367674414336929 0.20849085494803801 0 -0.27137896781182319 0.19586016192013969 0 -0.25518017195996012 0.2005698172994633 0 -0.26293896620582108 0.21554923493476319 0 -0.26293896620582108 0.21554923493476319 0 -0.2441634223761299 0.2224491798210092 0 -0.24367674414336929 0.20849085494803801 0 -0.28331647558898099 0.21382056530693749 0 -0.27167204095554781 0.20844628786344649 0 -0.27543488604545913 0.2251316058186244 0 -0.26293896620582108 0.21554923493476319 0 -0.27167204095554781 0.20844628786344649 0 -0.27543488604545913 0.2251316058186244 0 -0.27137896781182319 0.19586016192013969 0 -0.26293896620582108 0.21554923493476319 0 -0.27167204095554781 0.20844628786344649 0 -0.27137896781182319 0.19586016192013969 0 -0.26293896620582108 0.21554923493476319 0 -0.28081102774886968 0.20187381708954999 0 -0.27417285122415969 0.20228355923108221 0 -0.27167204095554781 0.20844628786344649 0 -0.28331647558898099 0.21382056530693749 0 -0.28081102774886968 0.20187381708954999 0 -0.27167204095554781 0.20844628786344649 0 -0.27543488604545913 0.2251316058186244 0 -0.26570159193782028 0.22900640757398741 0 -0.26993355090018278 0.2401064815931758 0 -0.26293896620582108 0.21554923493476319 0 -0.27543488604545913 0.2251316058186244 0 -0.26570159193782028 0.22900640757398741 0 -0.26293896620582108 0.21554923493476319 0 -0.25449896459981808 0.2352383079493863 0 -0.2441634223761299 0.2224491798210092 0 -0.26293896620582108 0.21554923493476319 0 -0.25449896459981808 0.2352383079493863 0 -0.26293896620582108 0.21554923493476319 0 -0.26570159193782028 0.22900640757398741 0 -0.25449896459981808 0.2352383079493863 0 -0.25449896459981808 0.2352383079493863 0 -0.26227556017115827 0.2482947710732244 0 -0.25229645693426739 0.25131093157207129 0 -0.25449896459981808 0.2352383079493863 0 -0.26227556017115827 0.2482947710732244 0 -0.26993355090018278 0.2401064815931758 0 -0.26570159193782028 0.22900640757398741 0 -0.25449896459981808 0.2352383079493863 0 -0.26993355090018278 0.2401064815931758 0 -0.28600277993529832 0.23838996215932051 0 -0.27543488604545913 0.2251316058186244 0 -0.26993355090018278 0.2401064815931758 0 -0.28600277993529832 0.23838996215932051 0 -0.26993355090018278 0.2401064815931758 0 -0.27536664966378049 0.25081494847495139 0 -0.26227556017115827 0.2482947710732244 0 -0.26993355090018278 0.2401064815931758 0 -0.27536664966378049 0.25081494847495139 0 -0.29343785112377041 0.144400578803349 0 -0.28240840946779727 0.17013037036174461 0 -0.27005336248595452 0.15401484431370499 0 -0.29343785112377041 0.144400578803349 0 -0.28662309478490799 0.12764924817616469 0 -0.30446729277974499 0.11867078724495431 0 -0.29343785112377041 0.144400578803349 0 -0.28662309478490799 0.12764924817616469 0 -0.27743068120846531 0.1391089679707726 0 -0.29343785112377041 0.144400578803349 0 -0.30446729277974499 0.11867078724495431 0 -0.31441211703180583 0.13629084620275461 0 -0.30446729277974499 0.11867078724495431 0 -0.31441211703180583 0.13629084620275461 0 -0.29343785112377041 0.144400578803349 0 -0.30446729277974499 0.11867078724495431 0 -0.31441211703180583 0.13629084620275461 0 -0.29343785112377041 0.144400578803349 0 -0.30609882217090761 0.1466387709158094 0 -0.29343785112377041 0.144400578803349 0 -0.30609882217090761 0.1466387709158094 0 -0.29951145687478109 0.16275574747037491 0 -0.31654027774332211 0.1610546260524911 0 -0.30609882217090761 0.1466387709158094 0 -0.29951145687478109 0.16275574747037491 0 -0.31654027774332211 0.1610546260524911 0 -0.29951145687478109 0.16275574747037491 0 -0.31119094707992823 0.17723599075179669 0 -0.30375011112767192 0.19600975833567971 0 -0.31119094707992823 0.17723599075179669 0 -0.29437029651895857 0.18198338583178311 0 -0.29951145687478109 0.16275574747037491 0 -0.31119094707992823 0.17723599075179669 0 -0.29437029651895857 0.18198338583178311 0 -0.28083694750733518 0.19186544845063161 0 -0.29437029651895857 0.18198338583178311 0 -0.28240840946779727 0.17013037036174461 0 -0.29343785112377041 0.144400578803349 0 -0.29951145687478109 0.16275574747037491 0 -0.28240840946779727 0.17013037036174461 0 -0.29343785112377041 0.144400578803349 0 -0.28240840946779727 0.17013037036174461 0 -0.29951145687478109 0.16275574747037491 0 -0.29437029651895857 0.18198338583178311 0 -0.28240840946779727 0.17013037036174461 0 -0.28240840946779727 0.17013037036174461 0 -0.26502622510250878 0.1741718925360122 0 -0.27005336248595452 0.15401484431370499 0 -0.28083694750733518 0.19186544845063161 0 -0.27137896781182319 0.19586016192013969 0 -0.28240840946779727 0.17013037036174461 0 -0.27137896781182319 0.19586016192013969 0 -0.28240840946779727 0.17013037036174461 0 -0.26502622510250878 0.1741718925360122 0 -0.27137896781182319 0.19586016192013969 0 -0.28240840946779727 0.17013037036174461 0 -0.26502622510250878 0.1741718925360122 0 -0.25142495546179461 0.18412353535203721 0 -0.24972726195975689 0.16459083960150919 0 -0.27137896781182319 0.19586016192013969 0 -0.26502622510250878 0.1741718925360122 0 -0.25142495546179461 0.18412353535203721 0 -0.26502622510250878 0.1741718925360122 0 -0.27005336248595452 0.15401484431370499 0 -0.24972726195975689 0.16459083960150919 0 -0.25530662570780011 0.14629516069610701 0 -0.27005336248595452 0.15401484431370499 0 -0.26573632248106449 0.13714517169297891 0 -0.25530662570780011 0.14629516069610701 0 -0.27005336248595452 0.15401484431370499 0 -0.24972726195975689 0.16459083960150919 0 -0.29343785112377041 0.144400578803349 0 -0.27005336248595452 0.15401484431370499 0 -0.27743068120846531 0.1391089679707726 0 -0.27005336248595452 0.15401484431370499 0 -0.26573632248106449 0.13714517169297891 0 -0.27743068120846531 0.1391089679707726 0 -0.28662309478490799 0.12764924817616469 0 -0.27743068120846531 0.1391089679707726 0 -0.27319949779351838 0.1227894177070559 0 -0.26573632248106449 0.13714517169297891 0 -0.27743068120846531 0.1391089679707726 0 -0.27319949779351838 0.1227894177070559 0 -0.25530662570780011 0.14629516069610701 0 -0.26573632248106449 0.13714517169297891 0 -0.25381967755359491 0.1306499179073019 0 -0.26573632248106449 0.13714517169297891 0 -0.25381967755359491 0.1306499179073019 0 -0.27319949779351838 0.1227894177070559 0 -0.25530662570780011 0.14629516069610701 0 -0.25381967755359491 0.1306499179073019 0 -0.24253051559948041 0.1379041430146255 0 -0.27319949779351838 0.1227894177070559 0 -0.24889714246483091 0.11019029206286041 0 -0.25151923828495082 0.120968316735636 0 -0.27319949779351838 0.1227894177070559 0 -0.24889714246483091 0.11019029206286041 0 -0.27238153862286968 0.1048379505910569 0 -0.27319949779351838 0.1227894177070559 0 -0.24889714246483091 0.11019029206286041 0 -0.25381967755359491 0.1306499179073019 0 -0.25151923828495082 0.120968316735636 0 -0.27319949779351838 0.1227894177070559 0 -0.27090893197330529 0.098629972367312385 0 -0.27238153862286968 0.1048379505910569 0 -0.24889714246483091 0.11019029206286041 0 -0.27090893197330529 0.098629972367312385 0 -0.24889714246483091 0.11019029206286041 0 -0.27090893197330529 0.098629972367312385 0 -0.25404006688174058 0.093306486373413988 0 -0.24889714246483091 0.11019029206286041 0 -0.27090893197330529 0.098629972367312385 0 -0.28229121521675848 0.099967639984191101 0 -0.28806949057133019 0.089617459165194591 0 -0.27090893197330529 0.098629972367312385 0 -0.28806949057133019 0.089617459165194591 0 -0.27090893197330529 0.098629972367312385 0 -0.27238153862286968 0.1048379505910569 0 -0.27238153862286968 0.1048379505910569 0 -0.2854888663426951 0.1129989812559986 0 -0.28229121521675848 0.099967639984191101 0 -0.27090893197330529 0.098629972367312385 0 -0.27238153862286968 0.1048379505910569 0 -0.28229121521675848 0.099967639984191101 0 -0.27238153862286968 0.1048379505910569 0 -0.27319949779351838 0.1227894177070559 0 -0.2854888663426951 0.1129989812559986 0 -0.28662309478490799 0.12764924817616469 0 -0.2854888663426951 0.1129989812559986 0 -0.30446729277974499 0.11867078724495431 0 -0.28662309478490799 0.12764924817616469 0 -0.27319949779351838 0.1227894177070559 0 -0.2854888663426951 0.1129989812559986 0 -0.2854888663426951 0.1129989812559986 0 -0.29626839167553809 0.1041441232050742 0 -0.30446729277974499 0.11867078724495431 0 -0.2854888663426951 0.1129989812559986 0 -0.28229121521675848 0.099967639984191101 0 -0.29626839167553809 0.1041441232050742 0 -0.28229121521675848 0.099967639984191101 0 -0.29626839167553809 0.1041441232050742 0 -0.28806949057133019 0.089617459165194591 0 -0.29626839167553809 0.1041441232050742 0 -0.30204120293159881 0.091950027561837233 0 -0.28806949057133019 0.089617459165194591 0 -0.29626839167553809 0.1041441232050742 0 -0.28806949057133019 0.089617459165194591 0 -0.30446729277974499 0.11867078724495431 0 -0.314323522982352 0.095677896346678712 0 -0.29626839167553809 0.1041441232050742 0 -0.30446729277974499 0.11867078724495431 0 -0.314323522982352 0.095677896346678712 0 -0.29626839167553809 0.1041441232050742 0 -0.30204120293159881 0.091950027561837233 0 -0.314323522982352 0.095677896346678712 0 -0.29626839167553809 0.1041441232050742 0 -0.30446729277974499 0.11867078724495431 0 -0.30098813321931511 0.06360860297942833 0 -0.32101767605650361 0.062059787858963149 0 -0.30098813321931511 0.06360860297942833 0 -0.30945700519905939 0.06776103807798281 0 -0.32101767605650361 0.062059787858963149 0 -0.30463281235793988 0.070579713758730983 0 -0.30018725328420998 0.074595668167635631 0 -0.30062239306550997 0.069861091228202776 0 -0.30018725328420998 0.074595668167635631 0 -0.30062239306550997 0.069861091228202776 0 -0.29640852404627588 0.069484805083606674 0 -0.30062239306550997 0.069861091228202776 0 -0.30098813321931511 0.06360860297942833 0 -0.29640852404627588 0.069484805083606674 0 -0.30463281235793988 0.070579713758730983 0 -0.30062239306550997 0.069861091228202776 0 -0.30098813321931511 0.06360860297942833 0 -0.30463281235793988 0.070579713758730983 0 -0.30098813321931511 0.06360860297942833 0 -0.30945700519905939 0.06776103807798281 0 -0.30463281235793988 0.070579713758730983 0 -0.30018725328420998 0.074595668167635631 0 -0.30950340649717512 0.078360631530401501 0 -0.30945700519905939 0.06776103807798281 0 -0.30950340649717512 0.078360631530401501 0 -0.3183979601590658 0.068209453059697472 0 -0.30463281235793988 0.070579713758730983 0 -0.30945700519905939 0.06776103807798281 0 -0.30950340649717512 0.078360631530401501 0 -0.30950340649717512 0.078360631530401501 0 -0.28806949057133019 0.089617459165194591 0 -0.30950340649717512 0.078360631530401501 0 -0.30204120293159881 0.091950027561837233 0 -0.28806949057133019 0.089617459165194591 0 -0.30950340649717512 0.078360631530401501 0 -0.30204120293159881 0.091950027561837233 0 -0.314323522982352 0.095677896346678712 0 -0.30018725328420998 0.074595668167635631 0 -0.30950340649717512 0.078360631530401501 0 -0.28806949057133019 0.089617459165194591 0 -0.30018725328420998 0.074595668167635631 0 -0.28806949057133019 0.089617459165194591 0 -0.29185972793881659 0.075710526360693628 0 -0.28806949057133019 0.089617459165194591 0 -0.27629625669534102 0.068757857249560822 0 -0.29185972793881659 0.075710526360693628 0 -0.28817755881034318 0.06931318388297282 0 -0.27629625669534102 0.068757857249560822 0 -0.28806949057133019 0.089617459165194591 0 -0.29185972793881659 0.075710526360693628 0 -0.27629625669534102 0.068757857249560822 0 -0.30098813321931511 0.06360860297942833 0 -0.28214050668453639 0.065066024609031478 0 -0.30098813321931511 0.06360860297942833 0 -0.28214050668453639 0.065066024609031478 0 -0.28817755881034318 0.06931318388297282 0 -0.30018725328420998 0.074595668167635631 0 -0.29185972793881659 0.075710526360693628 0 -0.29640852404627588 0.069484805083606674 0 -0.29185972793881659 0.075710526360693628 0 -0.29640852404627588 0.069484805083606674 0 -0.28817755881034318 0.06931318388297282 0 -0.30098813321931511 0.06360860297942833 0 -0.29640852404627588 0.069484805083606674 0 -0.28817755881034318 0.06931318388297282 0 -0.28214050668453639 0.065066024609031478 0 -0.28817755881034318 0.06931318388297282 0 -0.27629625669534102 0.068757857249560822 0 -0.28214050668453639 0.065066024609031478 0 -0.26329288014975771 0.066523446238634903 0 -0.27629625669534102 0.068757857249560822 0 -0.26710090606153009 0.082576709302973977 0 -0.26329288014975771 0.066523446238634903 0 -0.28214050668453639 0.065066024609031478 0 -0.27629625669534102 0.068757857249560822 0 -0.26329288014975771 0.066523446238634903 0 -0.27090893197330529 0.098629972367312385 0 -0.28806949057133019 0.089617459165194591 0 -0.26710090606153009 0.082576709302973977 0 -0.28806949057133019 0.089617459165194591 0 -0.27629625669534102 0.068757857249560822 0 -0.26710090606153009 0.082576709302973977 0 -0.27090893197330529 0.098629972367312385 0 -0.26710090606153009 0.082576709302973977 0 -0.27090893197330529 0.098629972367312385 0 -0.26710090606153009 0.082576709302973977 0 -0.25404006688174058 0.093306486373413988 0 -0.26710090606153009 0.082576709302973977 0 -0.25265526695048818 0.079365345819586625 0 -0.25404006688174058 0.093306486373413988 0 -0.26710090606153009 0.082576709302973977 0 -0.25265526695048818 0.079365345819586625 0 -0.26329288014975771 0.066523446238634903 0 -0.26710090606153009 0.082576709302973977 0 -0.26329288014975771 0.066523446238634903 0 -0.26329288014975771 0.066523446238634903 0 -0.24012836039028501 0.068314678257930112 0 -0.25265526695048818 0.079365345819586625 0 -0.26329288014975771 0.066523446238634903 0 -0.24012836039028501 0.068314678257930112 0 -0.26329288014975771 0.066523446238634903 0 -0.25094551235685097 0.057524555460862242 0 -0.24012836039028501 0.068314678257930112 0 -0.26329288014975771 0.066523446238634903 0 -0.25793548831916108 0.043938615571038453 0 -0.26329288014975771 0.066523446238634903 0 -0.25094551235685097 0.057524555460862242 0 -0.25793548831916108 0.043938615571038453 0 -0.25793548831916108 0.043938615571038453 0 -0.25257809648856722 0.02135378490344125 0 -0.25094551235685097 0.057524555460862242 0 -0.25793548831916108 0.043938615571038453 0 -0.2420331275840443 0.03578301161824618 0 -0.25793548831916108 0.043938615571038453 0 -0.25257809648856722 0.02135378490344125 0 -0.2420331275840443 0.03578301161824618 0 -0.25793548831916108 0.043938615571038453 0 -0.27645568852087532 0.04666336701506555 0 -0.27334481287366691 0.02168269014461207 0 -0.28214050668453639 0.065066024609031478 0 -0.26329288014975771 0.066523446238634903 0 -0.27645568852087532 0.04666336701506555 0 -0.26329288014975771 0.066523446238634903 0 -0.25793548831916108 0.043938615571038453 0 -0.27645568852087532 0.04666336701506555 0 -0.25104969481709388 0.0027995750929572191 0 -0.27334481287366691 0.02168269014461207 0 -0.26866788232579908 -0.00301361942992469 0 -0.25104969481709388 0.0027995750929572191 0 -0.27334481287366691 0.02168269014461207 0 -0.25104969481709388 0.0027995750929572191 0 -0.25257809648856722 0.02135378490344125 0 -0.27334481287366691 0.02168269014461207 0 -0.25793548831916108 0.043938615571038453 0 -0.25257809648856722 0.02135378490344125 0 -0.27334481287366691 0.02168269014461207 0 -0.26866788232579908 -0.00301361942992469 0 -0.27334481287366691 0.02168269014461207 0 -0.28910755669714538 0.01242098748723785 0 -0.28910755669714538 0.01242098748723785 0 -0.29563993093023949 0.040565805196267443 0 -0.27334481287366691 0.02168269014461207 0 -0.29563993093023949 0.040565805196267443 0 -0.27334481287366691 0.02168269014461207 0 -0.28910755669714538 0.01242098748723785 0 -0.29563993093023949 0.040565805196267443 0 -0.28910755669714538 0.01242098748723785 0 -0.30849425852344109 0.032483125991794308 0 -0.31701134865447278 0.019912421290162519 0 -0.28910755669714538 0.01242098748723785 0 -0.29563993093023949 0.040565805196267443 0 -0.30849425852344109 0.032483125991794308 0 -0.31157846232882469 -0.0020487417102012791 0 -0.28910755669714538 0.01242098748723785 0 -0.31701134865447278 0.019912421290162519 0 -0.30098813321931511 0.06360860297942833 0 -0.28214050668453639 0.065066024609031478 0 -0.29563993093023949 0.040565805196267443 0 -0.28214050668453639 0.065066024609031478 0 -0.27645568852087532 0.04666336701506555 0 -0.29563993093023949 0.040565805196267443 0 -0.27645568852087532 0.04666336701506555 0 -0.27334481287366691 0.02168269014461207 0 -0.29563993093023949 0.040565805196267443 0 -0.29563993093023949 0.040565805196267443 0 -0.308328803493371 0.051312796527615889 0 -0.29563993093023949 0.040565805196267443 0 -0.30753273511937212 0.041890239340197061 0 -0.308328803493371 0.051312796527615889 0 -0.29563993093023949 0.040565805196267443 0 -0.30849425852344109 0.032483125991794308 0 -0.30753273511937212 0.041890239340197061 0 -0.30753273511937212 0.041890239340197061 0 -0.308328803493371 0.051312796527615889 0 -0.31625964299369391 0.045531583564431183 0 -0.30849425852344109 0.032483125991794308 0 -0.30753273511937212 0.041890239340197061 0 -0.31625964299369391 0.045531583564431183 0 -0.30098813321931511 0.06360860297942833 0 -0.29563993093023949 0.040565805196267443 0 -0.308328803493371 0.051312796527615889 0 -0.30098813321931511 0.06360860297942833 0 -0.308328803493371 0.051312796527615889 0 -0.32101767605650361 0.062059787858963149 0 -0.30098813321931511 0.06360860297942833 0 -0.29563993093023949 0.040565805196267443 0 -0.308328803493371 0.051312796527615889 0 -0.32101767605650361 0.062059787858963149 0 -0.32475085148543992 0.061771114343110931 0 -0.33403598338756879 0.049692114550128792 0 -0.32417975318496051 0.072685005448403769 0 -0.308328803493371 0.051312796527615889 0 -0.32101767605650361 0.062059787858963149 0 -0.32087859148331538 0.054073479368849688 0 -0.32087859148331538 0.054073479368849688 0 -0.31625964299369391 0.045531583564431183 0 -0.33403598338756879 0.049692114550128792 0 -0.31625964299369391 0.045531583564431183 0 -0.33403598338756879 0.049692114550128792 0 -0.32475085148543992 0.061771114343110931 0 -0.32087859148331538 0.054073479368849688 0 -0.33403598338756879 0.049692114550128792 0 -0.32101767605650361 0.062059787858963149 0 -0.32475085148543992 0.061771114343110931 0 -0.32087859148331538 0.054073479368849688 0 -0.32101767605650361 0.062059787858963149 0 -0.32475085148543992 0.061771114343110931 0 -0.308328803493371 0.051312796527615889 0 -0.32087859148331538 0.054073479368849688 0 -0.31625964299369391 0.045531583564431183 0 -0.30849425852344109 0.032483125991794308 0 -0.31625964299369391 0.045531583564431183 0 -0.32855093627730653 0.033071619793527331 0 -0.31625964299369391 0.045531583564431183 0 -0.32855093627730653 0.033071619793527331 0 -0.33403598338756879 0.049692114550128792 0 -0.32855093627730653 0.033071619793527331 0 -0.33403598338756879 0.049692114550128792 0 -0.34485402703631318 0.024455478205903491 0 -0.33403598338756879 0.049692114550128792 0 -0.34485402703631318 0.024455478205903491 0 -0.33403598338756879 0.049692114550128792 0 -0.35482627042284909 0.054558056104757953 0 -0.34199623010650021 0.06680258875134984 0 -0.33403598338756879 0.049692114550128792 0 -0.32417975318496051 0.072685005448403769 0 -0.31157846232882469 -0.0020487417102012791 0 -0.31701134865447278 0.019912421290162519 0 -0.33181605002713671 0.0068701727920727103 0 -0.30849425852344109 0.032483125991794308 0 -0.32855093627730653 0.033071619793527331 0 -0.31701134865447278 0.019912421290162519 0 -0.32855093627730653 0.033071619793527331 0 -0.31701134865447278 0.019912421290162519 0 -0.34485402703631318 0.024455478205903491 0 -0.31701134865447278 0.019912421290162519 0 -0.34485402703631318 0.024455478205903491 0 -0.31701134865447278 0.019912421290162519 0 -0.33181605002713671 0.0068701727920727103 0 -0.34485402703631318 0.024455478205903491 0 -0.33181605002713671 0.0068701727920727103 0 -0.35207847136047882 0.0076020913904775072 0 -0.34485402703631318 0.024455478205903491 0 -0.35207847136047882 0.0076020913904775072 0 -0.34485402703631318 0.024455478205903491 0 -0.36865203947134628 0.028338571760741161 0 -0.34485402703631318 0.024455478205903491 0 -0.36865203947134628 0.028338571760741161 0 -0.35363630789640421 0.040128165024737067 0 -0.34485402703631318 0.024455478205903491 0 -0.36865203947134628 0.028338571760741161 0 -0.35207847136047882 0.0076020913904775072 0 -0.34485402703631318 0.024455478205903491 0 -0.35207847136047882 0.0076020913904775072 0 -0.36865203947134628 0.028338571760741161 0 -0.35207847136047882 0.0076020913904775072 0 -0.36865203947134628 0.028338571760741161 0 -0.37203850882461698 0.0062848957372474042 0 -0.3610525074149023 -0.01333279219836611 0 -0.35207847136047882 0.0076020913904775072 0 -0.37203850882461698 0.0062848957372474042 0 -0.33403598338756879 0.049692114550128792 0 -0.35482627042284909 0.054558056104757953 0 -0.33403598338756879 0.049692114550128792 0 -0.35482627042284909 0.054558056104757953 0 -0.35363630789640421 0.040128165024737067 0 -0.33403598338756879 0.049692114550128792 0 -0.34485402703631318 0.024455478205903491 0 -0.35363630789640421 0.040128165024737067 0 -0.35482627042284909 0.054558056104757953 0 -0.35363630789640421 0.040128165024737067 0 -0.36581321916394371 0.0435966045021524 0 -0.38132172127248459 0.044190596274059572 0 -0.36865203947134628 0.028338571760741161 0 -0.36581321916394371 0.0435966045021524 0 -0.38132172127248459 0.044190596274059572 0 -0.36865203947134628 0.028338571760741161 0 -0.36865203947134628 0.028338571760741161 0 -0.35363630789640421 0.040128165024737067 0 -0.36581321916394371 0.0435966045021524 0 -0.37561655745812911 0.059423997659388147 0 -0.35482627042284909 0.054558056104757953 0 -0.36581321916394371 0.0435966045021524 0 -0.37561655745812911 0.059423997659388147 0 -0.38132172127248459 0.044190596274059572 0 -0.36581321916394371 0.0435966045021524 0 -0.37561655745812911 0.059423997659388147 0 -0.35482627042284909 0.054558056104757953 0 -0.37561655745812911 0.059423997659388147 0 -0.37646238291840012 0.075332510733272295 0 -0.35974647109432561 0.075910400959346314 0 -0.37561655745812911 0.059423997659388147 0 -0.35482627042284909 0.054558056104757953 0 -0.35974647109432561 0.075910400959346314 0 -0.35974647109432561 0.075910400959346314 0 -0.34199623010650021 0.06680258875134984 0 -0.33820371603681731 0.085395829820610308 0 -0.35482627042284909 0.054558056104757953 0 -0.35974647109432561 0.075910400959346314 0 -0.34199623010650021 0.06680258875134984 0 -0.35974647109432561 0.075910400959346314 0 -0.35305895017337557 0.097522639223631066 0 -0.33820371603681731 0.085395829820610308 0 -0.37646238291840012 0.075332510733272295 0 -0.35974647109432561 0.075910400959346314 0 -0.36993578940360339 0.092431574776179748 0 -0.35974647109432561 0.075910400959346314 0 -0.36993578940360339 0.092431574776179748 0 -0.35305895017337557 0.097522639223631066 0 -0.38082135493457497 0.106979158339639 0 -0.36993578940360339 0.092431574776179748 0 -0.36654009362007028 0.11006274568212231 0 -0.36993578940360339 0.092431574776179748 0 -0.36654009362007028 0.11006274568212231 0 -0.35305895017337557 0.097522639223631066 0 -0.38380875914537871 0.1219181120282609 0 -0.36536776775110069 0.125091990334742 0 -0.36654009362007028 0.11006274568212231 0 -0.36536776775110069 0.125091990334742 0 -0.36654009362007028 0.11006274568212231 0 -0.35199850630366059 0.1148492177900447 0 -0.36536776775110069 0.125091990334742 0 -0.35201084841478819 0.12964123374150921 0 -0.35199850630366059 0.1148492177900447 0 -0.35201084841478819 0.12964123374150921 0 -0.35199850630366059 0.1148492177900447 0 -0.33877415096397662 0.12487259899829969 0 -0.36654009362007028 0.11006274568212231 0 -0.35199850630366059 0.1148492177900447 0 -0.35305895017337557 0.097522639223631066 0 -0.35199850630366059 0.1148492177900447 0 -0.35305895017337557 0.097522639223631066 0 -0.33642289047639978 0.1058906797575013 0 -0.33642289047639978 0.1058906797575013 0 -0.314323522982352 0.095677896346678712 0 -0.33820371603681731 0.085395829820610308 0 -0.35305895017337557 0.097522639223631066 0 -0.33642289047639978 0.1058906797575013 0 -0.33820371603681731 0.085395829820610308 0 -0.35199850630366059 0.1148492177900447 0 -0.33642289047639978 0.1058906797575013 0 -0.33877415096397662 0.12487259899829969 0 -0.33642289047639978 0.1058906797575013 0 -0.33877415096397662 0.12487259899829969 0 -0.32264690221308262 0.1197065743468811 0 -0.31441211703180583 0.13629084620275461 0 -0.30446729277974499 0.11867078724495431 0 -0.32264690221308262 0.1197065743468811 0 -0.30446729277974499 0.11867078724495431 0 -0.32264690221308262 0.1197065743468811 0 -0.314323522982352 0.095677896346678712 0 -0.33642289047639978 0.1058906797575013 0 -0.32264690221308262 0.1197065743468811 0 -0.314323522982352 0.095677896346678712 0 -0.314323522982352 0.095677896346678712 0 -0.32417975318496051 0.072685005448403769 0 -0.30950340649717512 0.078360631530401501 0 -0.314323522982352 0.095677896346678712 0 -0.32417975318496051 0.072685005448403769 0 -0.314323522982352 0.095677896346678712 0 -0.32417975318496051 0.072685005448403769 0 -0.33820371603681731 0.085395829820610308 0 -0.30950340649717512 0.078360631530401501 0 -0.3183979601590658 0.068209453059697472 0 -0.32417975318496051 0.072685005448403769 0 -0.30945700519905939 0.06776103807798281 0 -0.32101767605650361 0.062059787858963149 0 -0.3183979601590658 0.068209453059697472 0 -0.32475085148543992 0.061771114343110931 0 -0.32403258215740149 0.064613298391125312 0 -0.32417975318496051 0.072685005448403769 0 -0.3183979601590658 0.068209453059697472 0 -0.32403258215740149 0.064613298391125312 0 -0.32417975318496051 0.072685005448403769 0 -0.32101767605650361 0.062059787858963149 0 -0.3183979601590658 0.068209453059697472 0 -0.32403258215740149 0.064613298391125312 0 -0.32101767605650361 0.062059787858963149 0 -0.32403258215740149 0.064613298391125312 0 -0.32101767605650361 0.062059787858963149 0 -0.32475085148543992 0.061771114343110931 0 -0.32403258215740149 0.064613298391125312 0 -0.32417975318496051 0.072685005448403769 0 -0.34199623010650021 0.06680258875134984 0 -0.33820371603681731 0.085395829820610308 0 -0.33403598338756879 0.049692114550128792 0 -0.32417975318496051 0.072685005448403769 0 -0.34199623010650021 0.06680258875134984 0 -0.42890732375446883 0.5 0 -0.342575168757566 0.50000000000000122 0 -0.36321657600328933 0.49192753304480391 0 -0.38385798324901221 0.48385506608960549 0 -0.42890732375446883 0.5 0 -0.36321657600328933 0.49192753304480391 0 -0.4037925669968041 0.47919460873369157 0 -0.38385798324901221 0.48385506608960549 0 -0.42890732375446883 0.5 0 -0.40449939049473582 0.47578259913440912 0 -0.38385798324901221 0.48385506608960549 0 -0.40449939049473582 0.47578259913440912 0 -0.38942991414608558 0.47927548412826232 0 -0.38396584924428429 0.46658140459500858 0 -0.40449939049473582 0.47578259913440912 0 -0.4037925669968041 0.47919460873369157 0 -0.38385798324901221 0.48385506608960549 0 -0.40449939049473582 0.47578259913440912 0 -0.38942991414608558 0.47927548412826232 0 -0.38385798324901221 0.48385506608960549 0 -0.40449939049473582 0.47578259913440912 0 -0.40729617406012408 0.46228184201492512 0 -0.40449939049473582 0.47578259913440912 0 -0.4037925669968041 0.47919460873369157 0 -0.38147729306670808 0.47673716894456031 0 -0.38385798324901221 0.48385506608960549 0 -0.36986940127135909 0.47916746290539491 0 -0.38147729306670808 0.47673716894456031 0 -0.38942991414608558 0.47927548412826232 0 -0.38385798324901221 0.48385506608960549 0 -0.38942991414608558 0.47927548412826232 0 -0.38396584924428429 0.46658140459500858 0 -0.38147729306670808 0.47673716894456031 0 -0.38942991414608558 0.47927548412826232 0 -0.38396584924428429 0.46658140459500858 0 -0.38147729306670808 0.47673716894456031 0 -0.38396584924428429 0.46658140459500858 0 -0.36986940127135909 0.47916746290539491 0 -0.38396584924428429 0.46658140459500858 0 -0.37401024794670101 0.44345261733791702 0 -0.38396584924428429 0.46658140459500858 0 -0.39466434528530192 0.44577642686176988 0 -0.37401024794670101 0.44345261733791702 0 -0.39466434528530192 0.44577642686176988 0 -0.40729617406012408 0.46228184201492512 0 -0.41281366650346912 0.43564755886503348 0 -0.38396584924428429 0.46658140459500858 0 -0.39466434528530192 0.44577642686176988 0 -0.40729617406012408 0.46228184201492512 0 -0.38396584924428429 0.46658140459500858 0 -0.40729617406012408 0.46228184201492512 0 -0.40449939049473582 0.47578259913440912 0 -0.38396584924428429 0.46658140459500858 0 -0.40729617406012408 0.46228184201492512 0 -0.40729617406012408 0.46228184201492512 0 -0.42729546073051572 0.45859615888475952 0 -0.42543093835358692 0.46759666363106361 0 -0.40449939049473582 0.47578259913440912 0 -0.40729617406012408 0.46228184201492512 0 -0.42543093835358692 0.46759666363106361 0 -0.40729617406012408 0.46228184201492512 0 -0.42729546073051572 0.45859615888475952 0 -0.40729617406012408 0.46228184201492512 0 -0.42729546073051572 0.45859615888475952 0 -0.41281366650346912 0.43564755886503348 0 -0.40729617406012408 0.46228184201492512 0 -0.41281366650346912 0.43564755886503348 0 -0.43610315803916372 0.44204973668074837 0 -0.42729546073051572 0.45859615888475952 0 -0.44729474740090208 0.454910475754564 0 -0.43610315803916372 0.44204973668074837 0 -0.42729546073051572 0.45859615888475952 0 -0.41281366650346912 0.43564755886503348 0 -0.42543093835358692 0.46759666363106361 0 -0.44636248621243879 0.4594107281277201 0 -0.42729546073051572 0.45859615888475952 0 -0.42543093835358692 0.46759666363106361 0 -0.44636248621243879 0.4594107281277201 0 -0.42729546073051572 0.45859615888475952 0 -0.44729474740090208 0.454910475754564 0 -0.42543093835358692 0.46759666363106361 0 -0.42890732375446883 0.5 0 -0.45327804387861081 0.47997576901390171 0 -0.4037925669968041 0.47919460873369157 0 -0.42543093835358692 0.46759666363106361 0 -0.42890732375446883 0.5 0 -0.40449939049473582 0.47578259913440912 0 -0.4037925669968041 0.47919460873369157 0 -0.42543093835358692 0.46759666363106361 0 -0.40449939049473582 0.47578259913440912 0 -0.42543093835358692 0.46759666363106361 0 -0.42890732375446883 0.5 0 -0.45327804387861081 0.47997576901390171 0 -0.5 0.5 0 -0.42543093835358692 0.46759666363106361 0 -0.45327804387861081 0.47997576901390171 0 -0.44636248621243879 0.4594107281277201 0 -0.45327804387861081 0.47997576901390171 0 -0.48061706104244217 0.47764411781192062 0 -0.46188790630119508 0.46706385189447769 0 -0.45327804387861081 0.47997576901390171 0 -0.46188790630119508 0.46706385189447769 0 -0.44636248621243879 0.4594107281277201 0 -0.5 0.5 0 -0.48061706104244217 0.47764411781192062 0 -0.49999999999999278 0.44519738630399031 0 -0.45327804387861081 0.47997576901390171 0 -0.5 0.5 0 -0.48061706104244217 0.47764411781192062 0 -0.48061706104244217 0.47764411781192062 0 -0.49999999999999278 0.44519738630399031 0 -0.48364701703564061 0.44821108946417881 0 -0.49999999999999278 0.44519738630399031 0 -0.49562308116566622 0.44014583401369411 0 -0.48364701703564061 0.44821108946417881 0 -0.49999999999999278 0.44519738630399031 0 -0.48364701703564061 0.44821108946417881 0 -0.49562308116566622 0.44014583401369411 0 -0.48145855761847839 0.44568531331903533 0 -0.48669173526727588 0.43250402602753968 0 -0.49562308116566622 0.44014583401369411 0 -0.48145855761847839 0.44568531331903533 0 -0.48364701703564061 0.44821108946417881 0 -0.49562308116566622 0.44014583401369411 0 -0.48145855761847839 0.44568531331903533 0 -0.48061706104244217 0.47764411781192062 0 -0.46729403407128911 0.45122479262437271 0 -0.46188790630119508 0.46706385189447769 0 -0.48061706104244217 0.47764411781192062 0 -0.48364701703564061 0.44821108946417881 0 -0.46729403407128911 0.45122479262437271 0 -0.48145855761847839 0.44568531331903533 0 -0.46729403407128911 0.45122479262437271 0 -0.46729403407128911 0.45122479262437271 0 -0.46453113313609939 0.43326478838794019 0 -0.4757928232462405 0.43716386962256221 0 -0.48145855761847839 0.44568531331903533 0 -0.48364701703564061 0.44821108946417881 0 -0.46729403407128911 0.45122479262437271 0 -0.48364701703564061 0.44821108946417881 0 -0.46729403407128911 0.45122479262437271 0 -0.48145855761847839 0.44568531331903533 0 -0.4757928232462405 0.43716386962256221 0 -0.48669173526727588 0.43250402602753968 0 -0.48145855761847839 0.44568531331903533 0 -0.46729403407128911 0.45122479262437271 0 -0.4757928232462405 0.43716386962256221 0 -0.46729403407128911 0.45122479262437271 0 -0.44729474740090208 0.454910475754564 0 -0.45347548220210532 0.44259424723202301 0 -0.46729403407128911 0.45122479262437271 0 -0.44729474740090208 0.454910475754564 0 -0.45347548220210532 0.44259424723202301 0 -0.46729403407128911 0.45122479262437271 0 -0.46453113313609939 0.43326478838794019 0 -0.46729403407128911 0.45122479262437271 0 -0.44729474740090208 0.454910475754564 0 -0.44636248621243879 0.4594107281277201 0 -0.46729403407128911 0.45122479262437271 0 -0.46188790630119508 0.46706385189447769 0 -0.44636248621243879 0.4594107281277201 0 -0.46729403407128911 0.45122479262437271 0 -0.44636248621243879 0.4594107281277201 0 -0.42729546073051572 0.45859615888475952 0 -0.44729474740090208 0.454910475754564 0 -0.44636248621243879 0.4594107281277201 0 -0.43610315803916372 0.44204973668074837 0 -0.45347548220210532 0.44259424723202301 0 -0.44734115642045968 0.43127320221337789 0 -0.43610315803916372 0.44204973668074837 0 -0.45347548220210532 0.44259424723202301 0 -0.44729474740090208 0.454910475754564 0 -0.43610315803916372 0.44204973668074837 0 -0.44734115642045968 0.43127320221337789 0 -0.4352463257987918 0.41899646829582499 0 -0.44734115642045968 0.43127320221337789 0 -0.46074008339639189 0.41358707320776061 0 -0.4352463257987918 0.41899646829582499 0 -0.46074008339639189 0.41358707320776061 0 -0.44149730778241458 0.3988242304976658 0 -0.4352463257987918 0.41899646829582499 0 -0.44734115642045968 0.43127320221337789 0 -0.46074008339639189 0.41358707320776061 0 -0.46453113313609939 0.43326478838794019 0 -0.45347548220210532 0.44259424723202301 0 -0.44734115642045968 0.43127320221337789 0 -0.46453113313609939 0.43326478838794019 0 -0.46074008339639189 0.41358707320776061 0 -0.46453113313609939 0.43326478838794019 0 -0.47898865613806008 0.42314042775392668 0 -0.46453113313609939 0.43326478838794019 0 -0.4757928232462405 0.43716386962256221 0 -0.47898865613806008 0.42314042775392668 0 -0.4757928232462405 0.43716386962256221 0 -0.47898865613806008 0.42314042775392668 0 -0.48669173526727588 0.43250402602753968 0 -0.46074008339639189 0.41358707320776061 0 -0.47898865613806008 0.42314042775392668 0 -0.48101508838587309 0.40112158834347289 0 -0.47898865613806008 0.42314042775392668 0 -0.5 0.41547558678394497 0 -0.48101508838587309 0.40112158834347289 0 -0.47898865613806008 0.42314042775392668 0 -0.5 0.41547558678394497 0 -0.48669173526727588 0.43250402602753968 0 -0.49999999999999278 0.44519738630399031 0 -0.49562308116566622 0.44014583401369411 0 -0.5 0.41547558678394497 0 -0.49562308116566622 0.44014583401369411 0 -0.5 0.41547558678394497 0 -0.48669173526727588 0.43250402602753968 0 -0.5 0.38575378726389981 0 -0.48101508838587309 0.40112158834347289 0 -0.47990665506406599 0.37047128086642861 0 -0.5 0.41547558678394497 0 -0.5 0.38575378726389981 0 -0.48101508838587309 0.40112158834347289 0 -0.48101508838587309 0.40112158834347289 0 -0.46300735757118738 0.39208586192623679 0 -0.47990665506406599 0.37047128086642861 0 -0.46300735757118738 0.39208586192623679 0 -0.45187765322719142 0.37642513671585609 0 -0.47990665506406599 0.37047128086642861 0 -0.46074008339639189 0.41358707320776061 0 -0.48101508838587309 0.40112158834347289 0 -0.46300735757118738 0.39208586192623679 0 -0.46074008339639189 0.41358707320776061 0 -0.46300735757118738 0.39208586192623679 0 -0.44149730778241458 0.3988242304976658 0 -0.45187765322719142 0.37642513671585609 0 -0.42384865139031658 0.38237899256528302 0 -0.46300735757118738 0.39208586192623679 0 -0.44149730778241458 0.3988242304976658 0 -0.45187765322719142 0.37642513671585609 0 -0.44149730778241458 0.3988242304976658 0 -0.45187765322719142 0.37642513671585609 0 -0.42384865139031658 0.38237899256528302 0 -0.45187765322719142 0.37642513671585609 0 -0.42451191943978039 0.37917723575005668 0 -0.42384865139031658 0.38237899256528302 0 -0.42451191943978039 0.37917723575005668 0 -0.42384865139031658 0.38237899256528302 0 -0.42451191943978039 0.37917723575005668 0 -0.42384865139031658 0.38237899256528302 0 -0.41899657488290781 0.37519387104489171 0 -0.42384865139031658 0.38237899256528302 0 -0.41110185665839971 0.37829800048278017 0 -0.40059878271072552 0.38731767598476557 0 -0.42384865139031658 0.38237899256528302 0 -0.41899657488290781 0.37519387104489171 0 -0.41110185665839971 0.37829800048278017 0 -0.42384865139031658 0.38237899256528302 0 -0.40059878271072552 0.38731767598476557 0 -0.41110185665839971 0.37829800048278017 0 -0.40197287470232629 0.37789724620380633 0 -0.40912249649416182 0.36914903340239441 0 -0.42384865139031658 0.38237899256528302 0 -0.41833115894689271 0.40901327571515822 0 -0.40059878271072552 0.38731767598476557 0 -0.42384865139031658 0.38237899256528302 0 -0.41833115894689271 0.40901327571515822 0 -0.44149730778241458 0.3988242304976658 0 -0.42384865139031658 0.38237899256528302 0 -0.41833115894689271 0.40901327571515822 0 -0.4352463257987918 0.41899646829582499 0 -0.41281366650346912 0.43564755886503348 0 -0.41833115894689271 0.40901327571515822 0 -0.44149730778241458 0.3988242304976658 0 -0.4352463257987918 0.41899646829582499 0 -0.41833115894689271 0.40901327571515822 0 -0.43610315803916372 0.44204973668074837 0 -0.4352463257987918 0.41899646829582499 0 -0.41281366650346912 0.43564755886503348 0 -0.41281366650346912 0.43564755886503348 0 -0.41833115894689271 0.40901327571515822 0 -0.41281366650346912 0.43564755886503348 0 -0.41833115894689271 0.40901327571515822 0 -0.39168882315333509 0.41911253489281652 0 -0.39466434528530192 0.44577642686176988 0 -0.41281366650346912 0.43564755886503348 0 -0.39168882315333509 0.41911253489281652 0 -0.39168882315333509 0.41911253489281652 0 -0.36405464664912202 0.42032383008082352 0 -0.37401024794670101 0.44345261733791702 0 -0.39466434528530192 0.44577642686176988 0 -0.39168882315333509 0.41911253489281652 0 -0.37401024794670101 0.44345261733791702 0 -0.39168882315333509 0.41911253489281652 0 -0.37734891403113441 0.39225635940424758 0 -0.36405464664912202 0.42032383008082352 0 -0.39168882315333509 0.41911253489281652 0 -0.37734891403113441 0.39225635940424758 0 -0.40059878271072552 0.38731767598476557 0 -0.41833115894689271 0.40901327571515822 0 -0.39168882315333509 0.41911253489281652 0 -0.40059878271072552 0.38731767598476557 0 -0.37734891403113441 0.39225635940424758 0 -0.39001726141508508 0.38488211487389129 0 -0.37023733842334289 0.38680847354578612 0 -0.37734891403113441 0.39225635940424758 0 -0.40059878271072552 0.38731767598476557 0 -0.37734891403113441 0.39225635940424758 0 -0.39001726141508508 0.38488211487389129 0 -0.40059878271072552 0.38731767598476557 0 -0.39001726141508508 0.38488211487389129 0 -0.37023733842334289 0.38680847354578612 0 -0.37399642301536778 0.38384646203168249 0 -0.38303576758447799 0.37569564919637788 0 -0.39001726141508508 0.38488211487389129 0 -0.37399642301536778 0.38384646203168249 0 -0.39001726141508508 0.38488211487389129 0 -0.37023733842334289 0.38680847354578612 0 -0.38303576758447799 0.37569564919637788 0 -0.36935250406378212 0.38090250739335452 0 -0.37399642301536778 0.38384646203168249 0 -0.38303576758447799 0.37569564919637788 0 -0.39001726141508508 0.38488211487389129 0 -0.39436844129776838 0.37198412685395221 0 -0.39001726141508508 0.38488211487389129 0 -0.40197287470232629 0.37789724620380633 0 -0.40059878271072552 0.38731767598476557 0 -0.39001726141508508 0.38488211487389129 0 -0.40197287470232629 0.37789724620380633 0 -0.39436844129776838 0.37198412685395221 0 -0.41110185665839971 0.37829800048278017 0 -0.40197287470232629 0.37789724620380633 0 -0.40059878271072552 0.38731767598476557 0 -0.38675614847449341 0.34388628928006681 0 -0.38953844191122511 0.35925769894742893 0 -0.40972437975866799 0.33761289050150323 0 -0.40324536275097739 0.35856789139125028 0 -0.38953844191122511 0.35925769894742893 0 -0.40972437975866799 0.33761289050150323 0 -0.38953844191122511 0.35925769894742893 0 -0.40972437975866799 0.33761289050150323 0 -0.40324536275097739 0.35856789139125028 0 -0.39436844129776838 0.37198412685395221 0 -0.40912249649416182 0.36914903340239441 0 -0.40197287470232629 0.37789724620380633 0 -0.39436844129776838 0.37198412685395221 0 -0.40912249649416182 0.36914903340239441 0 -0.40324536275097739 0.35856789139125028 0 -0.39436844129776838 0.37198412685395221 0 -0.38953844191122511 0.35925769894742893 0 -0.38303576758447799 0.37569564919637788 0 -0.39436844129776838 0.37198412685395221 0 -0.38953844191122511 0.35925769894742893 0 -0.38953844191122511 0.35925769894742893 0 -0.36935250406378212 0.38090250739335452 0 -0.38303576758447799 0.37569564919637788 0 -0.38953844191122511 0.35925769894742893 0 -0.36935250406378212 0.38090250739335452 0 -0.38953844191122511 0.35925769894742893 0 -0.37300256138581722 0.3640714469388926 0 -0.36935250406378212 0.38090250739335452 0 -0.38953844191122511 0.35925769894742893 0 -0.37047038815155592 0.35054972126712591 0 -0.37300256138581722 0.3640714469388926 0 -0.38675614847449341 0.34388628928006681 0 -0.38953844191122511 0.35925769894742893 0 -0.37047038815155592 0.35054972126712591 0 -0.38675614847449341 0.34388628928006681 0 -0.37757514242855578 0.32805739076530888 0 -0.39518346795995352 0.32965903987354578 0 -0.37757514242855578 0.32805739076530888 0 -0.39154564653862872 0.31623918806284579 0 -0.36982998858333971 0.30910244523075769 0 -0.37757514242855578 0.32805739076530888 0 -0.39154564653862872 0.31623918806284579 0 -0.39518346795995352 0.32965903987354578 0 -0.39154564653862872 0.31623918806284579 0 -0.39518346795995352 0.32965903987354578 0 -0.40942737720046207 0.31944796940026682 0 -0.39518346795995352 0.32965903987354578 0 -0.40972437975866799 0.33761289050150323 0 -0.40942737720046207 0.31944796940026682 0 -0.38675614847449341 0.34388628928006681 0 -0.39518346795995352 0.32965903987354578 0 -0.40972437975866799 0.33761289050150323 0 -0.40972437975866799 0.33761289050150323 0 -0.40942737720046207 0.31944796940026682 0 -0.42991031760611098 0.31596808205557753 0 -0.40972437975866799 0.33761289050150323 0 -0.42991031760611098 0.31596808205557753 0 -0.40972437975866799 0.33761289050150323 0 -0.42732589440111451 0.35295161741162612 0 -0.4378144125063812 0.3355659447580594 0 -0.40972437975866799 0.33761289050150323 0 -0.42991031760611098 0.31596808205557753 0 -0.4378144125063812 0.3355659447580594 0 -0.40972437975866799 0.33761289050150323 0 -0.42732589440111451 0.35295161741162612 0 -0.41347305429306402 0.35483570725097319 0 -0.40324536275097739 0.35856789139125028 0 -0.40972437975866799 0.33761289050150323 0 -0.41347305429306402 0.35483570725097319 0 -0.42732589440111451 0.35295161741162612 0 -0.41347305429306402 0.35483570725097319 0 -0.42036442189171469 0.36745772601349991 0 -0.41899657488290781 0.37519387104489171 0 -0.41110185665839971 0.37829800048278017 0 -0.40912249649416182 0.36914903340239441 0 -0.40324536275097739 0.35856789139125028 0 -0.41347305429306402 0.35483570725097319 0 -0.40912249649416182 0.36914903340239441 0 -0.41347305429306402 0.35483570725097319 0 -0.40912249649416182 0.36914903340239441 0 -0.42036442189171469 0.36745772601349991 0 -0.41899657488290781 0.37519387104489171 0 -0.40912249649416182 0.36914903340239441 0 -0.42036442189171469 0.36745772601349991 0 -0.42451191943978039 0.37917723575005668 0 -0.41899657488290781 0.37519387104489171 0 -0.42036442189171469 0.36745772601349991 0 -0.45187765322719142 0.37642513671585609 0 -0.42451191943978039 0.37917723575005668 0 -0.43467718821303708 0.36586232311900663 0 -0.42451191943978039 0.37917723575005668 0 -0.42036442189171469 0.36745772601349991 0 -0.43467718821303708 0.36586232311900663 0 -0.42732589440111451 0.35295161741162612 0 -0.42036442189171469 0.36745772601349991 0 -0.43467718821303708 0.36586232311900663 0 -0.45187765322719142 0.37642513671585609 0 -0.43467718821303708 0.36586232311900663 0 -0.45074062604597792 0.35373644760616441 0 -0.42732589440111451 0.35295161741162612 0 -0.43467718821303708 0.36586232311900663 0 -0.45074062604597792 0.35373644760616441 0 -0.42732589440111451 0.35295161741162612 0 -0.45074062604597792 0.35373644760616441 0 -0.4378144125063812 0.3355659447580594 0 -0.45074062604597792 0.35373644760616441 0 -0.47914109225098178 0.34642512718892737 0 -0.46139909412598329 0.33122934079568261 0 -0.45187765322719142 0.37642513671585609 0 -0.47990665506406599 0.37047128086642861 0 -0.45187765322719142 0.37642513671585609 0 -0.45074062604597792 0.35373644760616441 0 -0.47990665506406599 0.37047128086642861 0 -0.45074062604597792 0.35373644760616441 0 -0.47990665506406599 0.37047128086642861 0 -0.47914109225098178 0.34642512718892737 0 -0.47990665506406599 0.37047128086642861 0 -0.47914109225098178 0.34642512718892737 0 -0.5 0.35603198774385458 0 -0.5 0.38575378726389981 0 -0.47990665506406599 0.37047128086642861 0 -0.5 0.35603198774385458 0 -0.5 0.32631018822380942 0 -0.48220332064724047 0.32080801687832378 0 -0.5 0.29658838870376419 0 -0.47914109225098178 0.34642512718892737 0 -0.5 0.35603198774385458 0 -0.5 0.32631018822380942 0 -0.47914109225098178 0.34642512718892737 0 -0.5 0.32631018822380942 0 -0.48220332064724047 0.32080801687832378 0 -0.47914109225098178 0.34642512718892737 0 -0.48220332064724047 0.32080801687832378 0 -0.46139909412598329 0.33122934079568261 0 -0.48220332064724047 0.32080801687832378 0 -0.46139909412598329 0.33122934079568261 0 -0.47047641685923702 0.30348703947943528 0 -0.46139909412598329 0.33122934079568261 0 -0.4479905258442437 0.30528589481402368 0 -0.47047641685923702 0.30348703947943528 0 -0.45074062604597792 0.35373644760616441 0 -0.46139909412598329 0.33122934079568261 0 -0.4378144125063812 0.3355659447580594 0 -0.46139909412598329 0.33122934079568261 0 -0.4378144125063812 0.3355659447580594 0 -0.4479905258442437 0.30528589481402368 0 -0.42991031760611098 0.31596808205557753 0 -0.4378144125063812 0.3355659447580594 0 -0.4479905258442437 0.30528589481402368 0 -0.4479905258442437 0.30528589481402368 0 -0.4532598550965195 0.28082464269345248 0 -0.42582796813816509 0.28661387418164591 0 -0.4479905258442437 0.30528589481402368 0 -0.47047641685923702 0.30348703947943528 0 -0.4532598550965195 0.28082464269345248 0 -0.47047641685923702 0.30348703947943528 0 -0.47945848537726188 0.28191595601833452 0 -0.4532598550965195 0.28082464269345248 0 -0.48220332064724047 0.32080801687832378 0 -0.47047641685923702 0.30348703947943528 0 -0.5 0.29658838870376419 0 -0.47047641685923702 0.30348703947943528 0 -0.47945848537726188 0.28191595601833452 0 -0.5 0.29658838870376419 0 -0.47945848537726188 0.28191595601833452 0 -0.5 0.29658838870376419 0 -0.5 0.26686658918371908 0 -0.5 0.23714478966367389 0 -0.5 0.26686658918371908 0 -0.47302303718544603 0.25958121429268488 0 -0.47945848537726188 0.28191595601833452 0 -0.5 0.26686658918371908 0 -0.47302303718544603 0.25958121429268488 0 -0.45501906069854481 0.23821090683912119 0 -0.47302303718544603 0.25958121429268488 0 -0.4441612365741977 0.25673511424400958 0 -0.47945848537726188 0.28191595601833452 0 -0.47302303718544603 0.25958121429268488 0 -0.4532598550965195 0.28082464269345248 0 -0.47302303718544603 0.25958121429268488 0 -0.4532598550965195 0.28082464269345248 0 -0.4441612365741977 0.25673511424400958 0 -0.4532598550965195 0.28082464269345248 0 -0.4441612365741977 0.25673511424400958 0 -0.4310391042469956 0.26952134443420489 0 -0.4441612365741977 0.25673511424400958 0 -0.42026562899541509 0.25502985412863438 0 -0.4310391042469956 0.26952134443420489 0 -0.42026562899541509 0.25502985412863438 0 -0.41206323166905973 0.2704869701721852 0 -0.4310391042469956 0.26952134443420489 0 -0.42026562899541509 0.25502985412863438 0 -0.40661903033619218 0.2601056232956932 0 -0.41206323166905973 0.2704869701721852 0 -0.40692657036651952 0.24995822303149989 0 -0.42026562899541509 0.25502985412863438 0 -0.40661903033619218 0.2601056232956932 0 -0.41206323166905973 0.2704869701721852 0 -0.42582796813816509 0.28661387418164591 0 -0.39678340850540988 0.28332730197880501 0 -0.41206323166905973 0.2704869701721852 0 -0.4310391042469956 0.26952134443420489 0 -0.42582796813816509 0.28661387418164591 0 -0.4532598550965195 0.28082464269345248 0 -0.4310391042469956 0.26952134443420489 0 -0.42582796813816509 0.28661387418164591 0 -0.42991031760611098 0.31596808205557753 0 -0.4479905258442437 0.30528589481402368 0 -0.42582796813816509 0.28661387418164591 0 -0.40942737720046207 0.31944796940026682 0 -0.42991031760611098 0.31596808205557753 0 -0.40902809159569942 0.30128500873468278 0 -0.42991031760611098 0.31596808205557753 0 -0.42582796813816509 0.28661387418164591 0 -0.40902809159569942 0.30128500873468278 0 -0.42582796813816509 0.28661387418164591 0 -0.40902809159569942 0.30128500873468278 0 -0.39678340850540988 0.28332730197880501 0 -0.40902809159569942 0.30128500873468278 0 -0.39678340850540988 0.28332730197880501 0 -0.38717716011906061 0.29878961267145532 0 -0.39154564653862872 0.31623918806284579 0 -0.40942737720046207 0.31944796940026682 0 -0.40902809159569942 0.30128500873468278 0 -0.39154564653862872 0.31623918806284579 0 -0.40902809159569942 0.30128500873468278 0 -0.38717716011906061 0.29878961267145532 0 -0.38717716011906061 0.29878961267145532 0 -0.37361306306791853 0.28759740905943598 0 -0.36982998858333971 0.30910244523075769 0 -0.39154564653862872 0.31623918806284579 0 -0.38717716011906061 0.29878961267145532 0 -0.36982998858333971 0.30910244523075769 0 -0.39678340850540988 0.28332730197880501 0 -0.38717716011906061 0.29878961267145532 0 -0.37361306306791853 0.28759740905943598 0 -0.39678340850540988 0.28332730197880501 0 -0.3796506489020981 0.27244841511811191 0 -0.37361306306791853 0.28759740905943598 0 -0.3796506489020981 0.27244841511811191 0 -0.38584826793648069 0.26086137445621499 0 -0.39635294727015807 0.26785125787910158 0 -0.37826527845029989 0.25176026066619023 0 -0.38584826793648069 0.26086137445621499 0 -0.36943779931459081 0.26111857490663759 0 -0.3796506489020981 0.27244841511811191 0 -0.38584826793648069 0.26086137445621499 0 -0.36943779931459081 0.26111857490663759 0 -0.39050612832329762 0.24722356252275121 0 -0.37826527845029989 0.25176026066619023 0 -0.38584826793648069 0.26086137445621499 0 -0.38584826793648069 0.26086137445621499 0 -0.39772511417130868 0.25529034627664898 0 -0.39635294727015807 0.26785125787910158 0 -0.39050612832329762 0.24722356252275121 0 -0.38584826793648069 0.26086137445621499 0 -0.39772511417130868 0.25529034627664898 0 -0.40692657036651952 0.24995822303149989 0 -0.40661903033619218 0.2601056232956932 0 -0.39772511417130868 0.25529034627664898 0 -0.40692657036651952 0.24995822303149989 0 -0.39846739545131299 0.24563645714437701 0 -0.39772511417130868 0.25529034627664898 0 -0.40661903033619218 0.2601056232956932 0 -0.39772511417130868 0.25529034627664898 0 -0.39635294727015807 0.26785125787910158 0 -0.39678340850540988 0.28332730197880501 0 -0.3796506489020981 0.27244841511811191 0 -0.39635294727015807 0.26785125787910158 0 -0.40661903033619218 0.2601056232956932 0 -0.41206323166905973 0.2704869701721852 0 -0.39635294727015807 0.26785125787910158 0 -0.41206323166905973 0.2704869701721852 0 -0.39678340850540988 0.28332730197880501 0 -0.39635294727015807 0.26785125787910158 0 -0.34627476295811999 0.2693700762560397 0 -0.35477474533945941 0.26151192458134542 0 -0.36029194707448342 0.27393979119511841 0 -0.34797093832368181 0.28052545868979201 0 -0.34627476295811999 0.2693700762560397 0 -0.33857234184387291 0.27801774907480192 0 -0.34797093832368181 0.28052545868979201 0 -0.34627476295811999 0.2693700762560397 0 -0.36029194707448342 0.27393979119511841 0 -0.34627476295811999 0.2693700762560397 0 -0.35477474533945941 0.26151192458134542 0 -0.3376606148016903 0.25739482539169811 0 -0.36235234653569892 0.24635059047066729 0 -0.3376606148016903 0.25739482539169811 0 -0.36235234653569892 0.24635059047066729 0 -0.35477474533945941 0.26151192458134542 0 -0.3376606148016903 0.25739482539169811 0 -0.35477474533945941 0.26151192458134542 0 -0.36943779931459081 0.26111857490663759 0 -0.36029194707448342 0.27393979119511841 0 -0.36235234653569892 0.24635059047066729 0 -0.37826527845029989 0.25176026066619023 0 -0.36943779931459081 0.26111857490663759 0 -0.36235234653569892 0.24635059047066729 0 -0.35477474533945941 0.26151192458134542 0 -0.36943779931459081 0.26111857490663759 0 -0.3796506489020981 0.27244841511811191 0 -0.36943779931459081 0.26111857490663759 0 -0.36029194707448342 0.27393979119511841 0 -0.3796506489020981 0.27244841511811191 0 -0.36029194707448342 0.27393979119511841 0 -0.37361306306791853 0.28759740905943598 0 -0.37361306306791853 0.28759740905943598 0 -0.36982998858333971 0.30910244523075769 0 -0.35458279832551831 0.29195662660809168 0 -0.36029194707448342 0.27393979119511841 0 -0.37361306306791853 0.28759740905943598 0 -0.35458279832551831 0.29195662660809168 0 -0.34667258515588217 0.31016158945460442 0 -0.35458279832551831 0.29195662660809168 0 -0.3387478653766347 0.30068500242821922 0 -0.36982998858333971 0.30910244523075769 0 -0.34667258515588217 0.31016158945460442 0 -0.35458279832551831 0.29195662660809168 0 -0.35458279832551831 0.29195662660809168 0 -0.34013284141641398 0.28934305031490848 0 -0.3387478653766347 0.30068500242821922 0 -0.34797093832368181 0.28052545868979201 0 -0.36029194707448342 0.27393979119511841 0 -0.35458279832551831 0.29195662660809168 0 -0.34797093832368181 0.28052545868979201 0 -0.35458279832551831 0.29195662660809168 0 -0.34013284141641398 0.28934305031490848 0 -0.34797093832368181 0.28052545868979201 0 -0.34013284141641398 0.28934305031490848 0 -0.33857234184387291 0.27801774907480192 0 -0.34013284141641398 0.28934305031490848 0 -0.32975065319224067 0.29538202894674731 0 -0.3387478653766347 0.30068500242821922 0 -0.34013284141641398 0.28934305031490848 0 -0.32975065319224067 0.29538202894674731 0 -0.32878898405467039 0.28587345176096102 0 -0.34013284141641398 0.28934305031490848 0 -0.32878898405467039 0.28587345176096102 0 -0.33857234184387291 0.27801774907480192 0 -0.34667258515588217 0.31016158945460442 0 -0.3387478653766347 0.30068500242821922 0 -0.32743411527324767 0.30722457187091601 0 -0.32975065319224067 0.29538202894674731 0 -0.3387478653766347 0.30068500242821922 0 -0.32743411527324767 0.30722457187091601 0 -0.32743411527324767 0.30722457187091601 0 -0.31465647369026362 0.29183466316168438 0 -0.30801938516093641 0.316218891320102 0 -0.32975065319224067 0.29538202894674731 0 -0.32743411527324767 0.30722457187091601 0 -0.31465647369026362 0.29183466316168438 0 -0.32878898405467039 0.28587345176096102 0 -0.31465647369026362 0.29183466316168438 0 -0.32041869050813793 0.28020321252105629 0 -0.32975065319224067 0.29538202894674731 0 -0.32878898405467039 0.28587345176096102 0 -0.31465647369026362 0.29183466316168438 0 -0.31465647369026362 0.29183466316168438 0 -0.31318823204582052 0.27758380096621338 0 -0.32041869050813793 0.28020321252105629 0 -0.31296888306768172 0.26843906031272879 0 -0.32458690757006198 0.27105954102992502 0 -0.3376606148016903 0.25739482539169811 0 -0.31318823204582052 0.27758380096621338 0 -0.32458690757006198 0.27105954102992502 0 -0.32041869050813793 0.28020321252105629 0 -0.31318823204582052 0.27758380096621338 0 -0.31296888306768172 0.26843906031272879 0 -0.32458690757006198 0.27105954102992502 0 -0.32458690757006198 0.27105954102992502 0 -0.32041869050813793 0.28020321252105629 0 -0.32912029088876221 0.27676219361765603 0 -0.32878898405467039 0.28587345176096102 0 -0.32041869050813793 0.28020321252105629 0 -0.32912029088876221 0.27676219361765603 0 -0.32912029088876221 0.27676219361765603 0 -0.33577618932195941 0.26875135736241368 0 -0.33857234184387291 0.27801774907480192 0 -0.32878898405467039 0.28587345176096102 0 -0.32912029088876221 0.27676219361765603 0 -0.33857234184387291 0.27801774907480192 0 -0.32458690757006198 0.27105954102992502 0 -0.32912029088876221 0.27676219361765603 0 -0.33577618932195941 0.26875135736241368 0 -0.32458690757006198 0.27105954102992502 0 -0.33577618932195941 0.26875135736241368 0 -0.3376606148016903 0.25739482539169811 0 -0.34627476295811999 0.2693700762560397 0 -0.33577618932195941 0.26875135736241368 0 -0.33857234184387291 0.27801774907480192 0 -0.34627476295811999 0.2693700762560397 0 -0.33577618932195941 0.26875135736241368 0 -0.3376606148016903 0.25739482539169811 0 -0.33354058831157429 0.24689951696252191 0 -0.31129863043419759 0.25894218596671831 0 -0.31296888306768172 0.26843906031272879 0 -0.3376606148016903 0.25739482539169811 0 -0.31129863043419759 0.25894218596671831 0 -0.31296888306768172 0.26843906031272879 0 -0.3376606148016903 0.25739482539169811 0 -0.31875924685522528 0.24616042079054279 0 -0.33354058831157429 0.24689951696252191 0 -0.31129863043419759 0.25894218596671831 0 -0.33354058831157429 0.24689951696252191 0 -0.3376606148016903 0.25739482539169811 0 -0.31129863043419759 0.25894218596671831 0 -0.31875924685522528 0.24616042079054279 0 -0.3100089513962373 0.25057921991536941 0 -0.31129863043419759 0.25894218596671831 0 -0.31129863043419759 0.25894218596671831 0 -0.29742925207818632 0.25961158827202191 0 -0.28905667255682088 0.27098485497091462 0 -0.3100089513962373 0.25057921991536941 0 -0.31129863043419759 0.25894218596671831 0 -0.30324097338677741 0.25261313164408389 0 -0.31129863043419759 0.25894218596671831 0 -0.28905667255682088 0.27098485497091462 0 -0.29624449644572542 0.24640028867459079 0 -0.30324097338677741 0.25261313164408389 0 -0.29449024907483923 0.25445929046563698 0 -0.31129863043419759 0.25894218596671831 0 -0.29742925207818632 0.25961158827202191 0 -0.30324097338677741 0.25261313164408389 0 -0.29742925207818632 0.25961158827202191 0 -0.30324097338677741 0.25261313164408389 0 -0.29449024907483923 0.25445929046563698 0 -0.31296888306768172 0.26843906031272879 0 -0.2882771513336731 0.27948329523375959 0 -0.31296888306768172 0.26843906031272879 0 -0.31129863043419759 0.25894218596671831 0 -0.28905667255682088 0.27098485497091462 0 -0.31296888306768172 0.26843906031272879 0 -0.30371121896591041 0.28086550841025582 0 -0.2882771513336731 0.27948329523375959 0 -0.31318823204582052 0.27758380096621338 0 -0.31296888306768172 0.26843906031272879 0 -0.30371121896591041 0.28086550841025582 0 -0.31296888306768172 0.26843906031272879 0 -0.28905667255682088 0.27098485497091462 0 -0.2882771513336731 0.27948329523375959 0 -0.28905667255682088 0.27098485497091462 0 -0.2882771513336731 0.27948329523375959 0 -0.26681471467944418 0.283027523975111 0 -0.28905667255682088 0.27098485497091462 0 -0.28182595381242209 0.2647697353081056 0 -0.27461321943592981 0.27079437249800209 0 -0.29449024907483923 0.25445929046563698 0 -0.28905973493829651 0.26105847831275542 0 -0.2871715501425276 0.25146481010122479 0 -0.29624449644572542 0.24640028867459079 0 -0.29449024907483923 0.25445929046563698 0 -0.2871715501425276 0.25146481010122479 0 -0.29742925207818632 0.25961158827202191 0 -0.29449024907483923 0.25445929046563698 0 -0.28905973493829651 0.26105847831275542 0 -0.29742925207818632 0.25961158827202191 0 -0.28905667255682088 0.27098485497091462 0 -0.28905973493829651 0.26105847831275542 0 -0.28905667255682088 0.27098485497091462 0 -0.28905973493829651 0.26105847831275542 0 -0.28182595381242209 0.2647697353081056 0 -0.28905973493829651 0.26105847831275542 0 -0.28182595381242209 0.2647697353081056 0 -0.28171575957839479 0.25863134441550162 0 -0.28905973493829651 0.26105847831275542 0 -0.28171575957839479 0.25863134441550162 0 -0.2871715501425276 0.25146481010122479 0 -0.28171575957839479 0.25863134441550162 0 -0.2871715501425276 0.25146481010122479 0 -0.27536664966378049 0.25081494847495139 0 -0.28171575957839479 0.25863134441550162 0 -0.27536664966378049 0.25081494847495139 0 -0.27471290347570998 0.26135971006763098 0 -0.27536664966378049 0.25081494847495139 0 -0.26732760221841162 0.25741379496397648 0 -0.27471290347570998 0.26135971006763098 0 -0.26227556017115827 0.2482947710732244 0 -0.27536664966378049 0.25081494847495139 0 -0.26732760221841162 0.25741379496397648 0 -0.26732760221841162 0.25741379496397648 0 -0.27471290347570998 0.26135971006763098 0 -0.26742823614532107 0.26573406474524902 0 -0.28182595381242209 0.2647697353081056 0 -0.28171575957839479 0.25863134441550162 0 -0.27471290347570998 0.26135971006763098 0 -0.28182595381242209 0.2647697353081056 0 -0.27471290347570998 0.26135971006763098 0 -0.27461321943592981 0.27079437249800209 0 -0.28905667255682088 0.27098485497091462 0 -0.26681471467944418 0.283027523975111 0 -0.28905667255682088 0.27098485497091462 0 -0.27461321943592981 0.27079437249800209 0 -0.26681471467944418 0.283027523975111 0 -0.27461321943592981 0.27079437249800209 0 -0.26588345387155499 0.27416113618222598 0 -0.26681471467944418 0.283027523975111 0 -0.27471290347570998 0.26135971006763098 0 -0.27461321943592981 0.27079437249800209 0 -0.26742823614532107 0.26573406474524902 0 -0.27461321943592981 0.27079437249800209 0 -0.26588345387155499 0.27416113618222598 0 -0.26742823614532107 0.26573406474524902 0 -0.26588345387155499 0.27416113618222598 0 -0.26742823614532107 0.26573406474524902 0 -0.26050092934521679 0.27002851045591519 0 -0.26588345387155499 0.27416113618222598 0 -0.26050092934521679 0.27002851045591519 0 -0.25609601413298327 0.2793738674860935 0 -0.26588345387155499 0.27416113618222598 0 -0.25609601413298327 0.2793738674860935 0 -0.26681471467944418 0.283027523975111 0 -0.25609601413298327 0.2793738674860935 0 -0.25108520334010359 0.26996282135393068 0 -0.24903317990316101 0.27715796438032642 0 -0.26050092934521679 0.27002851045591519 0 -0.25609601413298327 0.2793738674860935 0 -0.25108520334010359 0.26996282135393068 0 -0.26050092934521679 0.27002851045591519 0 -0.25108520334010359 0.26996282135393068 0 -0.25714700835330317 0.26092622003760552 0 -0.25714700835330317 0.26092622003760552 0 -0.25229645693426739 0.25131093157207129 0 -0.24208717388249459 0.26391850111191872 0 -0.25108520334010359 0.26996282135393068 0 -0.25714700835330317 0.26092622003760552 0 -0.24208717388249459 0.26391850111191872 0 -0.26227556017115827 0.2482947710732244 0 -0.25714700835330317 0.26092622003760552 0 -0.25229645693426739 0.25131093157207129 0 -0.26227556017115827 0.2482947710732244 0 -0.26732760221841162 0.25741379496397648 0 -0.25714700835330317 0.26092622003760552 0 -0.26732760221841162 0.25741379496397648 0 -0.26742823614532107 0.26573406474524902 0 -0.25714700835330317 0.26092622003760552 0 -0.26742823614532107 0.26573406474524902 0 -0.26050092934521679 0.27002851045591519 0 -0.25714700835330317 0.26092622003760552 0 -0.25370055621329513 0.30287103724416359 0 -0.26358541959966453 0.29052753015479038 0 -0.23889368786565571 0.30157176507582117 0 -0.26220483992038018 0.30063874091768977 0 -0.25370055621329513 0.30287103724416359 0 -0.26358541959966453 0.29052753015479038 0 -0.26220483992038018 0.30063874091768977 0 -0.2587015048088413 0.30971281546567692 0 -0.25370055621329513 0.30287103724416359 0 -0.26220483992038018 0.30063874091768977 0 -0.2587015048088413 0.30971281546567692 0 -0.2699267190480712 0.30480274104374933 0 -0.2587015048088413 0.30971281546567692 0 -0.25370055621329513 0.30287103724416359 0 -0.2451173288719338 0.31190433460684008 0 -0.25609601413298327 0.2793738674860935 0 -0.26681471467944418 0.283027523975111 0 -0.2445727568020675 0.29507019297930742 0 -0.26358541959966453 0.29052753015479038 0 -0.26681471467944418 0.283027523975111 0 -0.2445727568020675 0.29507019297930742 0 -0.26358541959966453 0.29052753015479038 0 -0.23889368786565571 0.30157176507582117 0 -0.26681471467944418 0.283027523975111 0 -0.2445727568020675 0.29507019297930742 0 -0.26358541959966453 0.29052753015479038 0 -0.27129118704679739 0.29659609225278127 0 -0.27872745438644841 0.29139947207291472 0 -0.2882771513336731 0.27948329523375959 0 -0.26358541959966453 0.29052753015479038 0 -0.27872745438644841 0.29139947207291472 0 -0.2882771513336731 0.27948329523375959 0 -0.26358541959966453 0.29052753015479038 0 -0.2882771513336731 0.27948329523375959 0 -0.26358541959966453 0.29052753015479038 0 -0.26681471467944418 0.283027523975111 0 -0.26220483992038018 0.30063874091768977 0 -0.26358541959966453 0.29052753015479038 0 -0.27129118704679739 0.29659609225278127 0 -0.27129118704679739 0.29659609225278127 0 -0.27872745438644841 0.29139947207291472 0 -0.28355630300839368 0.3036207611975078 0 -0.27129118704679739 0.29659609225278127 0 -0.2699267190480712 0.30480274104374933 0 -0.28355630300839368 0.3036207611975078 0 -0.26220483992038018 0.30063874091768977 0 -0.27129118704679739 0.29659609225278127 0 -0.2699267190480712 0.30480274104374933 0 -0.2587015048088413 0.30971281546567692 0 -0.2699267190480712 0.30480274104374933 0 -0.27282616380527452 0.31420789875176047 0 -0.2699267190480712 0.30480274104374933 0 -0.28355630300839368 0.3036207611975078 0 -0.27282616380527452 0.31420789875176047 0 -0.28355630300839368 0.3036207611975078 0 -0.29879996947908738 0.29424523628699029 0 -0.30801938516093641 0.316218891320102 0 -0.2882771513336731 0.27948329523375959 0 -0.27872745438644841 0.29139947207291472 0 -0.28849519409793412 0.29001693380593391 0 -0.27872745438644841 0.29139947207291472 0 -0.28355630300839368 0.3036207611975078 0 -0.28849519409793412 0.29001693380593391 0 -0.28849519409793412 0.29001693380593391 0 -0.29482088346915131 0.28615274343423491 0 -0.29879996947908738 0.29424523628699029 0 -0.28355630300839368 0.3036207611975078 0 -0.28849519409793412 0.29001693380593391 0 -0.29879996947908738 0.29424523628699029 0 -0.30371121896591041 0.28086550841025582 0 -0.2882771513336731 0.27948329523375959 0 -0.29482088346915131 0.28615274343423491 0 -0.2882771513336731 0.27948329523375959 0 -0.28849519409793412 0.29001693380593391 0 -0.29482088346915131 0.28615274343423491 0 -0.31465647369026362 0.29183466316168438 0 -0.30371121896591041 0.28086550841025582 0 -0.29879996947908738 0.29424523628699029 0 -0.30371121896591041 0.28086550841025582 0 -0.29482088346915131 0.28615274343423491 0 -0.29879996947908738 0.29424523628699029 0 -0.31465647369026362 0.29183466316168438 0 -0.31318823204582052 0.27758380096621338 0 -0.30371121896591041 0.28086550841025582 0 -0.31465647369026362 0.29183466316168438 0 -0.29879996947908738 0.29424523628699029 0 -0.30801938516093641 0.316218891320102 0 -0.30801938516093641 0.316218891320102 0 -0.30988731569137551 0.33596372919085182 0 -0.28439206633098091 0.32555850126768532 0 -0.30988731569137551 0.33596372919085182 0 -0.28439206633098091 0.32555850126768532 0 -0.28787179686107578 0.34563257359714961 0 -0.28355630300839368 0.3036207611975078 0 -0.30801938516093641 0.316218891320102 0 -0.28439206633098091 0.32555850126768532 0 -0.28439206633098091 0.32555850126768532 0 -0.27282616380527452 0.31420789875176047 0 -0.26411392987193272 0.32357835034240962 0 -0.28355630300839368 0.3036207611975078 0 -0.28439206633098091 0.32555850126768532 0 -0.27282616380527452 0.31420789875176047 0 -0.28439206633098091 0.32555850126768532 0 -0.27045593257625639 0.34055446307745257 0 -0.26411392987193272 0.32357835034240962 0 -0.28439206633098091 0.32555850126768532 0 -0.27045593257625639 0.34055446307745257 0 -0.28787179686107578 0.34563257359714961 0 -0.27045593257625639 0.34055446307745257 0 -0.25452742539764639 0.33460957156602561 0 -0.26411392987193272 0.32357835034240962 0 -0.25452742539764639 0.33460957156602561 0 -0.25273920890833579 0.32093350508077523 0 -0.26411392987193272 0.32357835034240962 0 -0.2587015048088413 0.30971281546567692 0 -0.25273920890833579 0.32093350508077523 0 -0.2451173288719338 0.31190433460684008 0 -0.2587015048088413 0.30971281546567692 0 -0.27282616380527452 0.31420789875176047 0 -0.26411392987193272 0.32357835034240962 0 -0.2587015048088413 0.30971281546567692 0 -0.25273920890833579 0.32093350508077523 0 -0.26411392987193272 0.32357835034240962 0 -0.25760294743305873 0.35703730128054217 0 -0.25381701134997192 0.38168743709227643 0 -0.2415070508676993 0.36826944972334669 0 -0.25760294743305873 0.35703730128054217 0 -0.27146908052250779 0.37494158288305651 0 -0.25381701134997192 0.38168743709227643 0 -0.27045593257625639 0.34055446307745257 0 -0.25452742539764639 0.33460957156602561 0 -0.25760294743305873 0.35703730128054217 0 -0.25452742539764639 0.33460957156602561 0 -0.25760294743305873 0.35703730128054217 0 -0.23809077859989719 0.34568040712663711 0 -0.27045593257625639 0.34055446307745257 0 -0.25760294743305873 0.35703730128054217 0 -0.27422742956284413 0.35691048041090351 0 -0.27045593257625639 0.34055446307745257 0 -0.27422742956284413 0.35691048041090351 0 -0.28787179686107578 0.34563257359714961 0 -0.25760294743305873 0.35703730128054217 0 -0.27422742956284413 0.35691048041090351 0 -0.27146908052250779 0.37494158288305651 0 -0.27422742956284413 0.35691048041090351 0 -0.27146908052250779 0.37494158288305651 0 -0.2938348349244253 0.37104886931858788 0 -0.27422742956284413 0.35691048041090351 0 -0.2938348349244253 0.37104886931858788 0 -0.28787179686107578 0.34563257359714961 0 -0.28787179686107578 0.34563257359714961 0 -0.3121237050447756 0.35639325558833929 0 -0.2938348349244253 0.37104886931858788 0 -0.28787179686107578 0.34563257359714961 0 -0.3121237050447756 0.35639325558833929 0 -0.30988731569137551 0.33596372919085182 0 -0.28787179686107578 0.34563257359714961 0 -0.3121237050447756 0.35639325558833929 0 -0.2938348349244253 0.37104886931858788 0 -0.3121237050447756 0.35639325558833929 0 -0.31659416239755611 0.37619795520241961 0 -0.3121237050447756 0.35639325558833929 0 -0.33637561322847592 0.36715393757952841 0 -0.3121237050447756 0.35639325558833929 0 -0.33637561322847592 0.36715393757952841 0 -0.31659416239755611 0.37619795520241961 0 -0.3121237050447756 0.35639325558833929 0 -0.33637561322847592 0.36715393757952841 0 -0.33810290832618078 0.36003292281347649 0 -0.33637561322847592 0.36715393757952841 0 -0.33810290832618078 0.36003292281347649 0 -0.33810290832618078 0.36003292281347649 0 -0.34229948732888232 0.3697823874675733 0 -0.34726403959145341 0.35888628893047342 0 -0.33637561322847592 0.36715393757952841 0 -0.33810290832618078 0.36003292281347649 0 -0.34229948732888232 0.3697823874675733 0 -0.33810290832618078 0.36003292281347649 0 -0.34229948732888232 0.3697823874675733 0 -0.33637561322847592 0.36715393757952841 0 -0.34229948732888232 0.3697823874675733 0 -0.33988883591364538 0.38055106833240421 0 -0.33637561322847592 0.36715393757952841 0 -0.34229948732888232 0.3697823874675733 0 -0.33810290832618078 0.36003292281347649 0 -0.32977021888505592 0.34067447367488679 0 -0.33810290832618078 0.36003292281347649 0 -0.33964638124992802 0.35366974057806583 0 -0.32977021888505592 0.34067447367488679 0 -0.33964638124992802 0.35366974057806583 0 -0.32977021888505592 0.34067447367488679 0 -0.3432794706172137 0.34057277831845711 0 -0.33810290832618078 0.36003292281347649 0 -0.33964638124992802 0.35366974057806583 0 -0.34726403959145341 0.35888628893047342 0 -0.33810290832618078 0.36003292281347649 0 -0.33964638124992802 0.35366974057806583 0 -0.30988731569137551 0.33596372919085182 0 -0.3121237050447756 0.35639325558833929 0 -0.32977021888505592 0.34067447367488679 0 -0.3121237050447756 0.35639325558833929 0 -0.33810290832618078 0.36003292281347649 0 -0.32977021888505592 0.34067447367488679 0 -0.30988731569137551 0.33596372919085182 0 -0.33426497293212198 0.32544135730675688 0 -0.32977021888505592 0.34067447367488679 0 -0.32743411527324767 0.30722457187091601 0 -0.30801938516093641 0.316218891320102 0 -0.33426497293212198 0.32544135730675688 0 -0.30801938516093641 0.316218891320102 0 -0.30988731569137551 0.33596372919085182 0 -0.33426497293212198 0.32544135730675688 0 -0.30801938516093641 0.316218891320102 0 -0.33426497293212198 0.32544135730675688 0 -0.34667258515588217 0.31016158945460442 0 -0.32743411527324767 0.30722457187091601 0 -0.33426497293212198 0.32544135730675688 0 -0.33426497293212198 0.32544135730675688 0 -0.32977021888505592 0.34067447367488679 0 -0.3432794706172137 0.34057277831845711 0 -0.33426497293212198 0.32544135730675688 0 -0.36051056070330761 0.33466382329341182 0 -0.33426497293212198 0.32544135730675688 0 -0.3432794706172137 0.34057277831845711 0 -0.36051056070330761 0.33466382329341182 0 -0.3432794706172137 0.34057277831845711 0 -0.36051056070330761 0.33466382329341182 0 -0.35256387490536439 0.3487480354643539 0 -0.34667258515588217 0.31016158945460442 0 -0.33426497293212198 0.32544135730675688 0 -0.36051056070330761 0.33466382329341182 0 -0.36982998858333971 0.30910244523075769 0 -0.34667258515588217 0.31016158945460442 0 -0.36051056070330761 0.33466382329341182 0 -0.37757514242855578 0.32805739076530888 0 -0.36982998858333971 0.30910244523075769 0 -0.36051056070330761 0.33466382329341182 0 -0.38675614847449341 0.34388628928006681 0 -0.37757514242855578 0.32805739076530888 0 -0.36051056070330761 0.33466382329341182 0 -0.38675614847449341 0.34388628928006681 0 -0.36051056070330761 0.33466382329341182 0 -0.38675614847449341 0.34388628928006681 0 -0.36051056070330761 0.33466382329341182 0 -0.37047038815155592 0.35054972126712591 0 -0.36051056070330761 0.33466382329341182 0 -0.37047038815155592 0.35054972126712591 0 -0.35256387490536439 0.3487480354643539 0 -0.37047038815155592 0.35054972126712591 0 -0.36032734346103529 0.35983256224758448 0 -0.35256387490536439 0.3487480354643539 0 -0.37047038815155592 0.35054972126712591 0 -0.37300256138581722 0.3640714469388926 0 -0.36032734346103529 0.35983256224758448 0 -0.37300256138581722 0.3640714469388926 0 -0.36372863233988662 0.37042869969196462 0 -0.36935250406378212 0.38090250739335452 0 -0.36372863233988662 0.37042869969196462 0 -0.36032734346103529 0.35983256224758448 0 -0.35435349157867663 0.36714887261744478 0 -0.37300256138581722 0.3640714469388926 0 -0.36372863233988662 0.37042869969196462 0 -0.36032734346103529 0.35983256224758448 0 -0.34229948732888232 0.3697823874675733 0 -0.35435349157867663 0.36714887261744478 0 -0.35814795517212489 0.37681442474962817 0 -0.36032734346103529 0.35983256224758448 0 -0.35435349157867663 0.36714887261744478 0 -0.34726403959145341 0.35888628893047342 0 -0.34229948732888232 0.3697823874675733 0 -0.35814795517212489 0.37681442474962817 0 -0.36372863233988662 0.37042869969196462 0 -0.35435349157867663 0.36714887261744478 0 -0.35814795517212489 0.37681442474962817 0 -0.34229948732888232 0.3697823874675733 0 -0.35435349157867663 0.36714887261744478 0 -0.34726403959145341 0.35888628893047342 0 -0.33964638124992802 0.35366974057806583 0 -0.34726403959145341 0.35888628893047342 0 -0.35256387490536439 0.3487480354643539 0 -0.33964638124992802 0.35366974057806583 0 -0.3432794706172137 0.34057277831845711 0 -0.35256387490536439 0.3487480354643539 0 -0.36032734346103529 0.35983256224758448 0 -0.34726403959145341 0.35888628893047342 0 -0.35256387490536439 0.3487480354643539 0 -0.35409904535154307 0.39719504282373008 0 -0.35045741543160053 0.3887348322176804 0 -0.37023733842334289 0.38680847354578612 0 -0.35409904535154307 0.39719504282373008 0 -0.35045741543160053 0.3887348322176804 0 -0.33067352840358188 0.39066157694546089 0 -0.35409904535154307 0.39719504282373008 0 -0.35045741543160053 0.3887348322176804 0 -0.34229948732888232 0.3697823874675733 0 -0.35045741543160053 0.3887348322176804 0 -0.33988883591364538 0.38055106833240421 0 -0.34229948732888232 0.3697823874675733 0 -0.35045741543160053 0.3887348322176804 0 -0.34229948732888232 0.3697823874675733 0 -0.35045741543160053 0.3887348322176804 0 -0.35814795517212489 0.37681442474962817 0 -0.35814795517212489 0.37681442474962817 0 -0.36935250406378212 0.38090250739335452 0 -0.37399642301536778 0.38384646203168249 0 -0.35045741543160053 0.3887348322176804 0 -0.37023733842334289 0.38680847354578612 0 -0.35814795517212489 0.37681442474962817 0 -0.37023733842334289 0.38680847354578612 0 -0.37399642301536778 0.38384646203168249 0 -0.35814795517212489 0.37681442474962817 0 -0.37399642301536778 0.38384646203168249 0 -0.35045741543160053 0.3887348322176804 0 -0.35814795517212489 0.37681442474962817 0 -0.37023733842334289 0.38680847354578612 0 -0.36372863233988662 0.37042869969196462 0 -0.35814795517212489 0.37681442474962817 0 -0.36935250406378212 0.38090250739335452 0 -0.37734891403113441 0.39225635940424758 0 -0.35409904535154307 0.39719504282373008 0 -0.37023733842334289 0.38680847354578612 0 -0.37734891403113441 0.39225635940424758 0 -0.35409904535154307 0.39719504282373008 0 -0.37734891403113441 0.39225635940424758 0 -0.35409904535154307 0.39719504282373008 0 -0.36405464664912202 0.42032383008082352 0 -0.36405464664912202 0.42032383008082352 0 -0.35269775421664562 0.43781763231350701 0 -0.37401024794670101 0.44345261733791702 0 -0.36405464664912202 0.42032383008082352 0 -0.37401024794670101 0.44345261733791702 0 -0.34304101832556821 0.42279485420875951 0 -0.33562373287711988 0.43547211127396868 0 -0.35269775421664562 0.43781763231350701 0 -0.36405464664912202 0.42032383008082352 0 -0.34304101832556821 0.42279485420875951 0 -0.35269775421664562 0.43781763231350701 0 -0.35409904535154307 0.39719504282373008 0 -0.36405464664912202 0.42032383008082352 0 -0.34376446120061338 0.40982397692758388 0 -0.36405464664912202 0.42032383008082352 0 -0.34376446120061338 0.40982397692758388 0 -0.34304101832556821 0.42279485420875951 0 -0.35409904535154307 0.39719504282373008 0 -0.36405464664912202 0.42032383008082352 0 -0.34376446120061338 0.40982397692758388 0 -0.33616573516808801 0.41494669844934812 0 -0.32773009934648212 0.40279627344654068 0 -0.33616573516808801 0.41494669844934812 0 -0.33142789423704311 0.42288492094172753 0 -0.32773009934648212 0.40279627344654068 0 -0.33616573516808801 0.41494669844934812 0 -0.34304101832556821 0.42279485420875951 0 -0.33142789423704311 0.42288492094172753 0 -0.34376446120061338 0.40982397692758388 0 -0.33616573516808801 0.41494669844934812 0 -0.34304101832556821 0.42279485420875951 0 -0.34304101832556821 0.42279485420875951 0 -0.33142789423704311 0.42288492094172753 0 -0.33562373287711988 0.43547211127396868 0 -0.33142789423704311 0.42288492094172753 0 -0.33562373287711988 0.43547211127396868 0 -0.3208214411672643 0.43127817962067411 0 -0.3208214411672643 0.43127817962067411 0 -0.3157982197169702 0.41785407911445882 0 -0.30520171187413953 0.42943610560568529 0 -0.3208214411672643 0.43127817962067411 0 -0.30520171187413953 0.42943610560568529 0 -0.31464595074658819 0.44116236142321691 0 -0.3208214411672643 0.43127817962067411 0 -0.32773009934648212 0.40279627344654068 0 -0.3208214411672643 0.43127817962067411 0 -0.3157982197169702 0.41785407911445882 0 -0.32773009934648212 0.40279627344654068 0 -0.33142789423704311 0.42288492094172753 0 -0.3208214411672643 0.43127817962067411 0 -0.32773009934648212 0.40279627344654068 0 -0.3157982197169702 0.41785407911445882 0 -0.32053213592467961 0.40432524821603899 0 -0.32773009934648212 0.40279627344654068 0 -0.3157982197169702 0.41785407911445882 0 -0.32053213592467961 0.40432524821603899 0 -0.30845716307646581 0.4077192757924083 0 -0.32053213592467961 0.40432524821603899 0 -0.33067352840358188 0.39066157694546089 0 -0.30843135444363551 0.39282773323976988 0 -0.33067352840358188 0.39066157694546089 0 -0.30843135444363551 0.39282773323976988 0 -0.32053213592467961 0.40432524821603899 0 -0.32773009934648212 0.40279627344654068 0 -0.33067352840358188 0.39066157694546089 0 -0.32053213592467961 0.40432524821603899 0 -0.32773009934648212 0.40279627344654068 0 -0.35409904535154307 0.39719504282373008 0 -0.32773009934648212 0.40279627344654068 0 -0.33067352840358188 0.39066157694546089 0 -0.35409904535154307 0.39719504282373008 0 -0.32773009934648212 0.40279627344654068 0 -0.35409904535154307 0.39719504282373008 0 -0.34376446120061338 0.40982397692758388 0 -0.32773009934648212 0.40279627344654068 0 -0.32773009934648212 0.40279627344654068 0 -0.33067352840358188 0.39066157694546089 0 -0.33637561322847592 0.36715393757952841 0 -0.33067352840358188 0.39066157694546089 0 -0.33988883591364538 0.38055106833240421 0 -0.35045741543160053 0.3887348322176804 0 -0.33067352840358188 0.39066157694546089 0 -0.33988883591364538 0.38055106833240421 0 -0.35045741543160053 0.3887348322176804 0 -0.33067352840358188 0.39066157694546089 0 -0.33637561322847592 0.36715393757952841 0 -0.33067352840358188 0.39066157694546089 0 -0.33067352840358188 0.39066157694546089 0 -0.31659416239755611 0.37619795520241961 0 -0.30843135444363551 0.39282773323976988 0 -0.33637561322847592 0.36715393757952841 0 -0.33067352840358188 0.39066157694546089 0 -0.31659416239755611 0.37619795520241961 0 -0.2938348349244253 0.37104886931858788 0 -0.31659416239755611 0.37619795520241961 0 -0.30843135444363551 0.39282773323976988 0 -0.30843135444363551 0.39282773323976988 0 -0.28618918048368902 0.39499388953408032 0 -0.32053213592467961 0.40432524821603899 0 -0.30843135444363551 0.39282773323976988 0 -0.30845716307646581 0.4077192757924083 0 -0.30843135444363551 0.39282773323976988 0 -0.29490212081872352 0.40660972813928459 0 -0.30845716307646581 0.4077192757924083 0 -0.28618918048368902 0.39499388953408032 0 -0.27858692213102149 0.41278396467946138 0 -0.29490212081872352 0.40660972813928459 0 -0.30843135444363551 0.39282773323976988 0 -0.28618918048368902 0.39499388953408032 0 -0.29490212081872352 0.40660972813928459 0 -0.2938348349244253 0.37104886931858788 0 -0.30843135444363551 0.39282773323976988 0 -0.28618918048368902 0.39499388953408032 0 -0.27146908052250779 0.37494158288305651 0 -0.2938348349244253 0.37104886931858788 0 -0.28618918048368902 0.39499388953408032 0 -0.27146908052250779 0.37494158288305651 0 -0.28618918048368902 0.39499388953408032 0 -0.2639470065237427 0.39716004582839048 0 -0.28618918048368902 0.39499388953408032 0 -0.2639470065237427 0.39716004582839048 0 -0.28618918048368902 0.39499388953408032 0 -0.2639470065237427 0.39716004582839048 0 -0.27858692213102149 0.41278396467946138 0 -0.2639470065237427 0.39716004582839048 0 -0.25381701134997192 0.38168743709227643 0 -0.2471146716395054 0.39932385584715102 0 -0.2639470065237427 0.39716004582839048 0 -0.25178482125675122 0.41781944046769298 0 -0.2471146716395054 0.39932385584715102 0 -0.27146908052250779 0.37494158288305651 0 -0.2639470065237427 0.39716004582839048 0 -0.25381701134997192 0.38168743709227643 0 -0.25178482125675122 0.41781944046769298 0 -0.26583077596565152 0.44338027639395422 0 -0.24142318857518311 0.44448923387932282 0 -0.25178482125675122 0.41781944046769298 0 -0.27256028757957301 0.42764694437648709 0 -0.26583077596565152 0.44338027639395422 0 -0.25178482125675122 0.41781944046769298 0 -0.27858692213102149 0.41278396467946138 0 -0.2639470065237427 0.39716004582839048 0 -0.25178482125675122 0.41781944046769298 0 -0.27858692213102149 0.41278396467946138 0 -0.25178482125675122 0.41781944046769298 0 -0.27858692213102149 0.41278396467946138 0 -0.27256028757957301 0.42764694437648709 0 -0.27858692213102149 0.41278396467946138 0 -0.27256028757957301 0.42764694437648709 0 -0.2903423173329206 0.42273656760333089 0 -0.2903423173329206 0.42273656760333089 0 -0.30520171187413953 0.42943610560568529 0 -0.29023836335611991 0.44227131890858562 0 -0.27256028757957301 0.42764694437648709 0 -0.2903423173329206 0.42273656760333089 0 -0.29023836335611991 0.44227131890858562 0 -0.27858692213102149 0.41278396467946138 0 -0.2903423173329206 0.42273656760333089 0 -0.29490212081872352 0.40660972813928459 0 -0.2903423173329206 0.42273656760333089 0 -0.29490212081872352 0.40660972813928459 0 -0.30216791132792359 0.41775813819609958 0 -0.29490212081872352 0.40660972813928459 0 -0.30216791132792359 0.41775813819609958 0 -0.30845716307646581 0.4077192757924083 0 -0.3157982197169702 0.41785407911445882 0 -0.30216791132792359 0.41775813819609958 0 -0.30520171187413953 0.42943610560568529 0 -0.3157982197169702 0.41785407911445882 0 -0.30216791132792359 0.41775813819609958 0 -0.30845716307646581 0.4077192757924083 0 -0.2903423173329206 0.42273656760333089 0 -0.30216791132792359 0.41775813819609958 0 -0.30520171187413953 0.42943610560568529 0 -0.30520171187413953 0.42943610560568529 0 -0.29023836335611991 0.44227131890858562 0 -0.31464595074658819 0.44116236142321691 0 -0.30287937726446362 0.45184501621704948 0 -0.3139127829880457 0.45976008579480721 0 -0.31464595074658819 0.44116236142321691 0 -0.30287937726446362 0.45184501621704948 0 -0.29023836335611991 0.44227131890858562 0 -0.31464595074658819 0.44116236142321691 0 -0.29023836335611991 0.44227131890858562 0 -0.31464595074658819 0.44116236142321691 0 -0.29272041196710052 0.46418629874158829 0 -0.3068284731576717 0.4807971079066134 0 -0.3139127829880457 0.45976008579480721 0 -0.30287937726446362 0.45184501621704948 0 -0.29272041196710052 0.46418629874158829 0 -0.3139127829880457 0.45976008579480721 0 -0.29272041196710052 0.46418629874158829 0 -0.29023836335611991 0.44227131890858562 0 -0.27062249595901339 0.46557837741394181 0 -0.30287937726446362 0.45184501621704948 0 -0.29272041196710052 0.46418629874158829 0 -0.29023836335611991 0.44227131890858562 0 -0.27256028757957301 0.42764694437648709 0 -0.29023836335611991 0.44227131890858562 0 -0.26583077596565152 0.44338027639395422 0 -0.29023836335611991 0.44227131890858562 0 -0.26583077596565152 0.44338027639395422 0 -0.27062249595901339 0.46557837741394181 0 -0.29023836335611991 0.44227131890858562 0 -0.26583077596565152 0.44338027639395422 0 -0.26583077596565152 0.44338027639395422 0 -0.27062249595901339 0.46557837741394181 0 -0.24468370140674631 0.46576144878277792 0 -0.26583077596565152 0.44338027639395422 0 -0.24142318857518311 0.44448923387932282 0 -0.24468370140674631 0.46576144878277792 0 -0.26583077596565152 0.44338027639395422 0 -0.24142318857518311 0.44448923387932282 0 -0.2554035557665969 0.490274243447684 0 -0.26225340600833991 0.5 0 -0.23547948509193131 0.49999999999999978 0 -0.27062249595901339 0.46557837741394181 0 -0.2554035557665969 0.490274243447684 0 -0.24468370140674631 0.46576144878277792 0 -0.27062249595901339 0.46557837741394181 0 -0.2554035557665969 0.490274243447684 0 -0.28111601446213452 0.48553567567714873 0 -0.2554035557665969 0.490274243447684 0 -0.28111601446213452 0.48553567567714873 0 -0.26225340600833991 0.5 0 -0.28111601446213452 0.48553567567714873 0 -0.28902732692474858 0.5 0 -0.2554035557665969 0.490274243447684 0 -0.26225340600833991 0.5 0 -0.28111601446213452 0.48553567567714873 0 -0.28111601446213452 0.48553567567714873 0 -0.28902732692474858 0.5 0 -0.3068284731576717 0.4807971079066134 0 -0.29272041196710052 0.46418629874158829 0 -0.28111601446213452 0.48553567567714873 0 -0.3068284731576717 0.4807971079066134 0 -0.28111601446213452 0.48553567567714873 0 -0.3068284731576717 0.4807971079066134 0 -0.29272041196710052 0.46418629874158829 0 -0.27062249595901339 0.46557837741394181 0 -0.28111601446213452 0.48553567567714873 0 -0.28902732692474858 0.5 0 -0.3068284731576717 0.4807971079066134 0 -0.31580124784115732 0.5 0 -0.3068284731576717 0.4807971079066134 0 -0.31580124784115732 0.5 0 -0.33254093185320932 0.47605854013607812 0 -0.31580124784115732 0.5 0 -0.342575168757566 0.50000000000000122 0 -0.33254093185320932 0.47605854013607812 0 -0.342575168757566 0.50000000000000122 0 -0.33254093185320932 0.47605854013607812 0 -0.34844531551611418 0.48458363239285013 0 -0.3068284731576717 0.4807971079066134 0 -0.33254093185320932 0.47605854013607812 0 -0.3139127829880457 0.45976008579480721 0 -0.3068284731576717 0.4807971079066134 0 -0.33254093185320932 0.47605854013607812 0 -0.33254093185320932 0.47605854013607812 0 -0.3139127829880457 0.45976008579480721 0 -0.32840097894652132 0.45916099145576272 0 -0.3139127829880457 0.45976008579480721 0 -0.3277528234293583 0.44781267133047897 0 -0.32840097894652132 0.45916099145576272 0 -0.3208214411672643 0.43127817962067411 0 -0.3139127829880457 0.45976008579480721 0 -0.3277528234293583 0.44781267133047897 0 -0.3208214411672643 0.43127817962067411 0 -0.3139127829880457 0.45976008579480721 0 -0.3208214411672643 0.43127817962067411 0 -0.3139127829880457 0.45976008579480721 0 -0.31464595074658819 0.44116236142321691 0 -0.33562373287711988 0.43547211127396868 0 -0.3208214411672643 0.43127817962067411 0 -0.3277528234293583 0.44781267133047897 0 -0.33562373287711988 0.43547211127396868 0 -0.3410181872551219 0.45402418841634251 0 -0.35269775421664562 0.43781763231350701 0 -0.33562373287711988 0.43547211127396868 0 -0.3277528234293583 0.44781267133047897 0 -0.3410181872551219 0.45402418841634251 0 -0.33254093185320932 0.47605854013607812 0 -0.32840097894652132 0.45916099145576272 0 -0.3410181872551219 0.45402418841634251 0 -0.3277528234293583 0.44781267133047897 0 -0.32840097894652132 0.45916099145576272 0 -0.3410181872551219 0.45402418841634251 0 -0.33254093185320932 0.47605854013607812 0 -0.3410181872551219 0.45402418841634251 0 -0.35825339054874689 0.47131997236554279 0 -0.3410181872551219 0.45402418841634251 0 -0.36198908584229988 0.45463916300566343 0 -0.35825339054874689 0.47131997236554279 0 -0.3410181872551219 0.45402418841634251 0 -0.35269775421664562 0.43781763231350701 0 -0.36198908584229988 0.45463916300566343 0 -0.35269775421664562 0.43781763231350701 0 -0.37401024794670101 0.44345261733791702 0 -0.36198908584229988 0.45463916300566343 0 -0.38396584924428429 0.46658140459500858 0 -0.36198908584229988 0.45463916300566343 0 -0.35825339054874689 0.47131997236554279 0 -0.38396584924428429 0.46658140459500858 0 -0.37401024794670101 0.44345261733791702 0 -0.36198908584229988 0.45463916300566343 0 -0.38396584924428429 0.46658140459500858 0 -0.36986940127135909 0.47916746290539491 0 -0.35825339054874689 0.47131997236554279 0 -0.38396584924428429 0.46658140459500858 0 -0.35825339054874689 0.47131997236554279 0 -0.38385798324901221 0.48385506608960549 0 -0.36321657600328933 0.49192753304480391 0 -0.36986940127135909 0.47916746290539491 0 -0.36321657600328933 0.49192753304480391 0 -0.34844531551611418 0.48458363239285013 0 -0.38385798324901221 0.48385506608960549 0 -0.36986940127135909 0.47916746290539491 0 -0.36321657600328933 0.49192753304480391 0 -0.342575168757566 0.50000000000000122 0 -0.36321657600328933 0.49192753304480391 0 -0.34844531551611418 0.48458363239285013 0 -0.342575168757566 0.50000000000000122 0 -0.36321657600328933 0.49192753304480391 0 -0.36986940127135909 0.47916746290539491 0 -0.34844531551611418 0.48458363239285013 0 -0.35825339054874689 0.47131997236554279 0 -0.33254093185320932 0.47605854013607812 0 -0.35825339054874689 0.47131997236554279 0 -0.33254093185320932 0.47605854013607812 0 -0.34844531551611418 0.48458363239285013 0 -0.35825339054874689 0.47131997236554279 0 -0.15388341782651499 0.4781820172121119 0 -0.1391410784170469 0.4825826644751865 0 -0.1407349132625566 0.46549035260126043 0 -0.15388341782651499 0.4781820172121119 0 -0.1407349132625566 0.46549035260126043 0 -0.15698607889254729 0.46526667328195498 0 -0.15388341782651499 0.4781820172121119 0 -0.14818648083101649 0.5 0 -0.16548182762496169 0.48661325439493208 0 -0.15388341782651499 0.4781820172121119 0 -0.14818648083101649 0.5 0 -0.1391410784170469 0.4825826644751865 0 -0.14818648083101649 0.5 0 -0.1391410784170469 0.4825826644751865 0 -0.1209649368329959 0.5 0 -0.1391410784170469 0.4825826644751865 0 -0.1232701594973154 0.4724655077666583 0 -0.1209649368329959 0.5 0 -0.1391410784170469 0.4825826644751865 0 -0.1407349132625566 0.46549035260126043 0 -0.1232701594973154 0.4724655077666583 0 -0.14760676083845631 0.45123754348954231 0 -0.1407349132625566 0.46549035260126043 0 -0.1229120823695881 0.44343466287338862 0 -0.1407349132625566 0.46549035260126043 0 -0.1229120823695881 0.44343466287338862 0 -0.1232701594973154 0.4724655077666583 0 -0.1419825507170743 0.44091217774969033 0 -0.14760676083845631 0.45123754348954231 0 -0.1229120823695881 0.44343466287338862 0 -0.1419825507170743 0.44091217774969033 0 -0.14192854845230321 0.43156378044016891 0 -0.1229120823695881 0.44343466287338862 0 -0.14760676083845631 0.45123754348954231 0 -0.1229120823695881 0.44343466287338862 0 -0.14760676083845631 0.45123754348954231 0 -0.16445379778381039 0.43880532720344279 0 -0.15118045009812581 0.43658675842919159 0 -0.1419825507170743 0.44091217774969033 0 -0.14760676083845631 0.45123754348954231 0 -0.15118045009812581 0.43658675842919159 0 -0.14760676083845631 0.45123754348954231 0 -0.1407349132625566 0.46549035260126043 0 -0.15698607889254729 0.46526667328195498 0 -0.14760676083845631 0.45123754348954231 0 -0.15698607889254729 0.46526667328195498 0 -0.17230143930732439 0.4590404241056959 0 -0.14760676083845631 0.45123754348954231 0 -0.17230143930732439 0.4590404241056959 0 -0.15698607889254729 0.46526667328195498 0 -0.17230143930732439 0.4590404241056959 0 -0.16843899428104611 0.47349349312154843 0 -0.14760676083845631 0.45123754348954231 0 -0.16445379778381039 0.43880532720344279 0 -0.17230143930732439 0.4590404241056959 0 -0.16445379778381039 0.43880532720344279 0 -0.180724957780001 0.45282431596264722 0 -0.16445379778381039 0.43880532720344279 0 -0.180724957780001 0.45282431596264722 0 -0.17230143930732439 0.4590404241056959 0 -0.16445379778381039 0.43880532720344279 0 -0.180724957780001 0.45282431596264722 0 -0.182534080058953 0.44173822427429599 0 -0.180724957780001 0.45282431596264722 0 -0.182534080058953 0.44173822427429599 0 -0.19260801379424619 0.44670714885006008 0 -0.180724957780001 0.45282431596264722 0 -0.17230143930732439 0.4590404241056959 0 -0.19699611777619219 0.46684330472185059 0 -0.17230143930732439 0.4590404241056959 0 -0.1814383481829035 0.47073935580617182 0 -0.19699611777619219 0.46684330472185059 0 -0.17230143930732439 0.4590404241056959 0 -0.19699611777619219 0.46684330472185059 0 -0.17230143930732439 0.4590404241056959 0 -0.1814383481829035 0.47073935580617182 0 -0.16843899428104611 0.47349349312154843 0 -0.1814383481829035 0.47073935580617182 0 -0.17959348734685629 0.48084770621584672 0 -0.18984143690604349 0.47520305582374112 0 -0.1814383481829035 0.47073935580617182 0 -0.17959348734685629 0.48084770621584672 0 -0.16843899428104611 0.47349349312154843 0 -0.17959348734685629 0.48084770621584672 0 -0.16843899428104611 0.47349349312154843 0 -0.16548182762496169 0.48661325439493208 0 -0.15388341782651499 0.4781820172121119 0 -0.16843899428104611 0.47349349312154843 0 -0.16548182762496169 0.48661325439493208 0 -0.15388341782651499 0.4781820172121119 0 -0.15698607889254729 0.46526667328195498 0 -0.16843899428104611 0.47349349312154843 0 -0.14818648083101649 0.5 0 -0.16548182762496169 0.48661325439493208 0 -0.17540802482903711 0.5 0 -0.17959348734685629 0.48084770621584672 0 -0.17540802482903711 0.5 0 -0.19323957262509139 0.48540909677992672 0 -0.17959348734685629 0.48084770621584672 0 -0.16548182762496169 0.48661325439493208 0 -0.17540802482903711 0.5 0 -0.17540802482903711 0.5 0 -0.20262956882705771 0.50000000000000133 0 -0.19323957262509139 0.48540909677992672 0 -0.20262956882705771 0.50000000000000133 0 -0.19323957262509139 0.48540909677992672 0 -0.21334360742361619 0.48092805797005928 0 -0.19835518368273591 0.47709587882389448 0 -0.21334360742361619 0.48092805797005928 0 -0.19699611777619219 0.46684330472185059 0 -0.19323957262509139 0.48540909677992672 0 -0.19835518368273591 0.47709587882389448 0 -0.21334360742361619 0.48092805797005928 0 -0.1814383481829035 0.47073935580617182 0 -0.18984143690604349 0.47520305582374112 0 -0.19699611777619219 0.46684330472185059 0 -0.18984143690604349 0.47520305582374112 0 -0.19835518368273591 0.47709587882389448 0 -0.19699611777619219 0.46684330472185059 0 -0.17959348734685629 0.48084770621584672 0 -0.19323957262509139 0.48540909677992672 0 -0.18984143690604349 0.47520305582374112 0 -0.19323957262509139 0.48540909677992672 0 -0.18984143690604349 0.47520305582374112 0 -0.19835518368273591 0.47709587882389448 0 -0.20305742285087289 0.46875852058244238 0 -0.21334360742361619 0.48092805797005928 0 -0.21145142769472591 0.46387039693021109 0 -0.20305742285087289 0.46875852058244238 0 -0.21334360742361619 0.48092805797005928 0 -0.19699611777619219 0.46684330472185059 0 -0.21334360742361619 0.48092805797005928 0 -0.19699611777619219 0.46684330472185059 0 -0.21334360742361619 0.48092805797005928 0 -0.2235482961496596 0.46655159393633072 0 -0.21145142769472591 0.46387039693021109 0 -0.20262956882705771 0.50000000000000133 0 -0.21334360742361619 0.48092805797005928 0 -0.22969109707106369 0.4950128112182407 0 -0.20262956882705771 0.50000000000000133 0 -0.21905452695949459 0.5 0 -0.22969109707106369 0.4950128112182407 0 -0.20262956882705771 0.50000000000000133 0 -0.22969109707106369 0.4950128112182407 0 -0.21905452695949459 0.5 0 -0.22969109707106369 0.4950128112182407 0 -0.23547948509193131 0.49999999999999978 0 -0.21334360742361619 0.48092805797005928 0 -0.22969109707106369 0.4950128112182407 0 -0.2333340515635357 0.47970563107101422 0 -0.21334360742361619 0.48092805797005928 0 -0.22969109707106369 0.4950128112182407 0 -0.22969109707106369 0.4950128112182407 0 -0.23547948509193131 0.49999999999999978 0 -0.21334360742361619 0.48092805797005928 0 -0.2333340515635357 0.47970563107101422 0 -0.2235482961496596 0.46655159393633072 0 -0.2333340515635357 0.47970563107101422 0 -0.24468370140674631 0.46576144878277792 0 -0.2235482961496596 0.46655159393633072 0 -0.2554035557665969 0.490274243447684 0 -0.2333340515635357 0.47970563107101422 0 -0.24468370140674631 0.46576144878277792 0 -0.2554035557665969 0.490274243447684 0 -0.22969109707106369 0.4950128112182407 0 -0.23547948509193131 0.49999999999999978 0 -0.2554035557665969 0.490274243447684 0 -0.22969109707106369 0.4950128112182407 0 -0.2333340515635357 0.47970563107101422 0 -0.2554035557665969 0.490274243447684 0 -0.22969109707106369 0.4950128112182407 0 -0.24142318857518311 0.44448923387932282 0 -0.24468370140674631 0.46576144878277792 0 -0.22819713811172521 0.45501398697192857 0 -0.24468370140674631 0.46576144878277792 0 -0.22819713811172521 0.45501398697192857 0 -0.2235482961496596 0.46655159393633072 0 -0.22819713811172521 0.45501398697192857 0 -0.2235482961496596 0.46655159393633072 0 -0.21688755628823261 0.45676302952743369 0 -0.24142318857518311 0.44448923387932282 0 -0.21701560118471461 0.44559819136469148 0 -0.22885291951950201 0.43697777726868009 0 -0.24142318857518311 0.44448923387932282 0 -0.22819713811172521 0.45501398697192857 0 -0.21701560118471461 0.44559819136469148 0 -0.24142318857518311 0.44448923387932282 0 -0.21701560118471461 0.44559819136469148 0 -0.22819713811172521 0.45501398697192857 0 -0.21701560118471461 0.44559819136469148 0 -0.21688755628823261 0.45676302952743369 0 -0.21701560118471461 0.44559819136469148 0 -0.21572743339283029 0.43577808301135501 0 -0.22885291951950201 0.43697777726868009 0 -0.21701560118471461 0.44559819136469148 0 -0.20962188949649069 0.44593412427727902 0 -0.21572743339283029 0.43577808301135501 0 -0.21701560118471461 0.44559819136469148 0 -0.21688755628823261 0.45676302952743369 0 -0.20551164482329301 0.45482775974946299 0 -0.21701560118471461 0.44559819136469148 0 -0.20962188949649069 0.44593412427727902 0 -0.21701560118471461 0.44559819136469148 0 -0.20962188949649069 0.44593412427727902 0 -0.20551164482329301 0.45482775974946299 0 -0.2235482961496596 0.46655159393633072 0 -0.21145142769472591 0.46387039693021109 0 -0.21688755628823261 0.45676302952743369 0 -0.21145142769472591 0.46387039693021109 0 -0.21688755628823261 0.45676302952743369 0 -0.20551164482329301 0.45482775974946299 0 -0.21145142769472591 0.46387039693021109 0 -0.20551164482329301 0.45482775974946299 0 -0.20231938156335311 0.46169337942049821 0 -0.20305742285087289 0.46875852058244238 0 -0.21145142769472591 0.46387039693021109 0 -0.20231938156335311 0.46169337942049821 0 -0.180724957780001 0.45282431596264722 0 -0.19699611777619219 0.46684330472185059 0 -0.19558995400838769 0.45648269107600858 0 -0.180724957780001 0.45282431596264722 0 -0.19699611777619219 0.46684330472185059 0 -0.19699611777619219 0.46684330472185059 0 -0.20231938156335311 0.46169337942049821 0 -0.19558995400838769 0.45648269107600858 0 -0.20305742285087289 0.46875852058244238 0 -0.19699611777619219 0.46684330472185059 0 -0.20231938156335311 0.46169337942049821 0 -0.20305742285087289 0.46875852058244238 0 -0.19699611777619219 0.46684330472185059 0 -0.20551164482329301 0.45482775974946299 0 -0.20231938156335311 0.46169337942049821 0 -0.19558995400838769 0.45648269107600858 0 -0.20962188949649069 0.44593412427727902 0 -0.20551164482329301 0.45482775974946299 0 -0.19260801379424619 0.44670714885006008 0 -0.20962188949649069 0.44593412427727902 0 -0.19260801379424619 0.44670714885006008 0 -0.19818061950821031 0.42789039204415641 0 -0.182534080058953 0.44173822427429599 0 -0.19260801379424619 0.44670714885006008 0 -0.19818061950821031 0.42789039204415641 0 -0.20962188949649069 0.44593412427727902 0 -0.19260801379424619 0.44670714885006008 0 -0.20551164482329301 0.45482775974946299 0 -0.19558995400838769 0.45648269107600858 0 -0.19260801379424619 0.44670714885006008 0 -0.180724957780001 0.45282431596264722 0 -0.19558995400838769 0.45648269107600858 0 -0.19260801379424619 0.44670714885006008 0 -0.19818061950821031 0.42789039204415641 0 -0.17725931566898331 0.43182100626857323 0 -0.19818061950821031 0.42789039204415641 0 -0.1872177748081936 0.41092630802904379 0 -0.17725931566898331 0.43182100626857323 0 -0.19818061950821031 0.42789039204415641 0 -0.2028632505106677 0.4128399471492708 0 -0.1872177748081936 0.41092630802904379 0 -0.19818061950821031 0.42789039204415641 0 -0.1872177748081936 0.41092630802904379 0 -0.19818061950821031 0.42789039204415641 0 -0.2028632505106677 0.4128399471492708 0 -0.22498272038248071 0.42285491625592458 0 -0.2028632505106677 0.4128399471492708 0 -0.22498272038248071 0.42285491625592458 0 -0.21153680764891489 0.39967893156502637 0 -0.19818061950821031 0.42789039204415641 0 -0.21572743339283029 0.43577808301135501 0 -0.22498272038248071 0.42285491625592458 0 -0.19818061950821031 0.42789039204415641 0 -0.22498272038248071 0.42285491625592458 0 -0.20962188949649069 0.44593412427727902 0 -0.19818061950821031 0.42789039204415641 0 -0.20962188949649069 0.44593412427727902 0 -0.19818061950821031 0.42789039204415641 0 -0.21572743339283029 0.43577808301135501 0 -0.21572743339283029 0.43577808301135501 0 -0.22885291951950201 0.43697777726868009 0 -0.22498272038248071 0.42285491625592458 0 -0.22498272038248071 0.42285491625592458 0 -0.22974098017517369 0.4046059154306007 0 -0.21153680764891489 0.39967893156502637 0 -0.25178482125675122 0.41781944046769298 0 -0.22498272038248071 0.42285491625592458 0 -0.25178482125675122 0.41781944046769298 0 -0.22498272038248071 0.42285491625592458 0 -0.22974098017517369 0.4046059154306007 0 -0.25178482125675122 0.41781944046769298 0 -0.2471146716395054 0.39932385584715102 0 -0.22974098017517369 0.4046059154306007 0 -0.25178482125675122 0.41781944046769298 0 -0.22885291951950201 0.43697777726868009 0 -0.22498272038248071 0.42285491625592458 0 -0.25178482125675122 0.41781944046769298 0 -0.24142318857518311 0.44448923387932282 0 -0.22885291951950201 0.43697777726868009 0 -0.236801810384763 0.38683571720169252 0 -0.22817607050836319 0.37472267295643252 0 -0.2415070508676993 0.36826944972334669 0 -0.25381701134997192 0.38168743709227643 0 -0.236801810384763 0.38683571720169252 0 -0.2471146716395054 0.39932385584715102 0 -0.25381701134997192 0.38168743709227643 0 -0.236801810384763 0.38683571720169252 0 -0.2415070508676993 0.36826944972334669 0 -0.236801810384763 0.38683571720169252 0 -0.2471146716395054 0.39932385584715102 0 -0.22974098017517369 0.4046059154306007 0 -0.22974098017517369 0.4046059154306007 0 -0.22019154187589199 0.38668142649280018 0 -0.21153680764891489 0.39967893156502637 0 -0.236801810384763 0.38683571720169252 0 -0.22974098017517369 0.4046059154306007 0 -0.22019154187589199 0.38668142649280018 0 -0.236801810384763 0.38683571720169252 0 -0.22019154187589199 0.38668142649280018 0 -0.22817607050836319 0.37472267295643252 0 -0.22019154187589199 0.38668142649280018 0 -0.21137254236468811 0.37288542764060811 0 -0.22817607050836319 0.37472267295643252 0 -0.22019154187589199 0.38668142649280018 0 -0.19674617275222711 0.38933930626099078 0 -0.21137254236468811 0.37288542764060811 0 -0.2028632505106677 0.4128399471492708 0 -0.21153680764891489 0.39967893156502637 0 -0.19674617275222711 0.38933930626099078 0 -0.22019154187589199 0.38668142649280018 0 -0.21153680764891489 0.39967893156502637 0 -0.19674617275222711 0.38933930626099078 0 -0.2028632505106677 0.4128399471492708 0 -0.19674617275222711 0.38933930626099078 0 -0.1872177748081936 0.41092630802904379 0 -0.19674617275222711 0.38933930626099078 0 -0.18731092059942639 0.36778999491568481 0 -0.21137254236468811 0.37288542764060811 0 -0.17777068154043099 0.37815684547603751 0 -0.16529208540816001 0.37699813999881882 0 -0.1762549301081768 0.39396222401393127 0 -0.19674617275222711 0.38933930626099078 0 -0.17777068154043099 0.37815684547603751 0 -0.18731092059942639 0.36778999491568481 0 -0.19674617275222711 0.38933930626099078 0 -0.17777068154043099 0.37815684547603751 0 -0.1762549301081768 0.39396222401393127 0 -0.16529208540816001 0.37699813999881882 0 -0.16229181539985249 0.38813522029818309 0 -0.1762549301081768 0.39396222401393127 0 -0.16529208540816001 0.37699813999881882 0 -0.1762549301081768 0.39396222401393127 0 -0.16529208540816001 0.37699813999881882 0 -0.16229181539985249 0.38813522029818309 0 -0.1536851130313048 0.38539208521684831 0 -0.16529208540816001 0.37699813999881882 0 -0.1536851130313048 0.38539208521684831 0 -0.1525769903035952 0.37288454819740241 0 -0.16229181539985249 0.38813522029818309 0 -0.16021454404874011 0.39838070518636942 0 -0.1762549301081768 0.39396222401393127 0 -0.16021454404874011 0.39838070518636942 0 -0.1762549301081768 0.39396222401393127 0 -0.17091675818120991 0.40778800239163088 0 -0.16229181539985249 0.38813522029818309 0 -0.16021454404874011 0.39838070518636942 0 -0.1536851130313048 0.38539208521684831 0 -0.19674617275222711 0.38933930626099078 0 -0.1762549301081768 0.39396222401393127 0 -0.1872177748081936 0.41092630802904379 0 -0.1762549301081768 0.39396222401393127 0 -0.1872177748081936 0.41092630802904379 0 -0.1762549301081768 0.39396222401393127 0 -0.1872177748081936 0.41092630802904379 0 -0.17091675818120991 0.40778800239163088 0 -0.1872177748081936 0.41092630802904379 0 -0.17091675818120991 0.40778800239163088 0 -0.1714657363251022 0.4189060805511331 0 -0.1872177748081936 0.41092630802904379 0 -0.17725931566898331 0.43182100626857323 0 -0.1714657363251022 0.4189060805511331 0 -0.182534080058953 0.44173822427429599 0 -0.19818061950821031 0.42789039204415641 0 -0.17725931566898331 0.43182100626857323 0 -0.16445379778381039 0.43880532720344279 0 -0.182534080058953 0.44173822427429599 0 -0.17725931566898331 0.43182100626857323 0 -0.16445379778381039 0.43880532720344279 0 -0.14818263778761981 0.42478633844423858 0 -0.16445379778381039 0.43880532720344279 0 -0.1576087017881827 0.42451554655295631 0 -0.14818263778761981 0.42478633844423858 0 -0.16445379778381039 0.43880532720344279 0 -0.17725931566898331 0.43182100626857323 0 -0.1662190010401115 0.42681036412455908 0 -0.17725931566898331 0.43182100626857323 0 -0.1662190010401115 0.42681036412455908 0 -0.1714657363251022 0.4189060805511331 0 -0.1662190010401115 0.42681036412455908 0 -0.1576087017881827 0.42451554655295631 0 -0.15943080561583639 0.41676469417767659 0 -0.16445379778381039 0.43880532720344279 0 -0.1662190010401115 0.42681036412455908 0 -0.1576087017881827 0.42451554655295631 0 -0.16021454404874011 0.39838070518636942 0 -0.17091675818120991 0.40778800239163088 0 -0.15943080561583639 0.41676469417767659 0 -0.17091675818120991 0.40778800239163088 0 -0.1714657363251022 0.4189060805511331 0 -0.15943080561583639 0.41676469417767659 0 -0.1662190010401115 0.42681036412455908 0 -0.1714657363251022 0.4189060805511331 0 -0.15943080561583639 0.41676469417767659 0 -0.15943080561583639 0.41676469417767659 0 -0.14242281564488399 0.39782197725576418 0 -0.15943080561583639 0.41676469417767659 0 -0.14975726671353551 0.41541100881486448 0 -0.14242281564488399 0.39782197725576418 0 -0.14975726671353551 0.41541100881486448 0 -0.14152370195880931 0.41211139041611788 0 -0.14242281564488399 0.39782197725576418 0 -0.1576087017881827 0.42451554655295631 0 -0.15943080561583639 0.41676469417767659 0 -0.14975726671353551 0.41541100881486448 0 -0.1576087017881827 0.42451554655295631 0 -0.14975726671353551 0.41541100881486448 0 -0.14818263778761981 0.42478633844423858 0 -0.14975726671353551 0.41541100881486448 0 -0.14152370195880931 0.41211139041611788 0 -0.14818263778761981 0.42478633844423858 0 -0.16445379778381039 0.43880532720344279 0 -0.15118045009812581 0.43658675842919159 0 -0.14818263778761981 0.42478633844423858 0 -0.14152370195880931 0.41211139041611788 0 -0.14818263778761981 0.42478633844423858 0 -0.14192854845230321 0.43156378044016891 0 -0.1419825507170743 0.44091217774969033 0 -0.15118045009812581 0.43658675842919159 0 -0.14192854845230321 0.43156378044016891 0 -0.15118045009812581 0.43658675842919159 0 -0.14818263778761981 0.42478633844423858 0 -0.14192854845230321 0.43156378044016891 0 -0.14192854845230321 0.43156378044016891 0 -0.125438664987361 0.4263150220635003 0 -0.1229120823695881 0.44343466287338862 0 -0.14192854845230321 0.43156378044016891 0 -0.125438664987361 0.4263150220635003 0 -0.12751872866570099 0.40913541041835361 0 -0.14152370195880931 0.41211139041611788 0 -0.14192854845230321 0.43156378044016891 0 -0.12751872866570099 0.40913541041835361 0 -0.14192854845230321 0.43156378044016891 0 -0.12751872866570099 0.40913541041835361 0 -0.14152370195880931 0.41211139041611788 0 -0.12751872866570099 0.40913541041835361 0 -0.14242281564488399 0.39782197725576418 0 -0.12751872866570099 0.40913541041835361 0 -0.1271163197159039 0.39313592210112702 0 -0.14242281564488399 0.39782197725576418 0 -0.12541482567393161 0.37887926033385189 0 -0.13978985201556959 0.37712975189098669 0 -0.14242281564488399 0.39782197725576418 0 -0.12541482567393161 0.37887926033385189 0 -0.14242281564488399 0.39782197725576418 0 -0.1271163197159039 0.39313592210112702 0 -0.12541482567393161 0.37887926033385189 0 -0.14242281564488399 0.39782197725576418 0 -0.12541482567393161 0.37887926033385189 0 -0.13978985201556959 0.37712975189098669 0 -0.13137655159758041 0.37212870855044289 0 -0.13978985201556959 0.37712975189098669 0 -0.1536851130313048 0.38539208521684831 0 -0.14242281564488399 0.39782197725576418 0 -0.13978985201556959 0.37712975189098669 0 -0.1536851130313048 0.38539208521684831 0 -0.1525769903035952 0.37288454819740241 0 -0.16021454404874011 0.39838070518636942 0 -0.1536851130313048 0.38539208521684831 0 -0.14242281564488399 0.39782197725576418 0 -0.16021454404874011 0.39838070518636942 0 -0.15943080561583639 0.41676469417767659 0 -0.14242281564488399 0.39782197725576418 0 -0.15393129829656599 0.35283251976860869 0 -0.139187677068903 0.35759912946583788 0 -0.1632492988341647 0.36269456219076152 0 -0.139187677068903 0.35759912946583788 0 -0.148509120802303 0.34199940306560622 0 -0.15393129829656599 0.35283251976860869 0 -0.139187677068903 0.35759912946583788 0 -0.148509120802303 0.34199940306560622 0 -0.15393129829656599 0.35283251976860869 0 -0.148509120802303 0.34199940306560622 0 -0.16298081509694079 0.34795355464935651 0 -0.1525769903035952 0.37288454819740241 0 -0.1459331725670843 0.3670292403690873 0 -0.1632492988341647 0.36269456219076152 0 -0.1459331725670843 0.3670292403690873 0 -0.139187677068903 0.35759912946583788 0 -0.1632492988341647 0.36269456219076152 0 -0.139187677068903 0.35759912946583788 0 -0.1632492988341647 0.36269456219076152 0 -0.13978985201556959 0.37712975189098669 0 -0.1525769903035952 0.37288454819740241 0 -0.1459331725670843 0.3670292403690873 0 -0.1348620446131891 0.36483821010044781 0 -0.139187677068903 0.35759912946583788 0 -0.1459331725670843 0.3670292403690873 0 -0.1348620446131891 0.36483821010044781 0 -0.139187677068903 0.35759912946583788 0 -0.13978985201556959 0.37712975189098669 0 -0.1459331725670843 0.3670292403690873 0 -0.1348620446131891 0.36483821010044781 0 -0.13978985201556959 0.37712975189098669 0 -0.1348620446131891 0.36483821010044781 0 -0.13137655159758041 0.37212870855044289 0 -0.12541482567393161 0.37887926033385189 0 -0.13137655159758041 0.37212870855044289 0 -0.12449847087969861 0.3661335646101927 0 -0.1348620446131891 0.36483821010044781 0 -0.13137655159758041 0.37212870855044289 0 -0.12449847087969861 0.3661335646101927 0 -0.1348620446131891 0.36483821010044781 0 -0.1218439635558583 0.3539263211128435 0 -0.12449847087969861 0.3661335646101927 0 -0.139187677068903 0.35759912946583788 0 -0.1218439635558583 0.3539263211128435 0 -0.139187677068903 0.35759912946583788 0 -0.148509120802303 0.34199940306560622 0 -0.1218439635558583 0.3539263211128435 0 -0.148509120802303 0.34199940306560622 0 -0.1218439635558583 0.3539263211128435 0 -0.12838937786721161 0.33941167005035078 0 -0.148509120802303 0.34199940306560622 0 -0.1218439635558583 0.3539263211128435 0 -0.1348620446131891 0.36483821010044781 0 -0.139187677068903 0.35759912946583788 0 -0.1218439635558583 0.3539263211128435 0 -0.12838937786721161 0.33941167005035078 0 -0.13469099185221151 0.32877969392951151 0 -0.148509120802303 0.34199940306560622 0 -0.12838937786721161 0.33941167005035078 0 -0.13469099185221151 0.32877969392951151 0 -0.12117463306772081 0.33204210462205253 0 -0.13469099185221151 0.32877969392951151 0 -0.12575071219757791 0.32216311266500819 0 -0.13544657524766551 0.31257104085505338 0 -0.13469099185221151 0.32877969392951151 0 -0.13544657524766551 0.31257104085505338 0 -0.14653539762482079 0.31862418337398768 0 -0.12575071219757791 0.32216311266500819 0 -0.13544657524766551 0.31257104085505338 0 -0.1237751530923923 0.31070222914042822 0 -0.13469099185221151 0.32877969392951151 0 -0.12575071219757791 0.32216311266500819 0 -0.12117463306772081 0.33204210462205253 0 -0.14653539762482079 0.31862418337398768 0 -0.15985883159285039 0.32300530857573589 0 -0.15734382131047869 0.30654416838832071 0 -0.14653539762482079 0.31862418337398768 0 -0.148509120802303 0.34199940306560622 0 -0.15985883159285039 0.32300530857573589 0 -0.13469099185221151 0.32877969392951151 0 -0.14653539762482079 0.31862418337398768 0 -0.148509120802303 0.34199940306560622 0 -0.148509120802303 0.34199940306560622 0 -0.15985883159285039 0.32300530857573589 0 -0.16900967259997041 0.33282981899174341 0 -0.1802046849516987 0.34941146923006178 0 -0.16298081509694079 0.34795355464935651 0 -0.148509120802303 0.34199940306560622 0 -0.16900967259997041 0.33282981899174341 0 -0.15985883159285039 0.32300530857573589 0 -0.148509120802303 0.34199940306560622 0 -0.16900967259997041 0.33282981899174341 0 -0.148509120802303 0.34199940306560622 0 -0.16900967259997041 0.33282981899174341 0 -0.16298081509694079 0.34795355464935651 0 -0.16900967259997041 0.33282981899174341 0 -0.15985883159285039 0.32300530857573589 0 -0.17120854238339861 0.30401121408586618 0 -0.15985883159285039 0.32300530857573589 0 -0.17120854238339861 0.30401121408586618 0 -0.16900967259997041 0.33282981899174341 0 -0.1895102243976379 0.32366023491788082 0 -0.17120854238339861 0.30401121408586618 0 -0.1895102243976379 0.32366023491788082 0 -0.17120854238339861 0.30401121408586618 0 -0.16900967259997041 0.33282981899174341 0 -0.1895102243976379 0.32366023491788082 0 -0.16900967259997041 0.33282981899174341 0 -0.1802046849516987 0.34941146923006178 0 -0.1895102243976379 0.32366023491788082 0 -0.1802046849516987 0.34941146923006178 0 -0.16298081509694079 0.34795355464935651 0 -0.1632492988341647 0.36269456219076152 0 -0.15393129829656599 0.35283251976860869 0 -0.16298081509694079 0.34795355464935651 0 -0.1632492988341647 0.36269456219076152 0 -0.16529208540816001 0.37699813999881882 0 -0.1525769903035952 0.37288454819740241 0 -0.1632492988341647 0.36269456219076152 0 -0.17777068154043099 0.37815684547603751 0 -0.16529208540816001 0.37699813999881882 0 -0.1632492988341647 0.36269456219076152 0 -0.1802046849516987 0.34941146923006178 0 -0.1632492988341647 0.36269456219076152 0 -0.18731092059942639 0.36778999491568481 0 -0.1632492988341647 0.36269456219076152 0 -0.18731092059942639 0.36778999491568481 0 -0.17777068154043099 0.37815684547603751 0 -0.1632492988341647 0.36269456219076152 0 -0.18731092059942639 0.36778999491568481 0 -0.18731092059942639 0.36778999491568481 0 -0.21137254236468811 0.37288542764060811 0 -0.18731092059942639 0.36778999491568481 0 -0.20181537125720261 0.35865670441057901 0 -0.21137254236468811 0.37288542764060811 0 -0.1802046849516987 0.34941146923006178 0 -0.20181537125720261 0.35865670441057901 0 -0.20684447887554741 0.34227060783764168 0 -0.1802046849516987 0.34941146923006178 0 -0.18731092059942639 0.36778999491568481 0 -0.20181537125720261 0.35865670441057901 0 -0.22417873335345639 0.36088098075740299 0 -0.20684447887554741 0.34227060783764168 0 -0.20181537125720261 0.35865670441057901 0 -0.22417873335345639 0.36088098075740299 0 -0.20684447887554741 0.34227060783764168 0 -0.22417873335345639 0.36088098075740299 0 -0.22354355920960281 0.34496308137320542 0 -0.20684447887554741 0.34227060783764168 0 -0.20181537125720261 0.35865670441057901 0 -0.21137254236468811 0.37288542764060811 0 -0.22417873335345639 0.36088098075740299 0 -0.21137254236468811 0.37288542764060811 0 -0.22817607050836319 0.37472267295643252 0 -0.22417873335345639 0.36088098075740299 0 -0.22817607050836319 0.37472267295643252 0 -0.22417873335345639 0.36088098075740299 0 -0.2415070508676993 0.36826944972334669 0 -0.22417873335345639 0.36088098075740299 0 -0.22354355920960281 0.34496308137320542 0 -0.23809077859989719 0.34568040712663711 0 -0.22417873335345639 0.36088098075740299 0 -0.23809077859989719 0.34568040712663711 0 -0.2415070508676993 0.36826944972334669 0 -0.25760294743305873 0.35703730128054217 0 -0.23809077859989719 0.34568040712663711 0 -0.2415070508676993 0.36826944972334669 0 -0.24123585559132521 0.32486245342292391 0 -0.2329018148940144 0.31639497657471538 0 -0.2451173288719338 0.31190433460684008 0 -0.25273920890833579 0.32093350508077523 0 -0.24123585559132521 0.32486245342292391 0 -0.2451173288719338 0.31190433460684008 0 -0.25452742539764639 0.33460957156602561 0 -0.25273920890833579 0.32093350508077523 0 -0.24123585559132521 0.32486245342292391 0 -0.25452742539764639 0.33460957156602561 0 -0.23809077859989719 0.34568040712663711 0 -0.24123585559132521 0.32486245342292391 0 -0.23809077859989719 0.34568040712663711 0 -0.24123585559132521 0.32486245342292391 0 -0.22506024600951019 0.33102032977113982 0 -0.22354355920960281 0.34496308137320542 0 -0.23809077859989719 0.34568040712663711 0 -0.22506024600951019 0.33102032977113982 0 -0.22506024600951019 0.33102032977113982 0 -0.2329018148940144 0.31639497657471538 0 -0.21420195613164719 0.31261599999685191 0 -0.24123585559132521 0.32486245342292391 0 -0.22506024600951019 0.33102032977113982 0 -0.2329018148940144 0.31639497657471538 0 -0.21420195613164719 0.31261599999685191 0 -0.20684447887554741 0.34227060783764168 0 -0.1895102243976379 0.32366023491788082 0 -0.22506024600951019 0.33102032977113982 0 -0.21420195613164719 0.31261599999685191 0 -0.20684447887554741 0.34227060783764168 0 -0.22354355920960281 0.34496308137320542 0 -0.22506024600951019 0.33102032977113982 0 -0.20684447887554741 0.34227060783764168 0 -0.1802046849516987 0.34941146923006178 0 -0.20684447887554741 0.34227060783764168 0 -0.1895102243976379 0.32366023491788082 0 -0.20684447887554741 0.34227060783764168 0 -0.1895102243976379 0.32366023491788082 0 -0.21420195613164719 0.31261599999685191 0 -0.1895102243976379 0.32366023491788082 0 -0.1938094315130813 0.3013079499160633 0 -0.21420195613164719 0.31261599999685191 0 -0.1895102243976379 0.32366023491788082 0 -0.1938094315130813 0.3013079499160633 0 -0.21067229889505559 0.29360906580797952 0 -0.20392885462241109 0.27620962516962261 0 -0.1938094315130813 0.3013079499160633 0 -0.20392885462241109 0.27620962516962261 0 -0.18548214439290811 0.28012389657771158 0 -0.21067229889505559 0.29360906580797952 0 -0.22173919339074619 0.2797754990270529 0 -0.20392885462241109 0.27620962516962261 0 -0.21420195613164719 0.31261599999685191 0 -0.21067229889505559 0.29360906580797952 0 -0.22579179373146449 0.29409387083272009 0 -0.21420195613164719 0.31261599999685191 0 -0.1938094315130813 0.3013079499160633 0 -0.21067229889505559 0.29360906580797952 0 -0.21420195613164719 0.31261599999685191 0 -0.23889368786565571 0.30157176507582117 0 -0.2329018148940144 0.31639497657471538 0 -0.21420195613164719 0.31261599999685191 0 -0.23889368786565571 0.30157176507582117 0 -0.21420195613164719 0.31261599999685191 0 -0.22579179373146449 0.29409387083272009 0 -0.23889368786565571 0.30157176507582117 0 -0.21067229889505559 0.29360906580797952 0 -0.22579179373146449 0.29409387083272009 0 -0.22173919339074619 0.2797754990270529 0 -0.22579179373146449 0.29409387083272009 0 -0.23374718746152939 0.2830420997499572 0 -0.22173919339074619 0.2797754990270529 0 -0.22579179373146449 0.29409387083272009 0 -0.23374718746152939 0.2830420997499572 0 -0.23737560361476059 0.29163493957393788 0 -0.22579179373146449 0.29409387083272009 0 -0.23737560361476059 0.29163493957393788 0 -0.23889368786565571 0.30157176507582117 0 -0.23737560361476059 0.29163493957393788 0 -0.2445727568020675 0.29507019297930742 0 -0.23889368786565571 0.30157176507582117 0 -0.25609601413298327 0.2793738674860935 0 -0.24387259221308599 0.2843967692318834 0 -0.2445727568020675 0.29507019297930742 0 -0.26358541959966453 0.29052753015479038 0 -0.2445727568020675 0.29507019297930742 0 -0.23889368786565571 0.30157176507582117 0 -0.23737560361476059 0.29163493957393788 0 -0.24387259221308599 0.2843967692318834 0 -0.2445727568020675 0.29507019297930742 0 -0.23374718746152939 0.2830420997499572 0 -0.23737560361476059 0.29163493957393788 0 -0.24387259221308599 0.2843967692318834 0 -0.25370055621329513 0.30287103724416359 0 -0.2451173288719338 0.31190433460684008 0 -0.23889368786565571 0.30157176507582117 0 -0.2329018148940144 0.31639497657471538 0 -0.2451173288719338 0.31190433460684008 0 -0.23889368786565571 0.30157176507582117 0 -0.24208717388249459 0.26391850111191872 0 -0.23882388213138961 0.25128747139103152 0 -0.22267055206643269 0.2607203247850956 0 -0.25229645693426739 0.25131093157207129 0 -0.24208717388249459 0.26391850111191872 0 -0.23882388213138961 0.25128747139103152 0 -0.25108520334010359 0.26996282135393068 0 -0.24208717388249459 0.26391850111191872 0 -0.2418976966245304 0.27502877932701048 0 -0.25108520334010359 0.26996282135393068 0 -0.24903317990316101 0.27715796438032642 0 -0.2418976966245304 0.27502877932701048 0 -0.24387259221308599 0.2843967692318834 0 -0.24903317990316101 0.27715796438032642 0 -0.2418976966245304 0.27502877932701048 0 -0.25609601413298327 0.2793738674860935 0 -0.24387259221308599 0.2843967692318834 0 -0.24903317990316101 0.27715796438032642 0 -0.23374718746152939 0.2830420997499572 0 -0.24387259221308599 0.2843967692318834 0 -0.2418976966245304 0.27502877932701048 0 -0.23374718746152939 0.2830420997499572 0 -0.2418976966245304 0.27502877932701048 0 -0.23156084294680759 0.27169452013404649 0 -0.24208717388249459 0.26391850111191872 0 -0.2418976966245304 0.27502877932701048 0 -0.23156084294680759 0.27169452013404649 0 -0.23156084294680759 0.27169452013404649 0 -0.22173919339074619 0.2797754990270529 0 -0.22267055206643269 0.2607203247850956 0 -0.23374718746152939 0.2830420997499572 0 -0.23156084294680759 0.27169452013404649 0 -0.22173919339074619 0.2797754990270529 0 -0.23882388213138961 0.25128747139103152 0 -0.22267055206643269 0.2607203247850956 0 -0.22873633263951779 0.24273790433165501 0 -0.24208717388249459 0.26391850111191872 0 -0.23156084294680759 0.27169452013404649 0 -0.22267055206643269 0.2607203247850956 0 -0.22267055206643269 0.2607203247850956 0 -0.1997557464024198 0.2562365790695586 0 -0.21371475426191 0.2441916623060563 0 -0.22267055206643269 0.2607203247850956 0 -0.20392885462241109 0.27620962516962261 0 -0.1997557464024198 0.2562365790695586 0 -0.22173919339074619 0.2797754990270529 0 -0.22267055206643269 0.2607203247850956 0 -0.20392885462241109 0.27620962516962261 0 -0.20392885462241109 0.27620962516962261 0 -0.1997557464024198 0.2562365790695586 0 -0.18548214439290811 0.28012389657771158 0 -0.1997557464024198 0.2562365790695586 0 -0.18548214439290811 0.28012389657771158 0 -0.1997557464024198 0.2562365790695586 0 -0.17954705093581741 0.26001140537761258 0 -0.18548214439290811 0.28012389657771158 0 -0.1997557464024198 0.2562365790695586 0 -0.17954705093581741 0.26001140537761258 0 -0.18643984148428011 0.248210970823524 0 -0.17954705093581741 0.26001140537761258 0 -0.1747751503249558 0.24606122095238681 0 -0.18643984148428011 0.248210970823524 0 -0.17954705093581741 0.26001140537761258 0 -0.16831689631471211 0.26228978247881818 0 -0.17186937004258929 0.27043557921458128 0 -0.17954705093581741 0.26001140537761258 0 -0.1704196851916164 0.25449500169430872 0 -0.16831689631471211 0.26228978247881818 0 -0.17954705093581741 0.26001140537761258 0 -0.1704196851916164 0.25449500169430872 0 -0.1747751503249558 0.24606122095238681 0 -0.1704196851916164 0.25449500169430872 0 -0.16137448539840329 0.25595502399454001 0 -0.1666277031128674 0.2493978960583963 0 -0.1704196851916164 0.25449500169430872 0 -0.16831689631471211 0.26228978247881818 0 -0.16137448539840329 0.25595502399454001 0 -0.16137448539840329 0.25595502399454001 0 -0.1610736484467252 0.26838630254926821 0 -0.1526040550207351 0.26288508789813142 0 -0.16831689631471211 0.26228978247881818 0 -0.16137448539840329 0.25595502399454001 0 -0.1610736484467252 0.26838630254926821 0 -0.16137448539840329 0.25595502399454001 0 -0.15946482528887029 0.2469377423829088 0 -0.1666277031128674 0.2493978960583963 0 -0.16137448539840329 0.25595502399454001 0 -0.1498692467090586 0.25110806109089462 0 -0.15946482528887029 0.2469377423829088 0 -0.1610736484467252 0.26838630254926821 0 -0.16492711012278369 0.28136650908949562 0 -0.15440046037822039 0.27419334143145491 0 -0.16492711012278369 0.28136650908949562 0 -0.15130053946624031 0.28275135347128649 0 -0.15440046037822039 0.27419334143145491 0 -0.1610736484467252 0.26838630254926821 0 -0.17186937004258929 0.27043557921458128 0 -0.16492711012278369 0.28136650908949562 0 -0.16831689631471211 0.26228978247881818 0 -0.1610736484467252 0.26838630254926821 0 -0.17186937004258929 0.27043557921458128 0 -0.17186937004258929 0.27043557921458128 0 -0.18548214439290811 0.28012389657771158 0 -0.16492711012278369 0.28136650908949562 0 -0.17954705093581741 0.26001140537761258 0 -0.17186937004258929 0.27043557921458128 0 -0.18548214439290811 0.28012389657771158 0 -0.18548214439290811 0.28012389657771158 0 -0.17120854238339861 0.30401121408586618 0 -0.18548214439290811 0.28012389657771158 0 -0.17120854238339861 0.30401121408586618 0 -0.1624639380603454 0.29462284681023893 0 -0.1938094315130813 0.3013079499160633 0 -0.18548214439290811 0.28012389657771158 0 -0.17120854238339861 0.30401121408586618 0 -0.1895102243976379 0.32366023491788082 0 -0.1938094315130813 0.3013079499160633 0 -0.17120854238339861 0.30401121408586618 0 -0.15985883159285039 0.32300530857573589 0 -0.17120854238339861 0.30401121408586618 0 -0.15734382131047869 0.30654416838832071 0 -0.17120854238339861 0.30401121408586618 0 -0.1624639380603454 0.29462284681023893 0 -0.17120854238339861 0.30401121408586618 0 -0.15734382131047869 0.30654416838832071 0 -0.1624639380603454 0.29462284681023893 0 -0.15734382131047869 0.30654416838832071 0 -0.1624639380603454 0.29462284681023893 0 -0.1503868230148889 0.29534800137230027 0 -0.18548214439290811 0.28012389657771158 0 -0.16492711012278369 0.28136650908949562 0 -0.1624639380603454 0.29462284681023893 0 -0.16492711012278369 0.28136650908949562 0 -0.1624639380603454 0.29462284681023893 0 -0.15130053946624031 0.28275135347128649 0 -0.1624639380603454 0.29462284681023893 0 -0.15130053946624031 0.28275135347128649 0 -0.1503868230148889 0.29534800137230027 0 -0.1503868230148889 0.29534800137230027 0 -0.13851739152532169 0.30147368435749877 0 -0.13782435877003771 0.29096322698202087 0 -0.15130053946624031 0.28275135347128649 0 -0.1503868230148889 0.29534800137230027 0 -0.13782435877003771 0.29096322698202087 0 -0.15130053946624031 0.28275135347128649 0 -0.13782435877003771 0.29096322698202087 0 -0.13641839896125649 0.27851704451354331 0 -0.14653539762482079 0.31862418337398768 0 -0.15734382131047869 0.30654416838832071 0 -0.1476232333871047 0.30535462552791542 0 -0.15734382131047869 0.30654416838832071 0 -0.1503868230148889 0.29534800137230027 0 -0.1476232333871047 0.30535462552791542 0 -0.1503868230148889 0.29534800137230027 0 -0.1476232333871047 0.30535462552791542 0 -0.13851739152532169 0.30147368435749877 0 -0.13544657524766551 0.31257104085505338 0 -0.14653539762482079 0.31862418337398768 0 -0.1476232333871047 0.30535462552791542 0 -0.13544657524766551 0.31257104085505338 0 -0.13851739152532169 0.30147368435749877 0 -0.12814982372455119 0.30097200309216171 0 -0.13544657524766551 0.31257104085505338 0 -0.1476232333871047 0.30535462552791542 0 -0.13851739152532169 0.30147368435749877 0 -0.13851739152532169 0.30147368435749877 0 -0.12814982372455119 0.30097200309216171 0 -0.13782435877003771 0.29096322698202087 0 -0.13544657524766551 0.31257104085505338 0 -0.12814982372455119 0.30097200309216171 0 -0.1237751530923923 0.31070222914042822 0 -0.12814982372455119 0.30097200309216171 0 -0.13782435877003771 0.29096322698202087 0 -0.12318928382570581 0.28707140317898239 0 -0.13782435877003771 0.29096322698202087 0 -0.13641839896125649 0.27851704451354331 0 -0.12318928382570581 0.28707140317898239 0 -0.13641839896125649 0.27851704451354331 0 -0.1245660864046719 0.27368648723498168 0 -0.12318928382570581 0.28707140317898239 0 -0.13641839896125649 0.27851704451354331 0 -0.1342534035140964 0.26611706573719762 0 -0.14550994685704741 0.27059706615443158 0 -0.13641839896125649 0.27851704451354331 0 -0.1342534035140964 0.26611706573719762 0 -0.1245660864046719 0.27368648723498168 0 -0.1342534035140964 0.26611706573719762 0 -0.1197639474418347 0.26163662243658248 0 -0.1245660864046719 0.27368648723498168 0 -0.1342534035140964 0.26611706573719762 0 -0.13465358290386339 0.2521251929798205 0 -0.1197639474418347 0.26163662243658248 0 -0.1342534035140964 0.26611706573719762 0 -0.13465358290386339 0.2521251929798205 0 -0.14337804700096021 0.26056649477209509 0 -0.14337804700096021 0.26056649477209509 0 -0.1526040550207351 0.26288508789813142 0 -0.14550994685704741 0.27059706615443158 0 -0.13465358290386339 0.2521251929798205 0 -0.14337804700096021 0.26056649477209509 0 -0.1498692467090586 0.25110806109089462 0 -0.16137448539840329 0.25595502399454001 0 -0.1498692467090586 0.25110806109089462 0 -0.1526040550207351 0.26288508789813142 0 -0.14337804700096021 0.26056649477209509 0 -0.1498692467090586 0.25110806109089462 0 -0.1526040550207351 0.26288508789813142 0 -0.1526040550207351 0.26288508789813142 0 -0.15440046037822039 0.27419334143145491 0 -0.14550994685704741 0.27059706615443158 0 -0.1610736484467252 0.26838630254926821 0 -0.1526040550207351 0.26288508789813142 0 -0.15440046037822039 0.27419334143145491 0 -0.15130053946624031 0.28275135347128649 0 -0.15440046037822039 0.27419334143145491 0 -0.14550994685704741 0.27059706615443158 0 -0.15130053946624031 0.28275135347128649 0 -0.13641839896125649 0.27851704451354331 0 -0.14550994685704741 0.27059706615443158 0 -0.1342534035140964 0.26611706573719762 0 -0.14337804700096021 0.26056649477209509 0 -0.14550994685704741 0.27059706615443158 0 -0.098173812728505644 0.27454120614681798 0 -0.1037115754895971 0.26196510965222719 0 -0.11125600321486941 0.27507523428771291 0 -0.098173812728505644 0.27454120614681798 0 -0.11125600321486941 0.27507523428771291 0 -0.1080802555409093 0.28784611052145981 0 -0.098173812728505644 0.27454120614681798 0 -0.1037115754895971 0.26196510965222719 0 -0.0885465450533688 0.26134912466939181 0 -0.1037115754895971 0.26196510965222719 0 -0.095193864866455202 0.2462821841431557 0 -0.1156280143482107 0.244808693710068 0 -0.1037115754895971 0.26196510965222719 0 -0.0885465450533688 0.26134912466939181 0 -0.095193864866455202 0.2462821841431557 0 -0.13465358290386339 0.2521251929798205 0 -0.1197639474418347 0.26163662243658248 0 -0.1156280143482107 0.244808693710068 0 -0.1037115754895971 0.26196510965222719 0 -0.1197639474418347 0.26163662243658248 0 -0.1156280143482107 0.244808693710068 0 -0.1037115754895971 0.26196510965222719 0 -0.1197639474418347 0.26163662243658248 0 -0.11125600321486941 0.27507523428771291 0 -0.1197639474418347 0.26163662243658248 0 -0.11125600321486941 0.27507523428771291 0 -0.1245660864046719 0.27368648723498168 0 -0.11125600321486941 0.27507523428771291 0 -0.1245660864046719 0.27368648723498168 0 -0.12318928382570581 0.28707140317898239 0 -0.12814982372455119 0.30097200309216171 0 -0.12318928382570581 0.28707140317898239 0 -0.1144622725457233 0.30197070587313152 0 -0.12318928382570581 0.28707140317898239 0 -0.1144622725457233 0.30197070587313152 0 -0.1080802555409093 0.28784611052145981 0 -0.11125600321486941 0.27507523428771291 0 -0.12318928382570581 0.28707140317898239 0 -0.1080802555409093 0.28784611052145981 0 -0.1237751530923923 0.31070222914042822 0 -0.1144622725457233 0.30197070587313152 0 -0.11506638174644369 0.31583428321678608 0 -0.12814982372455119 0.30097200309216171 0 -0.1237751530923923 0.31070222914042822 0 -0.1144622725457233 0.30197070587313152 0 -0.1144622725457233 0.30197070587313152 0 -0.104523556573219 0.31070691163363062 0 -0.11506638174644369 0.31583428321678608 0 -0.1013432417018849 0.29820619909313978 0 -0.091856008988748294 0.288116977287175 0 -0.090906569111602192 0.30661851144065838 0 -0.1144622725457233 0.30197070587313152 0 -0.104523556573219 0.31070691163363062 0 -0.1013432417018849 0.29820619909313978 0 -0.104523556573219 0.31070691163363062 0 -0.1013432417018849 0.29820619909313978 0 -0.090906569111602192 0.30661851144065838 0 -0.104523556573219 0.31070691163363062 0 -0.090906569111602192 0.30661851144065838 0 -0.098141843331846404 0.31865988927362521 0 -0.1013432417018849 0.29820619909313978 0 -0.1080802555409093 0.28784611052145981 0 -0.091856008988748294 0.288116977287175 0 -0.098173812728505644 0.27454120614681798 0 -0.1080802555409093 0.28784611052145981 0 -0.091856008988748294 0.288116977287175 0 -0.1144622725457233 0.30197070587313152 0 -0.1013432417018849 0.29820619909313978 0 -0.1080802555409093 0.28784611052145981 0 -0.091856008988748294 0.288116977287175 0 -0.07495650096225788 0.28352988708195859 0 -0.085098815037850606 0.27477544909610019 0 -0.091856008988748294 0.288116977287175 0 -0.078244237818336629 0.29990336392755729 0 -0.07495650096225788 0.28352988708195859 0 -0.091856008988748294 0.288116977287175 0 -0.078244237818336629 0.29990336392755729 0 -0.090906569111602192 0.30661851144065838 0 -0.078244237818336629 0.29990336392755729 0 -0.090906569111602192 0.30661851144065838 0 -0.081047129122258282 0.31650037135757669 0 -0.078244237818336629 0.29990336392755729 0 -0.064880285298739737 0.31164090970773739 0 -0.065818933426413428 0.29301352669023778 0 -0.078244237818336629 0.29990336392755729 0 -0.064880285298739737 0.31164090970773739 0 -0.081047129122258282 0.31650037135757669 0 -0.078244237818336629 0.29990336392755729 0 -0.07495650096225788 0.28352988708195859 0 -0.065818933426413428 0.29301352669023778 0 -0.07495650096225788 0.28352988708195859 0 -0.065818933426413428 0.29301352669023778 0 -0.063968448407370732 0.28043296904155668 0 -0.07495650096225788 0.28352988708195859 0 -0.063968448407370732 0.28043296904155668 0 -0.071755510354001434 0.26712370389230689 0 -0.07495650096225788 0.28352988708195859 0 -0.071755510354001434 0.26712370389230689 0 -0.085098815037850606 0.27477544909610019 0 -0.063968448407370732 0.28043296904155668 0 -0.071755510354001434 0.26712370389230689 0 -0.056839248988397567 0.26928272429555972 0 -0.071755510354001434 0.26712370389230689 0 -0.085098815037850606 0.27477544909610019 0 -0.0885465450533688 0.26134912466939181 0 -0.098173812728505644 0.27454120614681798 0 -0.085098815037850606 0.27477544909610019 0 -0.0885465450533688 0.26134912466939181 0 -0.098173812728505644 0.27454120614681798 0 -0.091856008988748294 0.288116977287175 0 -0.085098815037850606 0.27477544909610019 0 -0.0885465450533688 0.26134912466939181 0 -0.095193864866455202 0.2462821841431557 0 -0.077464105661945365 0.24911074424437721 0 -0.071755510354001434 0.26712370389230689 0 -0.0885465450533688 0.26134912466939181 0 -0.077464105661945365 0.24911074424437721 0 -0.071755510354001434 0.26712370389230689 0 -0.059038570910347921 0.2515222728656144 0 -0.056839248988397567 0.26928272429555972 0 -0.071755510354001434 0.26712370389230689 0 -0.059038570910347921 0.2515222728656144 0 -0.077464105661945365 0.24911074424437721 0 -0.048799020771713518 0.25951524632941497 0 -0.059038570910347921 0.2515222728656144 0 -0.043254451875281708 0.2504668913687817 0 -0.048799020771713518 0.25951524632941497 0 -0.059038570910347921 0.2515222728656144 0 -0.056839248988397567 0.26928272429555972 0 -0.048799020771713518 0.25951524632941497 0 -0.056839248988397567 0.26928272429555972 0 -0.036063811312826891 0.26678909678770441 0 -0.063968448407370732 0.28043296904155668 0 -0.056839248988397567 0.26928272429555972 0 -0.050472048305783307 0.28921500324772093 0 -0.056839248988397567 0.26928272429555972 0 -0.036063811312826891 0.26678909678770441 0 -0.050472048305783307 0.28921500324772093 0 -0.036063811312826891 0.26678909678770441 0 -0.050472048305783307 0.28921500324772093 0 -0.036063811312826891 0.26678909678770441 0 -0.034946693445078718 0.27953070474969771 0 -0.050472048305783307 0.28921500324772093 0 -0.048799020771713518 0.25951524632941497 0 -0.036063811312826891 0.26678909678770441 0 -0.043254451875281708 0.2504668913687817 0 -0.036063811312826891 0.26678909678770441 0 -0.043254451875281708 0.2504668913687817 0 -0.033522380663737597 0.2493530273901228 0 -0.022686904253916 0.26010280241034123 0 -0.01043629631104975 0.25802812295799349 0 -0.02165557431987053 0.244363190327688 0 -0.036063811312826891 0.26678909678770441 0 -0.033522380663737597 0.2493530273901228 0 -0.02165557431987053 0.244363190327688 0 -0.036063811312826891 0.26678909678770441 0 -0.02165557431987053 0.244363190327688 0 -0.036063811312826891 0.26678909678770441 0 -0.022686904253916 0.26010280241034123 0 -0.02165557431987053 0.244363190327688 0 -0.022686904253916 0.26010280241034123 0 -0.022591935071916851 0.27123079956797891 0 -0.01043629631104975 0.25802812295799349 0 -0.036063811312826891 0.26678909678770441 0 -0.034946693445078718 0.27953070474969771 0 -0.022591935071916851 0.27123079956797891 0 -0.034946693445078718 0.27953070474969771 0 -0.022591935071916851 0.27123079956797891 0 -0.034353823879058838 0.29166035468482793 0 -0.036063811312826891 0.26678909678770441 0 -0.022686904253916 0.26010280241034123 0 -0.022591935071916851 0.27123079956797891 0 -0.022591935071916851 0.27123079956797891 0 -0.0097308032083830032 0.27364550779829971 0 -0.01511018540764233 0.28655981769539912 0 -0.022591935071916851 0.27123079956797891 0 -0.0097308032083830032 0.27364550779829971 0 -0.01043629631104975 0.25802812295799349 0 -0.0097308032083830032 0.27364550779829971 0 -0.0022395925531549271 0.28356760718216012 0 0.0022025357355817152 0.26940323130523758 0 -0.0097308032083830032 0.27364550779829971 0 -0.01043629631104975 0.25802812295799349 0 0.0022025357355817152 0.26940323130523758 0 -0.01043629631104975 0.25802812295799349 0 0.00047521130853933868 0.25416036586211238 0 0.0022025357355817152 0.26940323130523758 0 -0.01043629631104975 0.25802812295799349 0 -0.0069458869416420647 0.2477324418435477 0 0.00047521130853933868 0.25416036586211238 0 -0.01043629631104975 0.25802812295799349 0 -0.0069458869416420647 0.2477324418435477 0 -0.02165557431987053 0.244363190327688 0 -0.0079627798591106851 0.29928032967144369 0 -0.0167902870509152 0.3124221865682052 0 0.0016004684540106961 0.31539730491907031 0 -0.0079627798591106851 0.29928032967144369 0 -0.02161333329580125 0.29949434645173872 0 -0.0167902870509152 0.3124221865682052 0 -0.0079627798591106851 0.29928032967144369 0 -0.0022395925531549271 0.28356760718216012 0 0.0063762506988388904 0.29824071521208928 0 -0.0079627798591106851 0.29928032967144369 0 -0.0022395925531549271 0.28356760718216012 0 -0.01511018540764233 0.28655981769539912 0 -0.0097308032083830032 0.27364550779829971 0 -0.0022395925531549271 0.28356760718216012 0 -0.01511018540764233 0.28655981769539912 0 -0.0079627798591106851 0.29928032967144369 0 -0.01511018540764233 0.28655981769539912 0 -0.02161333329580125 0.29949434645173872 0 -0.022591935071916851 0.27123079956797891 0 -0.025033375497781622 0.29159281348408411 0 -0.034353823879058838 0.29166035468482793 0 -0.022591935071916851 0.27123079956797891 0 -0.034353823879058838 0.29166035468482793 0 -0.01511018540764233 0.28655981769539912 0 -0.025033375497781622 0.29159281348408411 0 -0.02161333329580125 0.29949434645173872 0 -0.022591935071916851 0.27123079956797891 0 -0.01511018540764233 0.28655981769539912 0 -0.025033375497781622 0.29159281348408411 0 -0.025033375497781622 0.29159281348408411 0 -0.032323704698389147 0.2974002587045419 0 -0.034353823879058838 0.29166035468482793 0 -0.025033375497781622 0.29159281348408411 0 -0.02161333329580125 0.29949434645173872 0 -0.032323704698389147 0.2974002587045419 0 -0.02161333329580125 0.29949434645173872 0 -0.030882717577345991 0.31123753825298939 0 -0.032323704698389147 0.2974002587045419 0 -0.02161333329580125 0.29949434645173872 0 -0.0167902870509152 0.3124221865682052 0 -0.030882717577345991 0.31123753825298939 0 -0.032323704698389147 0.2974002587045419 0 -0.046115712686200919 0.31208990980167678 0 -0.034353823879058838 0.29166035468482793 0 -0.046115712686200919 0.31208990980167678 0 -0.034353823879058838 0.29166035468482793 0 -0.030882717577345991 0.31123753825298939 0 -0.032323704698389147 0.2974002587045419 0 -0.046115712686200919 0.31208990980167678 0 -0.046115712686200919 0.31208990980167678 0 -0.034353823879058838 0.29166035468482793 0 -0.050472048305783307 0.28921500324772093 0 -0.032323704698389147 0.2974002587045419 0 -0.046115712686200919 0.31208990980167678 0 -0.034946693445078718 0.27953070474969771 0 -0.034353823879058838 0.29166035468482793 0 -0.050472048305783307 0.28921500324772093 0 -0.065818933426413428 0.29301352669023778 0 -0.063968448407370732 0.28043296904155668 0 -0.050472048305783307 0.28921500324772093 0 -0.064880285298739737 0.31164090970773739 0 -0.050472048305783307 0.28921500324772093 0 -0.064880285298739737 0.31164090970773739 0 -0.065818933426413428 0.29301352669023778 0 -0.050472048305783307 0.28921500324772093 0 -0.064880285298739737 0.31164090970773739 0 -0.046115712686200919 0.31208990980167678 0 -0.050472048305783307 0.28921500324772093 0 -0.046115712686200919 0.31208990980167678 0 -0.056673685445737088 0.33042834931167853 0 -0.046512694717932762 0.32718963685483432 0 -0.046115712686200919 0.31208990980167678 0 -0.056673685445737088 0.33042834931167853 0 -0.046115712686200919 0.31208990980167678 0 -0.060690743017021043 0.32761354569857498 0 -0.056673685445737088 0.33042834931167853 0 -0.064880285298739737 0.31164090970773739 0 -0.046115712686200919 0.31208990980167678 0 -0.060690743017021043 0.32761354569857498 0 -0.046115712686200919 0.31208990980167678 0 -0.060690743017021043 0.32761354569857498 0 -0.056673685445737088 0.33042834931167853 0 -0.054417766392879062 0.34500866898379579 0 -0.067231658205273409 0.34876678882168011 0 -0.056673685445737088 0.33042834931167853 0 -0.067231658205273409 0.34876678882168011 0 -0.060690743017021043 0.32761354569857498 0 -0.056673685445737088 0.33042834931167853 0 -0.064947651389060196 0.3376043079126323 0 -0.056673685445737088 0.33042834931167853 0 -0.049050702571744362 0.33770115891299263 0 -0.046512694717932762 0.32718963685483432 0 -0.056673685445737088 0.33042834931167853 0 -0.049050702571744362 0.33770115891299263 0 -0.054417766392879062 0.34500866898379579 0 -0.049050702571744362 0.33770115891299263 0 -0.043032958527984638 0.34801662426543373 0 -0.054417766392879062 0.34500866898379579 0 -0.040002252017534157 0.33369095181620728 0 -0.027732146864322179 0.32398071356015762 0 -0.029737630787549901 0.34030925299097481 0 -0.049050702571744362 0.33770115891299263 0 -0.040002252017534157 0.33369095181620728 0 -0.043032958527984638 0.34801662426543373 0 -0.049050702571744362 0.33770115891299263 0 -0.040002252017534157 0.33369095181620728 0 -0.046512694717932762 0.32718963685483432 0 -0.040002252017534157 0.33369095181620728 0 -0.029737630787549901 0.34030925299097481 0 -0.043032958527984638 0.34801662426543373 0 -0.046115712686200919 0.31208990980167678 0 -0.046512694717932762 0.32718963685483432 0 -0.0382491047726672 0.32163775005717299 0 -0.040002252017534157 0.33369095181620728 0 -0.046512694717932762 0.32718963685483432 0 -0.0382491047726672 0.32163775005717299 0 -0.040002252017534157 0.33369095181620728 0 -0.0382491047726672 0.32163775005717299 0 -0.027732146864322179 0.32398071356015762 0 -0.030882717577345991 0.31123753825298939 0 -0.0382491047726672 0.32163775005717299 0 -0.027732146864322179 0.32398071356015762 0 -0.030882717577345991 0.31123753825298939 0 -0.046115712686200919 0.31208990980167678 0 -0.0382491047726672 0.32163775005717299 0 -0.0167902870509152 0.3124221865682052 0 -0.027732146864322179 0.32398071356015762 0 -0.01098336807934666 0.32514687267107989 0 -0.0167902870509152 0.3124221865682052 0 -0.030882717577345991 0.31123753825298939 0 -0.027732146864322179 0.32398071356015762 0 -0.027732146864322179 0.32398071356015762 0 -0.029737630787549901 0.34030925299097481 0 -0.013702182155987411 0.34128592401090058 0 -0.027732146864322179 0.32398071356015762 0 -0.013702182155987411 0.34128592401090058 0 -0.027732146864322179 0.32398071356015762 0 -0.013702182155987411 0.34128592401090058 0 -0.01098336807934666 0.32514687267107989 0 -0.013702182155987411 0.34128592401090058 0 -0.01098336807934666 0.32514687267107989 0 0.0044923950417040384 0.33392271098907722 0 -0.013702182155987411 0.34128592401090058 0 -0.0013608865823279599 0.34562029302020791 0 0.0044923950417040384 0.33392271098907722 0 -0.01098336807934666 0.32514687267107989 0 0.0016004684540106961 0.31539730491907031 0 0.0044923950417040384 0.33392271098907722 0 -0.0167902870509152 0.3124221865682052 0 -0.01098336807934666 0.32514687267107989 0 0.0016004684540106961 0.31539730491907031 0 -0.0065440401913426979 0.36529431443838611 0 -0.02579407323341501 0.37329432773926863 0 -0.01259112971277458 0.37689254105782449 0 -0.0065440401913426979 0.36529431443838611 0 -0.00067073482694354758 0.37762392033480258 0 -0.01259112971277458 0.37689254105782449 0 -0.013702182155987411 0.34128592401090058 0 -0.01145095250080766 0.35411006385666538 0 0.00032778255234733322 0.35859113446164348 0 -0.013702182155987411 0.34128592401090058 0 -0.0013608865823279599 0.34562029302020791 0 0.00032778255234733322 0.35859113446164348 0 -0.0065440401913426979 0.36529431443838611 0 -0.01145095250080766 0.35411006385666538 0 0.00032778255234733322 0.35859113446164348 0 -0.013702182155987411 0.34128592401090058 0 0.00032778255234733322 0.35859113446164348 0 -0.0065440401913426979 0.36529431443838611 0 -0.01145095250080766 0.35411006385666538 0 -0.027445827643369971 0.35469228396438912 0 -0.029737630787549901 0.34030925299097481 0 -0.013702182155987411 0.34128592401090058 0 -0.027445827643369971 0.35469228396438912 0 -0.013702182155987411 0.34128592401090058 0 -0.01145095250080766 0.35411006385666538 0 -0.027445827643369971 0.35469228396438912 0 -0.0065440401913426979 0.36529431443838611 0 -0.027445827643369971 0.35469228396438912 0 -0.02579407323341501 0.37329432773926863 0 -0.027445827643369971 0.35469228396438912 0 -0.02579407323341501 0.37329432773926863 0 -0.039428445271475931 0.36402735500578731 0 -0.0065440401913426979 0.36529431443838611 0 -0.027445827643369971 0.35469228396438912 0 -0.02579407323341501 0.37329432773926863 0 -0.039428445271475931 0.36402735500578731 0 -0.044769539738954207 0.3840031154526502 0 -0.039428445271475931 0.36402735500578731 0 -0.056099827213655792 0.36013042360719449 0 -0.044769539738954207 0.3840031154526502 0 -0.027445827643369971 0.35469228396438912 0 -0.039428445271475931 0.36402735500578731 0 -0.043032958527984638 0.34801662426543373 0 -0.039428445271475931 0.36402735500578731 0 -0.043032958527984638 0.34801662426543373 0 -0.056099827213655792 0.36013042360719449 0 -0.029737630787549901 0.34030925299097481 0 -0.027445827643369971 0.35469228396438912 0 -0.043032958527984638 0.34801662426543373 0 -0.043032958527984638 0.34801662426543373 0 -0.054417766392879062 0.34500866898379579 0 -0.056099827213655792 0.36013042360719449 0 -0.054417766392879062 0.34500866898379579 0 -0.056099827213655792 0.36013042360719449 0 -0.067231658205273409 0.34876678882168011 0 -0.056099827213655792 0.36013042360719449 0 -0.067305171708808981 0.37133196647250899 0 -0.044769539738954207 0.3840031154526502 0 -0.067305171708808981 0.37133196647250899 0 -0.067755993351871158 0.35974668893138029 0 -0.077825522117280749 0.35533786548202961 0 -0.056099827213655792 0.36013042360719449 0 -0.067305171708808981 0.37133196647250899 0 -0.067755993351871158 0.35974668893138029 0 -0.067305171708808981 0.37133196647250899 0 -0.089840803678664261 0.35866081749236872 0 -0.077825522117280749 0.35533786548202961 0 -0.067305171708808981 0.37133196647250899 0 -0.089840803678664261 0.35866081749236872 0 -0.067305171708808981 0.37133196647250899 0 -0.081296261442316192 0.37409947954719203 0 -0.089840803678664261 0.35866081749236872 0 -0.081296261442316192 0.37409947954719203 0 -0.092730744914944457 0.36694821967554092 0 -0.089840803678664261 0.35866081749236872 0 -0.092730744914944457 0.36694821967554092 0 -0.089840803678664261 0.35866081749236872 0 -0.096175255498030049 0.36540754263930297 0 -0.09369675928464867 0.35649272262777248 0 -0.089840803678664261 0.35866081749236872 0 -0.096175255498030049 0.36540754263930297 0 -0.089840803678664261 0.35866081749236872 0 -0.096175255498030049 0.36540754263930297 0 -0.081296261442316192 0.37409947954719203 0 -0.092730744914944457 0.36694821967554092 0 -0.089700674187697241 0.3739698020059235 0 -0.092730744914944457 0.36694821967554092 0 -0.089700674187697241 0.3739698020059235 0 -0.097133544915537093 0.37217080790429069 0 -0.09369675928464867 0.35649272262777248 0 -0.089840803678664261 0.35866081749236872 0 -0.07526577334784107 0.34313718159547318 0 -0.09369675928464867 0.35649272262777248 0 -0.079288522291696098 0.33406681616775391 0 -0.09369675928464867 0.35649272262777248 0 -0.07526577334784107 0.34313718159547318 0 -0.079288522291696098 0.33406681616775391 0 -0.09369675928464867 0.35649272262777248 0 -0.079288522291696098 0.33406681616775391 0 -0.089128760280461752 0.3435861105726738 0 -0.09369675928464867 0.35649272262777248 0 -0.089128760280461752 0.3435861105726738 0 -0.093781316465098727 0.34695675701133388 0 -0.09369675928464867 0.35649272262777248 0 -0.089840803678664261 0.35866081749236872 0 -0.089840803678664261 0.35866081749236872 0 -0.077825522117280749 0.35533786548202961 0 -0.07526577334784107 0.34313718159547318 0 -0.089840803678664261 0.35866081749236872 0 -0.07526577334784107 0.34313718159547318 0 -0.072019736755566596 0.35174713120764078 0 -0.077825522117280749 0.35533786548202961 0 -0.07526577334784107 0.34313718159547318 0 -0.072019736755566596 0.35174713120764078 0 -0.067231658205273409 0.34876678882168011 0 -0.07526577334784107 0.34313718159547318 0 -0.067755993351871158 0.35974668893138029 0 -0.072019736755566596 0.35174713120764078 0 -0.077825522117280749 0.35533786548202961 0 -0.056099827213655792 0.36013042360719449 0 -0.067755993351871158 0.35974668893138029 0 -0.067231658205273409 0.34876678882168011 0 -0.067755993351871158 0.35974668893138029 0 -0.072019736755566596 0.35174713120764078 0 -0.067231658205273409 0.34876678882168011 0 -0.056673685445737088 0.33042834931167853 0 -0.067231658205273409 0.34876678882168011 0 -0.064947651389060196 0.3376043079126323 0 -0.060690743017021043 0.32761354569857498 0 -0.064947651389060196 0.3376043079126323 0 -0.07526577334784107 0.34313718159547318 0 -0.067231658205273409 0.34876678882168011 0 -0.064947651389060196 0.3376043079126323 0 -0.07526577334784107 0.34313718159547318 0 -0.060690743017021043 0.32761354569857498 0 -0.07526577334784107 0.34313718159547318 0 -0.079288522291696098 0.33406681616775391 0 -0.060690743017021043 0.32761354569857498 0 -0.07526577334784107 0.34313718159547318 0 -0.064880285298739737 0.31164090970773739 0 -0.079288522291696098 0.33406681616775391 0 -0.064880285298739737 0.31164090970773739 0 -0.060690743017021043 0.32761354569857498 0 -0.079288522291696098 0.33406681616775391 0 -0.064880285298739737 0.31164090970773739 0 -0.081047129122258282 0.31650037135757669 0 -0.079288522291696098 0.33406681616775391 0 -0.081047129122258282 0.31650037135757669 0 -0.087511089952156534 0.32789475441035931 0 -0.079288522291696098 0.33406681616775391 0 -0.081047129122258282 0.31650037135757669 0 -0.087511089952156534 0.32789475441035931 0 -0.088835645291821336 0.31866583927361608 0 -0.088835645291821336 0.31866583927361608 0 -0.098141843331846404 0.31865988927362521 0 -0.094211121446353421 0.32675438693573622 0 -0.087511089952156534 0.32789475441035931 0 -0.088835645291821336 0.31866583927361608 0 -0.094211121446353421 0.32675438693573622 0 -0.090906569111602192 0.30661851144065838 0 -0.081047129122258282 0.31650037135757669 0 -0.088835645291821336 0.31866583927361608 0 -0.090906569111602192 0.30661851144065838 0 -0.088835645291821336 0.31866583927361608 0 -0.098141843331846404 0.31865988927362521 0 -0.079288522291696098 0.33406681616775391 0 -0.088054630136686726 0.33638776842138168 0 -0.089128760280461752 0.3435861105726738 0 -0.087511089952156534 0.32789475441035931 0 -0.079288522291696098 0.33406681616775391 0 -0.088054630136686726 0.33638776842138168 0 -0.087511089952156534 0.32789475441035931 0 -0.093629491424123398 0.3349933443060914 0 -0.094211121446353421 0.32675438693573622 0 -0.087511089952156534 0.32789475441035931 0 -0.093629491424123398 0.3349933443060914 0 -0.088054630136686726 0.33638776842138168 0 -0.093629491424123398 0.3349933443060914 0 -0.088054630136686726 0.33638776842138168 0 -0.093127227027632875 0.34020535032007498 0 -0.088054630136686726 0.33638776842138168 0 -0.089128760280461752 0.3435861105726738 0 -0.093127227027632875 0.34020535032007498 0 -0.089128760280461752 0.3435861105726738 0 -0.093127227027632875 0.34020535032007498 0 -0.093781316465098727 0.34695675701133388 0 -0.093127227027632875 0.34020535032007498 0 -0.098604800794811723 0.33984431114885011 0 -0.096406522219942406 0.34428744527922012 0 -0.098604800794811723 0.33984431114885011 0 -0.10402046794788659 0.34336979492201058 0 -0.1001305038165632 0.34579866159335371 0 -0.098604800794811723 0.33984431114885011 0 -0.096406522219942406 0.34428744527922012 0 -0.1001305038165632 0.34579866159335371 0 -0.098604800794811723 0.33984431114885011 0 -0.09975397697465907 0.33265454321211563 0 -0.1033969821971515 0.33775126066580491 0 -0.093629491424123398 0.3349933443060914 0 -0.093127227027632875 0.34020535032007498 0 -0.098604800794811723 0.33984431114885011 0 -0.093629491424123398 0.3349933443060914 0 -0.09975397697465907 0.33265454321211563 0 -0.094211121446353421 0.32675438693573622 0 -0.093629491424123398 0.3349933443060914 0 -0.098604800794811723 0.33984431114885011 0 -0.09975397697465907 0.33265454321211563 0 -0.09975397697465907 0.33265454321211563 0 -0.094211121446353421 0.32675438693573622 0 -0.1015956623033485 0.32643875625952118 0 -0.09975397697465907 0.33265454321211563 0 -0.1015956623033485 0.32643875625952118 0 -0.1095089107694792 0.33171712565100869 0 -0.09975397697465907 0.33265454321211563 0 -0.1033969821971515 0.33775126066580491 0 -0.1095089107694792 0.33171712565100869 0 -0.1083902337176402 0.33895344297973051 0 -0.1033969821971515 0.33775126066580491 0 -0.1095089107694792 0.33171712565100869 0 -0.1083902337176402 0.33895344297973051 0 -0.10922506822590369 0.34351048505325937 0 -0.10402046794788659 0.34336979492201058 0 -0.1083902337176402 0.33895344297973051 0 -0.10402046794788659 0.34336979492201058 0 -0.1033969821971515 0.33775126066580491 0 -0.098604800794811723 0.33984431114885011 0 -0.10402046794788659 0.34336979492201058 0 -0.1033969821971515 0.33775126066580491 0 -0.098141843331846404 0.31865988927362521 0 -0.094211121446353421 0.32675438693573622 0 -0.1015956623033485 0.32643875625952118 0 -0.1079024569350126 0.32190905349820448 0 -0.1015956623033485 0.32643875625952118 0 -0.1095089107694792 0.33171712565100869 0 -0.098141843331846404 0.31865988927362521 0 -0.1079024569350126 0.32190905349820448 0 -0.1015956623033485 0.32643875625952118 0 -0.104523556573219 0.31070691163363062 0 -0.098141843331846404 0.31865988927362521 0 -0.1079024569350126 0.32190905349820448 0 -0.104523556573219 0.31070691163363062 0 -0.1079024569350126 0.32190905349820448 0 -0.11506638174644369 0.31583428321678608 0 -0.1079024569350126 0.32190905349820448 0 -0.1160506909292927 0.32510059741150371 0 -0.1095089107694792 0.33171712565100869 0 -0.1079024569350126 0.32190905349820448 0 -0.11506638174644369 0.31583428321678608 0 -0.1160506909292927 0.32510059741150371 0 -0.12575071219757791 0.32216311266500819 0 -0.11506638174644369 0.31583428321678608 0 -0.1160506909292927 0.32510059741150371 0 -0.12575071219757791 0.32216311266500819 0 -0.1160506909292927 0.32510059741150371 0 -0.12117463306772081 0.33204210462205253 0 -0.12575071219757791 0.32216311266500819 0 -0.1237751530923923 0.31070222914042822 0 -0.11506638174644369 0.31583428321678608 0 -0.1083902337176402 0.33895344297973051 0 -0.1157281800579628 0.34031082752174002 0 -0.1095089107694792 0.33171712565100869 0 -0.1083902337176402 0.33895344297973051 0 -0.10922506822590369 0.34351048505325937 0 -0.1157281800579628 0.34031082752174002 0 -0.1157281800579628 0.34031082752174002 0 -0.1095089107694792 0.33171712565100869 0 -0.12117463306772081 0.33204210462205253 0 -0.1160506909292927 0.32510059741150371 0 -0.1095089107694792 0.33171712565100869 0 -0.12117463306772081 0.33204210462205253 0 -0.12838937786721161 0.33941167005035078 0 -0.1157281800579628 0.34031082752174002 0 -0.12117463306772081 0.33204210462205253 0 -0.1218439635558583 0.3539263211128435 0 -0.1047130463035459 0.35029857576687429 0 -0.107459328979977 0.34875441863024781 0 -0.12838937786721161 0.33941167005035078 0 -0.1157281800579628 0.34031082752174002 0 -0.1218439635558583 0.3539263211128435 0 -0.1218439635558583 0.3539263211128435 0 -0.1047130463035459 0.35029857576687429 0 -0.1218439635558583 0.3539263211128435 0 -0.1047130463035459 0.35029857576687429 0 -0.1063574260204562 0.35542817669941751 0 -0.10922506822590369 0.34351048505325937 0 -0.1218439635558583 0.3539263211128435 0 -0.107459328979977 0.34875441863024781 0 -0.10922506822590369 0.34351048505325937 0 -0.1157281800579628 0.34031082752174002 0 -0.1218439635558583 0.3539263211128435 0 -0.1218439635558583 0.3539263211128435 0 -0.10840683570297489 0.35993654341194348 0 -0.1218439635558583 0.3539263211128435 0 -0.10840683570297489 0.35993654341194348 0 -0.1063574260204562 0.35542817669941751 0 -0.12541482567393161 0.37887926033385189 0 -0.1132820002635829 0.37338568038409409 0 -0.10840683570297489 0.35993654341194348 0 -0.1218439635558583 0.3539263211128435 0 -0.12449847087969861 0.3661335646101927 0 -0.10840683570297489 0.35993654341194348 0 -0.12541482567393161 0.37887926033385189 0 -0.10840683570297489 0.35993654341194348 0 -0.12541482567393161 0.37887926033385189 0 -0.12449847087969861 0.3661335646101927 0 -0.10840683570297489 0.35993654341194348 0 -0.1132820002635829 0.37338568038409409 0 -0.10840683570297489 0.35993654341194348 0 -0.1083742084845374 0.37107698364182617 0 -0.10840683570297489 0.35993654341194348 0 -0.1083742084845374 0.37107698364182617 0 -0.098699089092491643 0.36427867037472639 0 -0.10840683570297489 0.35993654341194348 0 -0.098699089092491643 0.36427867037472639 0 -0.1045490879839085 0.35930685801318729 0 -0.10840683570297489 0.35993654341194348 0 -0.098699089092491643 0.36427867037472639 0 -0.10441385355662269 0.37317349722801979 0 -0.1083742084845374 0.37107698364182617 0 -0.098699089092491643 0.36427867037472639 0 -0.10441385355662269 0.37317349722801979 0 -0.096175255498030049 0.36540754263930297 0 -0.10441385355662269 0.37317349722801979 0 -0.097133544915537093 0.37217080790429069 0 -0.096175255498030049 0.36540754263930297 0 -0.10441385355662269 0.37317349722801979 0 -0.098699089092491643 0.36427867037472639 0 -0.096175255498030049 0.36540754263930297 0 -0.10441385355662269 0.37317349722801979 0 -0.098699089092491643 0.36427867037472639 0 -0.092730744914944457 0.36694821967554092 0 -0.097133544915537093 0.37217080790429069 0 -0.096175255498030049 0.36540754263930297 0 -0.09369675928464867 0.35649272262777248 0 -0.098699089092491643 0.36427867037472639 0 -0.096175255498030049 0.36540754263930297 0 -0.098699089092491643 0.36427867037472639 0 -0.1011179550854702 0.35722466614104709 0 -0.1045490879839085 0.35930685801318729 0 -0.098699089092491643 0.36427867037472639 0 -0.096175255498030049 0.36540754263930297 0 -0.092730744914944457 0.36694821967554092 0 -0.096175255498030049 0.36540754263930297 0 -0.09369675928464867 0.35649272262777248 0 -0.098699089092491643 0.36427867037472639 0 -0.09369675928464867 0.35649272262777248 0 -0.1047130463035459 0.35029857576687429 0 -0.09369675928464867 0.35649272262777248 0 -0.1014270429286091 0.3496027120676522 0 -0.1047130463035459 0.35029857576687429 0 -0.09369675928464867 0.35649272262777248 0 -0.1011179550854702 0.35722466614104709 0 -0.1047130463035459 0.35029857576687429 0 -0.09369675928464867 0.35649272262777248 0 -0.098699089092491643 0.36427867037472639 0 -0.1011179550854702 0.35722466614104709 0 -0.09369675928464867 0.35649272262777248 0 -0.096094067680950579 0.35037578672602299 0 -0.1014270429286091 0.3496027120676522 0 -0.09369675928464867 0.35649272262777248 0 -0.096094067680950579 0.35037578672602299 0 -0.093781316465098727 0.34695675701133388 0 -0.096094067680950579 0.35037578672602299 0 -0.093781316465098727 0.34695675701133388 0 -0.097311480751057666 0.34735726130526451 0 -0.093127227027632875 0.34020535032007498 0 -0.093781316465098727 0.34695675701133388 0 -0.096406522219942406 0.34428744527922012 0 -0.093781316465098727 0.34695675701133388 0 -0.097311480751057666 0.34735726130526451 0 -0.096406522219942406 0.34428744527922012 0 -0.097311480751057666 0.34735726130526451 0 -0.1001305038165632 0.34579866159335371 0 -0.1014270429286091 0.3496027120676522 0 -0.097311480751057666 0.34735726130526451 0 -0.096406522219942406 0.34428744527922012 0 -0.1001305038165632 0.34579866159335371 0 -0.1001305038165632 0.34579866159335371 0 -0.1014270429286091 0.3496027120676522 0 -0.1030437568739706 0.34697379059768901 0 -0.096094067680950579 0.35037578672602299 0 -0.097311480751057666 0.34735726130526451 0 -0.1014270429286091 0.3496027120676522 0 -0.1047130463035459 0.35029857576687429 0 -0.1030437568739706 0.34697379059768901 0 -0.10592046601073429 0.34610135934723119 0 -0.1014270429286091 0.3496027120676522 0 -0.1047130463035459 0.35029857576687429 0 -0.1014270429286091 0.3496027120676522 0 -0.1047130463035459 0.35029857576687429 0 -0.1030437568739706 0.34697379059768901 0 -0.10402046794788659 0.34336979492201058 0 -0.1001305038165632 0.34579866159335371 0 -0.1030437568739706 0.34697379059768901 0 -0.10402046794788659 0.34336979492201058 0 -0.1030437568739706 0.34697379059768901 0 -0.10592046601073429 0.34610135934723119 0 -0.10922506822590369 0.34351048505325937 0 -0.10402046794788659 0.34336979492201058 0 -0.10592046601073429 0.34610135934723119 0 -0.10922506822590369 0.34351048505325937 0 -0.10592046601073429 0.34610135934723119 0 -0.107459328979977 0.34875441863024781 0 -0.1047130463035459 0.35029857576687429 0 -0.10592046601073429 0.34610135934723119 0 -0.107459328979977 0.34875441863024781 0 -0.1047130463035459 0.35029857576687429 0 -0.107459328979977 0.34875441863024781 0 -0.10840683570297489 0.35993654341194348 0 -0.1063574260204562 0.35542817669941751 0 -0.1045490879839085 0.35930685801318729 0 -0.1011179550854702 0.35722466614104709 0 -0.1063574260204562 0.35542817669941751 0 -0.1045490879839085 0.35930685801318729 0 -0.1011179550854702 0.35722466614104709 0 -0.1047130463035459 0.35029857576687429 0 -0.1063574260204562 0.35542817669941751 0 -0.099179605953201383 0.39390137466993758 0 -0.1131089088790989 0.38670704039653819 0 -0.1053324025746659 0.4068009314820491 0 -0.099179605953201383 0.39390137466993758 0 -0.1053324025746659 0.4068009314820491 0 -0.090371305853303885 0.40906262688388623 0 -0.10441385355662269 0.37317349722801979 0 -0.1083742084845374 0.37107698364182617 0 -0.1131089088790989 0.38670704039653819 0 -0.099179605953201383 0.39390137466993758 0 -0.10152029727650751 0.38299108822919919 0 -0.091660798768616311 0.38136181517296752 0 -0.10441385355662269 0.37317349722801979 0 -0.097133544915537093 0.37217080790429069 0 -0.10152029727650751 0.38299108822919919 0 -0.097133544915537093 0.37217080790429069 0 -0.10152029727650751 0.38299108822919919 0 -0.091660798768616311 0.38136181517296752 0 -0.10441385355662269 0.37317349722801979 0 -0.10152029727650751 0.38299108822919919 0 -0.1131089088790989 0.38670704039653819 0 -0.10441385355662269 0.37317349722801979 0 -0.1131089088790989 0.38670704039653819 0 -0.099179605953201383 0.39390137466993758 0 -0.10152029727650751 0.38299108822919919 0 -0.1131089088790989 0.38670704039653819 0 -0.1132820002635829 0.37338568038409409 0 -0.1083742084845374 0.37107698364182617 0 -0.1131089088790989 0.38670704039653819 0 -0.12541482567393161 0.37887926033385189 0 -0.1132820002635829 0.37338568038409409 0 -0.1131089088790989 0.38670704039653819 0 -0.1271163197159039 0.39313592210112702 0 -0.12541482567393161 0.37887926033385189 0 -0.1131089088790989 0.38670704039653819 0 -0.12751872866570099 0.40913541041835361 0 -0.1131089088790989 0.38670704039653819 0 -0.1053324025746659 0.4068009314820491 0 -0.12751872866570099 0.40913541041835361 0 -0.1271163197159039 0.39313592210112702 0 -0.1131089088790989 0.38670704039653819 0 -0.12751872866570099 0.40913541041835361 0 -0.1131089088790989 0.38670704039653819 0 -0.125438664987361 0.4263150220635003 0 -0.12751872866570099 0.40913541041835361 0 -0.11021527619814531 0.42310174625146862 0 -0.12751872866570099 0.40913541041835361 0 -0.11021527619814531 0.42310174625146862 0 -0.1053324025746659 0.4068009314820491 0 -0.11021527619814531 0.42310174625146862 0 -0.098217403900719882 0.43563178225723492 0 -0.1229120823695881 0.44343466287338862 0 -0.125438664987361 0.4263150220635003 0 -0.11021527619814531 0.42310174625146862 0 -0.1229120823695881 0.44343466287338862 0 -0.11021527619814531 0.42310174625146862 0 -0.098217403900719882 0.43563178225723492 0 -0.090371305853303885 0.40906262688388623 0 -0.11021527619814531 0.42310174625146862 0 -0.1053324025746659 0.4068009314820491 0 -0.090371305853303885 0.40906262688388623 0 -0.098217403900719882 0.43563178225723492 0 -0.090371305853303885 0.40906262688388623 0 -0.069972722745182861 0.41998341903572339 0 -0.098217403900719882 0.43563178225723492 0 -0.069972722745182861 0.41998341903572339 0 -0.072822073145981617 0.44398833697502849 0 -0.069972722745182861 0.41998341903572339 0 -0.047159167036631568 0.43152249815815202 0 -0.072822073145981617 0.44398833697502849 0 -0.090371305853303885 0.40906262688388623 0 -0.069972722745182861 0.41998341903572339 0 -0.065931416066416726 0.39213713613823797 0 -0.099179605953201383 0.39390137466993758 0 -0.090371305853303885 0.40906262688388623 0 -0.084562520259037113 0.39109548826745999 0 -0.090371305853303885 0.40906262688388623 0 -0.065931416066416726 0.39213713613823797 0 -0.084562520259037113 0.39109548826745999 0 -0.081296261442316192 0.37409947954719203 0 -0.084562520259037113 0.39109548826745999 0 -0.091660798768616311 0.38136181517296752 0 -0.081296261442316192 0.37409947954719203 0 -0.089700674187697241 0.3739698020059235 0 -0.091660798768616311 0.38136181517296752 0 -0.089700674187697241 0.3739698020059235 0 -0.097133544915537093 0.37217080790429069 0 -0.091660798768616311 0.38136181517296752 0 -0.099179605953201383 0.39390137466993758 0 -0.084562520259037113 0.39109548826745999 0 -0.091660798768616311 0.38136181517296752 0 -0.067305171708808981 0.37133196647250899 0 -0.081296261442316192 0.37409947954719203 0 -0.065931416066416726 0.39213713613823797 0 -0.081296261442316192 0.37409947954719203 0 -0.065931416066416726 0.39213713613823797 0 -0.084562520259037113 0.39109548826745999 0 -0.067305171708808981 0.37133196647250899 0 -0.044769539738954207 0.3840031154526502 0 -0.067305171708808981 0.37133196647250899 0 -0.065931416066416726 0.39213713613823797 0 -0.044769539738954207 0.3840031154526502 0 -0.065931416066416726 0.39213713613823797 0 -0.044769539738954207 0.3840031154526502 0 -0.045367377134372007 0.4063678889681262 0 -0.069972722745182861 0.41998341903572339 0 -0.065931416066416726 0.39213713613823797 0 -0.045367377134372007 0.4063678889681262 0 -0.044769539738954207 0.3840031154526502 0 -0.022233907769099361 0.39667426443279141 0 -0.045367377134372007 0.4063678889681262 0 -0.044769539738954207 0.3840031154526502 0 -0.022233907769099361 0.39667426443279141 0 -0.02579407323341501 0.37329432773926863 0 -0.022233907769099361 0.39667426443279141 0 -0.01259112971277458 0.37689254105782449 0 -0.02579407323341501 0.37329432773926863 0 -0.044769539738954207 0.3840031154526502 0 -0.022233907769099361 0.39667426443279141 0 -0.022233907769099361 0.39667426443279141 0 -0.023650250362637109 0.41487938831874782 0 -0.045367377134372007 0.4063678889681262 0 -0.022233907769099361 0.39667426443279141 0 -0.0054743533919896503 0.38690481092539941 0 0.001070809733135293 0.39713020443102531 0 -0.022233907769099361 0.39667426443279141 0 0.0003017242007555127 0.40934541341293268 0 0.001070809733135293 0.39713020443102531 0 -0.022233907769099361 0.39667426443279141 0 0.0003017242007555127 0.40934541341293268 0 -0.022233907769099361 0.39667426443279141 0 -0.0054743533919896503 0.38690481092539941 0 -0.01259112971277458 0.37689254105782449 0 -0.0054743533919896503 0.38690481092539941 0 -0.00067073482694354758 0.37762392033480258 0 -0.01259112971277458 0.37689254105782449 0 -0.01336576041748126 0.43075834176472477 0 -0.0060088801084284688 0.41959262686556759 0 -0.0025544430332869578 0.43977164328770241 0 -0.0060088801084284688 0.41959262686556759 0 -0.023650250362637109 0.41487938831874782 0 0.0003017242007555127 0.40934541341293268 0 -0.01336576041748126 0.43075834176472477 0 -0.0060088801084284688 0.41959262686556759 0 -0.023650250362637109 0.41487938831874782 0 -0.022233907769099361 0.39667426443279141 0 -0.023650250362637109 0.41487938831874782 0 0.0003017242007555127 0.40934541341293268 0 -0.01336576041748126 0.43075834176472477 0 -0.023650250362637109 0.41487938831874782 0 -0.0266810275256383 0.43449340649794338 0 -0.01336576041748126 0.43075834176472477 0 -0.0266810275256383 0.43449340649794338 0 -0.016804487175139309 0.44292267755659298 0 -0.023650250362637109 0.41487938831874782 0 -0.0266810275256383 0.43449340649794338 0 -0.047159167036631568 0.43152249815815202 0 -0.023650250362637109 0.41487938831874782 0 -0.045367377134372007 0.4063678889681262 0 -0.047159167036631568 0.43152249815815202 0 -0.069972722745182861 0.41998341903572339 0 -0.045367377134372007 0.4063678889681262 0 -0.047159167036631568 0.43152249815815202 0 -0.047159167036631568 0.43152249815815202 0 -0.053970231395576482 0.46084353848579629 0 -0.072822073145981617 0.44398833697502849 0 -0.053970231395576482 0.46084353848579629 0 -0.031178924939435498 0.44997759622915129 0 -0.03083883356167923 0.47158700381411572 0 -0.047159167036631568 0.43152249815815202 0 -0.053970231395576482 0.46084353848579629 0 -0.031178924939435498 0.44997759622915129 0 -0.0266810275256383 0.43449340649794338 0 -0.047159167036631568 0.43152249815815202 0 -0.031178924939435498 0.44997759622915129 0 -0.0266810275256383 0.43449340649794338 0 -0.016804487175139309 0.44292267755659298 0 -0.031178924939435498 0.44997759622915129 0 -0.016804487175139309 0.44292267755659298 0 -0.031178924939435498 0.44997759622915129 0 -0.01299732592404172 0.45738050572117278 0 -0.031178924939435498 0.44997759622915129 0 -0.01299732592404172 0.45738050572117278 0 -0.03083883356167923 0.47158700381411572 0 -0.01299732592404172 0.45738050572117278 0 -0.03083883356167923 0.47158700381411572 0 -0.01299732592404172 0.45738050572117278 0 -0.0078989664793453918 0.48003941498932878 0 0.0098215195542590492 0.46355149001805962 0 -0.01299732592404172 0.45738050572117278 0 -0.0025544430332869578 0.43977164328770241 0 0.0085130177617296788 0.44862904179520852 0 -0.016804487175139309 0.44292267755659298 0 -0.01299732592404172 0.45738050572117278 0 -0.0025544430332869578 0.43977164328770241 0 -0.01336576041748126 0.43075834176472477 0 -0.016804487175139309 0.44292267755659298 0 -0.0025544430332869578 0.43977164328770241 0 -0.01466614838790437 0.5 0 -0.0078989664793453918 0.48003941498932878 0 0.011261701836620791 0.5 0 -0.01299732592404172 0.45738050572117278 0 -0.0078989664793453918 0.48003941498932878 0 -0.03083883356167923 0.47158700381411572 0 -0.0078989664793453918 0.48003941498932878 0 -0.03083883356167923 0.47158700381411572 0 -0.028535657648135059 0.48748398414210059 0 -0.01466614838790437 0.5 0 -0.028535657648135059 0.48748398414210059 0 -0.040593998612429523 0.5 0 -0.01466614838790437 0.5 0 -0.0078989664793453918 0.48003941498932878 0 -0.028535657648135059 0.48748398414210059 0 -0.028535657648135059 0.48748398414210059 0 -0.040593998612429523 0.5 0 -0.048680341199316773 0.48579350190705861 0 -0.03083883356167923 0.47158700381411572 0 -0.028535657648135059 0.48748398414210059 0 -0.048680341199316773 0.48579350190705861 0 -0.053970231395576482 0.46084353848579629 0 -0.03083883356167923 0.47158700381411572 0 -0.048680341199316773 0.48579350190705861 0 -0.03083883356167923 0.47158700381411572 0 -0.048680341199316773 0.48579350190705861 0 -0.053970231395576482 0.46084353848579629 0 -0.048680341199316773 0.48579350190705861 0 -0.066770826156219223 0.47955620043479702 0 -0.048680341199316773 0.48579350190705861 0 -0.066521848836954653 0.50000000000000089 0 -0.040593998612429523 0.5 0 -0.048680341199316773 0.48579350190705861 0 -0.066521848836954653 0.50000000000000089 0 -0.048680341199316773 0.48579350190705861 0 -0.066521848836954653 0.50000000000000089 0 -0.066770826156219223 0.47955620043479702 0 -0.066521848836954653 0.50000000000000089 0 -0.085602191011404899 0.48271514204081528 0 -0.066770826156219223 0.47955620043479702 0 -0.066521848836954653 0.50000000000000089 0 -0.093743392834975237 0.5 0 -0.085602191011404899 0.48271514204081528 0 -0.085602191011404899 0.48271514204081528 0 -0.078634025925521434 0.46481490142635179 0 -0.10328752678321609 0.46119404824035698 0 -0.085602191011404899 0.48271514204081528 0 -0.066770826156219223 0.47955620043479702 0 -0.078634025925521434 0.46481490142635179 0 -0.053970231395576482 0.46084353848579629 0 -0.066770826156219223 0.47955620043479702 0 -0.078634025925521434 0.46481490142635179 0 -0.053970231395576482 0.46084353848579629 0 -0.072822073145981617 0.44398833697502849 0 -0.078634025925521434 0.46481490142635179 0 -0.098217403900719882 0.43563178225723492 0 -0.072822073145981617 0.44398833697502849 0 -0.088978887872257481 0.45113388248691261 0 -0.072822073145981617 0.44398833697502849 0 -0.088978887872257481 0.45113388248691261 0 -0.078634025925521434 0.46481490142635179 0 -0.088978887872257481 0.45113388248691261 0 -0.078634025925521434 0.46481490142635179 0 -0.10328752678321609 0.46119404824035698 0 -0.098217403900719882 0.43563178225723492 0 -0.10328752678321609 0.46119404824035698 0 -0.1229120823695881 0.44343466287338862 0 -0.098217403900719882 0.43563178225723492 0 -0.088978887872257481 0.45113388248691261 0 -0.10328752678321609 0.46119404824035698 0 -0.098217403900719882 0.43563178225723492 0 -0.1229120823695881 0.44343466287338862 0 -0.10328752678321609 0.46119404824035698 0 -0.1229120823695881 0.44343466287338862 0 -0.1232701594973154 0.4724655077666583 0 -0.10328752678321609 0.46119404824035698 0 -0.1232701594973154 0.4724655077666583 0 -0.1064433802448205 0.48299444013573301 0 -0.1232701594973154 0.4724655077666583 0 -0.1209649368329959 0.5 0 -0.1064433802448205 0.48299444013573301 0 -0.093743392834975237 0.5 0 -0.1209649368329959 0.5 0 -0.1064433802448205 0.48299444013573301 0 -0.093743392834975237 0.5 0 -0.085602191011404899 0.48271514204081528 0 -0.1064433802448205 0.48299444013573301 0 -0.085602191011404899 0.48271514204081528 0 -0.10328752678321609 0.46119404824035698 0 -0.1064433802448205 0.48299444013573301 0 -0.16041106029155389 0.066933210799534959 0 -0.17530240714368081 0.088717149672598139 0 -0.15503186721054549 0.091728533376714064 0 -0.16041106029155389 0.066933210799534959 0 -0.15503186721054549 0.091728533376714064 0 -0.16041106029155389 0.066933210799534959 0 -0.18180087723939101 0.066731450982669721 0 -0.17530240714368081 0.088717149672598139 0 -0.18180087723939101 0.066731450982669721 0 -0.17530240714368081 0.088717149672598139 0 -0.1937625687317989 0.081606748928593598 0 -0.17530240714368081 0.088717149672598139 0 -0.1937625687317989 0.081606748928593598 0 -0.1920534873424021 0.096556001143090237 0 -0.17530240714368081 0.088717149672598139 0 -0.1817711506455969 0.1115962417175277 0 -0.16553536020400561 0.1061973344152283 0 -0.17530240714368081 0.088717149672598139 0 -0.1817711506455969 0.1115962417175277 0 -0.1920534873424021 0.096556001143090237 0 -0.1817711506455969 0.1115962417175277 0 -0.1919267039757849 0.12678507827307139 0 -0.16866987478171239 0.1283440042045115 0 -0.1817711506455969 0.1115962417175277 0 -0.16553536020400561 0.1061973344152283 0 -0.16866987478171239 0.1283440042045115 0 -0.16553536020400561 0.1061973344152283 0 -0.14965267412953709 0.1165238559538932 0 -0.16866987478171239 0.1283440042045115 0 -0.17530240714368081 0.088717149672598139 0 -0.16553536020400561 0.1061973344152283 0 -0.15503186721054549 0.091728533376714064 0 -0.16553536020400561 0.1061973344152283 0 -0.14965267412953709 0.1165238559538932 0 -0.15503186721054549 0.091728533376714064 0 -0.14965267412953709 0.1165238559538932 0 -0.15503186721054549 0.091728533376714064 0 -0.14965267412953709 0.1165238559538932 0 -0.1326836098867698 0.094321622652489334 0 -0.15503186721054549 0.091728533376714064 0 -0.14965267412953709 0.1165238559538932 0 -0.12775981661962191 0.12958071645759109 0 -0.1185303870605264 0.1113020229047218 0 -0.14965267412953709 0.1165238559538932 0 -0.1326836098867698 0.094321622652489334 0 -0.1185303870605264 0.1113020229047218 0 -0.1326836098867698 0.094321622652489334 0 -0.15503186721054549 0.091728533376714064 0 -0.1332603848681857 0.06954422240913409 0 -0.16041106029155389 0.066933210799534959 0 -0.15503186721054549 0.091728533376714064 0 -0.1332603848681857 0.06954422240913409 0 -0.1332603848681857 0.06954422240913409 0 -0.12548250775469899 0.038817512333077023 0 -0.14720916647271931 0.049472839363824517 0 -0.14720916647271931 0.049472839363824517 0 -0.1515248510016392 0.02648267880583589 0 -0.1688725108479705 0.047341508893129908 0 -0.12548250775469899 0.038817512333077023 0 -0.14720916647271931 0.049472839363824517 0 -0.1515248510016392 0.02648267880583589 0 -0.16041106029155389 0.066933210799534959 0 -0.1332603848681857 0.06954422240913409 0 -0.14720916647271931 0.049472839363824517 0 -0.1194977520419831 -0.0085087356347324471 0 -0.13179723893891179 0.017713314570372941 0 -0.14494553756910519 0.00094052200413920727 0 -0.12548250775469899 0.038817512333077023 0 -0.13179723893891179 0.017713314570372941 0 -0.1515248510016392 0.02648267880583589 0 -0.13179723893891179 0.017713314570372941 0 -0.1515248510016392 0.02648267880583589 0 -0.14494553756910519 0.00094052200413920727 0 -0.1515248510016392 0.02648267880583589 0 -0.14494553756910519 0.00094052200413920727 0 -0.1671313141792414 0.0058495947708622816 0 -0.1515248510016392 0.02648267880583589 0 -0.1671313141792414 0.0058495947708622816 0 -0.1771456378134357 0.025619423512871831 0 -0.1833671386655116 -0.01132701720910397 0 -0.1671313141792414 0.0058495947708622816 0 -0.1916548222591517 0.007546146536057027 0 -0.1671313141792414 0.0058495947708622816 0 -0.1771456378134357 0.025619423512871831 0 -0.1916548222591517 0.007546146536057027 0 -0.16041106029155389 0.066933210799534959 0 -0.18180087723939101 0.066731450982669721 0 -0.1688725108479705 0.047341508893129908 0 -0.16041106029155389 0.066933210799534959 0 -0.14720916647271931 0.049472839363824517 0 -0.1688725108479705 0.047341508893129908 0 -0.1515248510016392 0.02648267880583589 0 -0.1771456378134357 0.025619423512871831 0 -0.1688725108479705 0.047341508893129908 0 -0.1771456378134357 0.025619423512871831 0 -0.1688725108479705 0.047341508893129908 0 -0.19181704170350239 0.049462793778958507 0 -0.18180087723939101 0.066731450982669721 0 -0.1688725108479705 0.047341508893129908 0 -0.19181704170350239 0.049462793778958507 0 -0.18180087723939101 0.066731450982669721 0 -0.19181704170350239 0.049462793778958507 0 -0.19931919192798139 0.063805268450019964 0 -0.19181704170350239 0.049462793778958507 0 -0.212251631334402 0.051119438282652252 0 -0.19931919192798139 0.063805268450019964 0 -0.1771456378134357 0.025619423512871831 0 -0.19181704170350239 0.049462793778958507 0 -0.20554026675660431 0.02870145676985093 0 -0.212251631334402 0.051119438282652252 0 -0.20554026675660431 0.02870145676985093 0 -0.22431071570430039 0.038088455165440967 0 -0.19181704170350239 0.049462793778958507 0 -0.212251631334402 0.051119438282652252 0 -0.20554026675660431 0.02870145676985093 0 -0.212251631334402 0.051119438282652252 0 -0.21696384063081239 0.07010591027722575 0 -0.19931919192798139 0.063805268450019964 0 -0.1771456378134357 0.025619423512871831 0 -0.1916548222591517 0.007546146536057027 0 -0.20554026675660431 0.02870145676985093 0 -0.20554026675660431 0.02870145676985093 0 -0.22199274614603631 0.02268854982861394 0 -0.22431071570430039 0.038088455165440967 0 -0.20554026675660431 0.02870145676985093 0 -0.21718081599890129 0.0060219845867891947 0 -0.22199274614603631 0.02268854982861394 0 -0.1916548222591517 0.007546146536057027 0 -0.20554026675660431 0.02870145676985093 0 -0.21718081599890129 0.0060219845867891947 0 -0.20301096411690919 -0.0096867645411115172 0 -0.1916548222591517 0.007546146536057027 0 -0.21718081599890129 0.0060219845867891947 0 -0.21718081599890129 0.0060219845867891947 0 -0.23317872129111211 0.0018064826288033029 0 -0.23572979758793219 0.01448791079416451 0 -0.21718081599890129 0.0060219845867891947 0 -0.22199274614603631 0.02268854982861394 0 -0.23572979758793219 0.01448791079416451 0 -0.22199274614603631 0.02268854982861394 0 -0.23572979758793219 0.01448791079416451 0 -0.2420331275840443 0.03578301161824618 0 -0.25257809648856722 0.02135378490344125 0 -0.23572979758793219 0.01448791079416451 0 -0.2420331275840443 0.03578301161824618 0 -0.25104969481709388 0.0027995750929572191 0 -0.25257809648856722 0.02135378490344125 0 -0.23572979758793219 0.01448791079416451 0 -0.25104969481709388 0.0027995750929572191 0 -0.23317872129111211 0.0018064826288033029 0 -0.23572979758793219 0.01448791079416451 0 -0.212251631334402 0.051119438282652252 0 -0.23110553133344919 0.053489341510392918 0 -0.22431071570430039 0.038088455165440967 0 -0.212251631334402 0.051119438282652252 0 -0.23110553133344919 0.053489341510392918 0 -0.21696384063081239 0.07010591027722575 0 -0.23110553133344919 0.053489341510392918 0 -0.22431071570430039 0.038088455165440967 0 -0.2420331275840443 0.03578301161824618 0 -0.22199274614603631 0.02268854982861394 0 -0.22431071570430039 0.038088455165440967 0 -0.2420331275840443 0.03578301161824618 0 -0.25094551235685097 0.057524555460862242 0 -0.23110553133344919 0.053489341510392918 0 -0.24012836039028501 0.068314678257930112 0 -0.25094551235685097 0.057524555460862242 0 -0.23110553133344919 0.053489341510392918 0 -0.2420331275840443 0.03578301161824618 0 -0.24012836039028501 0.068314678257930112 0 -0.24098106417453011 0.088082648776538236 0 -0.22814659527845171 0.083660055660629243 0 -0.25265526695048818 0.079365345819586625 0 -0.24012836039028501 0.068314678257930112 0 -0.24098106417453011 0.088082648776538236 0 -0.25404006688174058 0.093306486373413988 0 -0.24098106417453011 0.088082648776538236 0 -0.24360930618539731 0.098060467891062375 0 -0.25265526695048818 0.079365345819586625 0 -0.25404006688174058 0.093306486373413988 0 -0.24098106417453011 0.088082648776538236 0 -0.22814659527845171 0.083660055660629243 0 -0.21214075997614321 0.091134596640015234 0 -0.23051895122048749 0.1006624443514369 0 -0.22814659527845171 0.083660055660629243 0 -0.21696384063081239 0.07010591027722575 0 -0.21214075997614321 0.091134596640015234 0 -0.24098106417453011 0.088082648776538236 0 -0.22814659527845171 0.083660055660629243 0 -0.23051895122048749 0.1006624443514369 0 -0.24012836039028501 0.068314678257930112 0 -0.22814659527845171 0.083660055660629243 0 -0.21696384063081239 0.07010591027722575 0 -0.23110553133344919 0.053489341510392918 0 -0.24012836039028501 0.068314678257930112 0 -0.21696384063081239 0.07010591027722575 0 -0.24012836039028501 0.068314678257930112 0 -0.21696384063081239 0.07010591027722575 0 -0.21696384063081239 0.07010591027722575 0 -0.1937625687317989 0.081606748928593598 0 -0.19931919192798139 0.063805268450019964 0 -0.21696384063081239 0.07010591027722575 0 -0.21214075997614321 0.091134596640015234 0 -0.1937625687317989 0.081606748928593598 0 -0.21214075997614321 0.091134596640015234 0 -0.1937625687317989 0.081606748928593598 0 -0.21214075997614321 0.091134596640015234 0 -0.1937625687317989 0.081606748928593598 0 -0.1920534873424021 0.096556001143090237 0 -0.18180087723939101 0.066731450982669721 0 -0.1937625687317989 0.081606748928593598 0 -0.19931919192798139 0.063805268450019964 0 -0.2006315313994449 0.1094960365100407 0 -0.2112608395656338 0.12476901791903811 0 -0.1919267039757849 0.12678507827307139 0 -0.1817711506455969 0.1115962417175277 0 -0.2006315313994449 0.1094960365100407 0 -0.1919267039757849 0.12678507827307139 0 -0.1817711506455969 0.1115962417175277 0 -0.2006315313994449 0.1094960365100407 0 -0.1920534873424021 0.096556001143090237 0 -0.21214075997614321 0.091134596640015234 0 -0.2006315313994449 0.1094960365100407 0 -0.1920534873424021 0.096556001143090237 0 -0.21214075997614321 0.091134596640015234 0 -0.2006315313994449 0.1094960365100407 0 -0.21786136988119681 0.1085976388854871 0 -0.21786136988119681 0.1085976388854871 0 -0.2112608395656338 0.12476901791903811 0 -0.2244495011970131 0.1193306505694036 0 -0.2006315313994449 0.1094960365100407 0 -0.21786136988119681 0.1085976388854871 0 -0.2112608395656338 0.12476901791903811 0 -0.21786136988119681 0.1085976388854871 0 -0.2244495011970131 0.1193306505694036 0 -0.22939428029965001 0.1128477236662552 0 -0.22939428029965001 0.1128477236662552 0 -0.23051895122048749 0.1006624443514369 0 -0.24040834310303549 0.1146485045319543 0 -0.2244495011970131 0.1193306505694036 0 -0.22939428029965001 0.1128477236662552 0 -0.23373323609651711 0.12099937999299409 0 -0.2244495011970131 0.1193306505694036 0 -0.23373323609651711 0.12099937999299409 0 -0.22884296599146051 0.13253946354474769 0 -0.21214075997614321 0.091134596640015234 0 -0.21786136988119681 0.1085976388854871 0 -0.23051895122048749 0.1006624443514369 0 -0.21214075997614321 0.091134596640015234 0 -0.23051895122048749 0.1006624443514369 0 -0.21786136988119681 0.1085976388854871 0 -0.22939428029965001 0.1128477236662552 0 -0.23051895122048749 0.1006624443514369 0 -0.23051895122048749 0.1006624443514369 0 -0.24360930618539731 0.098060467891062375 0 -0.24889714246483091 0.11019029206286041 0 -0.23051895122048749 0.1006624443514369 0 -0.24889714246483091 0.11019029206286041 0 -0.23051895122048749 0.1006624443514369 0 -0.24040834310303549 0.1146485045319543 0 -0.24889714246483091 0.11019029206286041 0 -0.25404006688174058 0.093306486373413988 0 -0.24360930618539731 0.098060467891062375 0 -0.24889714246483091 0.11019029206286041 0 -0.24098106417453011 0.088082648776538236 0 -0.23051895122048749 0.1006624443514369 0 -0.24360930618539731 0.098060467891062375 0 -0.23373323609651711 0.12099937999299409 0 -0.24040834310303549 0.1146485045319543 0 -0.2412715305097741 0.12656345146900749 0 -0.22939428029965001 0.1128477236662552 0 -0.23373323609651711 0.12099937999299409 0 -0.24040834310303549 0.1146485045319543 0 -0.24040834310303549 0.1146485045319543 0 -0.24889714246483091 0.11019029206286041 0 -0.25151923828495082 0.120968316735636 0 -0.24040834310303549 0.1146485045319543 0 -0.24889714246483091 0.11019029206286041 0 -0.25151923828495082 0.120968316735636 0 -0.24040834310303549 0.1146485045319543 0 -0.2412715305097741 0.12656345146900749 0 -0.25381967755359491 0.1306499179073019 0 -0.25151923828495082 0.120968316735636 0 -0.2412715305097741 0.12656345146900749 0 -0.25381967755359491 0.1306499179073019 0 -0.24253051559948041 0.1379041430146255 0 -0.2412715305097741 0.12656345146900749 0 -0.24253051559948041 0.1379041430146255 0 -0.2412715305097741 0.12656345146900749 0 -0.22884296599146051 0.13253946354474769 0 -0.23373323609651711 0.12099937999299409 0 -0.2412715305097741 0.12656345146900749 0 -0.22884296599146051 0.13253946354474769 0 -0.2112608395656338 0.12476901791903811 0 -0.2244495011970131 0.1193306505694036 0 -0.22884296599146051 0.13253946354474769 0 -0.22884296599146051 0.13253946354474769 0 -0.23341177823477219 0.15347272145596361 0 -0.21443422040260021 0.14320654107090611 0 -0.23341177823477219 0.15347272145596361 0 -0.21151693076174441 0.16065028221582009 0 -0.21443422040260021 0.14320654107090611 0 -0.25530662570780011 0.14629516069610701 0 -0.24253051559948041 0.1379041430146255 0 -0.23341177823477219 0.15347272145596361 0 -0.25530662570780011 0.14629516069610701 0 -0.23341177823477219 0.15347272145596361 0 -0.24972726195975689 0.16459083960150919 0 -0.25530662570780011 0.14629516069610701 0 -0.23341177823477219 0.15347272145596361 0 -0.24253051559948041 0.1379041430146255 0 -0.22884296599146051 0.13253946354474769 0 -0.23341177823477219 0.15347272145596361 0 -0.23341177823477219 0.15347272145596361 0 -0.24972726195975689 0.16459083960150919 0 -0.23147094311176949 0.17238690878392859 0 -0.25142495546179461 0.18412353535203721 0 -0.23147094311176949 0.17238690878392859 0 -0.25142495546179461 0.18412353535203721 0 -0.24972726195975689 0.16459083960150919 0 -0.23147094311176949 0.17238690878392859 0 -0.25142495546179461 0.18412353535203721 0 -0.2240486058644485 0.18661048937907729 0 -0.23147094311176949 0.17238690878392859 0 -0.2240486058644485 0.18661048937907729 0 -0.23147094311176949 0.17238690878392859 0 -0.2094010567142453 0.17740108024675691 0 -0.23341177823477219 0.15347272145596361 0 -0.23147094311176949 0.17238690878392859 0 -0.21151693076174441 0.16065028221582009 0 -0.23341177823477219 0.15347272145596361 0 -0.21151693076174441 0.16065028221582009 0 -0.23147094311176949 0.17238690878392859 0 -0.21151693076174441 0.16065028221582009 0 -0.21151693076174441 0.16065028221582009 0 -0.2094010567142453 0.17740108024675691 0 -0.1922225286683564 0.16697536593796061 0 -0.23147094311176949 0.17238690878392859 0 -0.21151693076174441 0.16065028221582009 0 -0.2094010567142453 0.17740108024675691 0 -0.21151693076174441 0.16065028221582009 0 -0.1972535272530109 0.1522607795115157 0 -0.2240486058644485 0.18661048937907729 0 -0.2094010567142453 0.17740108024675691 0 -0.2054731243832072 0.19252108872629309 0 -0.2094010567142453 0.17740108024675691 0 -0.19167420749594591 0.18526234643746159 0 -0.1922225286683564 0.16697536593796061 0 -0.2094010567142453 0.17740108024675691 0 -0.19167420749594591 0.18526234643746159 0 -0.2054731243832072 0.19252108872629309 0 -0.1922225286683564 0.16697536593796061 0 -0.1972535272530109 0.1522607795115157 0 -0.17970842957095071 0.1586143485013371 0 -0.21151693076174441 0.16065028221582009 0 -0.1922225286683564 0.16697536593796061 0 -0.21151693076174441 0.16065028221582009 0 -0.1922225286683564 0.16697536593796061 0 -0.1972535272530109 0.1522607795115157 0 -0.1972535272530109 0.1522607795115157 0 -0.2012849896642703 0.1385559245366253 0 -0.18299012374427731 0.1438712768072114 0 -0.1972535272530109 0.1522607795115157 0 -0.18299012374427731 0.1438712768072114 0 -0.2012849896642703 0.1385559245366253 0 -0.1919267039757849 0.12678507827307139 0 -0.18299012374427731 0.1438712768072114 0 -0.2112608395656338 0.12476901791903811 0 -0.2012849896642703 0.1385559245366253 0 -0.1919267039757849 0.12678507827307139 0 -0.2112608395656338 0.12476901791903811 0 -0.22884296599146051 0.13253946354474769 0 -0.21443422040260021 0.14320654107090611 0 -0.2112608395656338 0.12476901791903811 0 -0.2012849896642703 0.1385559245366253 0 -0.21443422040260021 0.14320654107090611 0 -0.21151693076174441 0.16065028221582009 0 -0.1972535272530109 0.1522607795115157 0 -0.21443422040260021 0.14320654107090611 0 -0.1972535272530109 0.1522607795115157 0 -0.2012849896642703 0.1385559245366253 0 -0.21443422040260021 0.14320654107090611 0 -0.22873633263951779 0.24273790433165501 0 -0.2186866622657713 0.2228231812076438 0 -0.21371475426191 0.2441916623060563 0 -0.22267055206643269 0.2607203247850956 0 -0.22873633263951779 0.24273790433165501 0 -0.21371475426191 0.2441916623060563 0 -0.25449896459981808 0.2352383079493863 0 -0.25229645693426739 0.25131093157207129 0 -0.24073867064870291 0.23623679800006289 0 -0.23882388213138961 0.25128747139103152 0 -0.22873633263951779 0.24273790433165501 0 -0.24073867064870291 0.23623679800006289 0 -0.25229645693426739 0.25131093157207129 0 -0.23882388213138961 0.25128747139103152 0 -0.24073867064870291 0.23623679800006289 0 -0.24073867064870291 0.23623679800006289 0 -0.2441634223761299 0.2224491798210092 0 -0.2186866622657713 0.2228231812076438 0 -0.25449896459981808 0.2352383079493863 0 -0.24073867064870291 0.23623679800006289 0 -0.2441634223761299 0.2224491798210092 0 -0.22873633263951779 0.24273790433165501 0 -0.24073867064870291 0.23623679800006289 0 -0.2186866622657713 0.2228231812076438 0 -0.2441634223761299 0.2224491798210092 0 -0.2186866622657713 0.2228231812076438 0 -0.24367674414336929 0.20849085494803801 0 -0.23232405724608149 0.2003552425449181 0 -0.2186866622657713 0.2228231812076438 0 -0.23232405724608149 0.2003552425449181 0 -0.2112242528132767 0.2069330127194387 0 -0.2186866622657713 0.2228231812076438 0 -0.2441634223761299 0.2224491798210092 0 -0.24367674414336929 0.20849085494803801 0 -0.2186866622657713 0.2228231812076438 0 -0.25518017195996012 0.2005698172994633 0 -0.24367674414336929 0.20849085494803801 0 -0.23232405724608149 0.2003552425449181 0 -0.25142495546179461 0.18412353535203721 0 -0.2240486058644485 0.18661048937907729 0 -0.23232405724608149 0.2003552425449181 0 -0.25518017195996012 0.2005698172994633 0 -0.25142495546179461 0.18412353535203721 0 -0.23232405724608149 0.2003552425449181 0 -0.2240486058644485 0.18661048937907729 0 -0.23232405724608149 0.2003552425449181 0 -0.2112242528132767 0.2069330127194387 0 -0.2054731243832072 0.19252108872629309 0 -0.19395092605058389 0.20442082536080169 0 -0.2112242528132767 0.2069330127194387 0 -0.2240486058644485 0.18661048937907729 0 -0.2054731243832072 0.19252108872629309 0 -0.2112242528132767 0.2069330127194387 0 -0.19167420749594591 0.18526234643746159 0 -0.2054731243832072 0.19252108872629309 0 -0.19395092605058389 0.20442082536080169 0 -0.19167420749594591 0.18526234643746159 0 -0.19395092605058389 0.20442082536080169 0 -0.17872976986485831 0.19963586959619289 0 -0.19395092605058389 0.20442082536080169 0 -0.19320990215541259 0.2231971825942784 0 -0.18172014820730209 0.2118752284597781 0 -0.19395092605058389 0.20442082536080169 0 -0.2112242528132767 0.2069330127194387 0 -0.19320990215541259 0.2231971825942784 0 -0.2112242528132767 0.2069330127194387 0 -0.2186866622657713 0.2228231812076438 0 -0.19320990215541259 0.2231971825942784 0 -0.2186866622657713 0.2228231812076438 0 -0.19320990215541259 0.2231971825942784 0 -0.2186866622657713 0.2228231812076438 0 -0.19320990215541259 0.2231971825942784 0 -0.19653437714754571 0.23970666705429119 0 -0.19320990215541259 0.2231971825942784 0 -0.19653437714754571 0.23970666705429119 0 -0.18502886945177849 0.23089191985299631 0 -0.1997557464024198 0.2562365790695586 0 -0.19653437714754571 0.23970666705429119 0 -0.18643984148428011 0.248210970823524 0 -0.19653437714754571 0.23970666705429119 0 -0.18158688261066189 0.23903898166377069 0 -0.18502886945177849 0.23089191985299631 0 -0.19653437714754571 0.23970666705429119 0 -0.18643984148428011 0.248210970823524 0 -0.18158688261066189 0.23903898166377069 0 -0.1997557464024198 0.2562365790695586 0 -0.19653437714754571 0.23970666705429119 0 -0.21371475426191 0.2441916623060563 0 -0.2186866622657713 0.2228231812076438 0 -0.19653437714754571 0.23970666705429119 0 -0.21371475426191 0.2441916623060563 0 -0.15946482528887029 0.2469377423829088 0 -0.1620122031294077 0.2383596111148461 0 -0.1671043693604912 0.24354049126783711 0 -0.15946482528887029 0.2469377423829088 0 -0.1620122031294077 0.2383596111148461 0 -0.15317272187585931 0.23893978908206259 0 -0.1620122031294077 0.2383596111148461 0 -0.159176180039444 0.23291726749904859 0 -0.15317272187585931 0.23893978908206259 0 -0.1620122031294077 0.2383596111148461 0 -0.16677993540313421 0.23448063981476239 0 -0.163213884605108 0.2317792525918122 0 -0.1620122031294077 0.2383596111148461 0 -0.16685626476124951 0.23858769972964211 0 -0.1671043693604912 0.24354049126783711 0 -0.1620122031294077 0.2383596111148461 0 -0.16685626476124951 0.23858769972964211 0 -0.16677993540313421 0.23448063981476239 0 -0.16677993540313421 0.23448063981476239 0 -0.17178338674612559 0.2378106346265359 0 -0.17007450134166099 0.23120360803496909 0 -0.16685626476124951 0.23858769972964211 0 -0.16677993540313421 0.23448063981476239 0 -0.17178338674612559 0.2378106346265359 0 -0.16685626476124951 0.23858769972964211 0 -0.17178338674612559 0.2378106346265359 0 -0.1671043693604912 0.24354049126783711 0 -0.17178338674612559 0.2378106346265359 0 -0.1671043693604912 0.24354049126783711 0 -0.1747751503249558 0.24606122095238681 0 -0.1671043693604912 0.24354049126783711 0 -0.1666277031128674 0.2493978960583963 0 -0.1747751503249558 0.24606122095238681 0 -0.1704196851916164 0.25449500169430872 0 -0.1666277031128674 0.2493978960583963 0 -0.1747751503249558 0.24606122095238681 0 -0.15946482528887029 0.2469377423829088 0 -0.1671043693604912 0.24354049126783711 0 -0.1666277031128674 0.2493978960583963 0 -0.1747751503249558 0.24606122095238681 0 -0.18643984148428011 0.248210970823524 0 -0.18158688261066189 0.23903898166377069 0 -0.17178338674612559 0.2378106346265359 0 -0.1747751503249558 0.24606122095238681 0 -0.18158688261066189 0.23903898166377069 0 -0.17178338674612559 0.2378106346265359 0 -0.18158688261066189 0.23903898166377069 0 -0.17605885584485159 0.23178796081922159 0 -0.17178338674612559 0.2378106346265359 0 -0.17605885584485159 0.23178796081922159 0 -0.17007450134166099 0.23120360803496909 0 -0.19320990215541259 0.2231971825942784 0 -0.18502886945177849 0.23089191985299631 0 -0.17604732379239829 0.22554991270545491 0 -0.19320990215541259 0.2231971825942784 0 -0.16773314204505421 0.22357118398091341 0 -0.19320990215541259 0.2231971825942784 0 -0.17604732379239829 0.22554991270545491 0 -0.16773314204505421 0.22357118398091341 0 -0.19320990215541259 0.2231971825942784 0 -0.16773314204505421 0.22357118398091341 0 -0.17829175503075639 0.21754058839246701 0 -0.17605885584485159 0.23178796081922159 0 -0.18502886945177849 0.23089191985299631 0 -0.17604732379239829 0.22554991270545491 0 -0.17605885584485159 0.23178796081922159 0 -0.171452477965365 0.2268999846697817 0 -0.17007450134166099 0.23120360803496909 0 -0.17605885584485159 0.23178796081922159 0 -0.17604732379239829 0.22554991270545491 0 -0.171452477965365 0.2268999846697817 0 -0.18158688261066189 0.23903898166377069 0 -0.17605885584485159 0.23178796081922159 0 -0.18502886945177849 0.23089191985299631 0 -0.17604732379239829 0.22554991270545491 0 -0.16773314204505421 0.22357118398091341 0 -0.17604732379239829 0.22554991270545491 0 -0.16773314204505421 0.22357118398091341 0 -0.171452477965365 0.2268999846697817 0 -0.16773314204505421 0.22357118398091341 0 -0.16703279541589719 0.2260009901125942 0 -0.16499155296447851 0.2276634459394479 0 -0.16773314204505421 0.22357118398091341 0 -0.16499155296447851 0.2276634459394479 0 -0.16159976727658301 0.2277437312568949 0 -0.16773314204505421 0.22357118398091341 0 -0.16703279541589719 0.2260009901125942 0 -0.16882662206486279 0.2272987258092927 0 -0.16773314204505421 0.22357118398091341 0 -0.171452477965365 0.2268999846697817 0 -0.16882662206486279 0.2272987258092927 0 -0.171452477965365 0.2268999846697817 0 -0.16882662206486279 0.2272987258092927 0 -0.17007450134166099 0.23120360803496909 0 -0.16882662206486279 0.2272987258092927 0 -0.17007450134166099 0.23120360803496909 0 -0.1667395900564857 0.22935818702670041 0 -0.16677993540313421 0.23448063981476239 0 -0.1667395900564857 0.22935818702670041 0 -0.163213884605108 0.2317792525918122 0 -0.16677993540313421 0.23448063981476239 0 -0.17007450134166099 0.23120360803496909 0 -0.1667395900564857 0.22935818702670041 0 -0.1667395900564857 0.22935818702670041 0 -0.16499155296447851 0.2276634459394479 0 -0.163213884605108 0.2317792525918122 0 -0.16703279541589719 0.2260009901125942 0 -0.16882662206486279 0.2272987258092927 0 -0.1667395900564857 0.22935818702670041 0 -0.16703279541589719 0.2260009901125942 0 -0.1667395900564857 0.22935818702670041 0 -0.16499155296447851 0.2276634459394479 0 -0.16499155296447851 0.2276634459394479 0 -0.16159976727658301 0.2277437312568949 0 -0.163213884605108 0.2317792525918122 0 -0.16159976727658301 0.2277437312568949 0 -0.163213884605108 0.2317792525918122 0 -0.159176180039444 0.23291726749904859 0 -0.1620122031294077 0.2383596111148461 0 -0.163213884605108 0.2317792525918122 0 -0.159176180039444 0.23291726749904859 0 -0.16159976727658301 0.2277437312568949 0 -0.159176180039444 0.23291726749904859 0 -0.15588232331026211 0.22776395344962719 0 -0.16773314204505421 0.22357118398091341 0 -0.16159976727658301 0.2277437312568949 0 -0.15588232331026211 0.22776395344962719 0 -0.16773314204505421 0.22357118398091341 0 -0.15942717321500341 0.2040641769921786 0 -0.1432243009115601 0.2177382169578447 0 -0.15942717321500341 0.2040641769921786 0 -0.1705038277152566 0.2115187585348984 0 -0.17872976986485831 0.19963586959619289 0 -0.16773314204505421 0.22357118398091341 0 -0.15942717321500341 0.2040641769921786 0 -0.1705038277152566 0.2115187585348984 0 -0.16773314204505421 0.22357118398091341 0 -0.1705038277152566 0.2115187585348984 0 -0.17829175503075639 0.21754058839246701 0 -0.1705038277152566 0.2115187585348984 0 -0.17829175503075639 0.21754058839246701 0 -0.18172014820730209 0.2118752284597781 0 -0.19320990215541259 0.2231971825942784 0 -0.17829175503075639 0.21754058839246701 0 -0.18172014820730209 0.2118752284597781 0 -0.19395092605058389 0.20442082536080169 0 -0.18172014820730209 0.2118752284597781 0 -0.17872976986485831 0.19963586959619289 0 -0.1705038277152566 0.2115187585348984 0 -0.18172014820730209 0.2118752284597781 0 -0.17872976986485831 0.19963586959619289 0 -0.19167420749594591 0.18526234643746159 0 -0.17872976986485831 0.19963586959619289 0 -0.17737985622745059 0.1868740679698305 0 -0.17872976986485831 0.19963586959619289 0 -0.16618732097402991 0.18929760618556651 0 -0.17737985622745059 0.1868740679698305 0 -0.15942717321500341 0.2040641769921786 0 -0.16618732097402991 0.18929760618556651 0 -0.14840093551997499 0.19519347912441359 0 -0.15942717321500341 0.2040641769921786 0 -0.17872976986485831 0.19963586959619289 0 -0.16618732097402991 0.18929760618556651 0 -0.14840093551997499 0.19519347912441359 0 -0.13037696266855839 0.18949386322510781 0 -0.15363372448158041 0.1796255333822416 0 -0.14840093551997499 0.19519347912441359 0 -0.13037696266855839 0.18949386322510781 0 -0.1432243009115601 0.2177382169578447 0 -0.16618732097402991 0.18929760618556651 0 -0.14840093551997499 0.19519347912441359 0 -0.15363372448158041 0.1796255333822416 0 -0.13037696266855839 0.18949386322510781 0 -0.1432243009115601 0.2177382169578447 0 -0.118715459778066 0.21190524993477569 0 -0.1432243009115601 0.2177382169578447 0 -0.118715459778066 0.21190524993477569 0 -0.15942717321500341 0.2040641769921786 0 -0.14840093551997499 0.19519347912441359 0 -0.1432243009115601 0.2177382169578447 0 -0.16773314204505421 0.22357118398091341 0 -0.1432243009115601 0.2177382169578447 0 -0.15588232331026211 0.22776395344962719 0 -0.16773314204505421 0.22357118398091341 0 -0.1432243009115601 0.2177382169578447 0 -0.1432243009115601 0.2177382169578447 0 -0.14592726132691389 0.23258287642999809 0 -0.1335516068067579 0.23612834678633979 0 -0.159176180039444 0.23291726749904859 0 -0.15588232331026211 0.22776395344962719 0 -0.15317272187585931 0.23893978908206259 0 -0.15588232331026211 0.22776395344962719 0 -0.14592726132691389 0.23258287642999809 0 -0.15317272187585931 0.23893978908206259 0 -0.1432243009115601 0.2177382169578447 0 -0.15588232331026211 0.22776395344962719 0 -0.14592726132691389 0.23258287642999809 0 -0.1432243009115601 0.2177382169578447 0 -0.1335516068067579 0.23612834678633979 0 -0.12008918301535169 0.22824302449136041 0 -0.1432243009115601 0.2177382169578447 0 -0.12008918301535169 0.22824302449136041 0 -0.118715459778066 0.21190524993477569 0 -0.13465358290386339 0.2521251929798205 0 -0.1335516068067579 0.23612834678633979 0 -0.14343488392449061 0.2421768532738231 0 -0.13465358290386339 0.2521251929798205 0 -0.1335516068067579 0.23612834678633979 0 -0.1156280143482107 0.244808693710068 0 -0.13465358290386339 0.2521251929798205 0 -0.1498692467090586 0.25110806109089462 0 -0.14343488392449061 0.2421768532738231 0 -0.14592726132691389 0.23258287642999809 0 -0.14343488392449061 0.2421768532738231 0 -0.15317272187585931 0.23893978908206259 0 -0.14592726132691389 0.23258287642999809 0 -0.1335516068067579 0.23612834678633979 0 -0.14343488392449061 0.2421768532738231 0 -0.1498692467090586 0.25110806109089462 0 -0.14343488392449061 0.2421768532738231 0 -0.15317272187585931 0.23893978908206259 0 -0.1498692467090586 0.25110806109089462 0 -0.15946482528887029 0.2469377423829088 0 -0.15317272187585931 0.23893978908206259 0 -0.1647332652036374 0.1525319494915367 0 -0.16866987478171239 0.1283440042045115 0 -0.14427348104852861 0.14131917853107251 0 -0.1919267039757849 0.12678507827307139 0 -0.16866987478171239 0.1283440042045115 0 -0.18299012374427731 0.1438712768072114 0 -0.1647332652036374 0.1525319494915367 0 -0.16866987478171239 0.1283440042045115 0 -0.18299012374427731 0.1438712768072114 0 -0.1972535272530109 0.1522607795115157 0 -0.18299012374427731 0.1438712768072114 0 -0.17970842957095071 0.1586143485013371 0 -0.1647332652036374 0.1525319494915367 0 -0.18299012374427731 0.1438712768072114 0 -0.17970842957095071 0.1586143485013371 0 -0.1922225286683564 0.16697536593796061 0 -0.17292812657496839 0.17330044966010111 0 -0.1922225286683564 0.16697536593796061 0 -0.17970842957095071 0.1586143485013371 0 -0.17292812657496839 0.17330044966010111 0 -0.1647332652036374 0.1525319494915367 0 -0.17970842957095071 0.1586143485013371 0 -0.17292812657496839 0.17330044966010111 0 -0.19167420749594591 0.18526234643746159 0 -0.17292812657496839 0.17330044966010111 0 -0.17737985622745059 0.1868740679698305 0 -0.19167420749594591 0.18526234643746159 0 -0.1922225286683564 0.16697536593796061 0 -0.17292812657496839 0.17330044966010111 0 -0.16618732097402991 0.18929760618556651 0 -0.17292812657496839 0.17330044966010111 0 -0.17737985622745059 0.1868740679698305 0 -0.17292812657496839 0.17330044966010111 0 -0.15363372448158041 0.1796255333822416 0 -0.17292812657496839 0.17330044966010111 0 -0.15273272521256481 0.16358557833849299 0 -0.15363372448158041 0.1796255333822416 0 -0.16618732097402991 0.18929760618556651 0 -0.17292812657496839 0.17330044966010111 0 -0.15363372448158041 0.1796255333822416 0 -0.1647332652036374 0.1525319494915367 0 -0.17292812657496839 0.17330044966010111 0 -0.15273272521256481 0.16358557833849299 0 -0.15273272521256481 0.16358557833849299 0 -0.13549379414679519 0.16519789328675971 0 -0.14427348104852861 0.14131917853107251 0 -0.15273272521256481 0.16358557833849299 0 -0.15363372448158041 0.1796255333822416 0 -0.13549379414679519 0.16519789328675971 0 -0.13037696266855839 0.18949386322510781 0 -0.13549379414679519 0.16519789328675971 0 -0.1139030579492554 0.17033997674704371 0 -0.13037696266855839 0.18949386322510781 0 -0.15363372448158041 0.1796255333822416 0 -0.13549379414679519 0.16519789328675971 0 -0.13549379414679519 0.16519789328675971 0 -0.14427348104852861 0.14131917853107251 0 -0.1189028191247668 0.14930542877066391 0 -0.1647332652036374 0.1525319494915367 0 -0.15273272521256481 0.16358557833849299 0 -0.14427348104852861 0.14131917853107251 0 -0.14965267412953709 0.1165238559538932 0 -0.16866987478171239 0.1283440042045115 0 -0.14427348104852861 0.14131917853107251 0 -0.14965267412953709 0.1165238559538932 0 -0.14427348104852861 0.14131917853107251 0 -0.14965267412953709 0.1165238559538932 0 -0.14427348104852861 0.14131917853107251 0 -0.12775981661962191 0.12958071645759109 0 -0.14427348104852861 0.14131917853107251 0 -0.12775981661962191 0.12958071645759109 0 -0.1189028191247668 0.14930542877066391 0 -0.12775981661962191 0.12958071645759109 0 -0.098159648194906149 0.1326983445502998 0 -0.1189028191247668 0.14930542877066391 0 -0.098159648194906149 0.1326983445502998 0 -0.1189028191247668 0.14930542877066391 0 -0.092762888172539221 0.157068624567581 0 -0.13549379414679519 0.16519789328675971 0 -0.1189028191247668 0.14930542877066391 0 -0.1139030579492554 0.17033997674704371 0 -0.13037696266855839 0.18949386322510781 0 -0.1139030579492554 0.17033997674704371 0 -0.10868576315226849 0.19260131750119219 0 -0.1139030579492554 0.17033997674704371 0 -0.086226716720890897 0.1851952146873275 0 -0.10868576315226849 0.19260131750119219 0 -0.1139030579492554 0.17033997674704371 0 -0.092762888172539221 0.157068624567581 0 -0.086226716720890897 0.1851952146873275 0 -0.1189028191247668 0.14930542877066391 0 -0.1139030579492554 0.17033997674704371 0 -0.092762888172539221 0.157068624567581 0 -0.092762888172539221 0.157068624567581 0 -0.086226716720890897 0.1851952146873275 0 -0.070833548727550308 0.16899085751137821 0 -0.092762888172539221 0.157068624567581 0 -0.070833548727550308 0.16899085751137821 0 -0.07459457848987458 0.1516040095763207 0 -0.070833548727550308 0.16899085751137821 0 -0.058260927534023968 0.1912582153663577 0 -0.071733758819723159 0.18587403131605401 0 -0.070833548727550308 0.16899085751137821 0 -0.058260927534023968 0.1912582153663577 0 -0.086226716720890897 0.1851952146873275 0 -0.071733758819723159 0.18587403131605401 0 -0.070833548727550308 0.16899085751137821 0 -0.070833548727550308 0.16899085751137821 0 -0.07459457848987458 0.1516040095763207 0 -0.057237830899680958 0.15291785806108579 0 -0.07459457848987458 0.1516040095763207 0 -0.071570886861570315 0.13508158457298769 0 -0.057237830899680958 0.15291785806108579 0 -0.07459457848987458 0.1516040095763207 0 -0.071570886861570315 0.13508158457298769 0 -0.084272000429722577 0.1441131408167973 0 -0.071570886861570315 0.13508158457298769 0 -0.061202387195834262 0.1264581100819169 0 -0.077090002111638023 0.11709647063801019 0 -0.098159648194906149 0.1326983445502998 0 -0.071570886861570315 0.13508158457298769 0 -0.084272000429722577 0.1441131408167973 0 -0.098159648194906149 0.1326983445502998 0 -0.071570886861570315 0.13508158457298769 0 -0.077090002111638023 0.11709647063801019 0 -0.098159648194906149 0.1326983445502998 0 -0.092762888172539221 0.157068624567581 0 -0.084272000429722577 0.1441131408167973 0 -0.092762888172539221 0.157068624567581 0 -0.07459457848987458 0.1516040095763207 0 -0.084272000429722577 0.1441131408167973 0 -0.095193864866455202 0.2462821841431557 0 -0.1156280143482107 0.244808693710068 0 -0.1011497973127317 0.22614483940909991 0 -0.1335516068067579 0.23612834678633979 0 -0.1156280143482107 0.244808693710068 0 -0.12008918301535169 0.22824302449136041 0 -0.1156280143482107 0.244808693710068 0 -0.12008918301535169 0.22824302449136041 0 -0.1011497973127317 0.22614483940909991 0 -0.12008918301535169 0.22824302449136041 0 -0.1011497973127317 0.22614483940909991 0 -0.118715459778066 0.21190524993477569 0 -0.1011497973127317 0.22614483940909991 0 -0.094206618644571999 0.20607228291170659 0 -0.118715459778066 0.21190524993477569 0 -0.094206618644571999 0.20607228291170659 0 -0.118715459778066 0.21190524993477569 0 -0.10868576315226849 0.19260131750119219 0 -0.094206618644571999 0.20607228291170659 0 -0.118715459778066 0.21190524993477569 0 -0.13037696266855839 0.18949386322510781 0 -0.118715459778066 0.21190524993477569 0 -0.10868576315226849 0.19260131750119219 0 -0.086226716720890897 0.1851952146873275 0 -0.094206618644571999 0.20607228291170659 0 -0.10868576315226849 0.19260131750119219 0 -0.086226716720890897 0.1851952146873275 0 -0.094206618644571999 0.20607228291170659 0 -0.06969777751107803 0.20023931588863761 0 -0.086226716720890897 0.1851952146873275 0 -0.071733758819723159 0.18587403131605401 0 -0.06969777751107803 0.20023931588863761 0 -0.06969777751107803 0.20023931588863761 0 -0.061719379642750732 0.2118400085908059 0 -0.058260927534023968 0.1912582153663577 0 -0.071733758819723159 0.18587403131605401 0 -0.06969777751107803 0.20023931588863761 0 -0.058260927534023968 0.1912582153663577 0 -0.06969777751107803 0.20023931588863761 0 -0.079513575927175797 0.215074522600539 0 -0.061719379642750732 0.2118400085908059 0 -0.079513575927175797 0.215074522600539 0 -0.068452657041615322 0.22311679902938711 0 -0.061719379642750732 0.2118400085908059 0 -0.1011497973127317 0.22614483940909991 0 -0.094206618644571999 0.20607228291170659 0 -0.079513575927175797 0.215074522600539 0 -0.094206618644571999 0.20607228291170659 0 -0.06969777751107803 0.20023931588863761 0 -0.094206618644571999 0.20607228291170659 0 -0.06969777751107803 0.20023931588863761 0 -0.079513575927175797 0.215074522600539 0 -0.1011497973127317 0.22614483940909991 0 -0.079513575927175797 0.215074522600539 0 -0.083027365165161682 0.23239921852136511 0 -0.079513575927175797 0.215074522600539 0 -0.083027365165161682 0.23239921852136511 0 -0.068452657041615322 0.22311679902938711 0 -0.068452657041615322 0.22311679902938711 0 -0.068343305797842521 0.2375003244354483 0 -0.053733830210142247 0.23135258751649779 0 -0.083027365165161682 0.23239921852136511 0 -0.068452657041615322 0.22311679902938711 0 -0.068343305797842521 0.2375003244354483 0 -0.083027365165161682 0.23239921852136511 0 -0.077464105661945365 0.24911074424437721 0 -0.068343305797842521 0.2375003244354483 0 -0.059038570910347921 0.2515222728656144 0 -0.077464105661945365 0.24911074424437721 0 -0.068343305797842521 0.2375003244354483 0 -0.095193864866455202 0.2462821841431557 0 -0.083027365165161682 0.23239921852136511 0 -0.077464105661945365 0.24911074424437721 0 -0.095193864866455202 0.2462821841431557 0 -0.1011497973127317 0.22614483940909991 0 -0.083027365165161682 0.23239921852136511 0 -0.043254451875281708 0.2504668913687817 0 -0.033115685146971288 0.23579293107631691 0 -0.053733830210142247 0.23135258751649779 0 -0.043254451875281708 0.2504668913687817 0 -0.033522380663737597 0.2493530273901228 0 -0.033115685146971288 0.23579293107631691 0 -0.059038570910347921 0.2515222728656144 0 -0.043254451875281708 0.2504668913687817 0 -0.053733830210142247 0.23135258751649779 0 -0.059038570910347921 0.2515222728656144 0 -0.068343305797842521 0.2375003244354483 0 -0.053733830210142247 0.23135258751649779 0 -0.053733830210142247 0.23135258751649779 0 -0.045688306340497593 0.21352557322133739 0 -0.061719379642750732 0.2118400085908059 0 -0.068452657041615322 0.22311679902938711 0 -0.053733830210142247 0.23135258751649779 0 -0.061719379642750732 0.2118400085908059 0 -0.033115685146971288 0.23579293107631691 0 -0.045688306340497593 0.21352557322133739 0 -0.033115685146971288 0.23579293107631691 0 -0.045688306340497593 0.21352557322133739 0 -0.03041165405675576 0.21977721832515859 0 -0.033115685146971288 0.23579293107631691 0 -0.053733830210142247 0.23135258751649779 0 -0.045688306340497593 0.21352557322133739 0 -0.045688306340497593 0.21352557322133739 0 -0.021526451557504319 0.19663503128490711 0 -0.03041165405675576 0.21977721832515859 0 -0.045688306340497593 0.21352557322133739 0 -0.061719379642750732 0.2118400085908059 0 -0.058260927534023968 0.1912582153663577 0 -0.045688306340497593 0.21352557322133739 0 -0.058260927534023968 0.1912582153663577 0 -0.045688306340497593 0.21352557322133739 0 -0.058260927534023968 0.1912582153663577 0 -0.039059005694085033 0.18807625783787069 0 -0.045688306340497593 0.21352557322133739 0 -0.039059005694085033 0.18807625783787069 0 -0.021526451557504319 0.19663503128490711 0 -0.021526451557504319 0.19663503128490711 0 -0.0017268225860665701 0.1958084983890383 0 -0.0045117064423390776 0.1805743030453402 0 -0.021526451557504319 0.19663503128490711 0 -0.0017268225860665701 0.1958084983890383 0 -0.0084541987118784689 0.20704482542568259 0 -0.021526451557504319 0.19663503128490711 0 -0.0084541987118784689 0.20704482542568259 0 -0.01577370190456762 0.22068815410154741 0 -0.0017268225860665701 0.1958084983890383 0 -0.0084541987118784689 0.20704482542568259 0 0.0043447518150483769 0.2113480513770564 0 -0.0084541987118784689 0.20704482542568259 0 -0.0031225321877091971 0.21464252667539141 0 0.0043447518150483769 0.2113480513770564 0 -0.0084541987118784689 0.20704482542568259 0 -0.0031225321877091971 0.21464252667539141 0 -0.01577370190456762 0.22068815410154741 0 -0.021526451557504319 0.19663503128490711 0 -0.03041165405675576 0.21977721832515859 0 -0.01577370190456762 0.22068815410154741 0 -0.021526451557504319 0.19663503128490711 0 -0.01577370190456762 0.22068815410154741 0 -0.033115685146971288 0.23579293107631691 0 -0.03041165405675576 0.21977721832515859 0 -0.021676701711201781 0.22950516605455559 0 -0.021676701711201781 0.22950516605455559 0 -0.0072473373269141689 0.22193728386767159 0 -0.02165557431987053 0.244363190327688 0 -0.03041165405675576 0.21977721832515859 0 -0.021676701711201781 0.22950516605455559 0 -0.01577370190456762 0.22068815410154741 0 -0.0072473373269141689 0.22193728386767159 0 -0.02165557431987053 0.244363190327688 0 -0.021676701711201781 0.22950516605455559 0 -0.01577370190456762 0.22068815410154741 0 -0.0072473373269141689 0.22193728386767159 0 -0.0031225321877091971 0.21464252667539141 0 -0.01577370190456762 0.22068815410154741 0 -0.0072473373269141689 0.22193728386767159 0 -0.0072473373269141689 0.22193728386767159 0 0.0023605519309739661 0.23153609740817091 0 0.0016866797870339169 0.2215053963457789 0 -0.0031225321877091971 0.21464252667539141 0 -0.0072473373269141689 0.22193728386767159 0 0.0016866797870339169 0.2215053963457789 0 -0.0072473373269141689 0.22193728386767159 0 -0.0064303484141001446 0.23754401513814941 0 0.0023605519309739661 0.23153609740817091 0 -0.0072473373269141689 0.22193728386767159 0 -0.0064303484141001446 0.23754401513814941 0 -0.02165557431987053 0.244363190327688 0 -0.0064303484141001446 0.23754401513814941 0 0.0033175730282707641 0.2445665149317956 0 0.0023605519309739661 0.23153609740817091 0 -0.0064303484141001446 0.23754401513814941 0 -0.0069458869416420647 0.2477324418435477 0 0.0033175730282707641 0.2445665149317956 0 -0.0069458869416420647 0.2477324418435477 0 0.0033175730282707641 0.2445665149317956 0 0.00047521130853933868 0.25416036586211238 0 -0.0064303484141001446 0.23754401513814941 0 -0.0069458869416420647 0.2477324418435477 0 -0.02165557431987053 0.244363190327688 0 -0.033115685146971288 0.23579293107631691 0 -0.021676701711201781 0.22950516605455559 0 -0.02165557431987053 0.244363190327688 0 -0.033522380663737597 0.2493530273901228 0 -0.033115685146971288 0.23579293107631691 0 -0.02165557431987053 0.244363190327688 0 -0.046400864677883707 0.14591486774839679 0 -0.033031950863376673 0.14852878565162661 0 -0.04527973552021726 0.13045368835624871 0 -0.046400864677883707 0.14591486774839679 0 -0.033031950863376673 0.14852878565162661 0 -0.04191101479745666 0.16039379089155659 0 -0.033031950863376673 0.14852878565162661 0 -0.036568890899074058 0.13374030045650481 0 -0.033031950863376673 0.14852878565162661 0 -0.036568890899074058 0.13374030045650481 0 -0.02832811728898495 0.13921191743299741 0 -0.033031950863376673 0.14852878565162661 0 -0.036568890899074058 0.13374030045650481 0 -0.04527973552021726 0.13045368835624871 0 -0.033031950863376673 0.14852878565162661 0 -0.04527973552021726 0.13045368835624871 0 -0.036568890899074058 0.13374030045650481 0 -0.032052261168168762 0.1260647542039785 0 -0.026780874226713599 0.13043758593699081 0 -0.036568890899074058 0.13374030045650481 0 -0.032052261168168762 0.1260647542039785 0 -0.040105830934770041 0.1189518152613825 0 -0.036568890899074058 0.13374030045650481 0 -0.040105830934770041 0.1189518152613825 0 -0.036568890899074058 0.13374030045650481 0 -0.04527973552021726 0.13045368835624871 0 -0.043685729166087747 0.1206229215460036 0 -0.046400864677883707 0.14591486774839679 0 -0.04527973552021726 0.13045368835624871 0 -0.054543791308686987 0.1372802157814666 0 -0.04527973552021726 0.13045368835624871 0 -0.061202387195834262 0.1264581100819169 0 -0.054543791308686987 0.1372802157814666 0 -0.071570886861570315 0.13508158457298769 0 -0.061202387195834262 0.1264581100819169 0 -0.054543791308686987 0.1372802157814666 0 -0.071570886861570315 0.13508158457298769 0 -0.054543791308686987 0.1372802157814666 0 -0.057237830899680958 0.15291785806108579 0 -0.046400864677883707 0.14591486774839679 0 -0.054543791308686987 0.1372802157814666 0 -0.057237830899680958 0.15291785806108579 0 -0.046400864677883707 0.14591486774839679 0 -0.057237830899680958 0.15291785806108579 0 -0.04191101479745666 0.16039379089155659 0 -0.057237830899680958 0.15291785806108579 0 -0.050782472597106658 0.16874911043287391 0 -0.04191101479745666 0.16039379089155659 0 -0.070833548727550308 0.16899085751137821 0 -0.057237830899680958 0.15291785806108579 0 -0.050782472597106658 0.16874911043287391 0 -0.058260927534023968 0.1912582153663577 0 -0.039059005694085033 0.18807625783787069 0 -0.050963350367188617 0.18069302677551699 0 -0.070833548727550308 0.16899085751137821 0 -0.058260927534023968 0.1912582153663577 0 -0.050963350367188617 0.18069302677551699 0 -0.070833548727550308 0.16899085751137821 0 -0.050782472597106658 0.16874911043287391 0 -0.050963350367188617 0.18069302677551699 0 -0.050782472597106658 0.16874911043287391 0 -0.050963350367188617 0.18069302677551699 0 -0.041754280467252457 0.1745904938351325 0 -0.039059005694085033 0.18807625783787069 0 -0.050963350367188617 0.18069302677551699 0 -0.041754280467252457 0.1745904938351325 0 -0.039059005694085033 0.18807625783787069 0 -0.041754280467252457 0.1745904938351325 0 -0.02727920121044098 0.17258190846826699 0 -0.033031950863376673 0.14852878565162661 0 -0.04191101479745666 0.16039379089155659 0 -0.02727920121044098 0.17258190846826699 0 -0.050782472597106658 0.16874911043287391 0 -0.041754280467252457 0.1745904938351325 0 -0.04191101479745666 0.16039379089155659 0 -0.041754280467252457 0.1745904938351325 0 -0.04191101479745666 0.16039379089155659 0 -0.02727920121044098 0.17258190846826699 0 -0.033031950863376673 0.14852878565162661 0 -0.022069300049760762 0.16470730165457129 0 -0.022069300049760762 0.16470730165457129 0 -0.015535911560636049 0.17279113874413429 0 -0.01434775552621851 0.15664665756923671 0 -0.033031950863376673 0.14852878565162661 0 -0.02727920121044098 0.17258190846826699 0 -0.022069300049760762 0.16470730165457129 0 -0.01434775552621851 0.15664665756923671 0 -0.022375801392171081 0.14865382516744549 0 -0.033031950863376673 0.14852878565162661 0 -0.022069300049760762 0.16470730165457129 0 -0.02727920121044098 0.17258190846826699 0 -0.022069300049760762 0.16470730165457129 0 -0.02727920121044098 0.17258190846826699 0 -0.015535911560636049 0.17279113874413429 0 -0.021526451557504319 0.19663503128490711 0 -0.02727920121044098 0.17258190846826699 0 -0.015535911560636049 0.17279113874413429 0 -0.021526451557504319 0.19663503128490711 0 -0.02727920121044098 0.17258190846826699 0 -0.039059005694085033 0.18807625783787069 0 -0.021526451557504319 0.19663503128490711 0 -0.02727920121044098 0.17258190846826699 0 -0.021526451557504319 0.19663503128490711 0 -0.015535911560636049 0.17279113874413429 0 -0.0045117064423390776 0.1805743030453402 0 -0.015535911560636049 0.17279113874413429 0 -0.0045117064423390776 0.1805743030453402 0 -0.0039733855864782074 0.1637937706082617 0 -0.015535911560636049 0.17279113874413429 0 -0.01434775552621851 0.15664665756923671 0 -0.0039733855864782074 0.1637937706082617 0 -0.0039733855864782074 0.1637937706082617 0 -0.0056204510799411547 0.14817492447379249 0 0.0068472326737308272 0.15183309448443119 0 -0.0056204510799411547 0.14817492447379249 0 -0.01065785909372874 0.13849437979700269 0 0.00033521274698525158 0.13845541673203701 0 -0.0056204510799411547 0.14817492447379249 0 -0.0153503926645173 0.1454305807387628 0 -0.01065785909372874 0.13849437979700269 0 -0.01434775552621851 0.15664665756923671 0 -0.0039733855864782074 0.1637937706082617 0 -0.0056204510799411547 0.14817492447379249 0 -0.01434775552621851 0.15664665756923671 0 -0.0056204510799411547 0.14817492447379249 0 -0.0153503926645173 0.1454305807387628 0 -0.01434775552621851 0.15664665756923671 0 -0.0153503926645173 0.1454305807387628 0 -0.022375801392171081 0.14865382516744549 0 -0.033031950863376673 0.14852878565162661 0 -0.022069300049760762 0.16470730165457129 0 -0.022375801392171081 0.14865382516744549 0 -0.0153503926645173 0.1454305807387628 0 -0.022375801392171081 0.14865382516744549 0 -0.021127291960168298 0.13739770795747849 0 -0.022375801392171081 0.14865382516744549 0 -0.02832811728898495 0.13921191743299741 0 -0.021127291960168298 0.13739770795747849 0 -0.033031950863376673 0.14852878565162661 0 -0.022375801392171081 0.14865382516744549 0 -0.02832811728898495 0.13921191743299741 0 -0.032052261168168762 0.1260647542039785 0 -0.026780874226713599 0.13043758593699081 0 -0.02452375168477746 0.1215092941107095 0 -0.026780874226713599 0.13043758593699081 0 -0.02832811728898495 0.13921191743299741 0 -0.021127291960168298 0.13739770795747849 0 -0.036568890899074058 0.13374030045650481 0 -0.026780874226713599 0.13043758593699081 0 -0.02832811728898495 0.13921191743299741 0 -0.021127291960168298 0.13739770795747849 0 -0.015813198164127192 0.12840734675094931 0 -0.01065785909372874 0.13849437979700269 0 -0.0153503926645173 0.1454305807387628 0 -0.021127291960168298 0.13739770795747849 0 -0.01065785909372874 0.13849437979700269 0 -0.026780874226713599 0.13043758593699081 0 -0.015813198164127192 0.12840734675094931 0 -0.02452375168477746 0.1215092941107095 0 -0.026780874226713599 0.13043758593699081 0 -0.021127291960168298 0.13739770795747849 0 -0.015813198164127192 0.12840734675094931 0 -0.015813198164127192 0.12840734675094931 0 -0.01065785909372874 0.13849437979700269 0 -0.0057905026331563636 0.13101478957764051 0 -0.015813198164127192 0.12840734675094931 0 -0.0057905026331563636 0.13101478957764051 0 -0.0055984101847089129 0.1222972176340285 0 -0.01065785909372874 0.13849437979700269 0 -0.0057905026331563636 0.13101478957764051 0 0.00033521274698525158 0.13845541673203701 0 -0.0057905026331563636 0.13101478957764051 0 -0.0055984101847089129 0.1222972176340285 0 0.0047513859406603347 0.1272171198088938 0 -0.0057905026331563636 0.13101478957764051 0 0.0047513859406603347 0.1272171198088938 0 0.00033521274698525158 0.13845541673203701 0 -0.015813198164127192 0.12840734675094931 0 -0.0055984101847089129 0.1222972176340285 0 -0.013917867999363551 0.1184150031815039 0 -0.0055984101847089129 0.1222972176340285 0 -0.013917867999363551 0.1184150031815039 0 -0.0044579412658281537 0.1123993947185177 0 -0.013917867999363551 0.1184150031815039 0 -0.0044579412658281537 0.1123993947185177 0 -0.016530072249246099 0.1079465866324153 0 -0.0055984101847089129 0.1222972176340285 0 -0.0044579412658281537 0.1123993947185177 0 0.0083217158532172177 0.11398207802005381 0 -0.016530072249246099 0.1079465866324153 0 -0.01579971758049176 0.10001397489028679 0 0.0070456864362777871 0.096941358003447997 0 -0.0044579412658281537 0.1123993947185177 0 -0.016530072249246099 0.1079465866324153 0 0.0070456864362777871 0.096941358003447997 0 -0.016530072249246099 0.1079465866324153 0 0.0070456864362777871 0.096941358003447997 0 -0.01579971758049176 0.10001397489028679 0 -0.026704536134907531 0.1029706996180436 0 -0.031731114507876142 0.090386155440778659 0 -0.016530072249246099 0.1079465866324153 0 -0.01579971758049176 0.10001397489028679 0 -0.026704536134907531 0.1029706996180436 0 -0.026704536134907531 0.1029706996180436 0 -0.031731114507876142 0.090386155440778659 0 -0.034895749968111588 0.1008283530280278 0 -0.016530072249246099 0.1079465866324153 0 -0.02452375168477746 0.1215092941107095 0 -0.040105830934770041 0.1189518152613825 0 -0.016530072249246099 0.1079465866324153 0 -0.040105830934770041 0.1189518152613825 0 -0.016530072249246099 0.1079465866324153 0 -0.026704536134907531 0.1029706996180436 0 -0.040105830934770041 0.1189518152613825 0 -0.015813198164127192 0.12840734675094931 0 -0.013917867999363551 0.1184150031815039 0 -0.02452375168477746 0.1215092941107095 0 -0.013917867999363551 0.1184150031815039 0 -0.016530072249246099 0.1079465866324153 0 -0.02452375168477746 0.1215092941107095 0 -0.002106593624599733 0.075623895703576055 0 -0.02296683031305052 0.072398457827670251 0 -0.0073947795752876437 0.04899576200712559 0 -0.01579971758049176 0.10001397489028679 0 -0.002106593624599733 0.075623895703576055 0 -0.02296683031305052 0.072398457827670251 0 -0.01579971758049176 0.10001397489028679 0 -0.002106593624599733 0.075623895703576055 0 0.0070456864362777871 0.096941358003447997 0 -0.01579971758049176 0.10001397489028679 0 -0.02296683031305052 0.072398457827670251 0 -0.01579971758049176 0.10001397489028679 0 -0.02296683031305052 0.072398457827670251 0 -0.031731114507876142 0.090386155440778659 0 -0.02296683031305052 0.072398457827670251 0 -0.043674971000483953 0.071296627943486943 0 -0.030133943045609349 0.044782940765053431 0 -0.02296683031305052 0.072398457827670251 0 -0.043674971000483953 0.071296627943486943 0 -0.031731114507876142 0.090386155440778659 0 -0.043674971000483953 0.071296627943486943 0 -0.031731114507876142 0.090386155440778659 0 -0.04668871728871582 0.091427764414045209 0 -0.043674971000483953 0.071296627943486943 0 -0.04668871728871582 0.091427764414045209 0 -0.071105318895498773 0.074251129252731474 0 -0.043674971000483953 0.071296627943486943 0 -0.071105318895498773 0.074251129252731474 0 -0.059423901952153108 0.054533319960642652 0 -0.036568890899074058 0.13374030045650481 0 -0.043685729166087747 0.1206229215460036 0 -0.040105830934770041 0.1189518152613825 0 -0.043685729166087747 0.1206229215460036 0 -0.040105830934770041 0.1189518152613825 0 -0.032052261168168762 0.1260647542039785 0 -0.02452375168477746 0.1215092941107095 0 -0.040105830934770041 0.1189518152613825 0 -0.04668871728871582 0.091427764414045209 0 -0.040105830934770041 0.1189518152613825 0 -0.04668871728871582 0.091427764414045209 0 -0.040105830934770041 0.1189518152613825 0 -0.034895749968111588 0.1008283530280278 0 -0.026704536134907531 0.1029706996180436 0 -0.040105830934770041 0.1189518152613825 0 -0.034895749968111588 0.1008283530280278 0 -0.031731114507876142 0.090386155440778659 0 -0.04668871728871582 0.091427764414045209 0 -0.034895749968111588 0.1008283530280278 0 -0.04668871728871582 0.091427764414045209 0 -0.057527520177058762 0.1123785910608715 0 -0.069775304833900209 0.094303493765494281 0 -0.04668871728871582 0.091427764414045209 0 -0.040105830934770041 0.1189518152613825 0 -0.057527520177058762 0.1123785910608715 0 -0.04527973552021726 0.13045368835624871 0 -0.061202387195834262 0.1264581100819169 0 -0.057527520177058762 0.1123785910608715 0 -0.04527973552021726 0.13045368835624871 0 -0.043685729166087747 0.1206229215460036 0 -0.057527520177058762 0.1123785910608715 0 -0.04527973552021726 0.13045368835624871 0 -0.057527520177058762 0.1123785910608715 0 -0.043685729166087747 0.1206229215460036 0 -0.040105830934770041 0.1189518152613825 0 -0.057527520177058762 0.1123785910608715 0 -0.069775304833900209 0.094303493765494281 0 -0.10199800344721251 0.087431035837643084 0 -0.094940854213851705 0.10839737163607301 0 -0.061202387195834262 0.1264581100819169 0 -0.057527520177058762 0.1123785910608715 0 -0.077090002111638023 0.11709647063801019 0 -0.098159648194906149 0.1326983445502998 0 -0.077090002111638023 0.11709647063801019 0 -0.094940854213851705 0.10839737163607301 0 -0.077090002111638023 0.11709647063801019 0 -0.069775304833900209 0.094303493765494281 0 -0.094940854213851705 0.10839737163607301 0 -0.057527520177058762 0.1123785910608715 0 -0.069775304833900209 0.094303493765494281 0 -0.057527520177058762 0.1123785910608715 0 -0.077090002111638023 0.11709647063801019 0 -0.069775304833900209 0.094303493765494281 0 -0.069775304833900209 0.094303493765494281 0 -0.071105318895498773 0.074251129252731474 0 -0.10199800344721251 0.087431035837643084 0 -0.04668871728871582 0.091427764414045209 0 -0.069775304833900209 0.094303493765494281 0 -0.071105318895498773 0.074251129252731474 0 -0.071105318895498773 0.074251129252731474 0 -0.087431585713919222 0.062532798666402059 0 -0.059423901952153108 0.054533319960642652 0 -0.071105318895498773 0.074251129252731474 0 -0.087431585713919222 0.062532798666402059 0 -0.10199800344721251 0.087431035837643084 0 -0.1332603848681857 0.06954422240913409 0 -0.10199800344721251 0.087431035837643084 0 -0.1094207165674576 0.059166210894779282 0 -0.1326836098867698 0.094321622652489334 0 -0.1332603848681857 0.06954422240913409 0 -0.10199800344721251 0.087431035837643084 0 -0.087431585713919222 0.062532798666402059 0 -0.10199800344721251 0.087431035837643084 0 -0.087431585713919222 0.062532798666402059 0 -0.10199800344721251 0.087431035837643084 0 -0.1094207165674576 0.059166210894779282 0 -0.1326836098867698 0.094321622652489334 0 -0.10199800344721251 0.087431035837643084 0 -0.1185303870605264 0.1113020229047218 0 -0.12775981661962191 0.12958071645759109 0 -0.098159648194906149 0.1326983445502998 0 -0.1185303870605264 0.1113020229047218 0 -0.098159648194906149 0.1326983445502998 0 -0.1185303870605264 0.1113020229047218 0 -0.094940854213851705 0.10839737163607301 0 -0.10199800344721251 0.087431035837643084 0 -0.1185303870605264 0.1113020229047218 0 -0.094940854213851705 0.10839737163607301 0 -0.1107732700081502 0.015238540227782069 0 -0.098931101053271381 0.037505485227640099 0 -0.08664531155877378 0.01199269100287245 0 -0.1030930190128809 0.0017653671389950959 0 -0.1107732700081502 0.015238540227782069 0 -0.08664531155877378 0.01199269100287245 0 -0.095455742442616467 -0.011661027039941679 0 -0.1030930190128809 0.0017653671389950959 0 -0.08664531155877378 0.01199269100287245 0 -0.1194977520419831 -0.0085087356347324471 0 -0.1030930190128809 0.0017653671389950959 0 -0.1107732700081502 0.015238540227782069 0 -0.1194977520419831 -0.0085087356347324471 0 -0.13179723893891179 0.017713314570372941 0 -0.1107732700081502 0.015238540227782069 0 -0.12548250775469899 0.038817512333077023 0 -0.1107732700081502 0.015238540227782069 0 -0.098931101053271381 0.037505485227640099 0 -0.12548250775469899 0.038817512333077023 0 -0.13179723893891179 0.017713314570372941 0 -0.1107732700081502 0.015238540227782069 0 -0.12548250775469899 0.038817512333077023 0 -0.1094207165674576 0.059166210894779282 0 -0.098931101053271381 0.037505485227640099 0 -0.1332603848681857 0.06954422240913409 0 -0.12548250775469899 0.038817512333077023 0 -0.1094207165674576 0.059166210894779282 0 -0.087431585713919222 0.062532798666402059 0 -0.1094207165674576 0.059166210894779282 0 -0.098931101053271381 0.037505485227640099 0 -0.087431585713919222 0.062532798666402059 0 -0.098931101053271381 0.037505485227640099 0 -0.072865167980625756 0.037634561495160812 0 -0.087431585713919222 0.062532798666402059 0 -0.072865167980625756 0.037634561495160812 0 -0.087431585713919222 0.062532798666402059 0 -0.072865167980625756 0.037634561495160812 0 -0.059423901952153108 0.054533319960642652 0 -0.072865167980625756 0.037634561495160812 0 -0.05829875024733229 0.012736324323919549 0 -0.072865167980625756 0.037634561495160812 0 -0.08664531155877378 0.01199269100287245 0 -0.05829875024733229 0.012736324323919549 0 -0.098931101053271381 0.037505485227640099 0 -0.072865167980625756 0.037634561495160812 0 -0.08664531155877378 0.01199269100287245 0 -0.070900949219184065 -0.0086148189653756507 0 -0.08664531155877378 0.01199269100287245 0 -0.05829875024733229 0.012736324323919549 0 -0.043732332514038907 -0.01216191284732155 0 -0.05829875024733229 0.012736324323919549 0 -0.05829875024733229 0.012736324323919549 0 -0.037301055778168168 0.017167423702436631 0 -0.051676260315285973 0.033320806717909837 0 -0.072865167980625756 0.037634561495160812 0 -0.05829875024733229 0.012736324323919549 0 -0.051676260315285973 0.033320806717909837 0 -0.037301055778168168 0.017167423702436631 0 -0.030133943045609349 0.044782940765053431 0 -0.043732332514038907 -0.01216191284732155 0 -0.05829875024733229 0.012736324323919549 0 -0.037301055778168168 0.017167423702436631 0 -0.043732332514038907 -0.01216191284732155 0 -0.037301055778168168 0.017167423702436631 0 -0.026201306873520111 0.00155463584421072 0 -0.059423901952153108 0.054533319960642652 0 -0.051676260315285973 0.033320806717909837 0 -0.030133943045609349 0.044782940765053431 0 -0.072865167980625756 0.037634561495160812 0 -0.059423901952153108 0.054533319960642652 0 -0.051676260315285973 0.033320806717909837 0 -0.037301055778168168 0.017167423702436631 0 -0.051676260315285973 0.033320806717909837 0 -0.030133943045609349 0.044782940765053431 0 -0.043674971000483953 0.071296627943486943 0 -0.059423901952153108 0.054533319960642652 0 -0.030133943045609349 0.044782940765053431 0 -0.02296683031305052 0.072398457827670251 0 -0.030133943045609349 0.044782940765053431 0 -0.0073947795752876437 0.04899576200712559 0 -0.02296683031305052 0.072398457827670251 0 -0.030133943045609349 0.044782940765053431 0 -0.030133943045609349 0.044782940765053431 0 -0.0073947795752876437 0.04899576200712559 0 -0.01369876500553923 0.02055004692211887 0 -0.0073947795752876437 0.04899576200712559 0 -0.01369876500553923 0.02055004692211887 0 0.01010994917934542 0.029122274298058859 0 -0.037301055778168168 0.017167423702436631 0 -0.026201306873520111 0.00155463584421072 0 -0.01369876500553923 0.02055004692211887 0 -0.01053138900806062 -0.0016732157023093791 0 -0.026201306873520111 0.00155463584421072 0 -0.01369876500553923 0.02055004692211887 0 -0.037301055778168168 0.017167423702436631 0 -0.030133943045609349 0.044782940765053431 0 -0.01369876500553923 0.02055004692211887 0 -0.01053138900806062 -0.0016732157023093791 0 -0.01369876500553923 0.02055004692211887 0 0.0078250260732223645 0.0079748320655576126 0 -0.01369876500553923 0.02055004692211887 0 0.0078250260732223645 0.0079748320655576126 0 0.01010994917934542 0.029122274298058859 0 0.01010994917934542 0.029122274298058859 0 0.033700453402036312 0.01501139055694378 0 0.01010994917934542 0.029122274298058859 0 0.0292774100257263 0.03126525775146731 0 0.033700453402036312 0.01501139055694378 0 0.0078250260732223645 0.0079748320655576126 0 0.01010994917934542 0.029122274298058859 0 0.033700453402036312 0.01501139055694378 0 0.033700453402036312 0.01501139055694378 0 0.022217226013664351 -0.0055872265525528384 0 0.0078250260732223645 0.0079748320655576126 0 0.033700453402036312 0.01501139055694378 0 0.022217226013664351 -0.0055872265525528384 0 -0.002106593624599733 0.075623895703576055 0 -0.0073947795752876437 0.04899576200712559 0 0.012617195298657281 0.059607111133958168 0 -0.0073947795752876437 0.04899576200712559 0 0.01010994917934542 0.029122274298058859 0 0.012617195298657281 0.059607111133958168 0 0.01010994917934542 0.029122274298058859 0 0.0292774100257263 0.03126525775146731 0 0.029352631911685089 0.047536424354883818 0 0.01010994917934542 0.029122274298058859 0 0.012617195298657281 0.059607111133958168 0 0.029352631911685089 0.047536424354883818 0 0.012617195298657281 0.059607111133958168 0 0.029352631911685089 0.047536424354883818 0 0.029381206328017221 0.06838532514141081 0 0.029352631911685089 0.047536424354883818 0 0.04443789704911541 0.061156759184100802 0 0.029381206328017221 0.06838532514141081 0 0.029352631911685089 0.047536424354883818 0 0.04443789704911541 0.061156759184100802 0 0.041921646726764537 0.04877959875359178 0 0.04443789704911541 0.061156759184100802 0 0.041921646726764537 0.04877959875359178 0 0.054192757817639589 0.051770493035022069 0 0.0292774100257263 0.03126525775146731 0 0.029352631911685089 0.047536424354883818 0 0.04394660560983811 0.033390941795982933 0 0.041921646726764537 0.04877959875359178 0 0.04394660560983811 0.033390941795982933 0 0.054192757817639589 0.051770493035022069 0 0.029352631911685089 0.047536424354883818 0 0.041921646726764537 0.04877959875359178 0 0.04394660560983811 0.033390941795982933 0 0.059629893437775243 0.036862811548285072 0 0.054192757817639589 0.051770493035022069 0 0.070418421704760259 0.048320652206276349 0 0.04394660560983811 0.033390941795982933 0 0.059629893437775243 0.036862811548285072 0 0.054192757817639589 0.051770493035022069 0 0.04394660560983811 0.033390941795982933 0 0.054192757817639589 0.051770493035022069 0 0.04443789704911541 0.061156759184100802 0 0.054192757817639589 0.051770493035022069 0 0.064438910025440041 0.070150044274061824 0 0.054192757817639589 0.051770493035022069 0 0.066518368895363 0.058422116337672941 0 0.064438910025440041 0.070150044274061824 0 0.054192757817639589 0.051770493035022069 0 0.064438910025440041 0.070150044274061824 0 0.033700453402036312 0.01501139055694378 0 0.055371168948838471 0.0020488466120764381 0 0.038885991402647938 -0.0041326468328035859 0 0.033700453402036312 0.01501139055694378 0 0.055371168948838471 0.0020488466120764381 0 0.033700453402036312 0.01501139055694378 0 0.022217226013664351 -0.0055872265525528384 0 0.038885991402647938 -0.0041326468328035859 0 0.0292774100257263 0.03126525775146731 0 0.04394660560983811 0.033390941795982933 0 0.033700453402036312 0.01501139055694378 0 0.04394660560983811 0.033390941795982933 0 0.033700453402036312 0.01501139055694378 0 0.04394660560983811 0.033390941795982933 0 0.033700453402036312 0.01501139055694378 0 0.057065565141476288 0.021270726509263042 0 0.04394660560983811 0.033390941795982933 0 0.059629893437775243 0.036862811548285072 0 0.057065565141476288 0.021270726509263042 0 0.057065565141476288 0.021270726509263042 0 0.055371168948838471 0.0020488466120764381 0 0.074181579771512476 0.0099489632951436785 0 0.033700453402036312 0.01501139055694378 0 0.057065565141476288 0.021270726509263042 0 0.055371168948838471 0.0020488466120764381 0 0.075563689678856932 0.030361405247146499 0 0.099023893887212555 0.044705974107124367 0 0.09772296499453581 0.01127246079497179 0 0.055371168948838471 0.0020488466120764381 0 0.074181579771512476 0.0099489632951436785 0 0.077041884495645599 -0.01091369733278263 0 0.074181579771512476 0.0099489632951436785 0 0.09772296499453581 0.01127246079497179 0 0.077041884495645599 -0.01091369733278263 0 0.074181579771512476 0.0099489632951436785 0 0.075563689678856932 0.030361405247146499 0 0.09772296499453581 0.01127246079497179 0 0.057065565141476288 0.021270726509263042 0 0.074181579771512476 0.0099489632951436785 0 0.075563689678856932 0.030361405247146499 0 0.059629893437775243 0.036862811548285072 0 0.057065565141476288 0.021270726509263042 0 0.075563689678856932 0.030361405247146499 0 0.075563689678856932 0.030361405247146499 0 0.070418421704760259 0.048320652206276349 0 0.084301660828578623 0.052629715671386981 0 0.059629893437775243 0.036862811548285072 0 0.075563689678856932 0.030361405247146499 0 0.070418421704760259 0.048320652206276349 0 0.070418421704760259 0.048320652206276349 0 0.066518368895363 0.058422116337672941 0 0.076843964584931534 0.064359330880569138 0 0.054192757817639589 0.051770493035022069 0 0.070418421704760259 0.048320652206276349 0 0.066518368895363 0.058422116337672941 0 0.070418421704760259 0.048320652206276349 0 0.084301660828578623 0.052629715671386981 0 0.076843964584931534 0.064359330880569138 0 0.084301660828578623 0.052629715671386981 0 0.099023893887212555 0.044705974107124367 0 0.095685300066367579 0.062724706902158353 0 0.084301660828578623 0.052629715671386981 0 0.095685300066367579 0.062724706902158353 0 0.076843964584931534 0.064359330880569138 0 0.075563689678856932 0.030361405247146499 0 0.084301660828578623 0.052629715671386981 0 0.099023893887212555 0.044705974107124367 0 0.075563689678856932 0.030361405247146499 0 0.099023893887212555 0.044705974107124367 0 0.099023893887212555 0.044705974107124367 0 0.12248409809556821 0.059050542967102292 0 0.095685300066367579 0.062724706902158353 0 0.099023893887212555 0.044705974107124367 0 0.12248409809556821 0.059050542967102292 0 0.1219814734393717 0.042360792340567013 0 0.099023893887212555 0.044705974107124367 0 0.12248409809556821 0.059050542967102292 0 0.099023893887212555 0.044705974107124367 0 0.1219814734393717 0.042360792340567013 0 0.1181313498263445 0.02585786951299451 0 0.099023893887212555 0.044705974107124367 0 0.1181313498263445 0.02585786951299451 0 0.09772296499453581 0.01127246079497179 0 0.1181313498263445 0.02585786951299451 0 0.09772296499453581 0.01127246079497179 0 0.12899625664807809 0.0011243657885281809 0 0.10464748696096959 0.097782032674703465 0 0.1187755615695042 0.1246468220819736 0 0.090740901107880592 0.1173305646278746 0 0.10464748696096959 0.097782032674703465 0 0.1187755615695042 0.1246468220819736 0 0.1279103254050338 0.10620539183666761 0 0.10464748696096959 0.097782032674703465 0 0.12616340702247711 0.085714700423080908 0 0.1279103254050338 0.10620539183666761 0 0.10464748696096959 0.097782032674703465 0 0.1064686405929688 0.076750195526879617 0 0.12616340702247711 0.085714700423080908 0 0.12248409809556821 0.059050542967102292 0 0.1064686405929688 0.076750195526879617 0 0.12616340702247711 0.085714700423080908 0 0.1064686405929688 0.076750195526879617 0 0.095685300066367579 0.062724706902158353 0 0.085672285421564909 0.078522399358232797 0 0.12248409809556821 0.059050542967102292 0 0.1064686405929688 0.076750195526879617 0 0.095685300066367579 0.062724706902158353 0 0.10464748696096959 0.097782032674703465 0 0.1064686405929688 0.076750195526879617 0 0.085672285421564909 0.078522399358232797 0 0.10464748696096959 0.097782032674703465 0 0.085672285421564909 0.078522399358232797 0 0.077589905566660844 0.09374030445096794 0 0.095685300066367579 0.062724706902158353 0 0.085672285421564909 0.078522399358232797 0 0.076843964584931534 0.064359330880569138 0 0.085672285421564909 0.078522399358232797 0 0.076843964584931534 0.064359330880569138 0 0.064438910025440041 0.070150044274061824 0 0.076843964584931534 0.064359330880569138 0 0.064438910025440041 0.070150044274061824 0 0.066518368895363 0.058422116337672941 0 0.076843964584931534 0.064359330880569138 0 0.064438910025440041 0.070150044274061824 0 0.064438910025440041 0.070150044274061824 0 0.077589905566660844 0.09374030445096794 0 0.071373536185024719 0.099173322829151186 0 0.054197203807325477 0.07493090074551316 0 0.085672285421564909 0.078522399358232797 0 0.064438910025440041 0.070150044274061824 0 0.077589905566660844 0.09374030445096794 0 0.077589905566660844 0.09374030445096794 0 0.071373536185024719 0.099173322829151186 0 0.054197203807325477 0.07493090074551316 0 0.064438910025440041 0.070150044274061824 0 0.077589905566660844 0.09374030445096794 0 0.054197203807325477 0.07493090074551316 0 0.071373536185024719 0.099173322829151186 0 0.059676915458684907 0.1032116662619998 0 0.059082697605308501 0.09254667600021238 0 0.071373536185024719 0.099173322829151186 0 0.068180692389003913 0.1146984389696671 0 0.059676915458684907 0.1032116662619998 0 0.077589905566660844 0.09374030445096794 0 0.090740901107880592 0.1173305646278746 0 0.10464748696096959 0.097782032674703465 0 0.077589905566660844 0.09374030445096794 0 0.090740901107880592 0.1173305646278746 0 0.077589905566660844 0.09374030445096794 0 0.071373536185024719 0.099173322829151186 0 0.090740901107880592 0.1173305646278746 0 0.071373536185024719 0.099173322829151186 0 0.088549868562722706 0.1234157449127901 0 0.076848292172172428 0.1182634325798745 0 0.071373536185024719 0.099173322829151186 0 0.088549868562722706 0.1234157449127901 0 0.071373536185024719 0.099173322829151186 0 0.090740901107880592 0.1173305646278746 0 0.088549868562722706 0.1234157449127901 0 0.088549868562722706 0.1234157449127901 0 0.076848292172172428 0.1182634325798745 0 0.081786378888137778 0.12923185852654259 0 0.076848292172172428 0.1182634325798745 0 0.074350984835973064 0.1247977976612214 0 0.081786378888137778 0.12923185852654259 0 0.071373536185024719 0.099173322829151186 0 0.076848292172172428 0.1182634325798745 0 0.068180692389003913 0.1146984389696671 0 0.076848292172172428 0.1182634325798745 0 0.074350984835973064 0.1247977976612214 0 0.068180692389003913 0.1146984389696671 0 0.074350984835973064 0.1247977976612214 0 0.068180692389003913 0.1146984389696671 0 0.063679586197551416 0.12439209852408439 0 0.068180692389003913 0.1146984389696671 0 0.063679586197551416 0.12439209852408439 0 0.056580149061026409 0.1137785551061917 0 0.063679586197551416 0.12439209852408439 0 0.056580149061026409 0.1137785551061917 0 0.044174513486828867 0.1223111232749841 0 0.056580149061026409 0.1137785551061917 0 0.047189037773062992 0.10427944850022321 0 0.044174513486828867 0.1223111232749841 0 0.068180692389003913 0.1146984389696671 0 0.056580149061026409 0.1137785551061917 0 0.059676915458684907 0.1032116662619998 0 0.059676915458684907 0.1032116662619998 0 0.059082697605308501 0.09254667600021238 0 0.051083134970198889 0.0928708141641853 0 0.059676915458684907 0.1032116662619998 0 0.047189037773062992 0.10427944850022321 0 0.051083134970198889 0.0928708141641853 0 0.056580149061026409 0.1137785551061917 0 0.059676915458684907 0.1032116662619998 0 0.047189037773062992 0.10427944850022321 0 0.047189037773062992 0.10427944850022321 0 0.051083134970198889 0.0928708141641853 0 0.030621445121801701 0.085936129374480696 0 0.047189037773062992 0.10427944850022321 0 0.030621445121801701 0.085936129374480696 0 0.027549374147653981 0.10581479903928841 0 0.047189037773062992 0.10427944850022321 0 0.044174513486828867 0.1223111232749841 0 0.027549374147653981 0.10581479903928841 0 0.04443789704911541 0.061156759184100802 0 0.064438910025440041 0.070150044274061824 0 0.054197203807325477 0.07493090074551316 0 0.04443789704911541 0.061156759184100802 0 0.054197203807325477 0.07493090074551316 0 0.064438910025440041 0.070150044274061824 0 0.054197203807325477 0.07493090074551316 0 0.054197203807325477 0.07493090074551316 0 0.059082697605308501 0.09254667600021238 0 0.051083134970198889 0.0928708141641853 0 0.071373536185024719 0.099173322829151186 0 0.054197203807325477 0.07493090074551316 0 0.059082697605308501 0.09254667600021238 0 0.054197203807325477 0.07493090074551316 0 0.051083134970198889 0.0928708141641853 0 0.030621445121801701 0.085936129374480696 0 0.054197203807325477 0.07493090074551316 0 0.030621445121801701 0.085936129374480696 0 0.04443789704911541 0.061156759184100802 0 0.054197203807325477 0.07493090074551316 0 0.029381206328017221 0.06838532514141081 0 0.054197203807325477 0.07493090074551316 0 0.029381206328017221 0.06838532514141081 0 0.030621445121801701 0.085936129374480696 0 0.029381206328017221 0.06838532514141081 0 0.030621445121801701 0.085936129374480696 0 0.013981847524735479 0.078485483145892765 0 0.012617195298657281 0.059607111133958168 0 0.029381206328017221 0.06838532514141081 0 0.013981847524735479 0.078485483145892765 0 0.030621445121801701 0.085936129374480696 0 0.0070456864362777871 0.096941358003447997 0 0.030621445121801701 0.085936129374480696 0 0.013981847524735479 0.078485483145892765 0 0.0070456864362777871 0.096941358003447997 0 -0.002106593624599733 0.075623895703576055 0 0.013981847524735479 0.078485483145892765 0 0.0070456864362777871 0.096941358003447997 0 -0.002106593624599733 0.075623895703576055 0 0.012617195298657281 0.059607111133958168 0 0.013981847524735479 0.078485483145892765 0 0.044174513486828867 0.1223111232749841 0 0.020617963936105571 0.12064993975889821 0 0.027549374147653981 0.10581479903928841 0 0.020617963936105571 0.12064993975889821 0 0.027549374147653981 0.10581479903928841 0 0.0083217158532172177 0.11398207802005381 0 0.030621445121801701 0.085936129374480696 0 0.027549374147653981 0.10581479903928841 0 0.0070456864362777871 0.096941358003447997 0 -0.0044579412658281537 0.1123993947185177 0 0.0070456864362777871 0.096941358003447997 0 0.0083217158532172177 0.11398207802005381 0 0.027549374147653981 0.10581479903928841 0 0.0070456864362777871 0.096941358003447997 0 0.0083217158532172177 0.11398207802005381 0 0.020617963936105571 0.12064993975889821 0 0.0083217158532172177 0.11398207802005381 0 0.0047513859406603347 0.1272171198088938 0 -0.0055984101847089129 0.1222972176340285 0 0.0083217158532172177 0.11398207802005381 0 0.0047513859406603347 0.1272171198088938 0 0.020617963936105571 0.12064993975889821 0 0.0047513859406603347 0.1272171198088938 0 0.014031762798602189 0.13644872803705779 0 0.0047513859406603347 0.1272171198088938 0 0.00033521274698525158 0.13845541673203701 0 0.014031762798602189 0.13644872803705779 0 0.044174513486828867 0.1223111232749841 0 0.020617963936105571 0.12064993975889821 0 0.028539432226941219 0.13355100176445961 0 0.020617963936105571 0.12064993975889821 0 0.014031762798602189 0.13644872803705779 0 0.028539432226941219 0.13355100176445961 0 0.014031762798602189 0.13644872803705779 0 0.028539432226941219 0.13355100176445961 0 0.024263135716962519 0.14787845835274269 0 0.024263135716962519 0.14787845835274269 0 0.0068472326737308272 0.15183309448443119 0 0.023119336391375121 0.1630999636518653 0 0.028539432226941219 0.13355100176445961 0 0.024263135716962519 0.14787845835274269 0 0.039609785196206927 0.14046675939861511 0 0.014031762798602189 0.13644872803705779 0 0.024263135716962519 0.14787845835274269 0 0.0068472326737308272 0.15183309448443119 0 -0.0056204510799411547 0.14817492447379249 0 0.00033521274698525158 0.13845541673203701 0 0.0068472326737308272 0.15183309448443119 0 0.00033521274698525158 0.13845541673203701 0 0.014031762798602189 0.13644872803705779 0 0.0068472326737308272 0.15183309448443119 0 -0.0039733855864782074 0.1637937706082617 0 0.0068472326737308272 0.15183309448443119 0 0.0099818289005933793 0.17073085939938781 0 0.0068472326737308272 0.15183309448443119 0 0.0099818289005933793 0.17073085939938781 0 0.023119336391375121 0.1630999636518653 0 -0.0045117064423390776 0.1805743030453402 0 -0.0039733855864782074 0.1637937706082617 0 0.0099818289005933793 0.17073085939938781 0 0.0099818289005933793 0.17073085939938781 0 0.0078648789224190444 0.1852540968458023 0 0.023753963854589361 0.18177495820481229 0 -0.0017268225860665701 0.1958084983890383 0 -0.0045117064423390776 0.1805743030453402 0 0.0078648789224190444 0.1852540968458023 0 -0.0045117064423390776 0.1805743030453402 0 0.0099818289005933793 0.17073085939938781 0 0.0078648789224190444 0.1852540968458023 0 0.0099818289005933793 0.17073085939938781 0 0.023753963854589361 0.18177495820481229 0 0.023119336391375121 0.1630999636518653 0 0.024263135716962519 0.14787845835274269 0 0.023119336391375121 0.1630999636518653 0 0.040512691546808088 0.16311805457851791 0 0.023753963854589361 0.18177495820481229 0 0.023119336391375121 0.1630999636518653 0 0.040512691546808088 0.16311805457851791 0 0.023753963854589361 0.18177495820481229 0 0.040512691546808088 0.16311805457851791 0 0.041194542864699167 0.18777677546342869 0 0.040512691546808088 0.16311805457851791 0 0.059999203941348389 0.16904622265702671 0 0.041194542864699167 0.18777677546342869 0 0.059999203941348389 0.16904622265702671 0 0.041194542864699167 0.18777677546342869 0 0.070413710946943056 0.1878833341857615 0 0.040512691546808088 0.16311805457851791 0 0.059999203941348389 0.16904622265702671 0 0.057137840193285661 0.14399027264901601 0 0.063679586197551416 0.12439209852408439 0 0.044174513486828867 0.1223111232749841 0 0.057137840193285661 0.14399027264901601 0 0.044174513486828867 0.1223111232749841 0 0.057137840193285661 0.14399027264901601 0 0.039609785196206927 0.14046675939861511 0 0.044174513486828867 0.1223111232749841 0 0.028539432226941219 0.13355100176445961 0 0.039609785196206927 0.14046675939861511 0 0.024263135716962519 0.14787845835274269 0 0.040512691546808088 0.16311805457851791 0 0.039609785196206927 0.14046675939861511 0 0.040512691546808088 0.16311805457851791 0 0.057137840193285661 0.14399027264901601 0 0.039609785196206927 0.14046675939861511 0 0.020076080794722961 0.24158369656263581 0 0.029581893179521829 0.22287353057564141 0 0.04338863777594297 0.2403754752039193 0 0.020076080794722961 0.24158369656263581 0 0.0033175730282707641 0.2445665149317956 0 0.010073957389305501 0.23670694243228721 0 0.020076080794722961 0.24158369656263581 0 0.0033175730282707641 0.2445665149317956 0 0.01164717701069515 0.25660482424707032 0 0.0033175730282707641 0.2445665149317956 0 0.010073957389305501 0.23670694243228721 0 0.0023605519309739661 0.23153609740817091 0 0.020076080794722961 0.24158369656263581 0 0.010073957389305501 0.23670694243228721 0 0.01213643617823161 0.22618705529207381 0 0.010073957389305501 0.23670694243228721 0 0.0023605519309739661 0.23153609740817091 0 0.01213643617823161 0.22618705529207381 0 0.0023605519309739661 0.23153609740817091 0 0.0016866797870339169 0.2215053963457789 0 0.01213643617823161 0.22618705529207381 0 0.0016866797870339169 0.2215053963457789 0 0.01213643617823161 0.22618705529207381 0 0.0043447518150483769 0.2113480513770564 0 0.01213643617823161 0.22618705529207381 0 0.029581893179521829 0.22287353057564141 0 0.017632039208929199 0.2137149095872449 0 0.020076080794722961 0.24158369656263581 0 0.01213643617823161 0.22618705529207381 0 0.029581893179521829 0.22287353057564141 0 0.029581893179521829 0.22287353057564141 0 0.02871933651781149 0.20347854727255901 0 0.017632039208929199 0.2137149095872449 0 0.02871933651781149 0.20347854727255901 0 0.017632039208929199 0.2137149095872449 0 0.013417669393928 0.19952272793532361 0 0.01213643617823161 0.22618705529207381 0 0.017632039208929199 0.2137149095872449 0 0.0043447518150483769 0.2113480513770564 0 -0.0031225321877091971 0.21464252667539141 0 0.0016866797870339169 0.2215053963457789 0 0.0043447518150483769 0.2113480513770564 0 0.017632039208929199 0.2137149095872449 0 0.0043447518150483769 0.2113480513770564 0 0.013417669393928 0.19952272793532361 0 0.0078648789224190444 0.1852540968458023 0 0.023753963854589361 0.18177495820481229 0 0.013417669393928 0.19952272793532361 0 -0.0017268225860665701 0.1958084983890383 0 0.0043447518150483769 0.2113480513770564 0 0.013417669393928 0.19952272793532361 0 -0.0017268225860665701 0.1958084983890383 0 0.0078648789224190444 0.1852540968458023 0 0.013417669393928 0.19952272793532361 0 0.023753963854589361 0.18177495820481229 0 0.02871933651781149 0.20347854727255901 0 0.013417669393928 0.19952272793532361 0 0.023753963854589361 0.18177495820481229 0 0.02871933651781149 0.20347854727255901 0 0.041194542864699167 0.18777677546342869 0 0.02871933651781149 0.20347854727255901 0 0.041194542864699167 0.18777677546342869 0 0.047648428140607241 0.2093261437144654 0 0.041194542864699167 0.18777677546342869 0 0.070413710946943056 0.1878833341857615 0 0.041194542864699167 0.18777677546342869 0 0.047648428140607241 0.2093261437144654 0 0.070413710946943056 0.1878833341857615 0 0.047648428140607241 0.2093261437144654 0 0.062586815681600794 0.22783863877045871 0 0.072015584812546579 0.2083535184397248 0 0.029581893179521829 0.22287353057564141 0 0.02871933651781149 0.20347854727255901 0 0.047648428140607241 0.2093261437144654 0 0.029581893179521829 0.22287353057564141 0 0.045801443694418201 0.2251034470661212 0 0.04338863777594297 0.2403754752039193 0 0.029581893179521829 0.22287353057564141 0 0.047648428140607241 0.2093261437144654 0 0.045801443694418201 0.2251034470661212 0 0.045801443694418201 0.2251034470661212 0 0.04338863777594297 0.2403754752039193 0 0.062586815681600794 0.22783863877045871 0 0.047648428140607241 0.2093261437144654 0 0.045801443694418201 0.2251034470661212 0 0.062586815681600794 0.22783863877045871 0 0.062165487909077548 0.24803933384970869 0 0.04338863777594297 0.2403754752039193 0 0.050871755800454332 0.25902773905465898 0 0.062165487909077548 0.24803933384970869 0 0.04338863777594297 0.2403754752039193 0 0.062586815681600794 0.22783863877045871 0 0.020076080794722961 0.24158369656263581 0 0.04338863777594297 0.2403754752039193 0 0.037771473829277202 0.2553436681161233 0 0.062165487909077548 0.24803933384970869 0 0.087033814489476558 0.24527275296806711 0 0.062586815681600794 0.22783863877045871 0 0.087033814489476558 0.24527275296806711 0 0.093333346759332025 0.21663132293808091 0 0.087033814489476558 0.24527275296806711 0 0.093333346759332025 0.21663132293808091 0 0.1001632600998882 0.2359694517657217 0 0.087033814489476558 0.24527275296806711 0 0.062586815681600794 0.22783863877045871 0 0.093333346759332025 0.21663132293808091 0 0.093333346759332025 0.21663132293808091 0 0.072015584812546579 0.2083535184397248 0 0.083848880387002098 0.20021451711791541 0 0.062586815681600794 0.22783863877045871 0 0.093333346759332025 0.21663132293808091 0 0.072015584812546579 0.2083535184397248 0 0.047648428140607241 0.2093261437144654 0 0.072015584812546579 0.2083535184397248 0 0.070413710946943056 0.1878833341857615 0 0.072015584812546579 0.2083535184397248 0 0.070413710946943056 0.1878833341857615 0 0.083848880387002098 0.20021451711791541 0 0.093333346759332025 0.21663132293808091 0 0.083848880387002098 0.20021451711791541 0 0.099632879029186772 0.18798989290809451 0 0.070413710946943056 0.1878833341857615 0 0.099632879029186772 0.18798989290809451 0 0.070413710946943056 0.1878833341857615 0 0.083848880387002098 0.20021451711791541 0 0.099632879029186772 0.18798989290809451 0 0.093333346759332025 0.21663132293808091 0 0.099632879029186772 0.18798989290809451 0 0.1095675390725116 0.20274254806582759 0 0.093333346759332025 0.21663132293808091 0 0.099632879029186772 0.18798989290809451 0 0.099632879029186772 0.18798989290809451 0 0.11491338338036319 0.18804561903334471 0 0.1095675390725116 0.20274254806582759 0 0.099632879029186772 0.18798989290809451 0 0.11491338338036319 0.18804561903334471 0 0.11491338338036319 0.18804561903334471 0 0.12178670707700121 0.2006917279043835 0 0.13019388773153959 0.18810134515859489 0 0.11491338338036319 0.18804561903334471 0 0.13019388773153959 0.18810134515859489 0 0.11491338338036319 0.18804561903334471 0 0.12178670707700121 0.2006917279043835 0 0.1095675390725116 0.20274254806582759 0 0.1095675390725116 0.20274254806582759 0 0.12104525650058939 0.21026954435257311 0 0.1115986293400424 0.21545374970429479 0 0.12178670707700121 0.2006917279043835 0 0.1095675390725116 0.20274254806582759 0 0.12104525650058939 0.21026954435257311 0 0.12178670707700121 0.2006917279043835 0 0.12104525650058939 0.21026954435257311 0 0.13055791745024031 0.21079088596532949 0 0.12104525650058939 0.21026954435257311 0 0.1115986293400424 0.21545374970429479 0 0.12472375924046281 0.2231925074923542 0 0.093333346759332025 0.21663132293808091 0 0.1095675390725116 0.20274254806582759 0 0.1115986293400424 0.21545374970429479 0 0.093333346759332025 0.21663132293808091 0 0.1124281716445388 0.22852867049984971 0 0.1001632600998882 0.2359694517657217 0 0.093333346759332025 0.21663132293808091 0 0.1115986293400424 0.21545374970429479 0 0.1124281716445388 0.22852867049984971 0 0.1115986293400424 0.21545374970429479 0 0.12472375924046281 0.2231925074923542 0 0.1124281716445388 0.22852867049984971 0 0.12472375924046281 0.2231925074923542 0 0.1124281716445388 0.22852867049984971 0 0.1244058537741223 0.24095674006690179 0 0.1124281716445388 0.22852867049984971 0 0.1078577075062053 0.25344506065688938 0 0.1124281716445388 0.22852867049984971 0 0.1244058537741223 0.24095674006690179 0 0.1078577075062053 0.25344506065688938 0 0.1244058537741223 0.24095674006690179 0 0.1078577075062053 0.25344506065688938 0 0.087033814489476558 0.24527275296806711 0 0.1001632600998882 0.2359694517657217 0 0.1078577075062053 0.25344506065688938 0 0.1124281716445388 0.22852867049984971 0 0.1001632600998882 0.2359694517657217 0 0.1078577075062053 0.25344506065688938 0 0.089065253078182471 0.1379919546135831 0 0.075676090406059285 0.13573080804258539 0 0.074982048856785027 0.15271479336732541 0 0.074982048856785027 0.15271479336732541 0 0.090440805288821105 0.16347653336483639 0 0.094699347818070406 0.15069400509770711 0 0.089065253078182471 0.1379919546135831 0 0.074982048856785027 0.15271479336732541 0 0.094699347818070406 0.15069400509770711 0 0.088549868562722706 0.1234157449127901 0 0.089065253078182471 0.1379919546135831 0 0.081786378888137778 0.12923185852654259 0 0.089065253078182471 0.1379919546135831 0 0.081786378888137778 0.12923185852654259 0 0.075676090406059285 0.13573080804258539 0 0.063679586197551416 0.12439209852408439 0 0.057137840193285661 0.14399027264901601 0 0.075676090406059285 0.13573080804258539 0 0.074350984835973064 0.1247977976612214 0 0.063679586197551416 0.12439209852408439 0 0.075676090406059285 0.13573080804258539 0 0.074350984835973064 0.1247977976612214 0 0.081786378888137778 0.12923185852654259 0 0.075676090406059285 0.13573080804258539 0 0.057137840193285661 0.14399027264901601 0 0.075676090406059285 0.13573080804258539 0 0.074982048856785027 0.15271479336732541 0 0.059999203941348389 0.16904622265702671 0 0.057137840193285661 0.14399027264901601 0 0.074982048856785027 0.15271479336732541 0 0.059999203941348389 0.16904622265702671 0 0.074982048856785027 0.15271479336732541 0 0.075198785391252687 0.1692331442302076 0 0.070413710946943056 0.1878833341857615 0 0.075198785391252687 0.1692331442302076 0 0.087728045389236287 0.17629455817190251 0 0.059999203941348389 0.16904622265702671 0 0.070413710946943056 0.1878833341857615 0 0.075198785391252687 0.1692331442302076 0 0.070413710946943056 0.1878833341857615 0 0.099632879029186772 0.18798989290809451 0 0.087728045389236287 0.17629455817190251 0 0.074982048856785027 0.15271479336732541 0 0.075198785391252687 0.1692331442302076 0 0.090440805288821105 0.16347653336483639 0 0.075198785391252687 0.1692331442302076 0 0.087728045389236287 0.17629455817190251 0 0.090440805288821105 0.16347653336483639 0 0.087728045389236287 0.17629455817190251 0 0.090440805288821105 0.16347653336483639 0 0.1029540462899778 0.17288988617061229 0 0.090440805288821105 0.16347653336483639 0 0.10627521355076799 0.15778987943312989 0 0.094699347818070406 0.15069400509770711 0 0.090440805288821105 0.16347653336483639 0 0.10627521355076799 0.15778987943312989 0 0.1029540462899778 0.17288988617061229 0 0.10627521355076799 0.15778987943312989 0 0.1029540462899778 0.17288988617061229 0 0.1170428921903201 0.16451108498168809 0 0.10627521355076799 0.15778987943312989 0 0.1029540462899778 0.17288988617061229 0 0.099632879029186772 0.18798989290809451 0 0.1029540462899778 0.17288988617061229 0 0.099632879029186772 0.18798989290809451 0 0.087728045389236287 0.17629455817190251 0 0.1029540462899778 0.17288988617061229 0 0.099632879029186772 0.18798989290809451 0 0.1029540462899778 0.17288988617061229 0 0.1136693389809703 0.17826507769729921 0 0.11491338338036319 0.18804561903334471 0 0.1136693389809703 0.17826507769729921 0 0.13019388773153959 0.18810134515859489 0 0.1136693389809703 0.17826507769729921 0 0.1170428921903201 0.16451108498168809 0 0.13019388773153959 0.18810134515859489 0 0.1170428921903201 0.16451108498168809 0 0.13019388773153959 0.18810134515859489 0 0.099632879029186772 0.18798989290809451 0 0.11491338338036319 0.18804561903334471 0 0.1136693389809703 0.17826507769729921 0 0.1029540462899778 0.17288988617061229 0 0.1136693389809703 0.17826507769729921 0 0.1170428921903201 0.16451108498168809 0 0.1170428921903201 0.16451108498168809 0 0.1038918966491003 0.1409208248047813 0 0.1170428921903201 0.16451108498168809 0 0.12344069173313429 0.14300730699203379 0 0.1038918966491003 0.1409208248047813 0 0.10627521355076799 0.15778987943312989 0 0.1170428921903201 0.16451108498168809 0 0.1038918966491003 0.1409208248047813 0 0.10627521355076799 0.15778987943312989 0 0.1038918966491003 0.1409208248047813 0 0.094699347818070406 0.15069400509770711 0 0.089065253078182471 0.1379919546135831 0 0.1038918966491003 0.1409208248047813 0 0.094699347818070406 0.15069400509770711 0 0.090740901107880592 0.1173305646278746 0 0.088549868562722706 0.1234157449127901 0 0.1038918966491003 0.1409208248047813 0 0.090740901107880592 0.1173305646278746 0 0.1038918966491003 0.1409208248047813 0 0.088549868562722706 0.1234157449127901 0 0.089065253078182471 0.1379919546135831 0 0.1038918966491003 0.1409208248047813 0 0.1187755615695042 0.1246468220819736 0 0.090740901107880592 0.1173305646278746 0 0.1038918966491003 0.1409208248047813 0 0.1187755615695042 0.1246468220819736 0 0.12344069173313429 0.14300730699203379 0 0.1038918966491003 0.1409208248047813 0 0.1187755615695042 0.1246468220819736 0 0.1364680557013368 0.13359188679056361 0 0.14594696997250589 0.1172644682927087 0 0.1187755615695042 0.1246468220819736 0 0.12344069173313429 0.14300730699203379 0 0.1364680557013368 0.13359188679056361 0 0.1364680557013368 0.13359188679056361 0 0.15289021047869911 0.13490502766185 0 0.1410250525554099 0.15136591630116261 0 0.1364680557013368 0.13359188679056361 0 0.15289021047869911 0.13490502766185 0 0.14594696997250589 0.1172644682927087 0 0.15289021047869911 0.13490502766185 0 0.1410250525554099 0.15136591630116261 0 0.16062274440417981 0.15225868881744889 0 0.1170428921903201 0.16451108498168809 0 0.12344069173313429 0.14300730699203379 0 0.1410250525554099 0.15136591630116261 0 0.12344069173313429 0.14300730699203379 0 0.1364680557013368 0.13359188679056361 0 0.1410250525554099 0.15136591630116261 0 0.1170428921903201 0.16451108498168809 0 0.1410250525554099 0.15136591630116261 0 0.14016541719430001 0.17097821506686731 0 0.1170428921903201 0.16451108498168809 0 0.14016541719430001 0.17097821506686731 0 0.13019388773153959 0.18810134515859489 0 0.14016541719430001 0.17097821506686731 0 0.13019388773153959 0.18810134515859489 0 0.15315368078978389 0.18818507670791321 0 0.14016541719430001 0.17097821506686731 0 0.1554966463402184 0.1677689700230402 0 0.15315368078978389 0.18818507670791321 0 0.1410250525554099 0.15136591630116261 0 0.1554966463402184 0.1677689700230402 0 0.16062274440417981 0.15225868881744889 0 0.1410250525554099 0.15136591630116261 0 0.14016541719430001 0.17097821506686731 0 0.1554966463402184 0.1677689700230402 0 0.1554966463402184 0.1677689700230402 0 0.1715496184115724 0.17355705984611269 0 0.16062274440417981 0.15225868881744889 0 0.1715496184115724 0.17355705984611269 0 0.1790033306571564 0.15265981920314259 0 0.16062274440417981 0.15225868881744889 0 0.1554966463402184 0.1677689700230402 0 0.1715496184115724 0.17355705984611269 0 0.15315368078978389 0.18818507670791321 0 0.1715496184115724 0.17355705984611269 0 0.15315368078978389 0.18818507670791321 0 0.1695099908557258 0.19298386450101421 0 0.1715496184115724 0.17355705984611269 0 0.1695099908557258 0.19298386450101421 0 0.19220559016424779 0.19459898893465741 0 0.1715496184115724 0.17355705984611269 0 0.19220559016424779 0.19459898893465741 0 0.1912956469769104 0.1662463717443029 0 0.1715496184115724 0.17355705984611269 0 0.1790033306571564 0.15265981920314259 0 0.1912956469769104 0.1662463717443029 0 0.1790033306571564 0.15265981920314259 0 0.18505791627332691 0.13745709786296589 0 0.16985555033346841 0.1360404728396449 0 0.1790033306571564 0.15265981920314259 0 0.18505791627332691 0.13745709786296589 0 0.1968294919344992 0.1473458339638406 0 0.18505791627332691 0.13745709786296589 0 0.18888584492909041 0.1216849889577242 0 0.1770732003508288 0.1249175567656421 0 0.18505791627332691 0.13745709786296589 0 0.16985555033346841 0.1360404728396449 0 0.1770732003508288 0.1249175567656421 0 0.16985555033346841 0.1360404728396449 0 0.1634228899052938 0.1189087329295713 0 0.1770732003508288 0.1249175567656421 0 0.15289021047869911 0.13490502766185 0 0.16985555033346841 0.1360404728396449 0 0.1634228899052938 0.1189087329295713 0 0.15289021047869911 0.13490502766185 0 0.16985555033346841 0.1360404728396449 0 0.16062274440417981 0.15225868881744889 0 0.1790033306571564 0.15265981920314259 0 0.16985555033346841 0.1360404728396449 0 0.16062274440417981 0.15225868881744889 0 0.1375354717924622 0.24144830538913781 0 0.15909390048808211 0.23994219765572231 0 0.14207266941067731 0.25429494532217828 0 0.1375354717924622 0.24144830538913781 0 0.14095400004203809 0.22846841947691271 0 0.15909390048808211 0.23994219765572231 0 0.1244058537741223 0.24095674006690179 0 0.14095400004203809 0.22846841947691271 0 0.1244058537741223 0.24095674006690179 0 0.1375354717924622 0.24144830538913781 0 0.14095400004203809 0.22846841947691271 0 0.1244058537741223 0.24095674006690179 0 0.1375354717924622 0.24144830538913781 0 0.1270353610302927 0.2556630655402955 0 0.12472375924046281 0.2231925074923542 0 0.1244058537741223 0.24095674006690179 0 0.14095400004203809 0.22846841947691271 0 0.12472375924046281 0.2231925074923542 0 0.14095400004203809 0.22846841947691271 0 0.13055791745024031 0.21079088596532949 0 0.14464389410981099 0.2140217714071585 0 0.15909390048808211 0.23994219765572231 0 0.14464389410981099 0.2140217714071585 0 0.16177743177038989 0.21988737161737071 0 0.15909390048808211 0.23994219765572231 0 0.14095400004203809 0.22846841947691271 0 0.14464389410981099 0.2140217714071585 0 0.15909390048808211 0.23994219765572231 0 0.14464389410981099 0.2140217714071585 0 0.15544960180065459 0.20299212886235621 0 0.16177743177038989 0.21988737161737071 0 0.14464389410981099 0.2140217714071585 0 0.13055791745024031 0.21079088596532949 0 0.13019388773153959 0.18810134515859489 0 0.14095400004203809 0.22846841947691271 0 0.14464389410981099 0.2140217714071585 0 0.13055791745024031 0.21079088596532949 0 0.12104525650058939 0.21026954435257311 0 0.12472375924046281 0.2231925074923542 0 0.13055791745024031 0.21079088596532949 0 0.14464389410981099 0.2140217714071585 0 0.13019388773153959 0.18810134515859489 0 0.12178670707700121 0.2006917279043835 0 0.13055791745024031 0.21079088596532949 0 0.13019388773153959 0.18810134515859489 0 0.13019388773153959 0.18810134515859489 0 0.15544960180065459 0.20299212886235621 0 0.15315368078978389 0.18818507670791321 0 0.14464389410981099 0.2140217714071585 0 0.13019388773153959 0.18810134515859489 0 0.15544960180065459 0.20299212886235621 0 0.13019388773153959 0.18810134515859489 0 0.15315368078978389 0.18818507670791321 0 0.15544960180065459 0.20299212886235621 0 0.1695099908557258 0.19298386450101421 0 0.17327674720514491 0.21014151023779579 0 0.15544960180065459 0.20299212886235621 0 0.15315368078978389 0.18818507670791321 0 0.1695099908557258 0.19298386450101421 0 0.1695099908557258 0.19298386450101421 0 0.17327674720514491 0.21014151023779579 0 0.19220559016424779 0.19459898893465741 0 0.17327674720514491 0.21014151023779579 0 0.19311553335158529 0.22295160612501211 0 0.19220559016424779 0.19459898893465741 0 0.15544960180065459 0.20299212886235621 0 0.17327674720514491 0.21014151023779579 0 0.16177743177038989 0.21988737161737071 0 0.1764146878774368 0.2320675817589202 0 0.15909390048808211 0.23994219765572231 0 0.1735439068663534 0.26586262390428622 0 0.1764146878774368 0.2320675817589202 0 0.1735439068663534 0.26586262390428622 0 0.19402547653892269 0.2513042233153665 0 0.17327674720514491 0.21014151023779579 0 0.16177743177038989 0.21988737161737071 0 0.1764146878774368 0.2320675817589202 0 0.16177743177038989 0.21988737161737071 0 0.1764146878774368 0.2320675817589202 0 0.15909390048808211 0.23994219765572231 0 0.17327674720514491 0.21014151023779579 0 0.1764146878774368 0.2320675817589202 0 0.19311553335158529 0.22295160612501211 0 0.19311553335158529 0.22295160612501211 0 0.22401105288474299 0.24617677621174849 0 0.19402547653892269 0.2513042233153665 0 0.1764146878774368 0.2320675817589202 0 0.19311553335158529 0.22295160612501211 0 0.19402547653892269 0.2513042233153665 0 0.19311553335158529 0.22295160612501211 0 0.19402547653892269 0.2513042233153665 0 0.19311553335158529 0.22295160612501211 0 0.22332485650337891 0.2205189021694211 0 0.22401105288474299 0.24617677621174849 0 0.19311553335158529 0.22295160612501211 0 0.21333368288211141 0.2006628738759938 0 0.22332485650337891 0.2205189021694211 0 0.19311553335158529 0.22295160612501211 0 0.19220559016424779 0.19459898893465741 0 0.19311553335158529 0.22295160612501211 0 0.19220559016424779 0.19459898893465741 0 0.21333368288211141 0.2006628738759938 0 0.19220559016424779 0.19459898893465741 0 0.21333368288211141 0.2006628738759938 0 0.2062221217666706 0.17044381244393089 0 0.21333368288211141 0.2006628738759938 0 0.2427227817794633 0.20177562190038109 0 0.2269243115200815 0.1842716088828707 0 0.2427227817794633 0.20177562190038109 0 0.22332485650337891 0.2205189021694211 0 0.24230552140110909 0.22847110245847219 0 0.2427227817794633 0.20177562190038109 0 0.24230552140110909 0.22847110245847219 0 0.26077586184912571 0.219104546493612 0 0.21333368288211141 0.2006628738759938 0 0.2427227817794633 0.20177562190038109 0 0.22332485650337891 0.2205189021694211 0 0.22332485650337891 0.2205189021694211 0 0.24230552140110909 0.22847110245847219 0 0.22401105288474299 0.24617677621174849 0 0.24230552140110909 0.22847110245847219 0 0.22401105288474299 0.24617677621174849 0 0.25494958077958341 0.24704778346759729 0 0.21461404324301911 0.13888302716706169 0 0.22039394361161721 0.16019381213818309 0 0.21461404324301911 0.13888302716706169 0 0.20652366865497179 0.15707167749037301 0 0.22039394361161721 0.16019381213818309 0 0.21461404324301911 0.13888302716706169 0 0.1968294919344992 0.1473458339638406 0 0.20652366865497179 0.15707167749037301 0 0.21461404324301911 0.13888302716706169 0 0.200757779173214 0.13026155059779759 0 0.1968294919344992 0.1473458339638406 0 0.21461404324301911 0.13888302716706169 0 0.200757779173214 0.13026155059779759 0 0.20883414287442209 0.11757224219593999 0 0.21461404324301911 0.13888302716706169 0 0.2296235972734946 0.1233729401618541 0 0.20883414287442209 0.11757224219593999 0 0.21461404324301911 0.13888302716706169 0 0.20883414287442209 0.11757224219593999 0 0.18505791627332691 0.13745709786296589 0 0.200757779173214 0.13026155059779759 0 0.1968294919344992 0.1473458339638406 0 0.18505791627332691 0.13745709786296589 0 0.200757779173214 0.13026155059779759 0 0.18888584492909041 0.1216849889577242 0 0.1790033306571564 0.15265981920314259 0 0.1968294919344992 0.1473458339638406 0 0.1912956469769104 0.1662463717443029 0 0.1968294919344992 0.1473458339638406 0 0.1912956469769104 0.1662463717443029 0 0.20652366865497179 0.15707167749037301 0 0.1912956469769104 0.1662463717443029 0 0.20652366865497179 0.15707167749037301 0 0.2062221217666706 0.17044381244393089 0 0.19220559016424779 0.19459898893465741 0 0.1912956469769104 0.1662463717443029 0 0.2062221217666706 0.17044381244393089 0 0.19220559016424779 0.19459898893465741 0 0.1912956469769104 0.1662463717443029 0 0.21333368288211141 0.2006628738759938 0 0.2062221217666706 0.17044381244393089 0 0.2269243115200815 0.1842716088828707 0 0.2062221217666706 0.17044381244393089 0 0.22039394361161721 0.16019381213818309 0 0.2269243115200815 0.1842716088828707 0 0.2062221217666706 0.17044381244393089 0 0.22039394361161721 0.16019381213818309 0 0.20652366865497179 0.15707167749037301 0 0.2062221217666706 0.17044381244393089 0 0.22039394361161721 0.16019381213818309 0 0.22039394361161721 0.16019381213818309 0 0.2269243115200815 0.1842716088828707 0 0.22039394361161721 0.16019381213818309 0 0.2269243115200815 0.1842716088828707 0 0.24671787672033679 0.17140241891229779 0 0.2427227817794633 0.20177562190038109 0 0.2269243115200815 0.1842716088828707 0 0.24671787672033679 0.17140241891229779 0 0.22039394361161721 0.16019381213818309 0 0.24671787672033679 0.17140241891229779 0 0.2374484765168178 0.1478588442416589 0 0.24671787672033679 0.17140241891229779 0 0.2374484765168178 0.1478588442416589 0 0.2546600769419563 0.15369846568165929 0 0.2374484765168178 0.1478588442416589 0 0.25450300942201809 0.13552387634513441 0 0.2546600769419563 0.15369846568165929 0 0.2374484765168178 0.1478588442416589 0 0.25450300942201809 0.13552387634513441 0 0.21461404324301911 0.13888302716706169 0 0.22039394361161721 0.16019381213818309 0 0.2374484765168178 0.1478588442416589 0 0.22039394361161721 0.16019381213818309 0 0.2374484765168178 0.1478588442416589 0 0.21461404324301911 0.13888302716706169 0 0.2374484765168178 0.1478588442416589 0 0.2296235972734946 0.1233729401618541 0 0.2374484765168178 0.1478588442416589 0 0.2296235972734946 0.1233729401618541 0 0.25450300942201809 0.13552387634513441 0 0.23530931976123409 0.1025517473311038 0 0.2296235972734946 0.1233729401618541 0 0.25349222478081151 0.1150387732394654 0 0.2296235972734946 0.1233729401618541 0 0.25349222478081151 0.1150387732394654 0 0.25450300942201809 0.13552387634513441 0 0.23530931976123409 0.1025517473311038 0 0.26052139092797749 0.096953701358618999 0 0.25349222478081151 0.1150387732394654 0 0.23530931976123409 0.1025517473311038 0 0.24647214423466929 0.089125374252427669 0 0.26052139092797749 0.096953701358618999 0 0.23530931976123409 0.1025517473311038 0 0.26052139092797749 0.096953701358618999 0 0.23530931976123409 0.1025517473311038 0 0.22092407588471399 0.114397045769217 0 0.2100972485944908 0.1081497933035885 0 0.23530931976123409 0.1025517473311038 0 0.2100972485944908 0.1081497933035885 0 0.23530931976123409 0.1025517473311038 0 0.21566477972426129 0.096821009401716604 0 0.22158464232153219 0.085672288649733058 0 0.23530931976123409 0.1025517473311038 0 0.21566477972426129 0.096821009401716604 0 0.2100972485944908 0.1081497933035885 0 0.23530931976123409 0.1025517473311038 0 0.2296235972734946 0.1233729401618541 0 0.22092407588471399 0.114397045769217 0 0.2296235972734946 0.1233729401618541 0 0.22092407588471399 0.114397045769217 0 0.20883414287442209 0.11757224219593999 0 0.22092407588471399 0.114397045769217 0 0.20883414287442209 0.11757224219593999 0 0.2100972485944908 0.1081497933035885 0 0.20883414287442209 0.11757224219593999 0 0.19760290382569479 0.10498138278013849 0 0.2030542425058236 0.096261457224818867 0 0.20883414287442209 0.11757224219593999 0 0.2030542425058236 0.096261457224818867 0 0.20883414287442209 0.11757224219593999 0 0.2100972485944908 0.1081497933035885 0 0.2030542425058236 0.096261457224818867 0 0.21566477972426129 0.096821009401716604 0 0.2100972485944908 0.1081497933035885 0 0.2030542425058236 0.096261457224818867 0 0.2030542425058236 0.096261457224818867 0 0.1931530019492729 0.093963625240618714 0 0.19286471072063449 0.10208424954703681 0 0.19760290382569479 0.10498138278013849 0 0.2030542425058236 0.096261457224818867 0 0.19286471072063449 0.10208424954703681 0 0.2030542425058236 0.096261457224818867 0 0.19286471072063449 0.10208424954703681 0 0.19760290382569479 0.10498138278013849 0 0.19286471072063449 0.10208424954703681 0 0.19055923746725609 0.111431962539821 0 0.19760290382569479 0.10498138278013849 0 0.19286471072063449 0.10208424954703681 0 0.19055923746725609 0.111431962539821 0 0.18888584492909041 0.1216849889577242 0 0.1982694477427307 0.116479391851322 0 0.200757779173214 0.13026155059779759 0 0.20883414287442209 0.11757224219593999 0 0.1982694477427307 0.116479391851322 0 0.200757779173214 0.13026155059779759 0 0.18888584492909041 0.1216849889577242 0 0.1982694477427307 0.116479391851322 0 0.20883414287442209 0.11757224219593999 0 0.19760290382569479 0.10498138278013849 0 0.1982694477427307 0.116479391851322 0 0.19760290382569479 0.10498138278013849 0 0.19055923746725609 0.111431962539821 0 0.1982694477427307 0.116479391851322 0 0.1980179181718342 0.077692274698860864 0 0.2060923463310402 0.050686290424411529 0 0.1980179181718342 0.077692274698860864 0 0.19028224276572189 0.049170448253216897 0 0.1779360825899394 0.067831461804112106 0 0.1980179181718342 0.077692274698860864 0 0.19028224276572189 0.049170448253216897 0 0.2030542425058236 0.096261457224818867 0 0.1931530019492729 0.093963625240618714 0 0.1980179181718342 0.077692274698860864 0 0.1931530019492729 0.093963625240618714 0 0.1980179181718342 0.077692274698860864 0 0.18353926487454431 0.082226298697452488 0 0.1931530019492729 0.093963625240618714 0 0.1980179181718342 0.077692274698860864 0 0.2030542425058236 0.096261457224818867 0 0.1980179181718342 0.077692274698860864 0 0.2030542425058236 0.096261457224818867 0 0.1980179181718342 0.077692274698860864 0 0.20827809481699 0.08397274895575918 0 0.2030542425058236 0.096261457224818867 0 0.20827809481699 0.08397274895575918 0 0.22158464232153219 0.085672288649733058 0 0.2030542425058236 0.096261457224818867 0 0.22158464232153219 0.085672288649733058 0 0.1980179181718342 0.077692274698860864 0 0.20827809481699 0.08397274895575918 0 0.21044903585768271 0.074960192404573175 0 0.21566477972426129 0.096821009401716604 0 0.2030542425058236 0.096261457224818867 0 0.22158464232153219 0.085672288649733058 0 0.20827809481699 0.08397274895575918 0 0.21044903585768271 0.074960192404573175 0 0.22158464232153219 0.085672288649733058 0 0.21044903585768271 0.074960192404573175 0 0.21862194835300211 0.067784559633757027 0 0.22158464232153219 0.085672288649733058 0 0.1980179181718342 0.077692274698860864 0 0.2091714837531691 0.063461677913052711 0 0.2060923463310402 0.050686290424411529 0 0.1980179181718342 0.077692274698860864 0 0.21044903585768271 0.074960192404573175 0 0.2091714837531691 0.063461677913052711 0 0.21044903585768271 0.074960192404573175 0 0.2091714837531691 0.063461677913052711 0 0.21862194835300211 0.067784559633757027 0 0.21862194835300211 0.067784559633757027 0 0.2294750944080195 0.071119922359917792 0 0.22158464232153219 0.085672288649733058 0 0.21862194835300211 0.067784559633757027 0 0.2294750944080195 0.071119922359917792 0 0.23566701516630101 0.061602804039240643 0 0.2294750944080195 0.071119922359917792 0 0.22158464232153219 0.085672288649733058 0 0.24011504213724111 0.075083120074647569 0 0.22158464232153219 0.085672288649733058 0 0.24011504213724111 0.075083120074647569 0 0.24647214423466929 0.089125374252427669 0 0.24011504213724111 0.075083120074647569 0 0.26278714118156921 0.070495582831462983 0 0.22158464232153219 0.085672288649733058 0 0.24647214423466929 0.089125374252427669 0 0.24011504213724111 0.075083120074647569 0 0.23530931976123409 0.1025517473311038 0 0.22158464232153219 0.085672288649733058 0 0.24647214423466929 0.089125374252427669 0 0.24011504213724111 0.075083120074647569 0 0.23566701516630101 0.061602804039240643 0 0.26278714118156921 0.070495582831462983 0 0.23566701516630101 0.061602804039240643 0 0.26278714118156921 0.070495582831462983 0 0.2294750944080195 0.071119922359917792 0 0.24011504213724111 0.075083120074647569 0 0.23566701516630101 0.061602804039240643 0 0.23566701516630101 0.061602804039240643 0 0.24547365183322131 0.050191514344339862 0 0.26278714118156921 0.070495582831462983 0 0.23566701516630101 0.061602804039240643 0 0.24547365183322131 0.050191514344339862 0 0.23365036133133479 0.052116275405975229 0 0.24547365183322131 0.050191514344339862 0 0.23230226212207281 0.043770899217734978 0 0.23365036133133479 0.052116275405975229 0 0.24547365183322131 0.050191514344339862 0 0.24464265949144229 0.031433111837902157 0 0.23230226212207281 0.043770899217734978 0 0.24464265949144229 0.031433111837902157 0 0.23230226212207281 0.043770899217734978 0 0.231169115200345 0.031222661375812179 0 0.23230226212207281 0.043770899217734978 0 0.22230031147023949 0.041920264796684793 0 0.231169115200345 0.031222661375812179 0 0.22230031147023949 0.041920264796684793 0 0.231169115200345 0.031222661375812179 0 0.2179617341639957 0.033573650541649319 0 0.23230226212207281 0.043770899217734978 0 0.22230031147023949 0.041920264796684793 0 0.22115851620374391 0.052899884022585428 0 0.23566701516630101 0.061602804039240643 0 0.22115851620374391 0.052899884022585428 0 0.20854688915103281 0.052710025247018288 0 0.23566701516630101 0.061602804039240643 0 0.20854688915103281 0.052710025247018288 0 0.22230031147023949 0.041920264796684793 0 0.22115851620374391 0.052899884022585428 0 0.21638312565126219 0.047052914855267657 0 0.21862194835300211 0.067784559633757027 0 0.23566701516630101 0.061602804039240643 0 0.20854688915103281 0.052710025247018288 0 0.23566701516630101 0.061602804039240643 0 0.22115851620374391 0.052899884022585428 0 0.23365036133133479 0.052116275405975229 0 0.23230226212207281 0.043770899217734978 0 0.22115851620374391 0.052899884022585428 0 0.23365036133133479 0.052116275405975229 0 0.2339983439586624 0.01546549945011315 0 0.25003495375332918 -0.0026426516414230078 0 0.2339983439586624 0.01546549945011315 0 0.25104916226469048 0.01460659558842896 0 0.25003495375332918 -0.0026426516414230078 0 0.23687473425034991 1.9212442884540241e-05 0 0.2339983439586624 0.01546549945011315 0 0.25003495375332918 -0.0026426516414230078 0 0.24464265949144229 0.031433111837902157 0 0.2339983439586624 0.01546549945011315 0 0.25104916226469048 0.01460659558842896 0 0.24464265949144229 0.031433111837902157 0 0.231169115200345 0.031222661375812179 0 0.2339983439586624 0.01546549945011315 0 0.231169115200345 0.031222661375812179 0 0.2339983439586624 0.01546549945011315 0 0.2179617341639957 0.033573650541649319 0 0.2339983439586624 0.01546549945011315 0 0.2179617341639957 0.033573650541649319 0 0.2339983439586624 0.01546549945011315 0 0.21416677449025301 0.0236803061499644 0 0.2179617341639957 0.033573650541649319 0 0.23687473425034991 1.9212442884540241e-05 0 0.2339983439586624 0.01546549945011315 0 0.22224120264946551 -0.003325678124482743 0 0.2339983439586624 0.01546549945011315 0 0.21416677449025301 0.0236803061499644 0 0.22224120264946551 -0.003325678124482743 0 0.20899555439347769 0.01295797460806072 0 0.21416677449025301 0.0236803061499644 0 0.22224120264946551 -0.003325678124482743 0 0.21416677449025301 0.0236803061499644 0 0.22224120264946551 -0.003325678124482743 0 0.20899555439347769 0.01295797460806072 0 0.19656228637729931 0.01089376358455239 0 0.22224120264946551 -0.003325678124482743 0 0.19656228637729931 0.01089376358455239 0 0.21006459463058891 -0.0016074886066977309 0 0.22224120264946551 -0.003325678124482743 0 0.19656228637729931 0.01089376358455239 0 0.22224120264946551 -0.003325678124482743 0 0.20899555439347769 0.01295797460806072 0 0.21416677449025301 0.0236803061499644 0 0.2030119540568931 0.02058350682220883 0 0.21416677449025301 0.0236803061499644 0 0.2030119540568931 0.02058350682220883 0 0.20356589324696989 0.033158574844123267 0 0.19651824046950189 0.029380146692798609 0 0.19578218423692631 0.021211156745094811 0 0.2030119540568931 0.02058350682220883 0 0.19651824046950189 0.029380146692798609 0 0.2030119540568931 0.02058350682220883 0 0.20356589324696989 0.033158574844123267 0 0.19651824046950189 0.029380146692798609 0 0.19578218423692631 0.021211156745094811 0 0.18703625604401089 0.023987209880819389 0 0.19651824046950189 0.029380146692798609 0 0.18896280873986551 0.036206718585765733 0 0.18703625604401089 0.023987209880819389 0 0.19578218423692631 0.021211156745094811 0 0.19656228637729931 0.01089376358455239 0 0.18703625604401089 0.023987209880819389 0 0.19578218423692631 0.021211156745094811 0 0.2030119540568931 0.02058350682220883 0 0.19656228637729931 0.01089376358455239 0 0.19656228637729931 0.01089376358455239 0 0.18557249879031151 0.01035208840777849 0 0.21006459463058891 -0.0016074886066977309 0 0.18557249879031151 0.01035208840777849 0 0.21006459463058891 -0.0016074886066977309 0 0.18557249879031151 0.01035208840777849 0 0.21006459463058891 -0.0016074886066977309 0 0.19308926441198609 -0.0044136307146925239 0 0.20899555439347769 0.01295797460806072 0 0.2030119540568931 0.02058350682220883 0 0.19656228637729931 0.01089376358455239 0 0.20854688915103281 0.052710025247018288 0 0.20967949741533559 0.050346147612639662 0 0.21316268394684909 0.050090506394335148 0 0.20854688915103281 0.052710025247018288 0 0.20967949741533559 0.050346147612639662 0 0.2060923463310402 0.050686290424411529 0 0.20967949741533559 0.050346147612639662 0 0.21091607023242021 0.047897768384793649 0 0.2060923463310402 0.050686290424411529 0 0.2091714837531691 0.063461677913052711 0 0.20854688915103281 0.052710025247018288 0 0.2060923463310402 0.050686290424411529 0 0.2091714837531691 0.063461677913052711 0 0.21862194835300211 0.067784559633757027 0 0.20854688915103281 0.052710025247018288 0 0.22115851620374391 0.052899884022585428 0 0.21316268394684909 0.050090506394335148 0 0.21638312565126219 0.047052914855267657 0 0.22115851620374391 0.052899884022585428 0 0.20854688915103281 0.052710025247018288 0 0.21316268394684909 0.050090506394335148 0 0.21091607023242021 0.047897768384793649 0 0.21316268394684909 0.050090506394335148 0 0.21638312565126219 0.047052914855267657 0 0.20967949741533559 0.050346147612639662 0 0.21091607023242021 0.047897768384793649 0 0.21316268394684909 0.050090506394335148 0 0.21416677449025301 0.0236803061499644 0 0.2060923463310402 0.050686290424411529 0 0.21416677449025301 0.0236803061499644 0 0.2060923463310402 0.050686290424411529 0 0.21471264483928579 0.04099747021474523 0 0.21416677449025301 0.0236803061499644 0 0.2060923463310402 0.050686290424411529 0 0.20356589324696989 0.033158574844123267 0 0.21416677449025301 0.0236803061499644 0 0.21471264483928579 0.04099747021474523 0 0.2179617341639957 0.033573650541649319 0 0.22230031147023949 0.041920264796684793 0 0.21638312565126219 0.047052914855267657 0 0.21471264483928579 0.04099747021474523 0 0.21091607023242021 0.047897768384793649 0 0.21638312565126219 0.047052914855267657 0 0.21471264483928579 0.04099747021474523 0 0.22230031147023949 0.041920264796684793 0 0.21471264483928579 0.04099747021474523 0 0.2179617341639957 0.033573650541649319 0 0.21091607023242021 0.047897768384793649 0 0.2060923463310402 0.050686290424411529 0 0.21471264483928579 0.04099747021474523 0 0.2060923463310402 0.050686290424411529 0 0.20356589324696989 0.033158574844123267 0 0.19804015088716151 0.041462624131233007 0 0.19651824046950189 0.029380146692798609 0 0.20356589324696989 0.033158574844123267 0 0.19804015088716151 0.041462624131233007 0 0.19651824046950189 0.029380146692798609 0 0.19804015088716151 0.041462624131233007 0 0.18896280873986551 0.036206718585765733 0 0.19804015088716151 0.041462624131233007 0 0.18896280873986551 0.036206718585765733 0 0.19028224276572189 0.049170448253216897 0 0.1980179181718342 0.077692274698860864 0 0.2060923463310402 0.050686290424411529 0 0.19810816453893951 0.054752909376930579 0 0.1980179181718342 0.077692274698860864 0 0.19028224276572189 0.049170448253216897 0 0.19810816453893951 0.054752909376930579 0 0.2060923463310402 0.050686290424411529 0 0.19804015088716151 0.041462624131233007 0 0.19810816453893951 0.054752909376930579 0 0.19804015088716151 0.041462624131233007 0 0.19028224276572189 0.049170448253216897 0 0.19810816453893951 0.054752909376930579 0 0.19028224276572189 0.049170448253216897 0 0.1725521732177929 0.052145167690855337 0 0.1779360825899394 0.067831461804112106 0 0.19028224276572189 0.049170448253216897 0 0.1725521732177929 0.052145167690855337 0 0.17966472395766761 0.039918174564874988 0 0.18896280873986551 0.036206718585765733 0 0.19028224276572189 0.049170448253216897 0 0.17966472395766761 0.039918174564874988 0 0.18896280873986551 0.036206718585765733 0 0.1797456485602078 0.031784266249848432 0 0.17966472395766761 0.039918174564874988 0 0.1797456485602078 0.031784266249848432 0 0.17229098110698901 0.034255334244931511 0 0.17966472395766761 0.039918174564874988 0 0.17229098110698901 0.034255334244931511 0 0.17966472395766761 0.039918174564874988 0 0.1693320998228337 0.042459387181940651 0 0.1725521732177929 0.052145167690855337 0 0.17966472395766761 0.039918174564874988 0 0.1693320998228337 0.042459387181940651 0 0.1628416918689278 0.03563023913372923 0 0.1610804029500342 0.022311665422254691 0 0.15214503825193029 0.038505955504555267 0 0.17229098110698901 0.034255334244931511 0 0.1628416918689278 0.03563023913372923 0 0.17088337010513349 0.02511320529358781 0 0.17229098110698901 0.034255334244931511 0 0.1693320998228337 0.042459387181940651 0 0.1628416918689278 0.03563023913372923 0 0.1693320998228337 0.042459387181940651 0 0.1628416918689278 0.03563023913372923 0 0.15941958018061819 0.047850833240300802 0 0.1628416918689278 0.03563023913372923 0 0.15941958018061819 0.047850833240300802 0 0.15214503825193029 0.038505955504555267 0 0.1725521732177929 0.052145167690855337 0 0.1779360825899394 0.067831461804112106 0 0.16100864232581141 0.063571342089861163 0 0.1725521732177929 0.052145167690855337 0 0.15941958018061819 0.047850833240300802 0 0.16100864232581141 0.063571342089861163 0 0.1725521732177929 0.052145167690855337 0 0.1693320998228337 0.042459387181940651 0 0.15941958018061819 0.047850833240300802 0 0.17735434965683611 0.0060989413181923007 0 0.18557249879031151 0.01035208840777849 0 0.16989918461631989 0.011406104369931931 0 0.18557249879031151 0.01035208840777849 0 0.1610804029500342 0.022311665422254691 0 0.16989918461631989 0.011406104369931931 0 0.19656228637729931 0.01089376358455239 0 0.18557249879031151 0.01035208840777849 0 0.17088337010513349 0.02511320529358781 0 0.17735434965683611 0.0060989413181923007 0 0.1674986719346665 0.0052425152058865063 0 0.17975938027318031 -0.0028365532445131362 0 0.17735434965683611 0.0060989413181923007 0 0.18557249879031151 0.01035208840777849 0 0.17975938027318031 -0.0028365532445131362 0 0.18557249879031151 0.01035208840777849 0 0.17975938027318031 -0.0028365532445131362 0 0.19308926441198609 -0.0044136307146925239 0 0.19656228637729931 0.01089376358455239 0 0.18703625604401089 0.023987209880819389 0 0.17088337010513349 0.02511320529358781 0 0.18557249879031151 0.01035208840777849 0 0.1610804029500342 0.022311665422254691 0 0.18557249879031151 0.01035208840777849 0 0.17088337010513349 0.02511320529358781 0 0.1610804029500342 0.022311665422254691 0 0.19656228637729931 0.01089376358455239 0 0.17088337010513349 0.02511320529358781 0 0.1797456485602078 0.031784266249848432 0 0.18703625604401089 0.023987209880819389 0 0.17088337010513349 0.02511320529358781 0 0.18896280873986551 0.036206718585765733 0 0.1797456485602078 0.031784266249848432 0 0.18703625604401089 0.023987209880819389 0 0.1797456485602078 0.031784266249848432 0 0.17229098110698901 0.034255334244931511 0 0.17088337010513349 0.02511320529358781 0 0.1628416918689278 0.03563023913372923 0 0.17088337010513349 0.02511320529358781 0 0.1610804029500342 0.022311665422254691 0 0.1610804029500342 0.022311665422254691 0 0.15798999974975131 0.01302531149554767 0 0.15000058131458169 0.0207115558465297 0 0.15798999974975131 0.01302531149554767 0 0.1674986719346665 0.0052425152058865063 0 0.15126813850280721 0.003815696369120609 0 0.16989918461631989 0.011406104369931931 0 0.15798999974975131 0.01302531149554767 0 0.1674986719346665 0.0052425152058865063 0 0.1610804029500342 0.022311665422254691 0 0.16989918461631989 0.011406104369931931 0 0.15798999974975131 0.01302531149554767 0 0.17735434965683611 0.0060989413181923007 0 0.16989918461631989 0.011406104369931931 0 0.1674986719346665 0.0052425152058865063 0 0.15126813850280721 0.003815696369120609 0 0.15000058131458169 0.0207115558465297 0 0.12899625664807809 0.0011243657885281809 0 0.15798999974975131 0.01302531149554767 0 0.15126813850280721 0.003815696369120609 0 0.15000058131458169 0.0207115558465297 0 0.1610804029500342 0.022311665422254691 0 0.13658830710975681 0.034271242436730902 0 0.1610804029500342 0.022311665422254691 0 0.15000058131458169 0.0207115558465297 0 0.13658830710975681 0.034271242436730902 0 0.1181313498263445 0.02585786951299451 0 0.13342912372469029 0.020491258396195821 0 0.13658830710975681 0.034271242436730902 0 0.15000058131458169 0.0207115558465297 0 0.13342912372469029 0.020491258396195821 0 0.13658830710975681 0.034271242436730902 0 0.1181313498263445 0.02585786951299451 0 0.13342912372469029 0.020491258396195821 0 0.12899625664807809 0.0011243657885281809 0 0.15000058131458169 0.0207115558465297 0 0.12899625664807809 0.0011243657885281809 0 0.15000058131458169 0.0207115558465297 0 0.13342912372469029 0.020491258396195821 0 0.12899625664807809 0.0011243657885281809 0 0.15941958018061819 0.047850833240300802 0 0.14079520915031449 0.052465797289760717 0 0.16100864232581141 0.063571342089861163 0 0.14079520915031449 0.052465797289760717 0 0.15214503825193029 0.038505955504555267 0 0.13658830710975681 0.034271242436730902 0 0.1610804029500342 0.022311665422254691 0 0.15214503825193029 0.038505955504555267 0 0.13658830710975681 0.034271242436730902 0 0.15941958018061819 0.047850833240300802 0 0.14079520915031449 0.052465797289760717 0 0.15214503825193029 0.038505955504555267 0 0.1219814734393717 0.042360792340567013 0 0.1181313498263445 0.02585786951299451 0 0.13658830710975681 0.034271242436730902 0 0.1219814734393717 0.042360792340567013 0 0.14079520915031449 0.052465797289760717 0 0.13658830710975681 0.034271242436730902 0 0.12248409809556821 0.059050542967102292 0 0.1219814734393717 0.042360792340567013 0 0.14079520915031449 0.052465797289760717 0 0.12248409809556821 0.059050542967102292 0 0.14079520915031449 0.052465797289760717 0 0.1459443023039238 0.073395111827080139 0 0.12248409809556821 0.059050542967102292 0 0.1459443023039238 0.073395111827080139 0 0.12616340702247711 0.085714700423080908 0 0.12248409809556821 0.059050542967102292 0 0.1459443023039238 0.073395111827080139 0 0.14079520915031449 0.052465797289760717 0 0.1459443023039238 0.073395111827080139 0 0.16100864232581141 0.063571342089861163 0 0.1459443023039238 0.073395111827080139 0 0.14847843780691219 0.098346700000566667 0 0.1694045065122794 0.08773968068705798 0 0.1459443023039238 0.073395111827080139 0 0.12616340702247711 0.085714700423080908 0 0.14847843780691219 0.098346700000566667 0 0.12616340702247711 0.085714700423080908 0 0.1279103254050338 0.10620539183666761 0 0.14847843780691219 0.098346700000566667 0 0.1187755615695042 0.1246468220819736 0 0.1279103254050338 0.10620539183666761 0 0.14594696997250589 0.1172644682927087 0 0.15289021047869911 0.13490502766185 0 0.14594696997250589 0.1172644682927087 0 0.1634228899052938 0.1189087329295713 0 0.14594696997250589 0.1172644682927087 0 0.14847843780691219 0.098346700000566667 0 0.16275284807940549 0.10515486098715179 0 0.1279103254050338 0.10620539183666761 0 0.14594696997250589 0.1172644682927087 0 0.14847843780691219 0.098346700000566667 0 0.14847843780691219 0.098346700000566667 0 0.16275284807940549 0.10515486098715179 0 0.1694045065122794 0.08773968068705798 0 0.16275284807940549 0.10515486098715179 0 0.17814380031296431 0.1104964912383043 0 0.1694045065122794 0.08773968068705798 0 0.14594696997250589 0.1172644682927087 0 0.16275284807940549 0.10515486098715179 0 0.1634228899052938 0.1189087329295713 0 0.16275284807940549 0.10515486098715179 0 0.1634228899052938 0.1189087329295713 0 0.17814380031296431 0.1104964912383043 0 0.1634228899052938 0.1189087329295713 0 0.17814380031296431 0.1104964912383043 0 0.1634228899052938 0.1189087329295713 0 0.1770732003508288 0.1249175567656421 0 0.17814380031296431 0.1104964912383043 0 0.19055923746725609 0.111431962539821 0 0.18888584492909041 0.1216849889577242 0 0.17814380031296431 0.1104964912383043 0 0.18888584492909041 0.1216849889577242 0 0.1770732003508288 0.1249175567656421 0 0.17814380031296431 0.1104964912383043 0 0.1931530019492729 0.093963625240618714 0 0.19286471072063449 0.10208424954703681 0 0.1694045065122794 0.08773968068705798 0 0.19286471072063449 0.10208424954703681 0 0.1694045065122794 0.08773968068705798 0 0.19286471072063449 0.10208424954703681 0 0.17814380031296431 0.1104964912383043 0 0.1694045065122794 0.08773968068705798 0 0.19286471072063449 0.10208424954703681 0 0.19055923746725609 0.111431962539821 0 0.17814380031296431 0.1104964912383043 0 0.19286471072063449 0.10208424954703681 0 0.17814380031296431 0.1104964912383043 0 0.18353926487454431 0.082226298697452488 0 0.1779360825899394 0.067831461804112106 0 0.1694045065122794 0.08773968068705798 0 0.1931530019492729 0.093963625240618714 0 0.18353926487454431 0.082226298697452488 0 0.1694045065122794 0.08773968068705798 0 0.1980179181718342 0.077692274698860864 0 0.18353926487454431 0.082226298697452488 0 0.1779360825899394 0.067831461804112106 0 0.1459443023039238 0.073395111827080139 0 0.16100864232581141 0.063571342089861163 0 0.1694045065122794 0.08773968068705798 0 0.1779360825899394 0.067831461804112106 0 0.16100864232581141 0.063571342089861163 0 0.1694045065122794 0.08773968068705798 0 0.1459443023039238 0.073395111827080139 0 0.1694045065122794 0.08773968068705798 0 0.096900470961814866 0.47770837612705169 0 0.11820724104135991 0.47530286670540522 0 0.1039570534700781 0.45732425670762239 0 0.096900470961814866 0.47770837612705169 0 0.1149731027347216 0.49999999999999989 0 0.096900470961814866 0.47770837612705169 0 0.1149731027347216 0.49999999999999989 0 0.089045252510196349 0.5 0 0.096900470961814866 0.47770837612705169 0 0.1149731027347216 0.49999999999999989 0 0.11820724104135991 0.47530286670540522 0 0.11820724104135991 0.47530286670540522 0 0.1231284793179246 0.45545423868953949 0 0.1039570534700781 0.45732425670762239 0 0.1231284793179246 0.45545423868953949 0 0.1120873126348796 0.43982294092707469 0 0.12871815320562041 0.43466583165173361 0 0.1231284793179246 0.45545423868953949 0 0.1120873126348796 0.43982294092707469 0 0.1039570534700781 0.45732425670762239 0 0.1120873126348796 0.43982294092707469 0 0.094203021356174491 0.44051308139264422 0 0.1039570534700781 0.45732425670762239 0 0.096900470961814866 0.47770837612705169 0 0.1039570534700781 0.45732425670762239 0 0.078827839188907997 0.45541675225410339 0 0.096900470961814866 0.47770837612705169 0 0.078827839188907997 0.45541675225410339 0 0.096900470961814866 0.47770837612705169 0 0.078827839188907997 0.45541675225410339 0 0.080466966369320894 0.4712061358270988 0 0.094203021356174491 0.44051308139264422 0 0.1039570534700781 0.45732425670762239 0 0.078827839188907997 0.45541675225410339 0 0.094203021356174491 0.44051308139264422 0 0.078827839188907997 0.45541675225410339 0 0.080220686202615105 0.43336027065544508 0 0.078827839188907997 0.45541675225410339 0 0.060755207416000032 0.43312512838115602 0 0.080220686202615105 0.43336027065544508 0 0.078827839188907997 0.45541675225410339 0 0.061892358485386691 0.44388632096594949 0 0.060755207416000032 0.43312512838115602 0 0.078827839188907997 0.45541675225410339 0 0.060755207416000032 0.43312512838115602 0 0.078827839188907997 0.45541675225410339 0 0.062695584313559399 0.45148748149663331 0 0.061892358485386691 0.44388632096594949 0 0.078827839188907997 0.45541675225410339 0 0.062695584313559399 0.45148748149663331 0 0.064635961211120835 0.46984983461211038 0 0.062695584313559399 0.45148748149663331 0 0.064635961211120835 0.46984983461211038 0 0.078827839188907997 0.45541675225410339 0 0.064635961211120835 0.46984983461211038 0 0.080466966369320894 0.4712061358270988 0 0.064635961211120835 0.46984983461211038 0 0.081503594115439712 0.48184958031512981 0 0.064635961211120835 0.46984983461211038 0 0.066789722707029403 0.49023150848387798 0 0.064635961211120835 0.46984983461211038 0 0.081503594115439712 0.48184958031512981 0 0.066789722707029403 0.49023150848387798 0 0.064635961211120835 0.46984983461211038 0 0.066789722707029403 0.49023150848387798 0 0.05638335434225239 0.48187475660917112 0 0.064635961211120835 0.46984983461211038 0 0.080466966369320894 0.4712061358270988 0 0.081503594115439712 0.48184958031512981 0 0.096900470961814866 0.47770837612705169 0 0.080466966369320894 0.4712061358270988 0 0.081503594115439712 0.48184958031512981 0 0.096900470961814866 0.47770837612705169 0 0.081503594115439712 0.48184958031512981 0 0.089045252510196349 0.5 0 0.081503594115439712 0.48184958031512981 0 0.089045252510196349 0.5 0 0.066789722707029403 0.49023150848387798 0 0.089045252510196349 0.5 0 0.066789722707029403 0.49023150848387798 0 0.063117402285671087 0.5 0 0.063117402285671087 0.5 0 0.05738983474293706 0.49255775128571833 0 0.037189552061145943 0.5 0 0.05738983474293706 0.49255775128571833 0 0.04953247510669645 0.48949915054738302 0 0.037189552061145943 0.5 0 0.066789722707029403 0.49023150848387798 0 0.063117402285671087 0.5 0 0.05738983474293706 0.49255775128571833 0 0.066789722707029403 0.49023150848387798 0 0.05738983474293706 0.49255775128571833 0 0.05638335434225239 0.48187475660917112 0 0.04953247510669645 0.48949915054738302 0 0.05638335434225239 0.48187475660917112 0 0.044850887742155433 0.48220245545294699 0 0.05738983474293706 0.49255775128571833 0 0.04953247510669645 0.48949915054738302 0 0.05638335434225239 0.48187475660917112 0 0.064635961211120835 0.46984983461211038 0 0.05638335434225239 0.48187475660917112 0 0.048921424312809561 0.47158056159882578 0 0.05638335434225239 0.48187475660917112 0 0.048921424312809561 0.47158056159882578 0 0.044850887742155433 0.48220245545294699 0 0.037445007500206247 0.47073303871818112 0 0.033598104232099038 0.48822335483464191 0 0.027634255985520859 0.47711776140808809 0 0.044850887742155433 0.48220245545294699 0 0.037445007500206247 0.47073303871818112 0 0.033598104232099038 0.48822335483464191 0 0.037445007500206247 0.47073303871818112 0 0.033598104232099038 0.48822335483464191 0 0.048921424312809561 0.47158056159882578 0 0.044850887742155433 0.48220245545294699 0 0.037445007500206247 0.47073303871818112 0 0.04953247510669645 0.48949915054738302 0 0.041292754785524209 0.4899812402087429 0 0.037189552061145943 0.5 0 0.04953247510669645 0.48949915054738302 0 0.044850887742155433 0.48220245545294699 0 0.041292754785524209 0.4899812402087429 0 0.044850887742155433 0.48220245545294699 0 0.041292754785524209 0.4899812402087429 0 0.033598104232099038 0.48822335483464191 0 0.041292754785524209 0.4899812402087429 0 0.033598104232099038 0.48822335483464191 0 0.037189552061145943 0.5 0 0.033598104232099038 0.48822335483464191 0 0.037189552061145943 0.5 0 0.011261701836620791 0.5 0 0.033598104232099038 0.48822335483464191 0 0.015623037372633561 0.4812013036786672 0 0.011261701836620791 0.5 0 0.015623037372633561 0.4812013036786672 0 0.0098215195542590492 0.46355149001805962 0 0.02553625472659081 0.4658913815461232 0 0.033598104232099038 0.48822335483464191 0 0.027634255985520859 0.47711776140808809 0 0.015623037372633561 0.4812013036786672 0 0.037445007500206247 0.47073303871818112 0 0.027634255985520859 0.47711776140808809 0 0.02553625472659081 0.4658913815461232 0 0.027634255985520859 0.47711776140808809 0 0.015623037372633561 0.4812013036786672 0 0.02553625472659081 0.4658913815461232 0 -0.0078989664793453918 0.48003941498932878 0 0.015623037372633561 0.4812013036786672 0 0.0098215195542590492 0.46355149001805962 0 -0.0078989664793453918 0.48003941498932878 0 0.015623037372633561 0.4812013036786672 0 0.011261701836620791 0.5 0 -0.0025544430332869578 0.43977164328770241 0 0.0085130177617296788 0.44862904179520852 0 0.017641515329942081 0.43641767473364379 0 -0.01299732592404172 0.45738050572117278 0 0.0085130177617296788 0.44862904179520852 0 0.0098215195542590492 0.46355149001805962 0 0.0085130177617296788 0.44862904179520852 0 0.0098215195542590492 0.46355149001805962 0 0.020754166156030481 0.45314284562404472 0 0.020754166156030481 0.45314284562404472 0 0.02553625472659081 0.4658913815461232 0 0.041291910768312873 0.45324272260171999 0 0.0098215195542590492 0.46355149001805962 0 0.020754166156030481 0.45314284562404472 0 0.02553625472659081 0.4658913815461232 0 0.020754166156030481 0.45314284562404472 0 0.041291910768312873 0.45324272260171999 0 0.017641515329942081 0.43641767473364379 0 0.0085130177617296788 0.44862904179520852 0 0.020754166156030481 0.45314284562404472 0 0.017641515329942081 0.43641767473364379 0 0.041291910768312873 0.45324272260171999 0 0.017641515329942081 0.43641767473364379 0 0.041291910768312873 0.45324272260171999 0 0.052611013516108293 0.4494199306796689 0 0.04537298814046524 0.43468771137321449 0 0.041291910768312873 0.45324272260171999 0 0.04537298814046524 0.43468771137321449 0 0.041291910768312873 0.45324272260171999 0 0.04537298814046524 0.43468771137321449 0 0.017641515329942081 0.43641767473364379 0 0.048921424312809561 0.47158056159882578 0 0.037445007500206247 0.47073303871818112 0 0.041291910768312873 0.45324272260171999 0 0.037445007500206247 0.47073303871818112 0 0.02553625472659081 0.4658913815461232 0 0.041291910768312873 0.45324272260171999 0 0.037445007500206247 0.47073303871818112 0 0.041291910768312873 0.45324272260171999 0 0.064635961211120835 0.46984983461211038 0 0.041291910768312873 0.45324272260171999 0 0.052611013516108293 0.4494199306796689 0 0.064635961211120835 0.46984983461211038 0 0.048921424312809561 0.47158056159882578 0 0.041291910768312873 0.45324272260171999 0 0.064635961211120835 0.46984983461211038 0 0.041291910768312873 0.45324272260171999 0 0.062695584313559399 0.45148748149663331 0 0.064635961211120835 0.46984983461211038 0 0.052611013516108293 0.4494199306796689 0 0.061892358485386691 0.44388632096594949 0 0.04537298814046524 0.43468771137321449 0 0.052611013516108293 0.4494199306796689 0 0.061892358485386691 0.44388632096594949 0 0.04537298814046524 0.43468771137321449 0 0.062695584313559399 0.45148748149663331 0 0.052611013516108293 0.4494199306796689 0 0.061892358485386691 0.44388632096594949 0 0.062695584313559399 0.45148748149663331 0 0.061892358485386691 0.44388632096594949 0 0.061892358485386691 0.44388632096594949 0 0.060755207416000032 0.43312512838115602 0 0.060755207416000032 0.43312512838115602 0 0.048925855814001953 0.41853425639935421 0 0.04537298814046524 0.43468771137321449 0 0.048925855814001953 0.41853425639935421 0 0.04537298814046524 0.43468771137321449 0 0.060755207416000032 0.43312512838115602 0 0.058874103558952243 0.41532369335408192 0 0.061892358485386691 0.44388632096594949 0 0.060755207416000032 0.43312512838115602 0 0.04537298814046524 0.43468771137321449 0 0.060755207416000032 0.43312512838115602 0 0.058874103558952243 0.41532369335408192 0 0.048925855814001953 0.41853425639935421 0 0.060755207416000032 0.43312512838115602 0 0.048925855814001953 0.41853425639935421 0 0.048925855814001953 0.41853425639935421 0 0.053893161086207127 0.39594992469078277 0 0.058874103558952243 0.41532369335408192 0 0.056992999701906862 0.39752225832700749 0 0.058874103558952243 0.41532369335408192 0 0.048925855814001953 0.41853425639935421 0 0.056992999701906862 0.39752225832700749 0 0.035843872235792967 0.41667612359888778 0 0.02758758721845625 0.40740681180423072 0 0.034495573835431607 0.40073527602456371 0 0.048925855814001953 0.41853425639935421 0 0.034495573835431607 0.40073527602456371 0 0.048925855814001953 0.41853425639935421 0 0.035843872235792967 0.41667612359888778 0 0.034495573835431607 0.40073527602456371 0 0.048925855814001953 0.41853425639935421 0 0.035843872235792967 0.41667612359888778 0 0.04537298814046524 0.43468771137321449 0 0.035843872235792967 0.41667612359888778 0 0.04537298814046524 0.43468771137321449 0 0.022837356170610321 0.42201656239307389 0 0.04537298814046524 0.43468771137321449 0 0.022837356170610321 0.42201656239307389 0 0.04537298814046524 0.43468771137321449 0 0.017641515329942081 0.43641767473364379 0 0.022837356170610321 0.42201656239307389 0 0.017641515329942081 0.43641767473364379 0 0.022837356170610321 0.42201656239307389 0 0.0086929288982198604 0.42184306935130439 0 0.035843872235792967 0.41667612359888778 0 0.022837356170610321 0.42201656239307389 0 0.02758758721845625 0.40740681180423072 0 0.022837356170610321 0.42201656239307389 0 0.02758758721845625 0.40740681180423072 0 0.01556306960081202 0.41022026890382879 0 0.02758758721845625 0.40740681180423072 0 0.01556306960081202 0.41022026890382879 0 0.019650616758423819 0.40414825253129738 0 0.022837356170610321 0.42201656239307389 0 0.01556306960081202 0.41022026890382879 0 0.0003017242007555127 0.40934541341293268 0 0.022837356170610321 0.42201656239307389 0 0.0003017242007555127 0.40934541341293268 0 0.022837356170610321 0.42201656239307389 0 0.0086929288982198604 0.42184306935130439 0 0.0003017242007555127 0.40934541341293268 0 0.01556306960081202 0.41022026890382879 0 0.0003017242007555127 0.40934541341293268 0 0.0093495990861410198 0.40448850696485622 0 0.01556306960081202 0.41022026890382879 0 0.0093495990861410198 0.40448850696485622 0 0.019650616758423819 0.40414825253129738 0 -0.0060088801084284688 0.41959262686556759 0 0.0086929288982198604 0.42184306935130439 0 0.0003017242007555127 0.40934541341293268 0 -0.0060088801084284688 0.41959262686556759 0 0.017641515329942081 0.43641767473364379 0 -0.0060088801084284688 0.41959262686556759 0 -0.0025544430332869578 0.43977164328770241 0 0.017641515329942081 0.43641767473364379 0 -0.0060088801084284688 0.41959262686556759 0 0.017641515329942081 0.43641767473364379 0 0.0086929288982198604 0.42184306935130439 0 -0.00067073482694354758 0.37762392033480258 0 0.01435774726068363 0.37589634491238511 0 0.01988203520547499 0.38288934701655231 0 -0.00067073482694354758 0.37762392033480258 0 0.01163451322886209 0.38431326156695161 0 0.01988203520547499 0.38288934701655231 0 -0.00067073482694354758 0.37762392033480258 0 0.01988203520547499 0.38288934701655231 0 0.01163451322886209 0.38431326156695161 0 0.012634178748357681 0.38826371211044708 0 0.0072107504546333363 0.38728201883715813 0 0.012634178748357681 0.38826371211044708 0 0.0072107504546333363 0.38728201883715813 0 0.01120610574732093 0.39271719013762202 0 0.012634178748357681 0.38826371211044708 0 0.01705813743730164 0.38649888651752012 0 0.01606138687367039 0.39050720349298379 0 0.012634178748357681 0.38826371211044708 0 0.01120610574732093 0.39271719013762202 0 0.01606138687367039 0.39050720349298379 0 0.01163451322886209 0.38431326156695161 0 0.012634178748357681 0.38826371211044708 0 0.01705813743730164 0.38649888651752012 0 -0.0054743533919896503 0.38690481092539941 0 -0.00067073482694354758 0.37762392033480258 0 0.0072107504546333363 0.38728201883715813 0 -0.00067073482694354758 0.37762392033480258 0 0.01163451322886209 0.38431326156695161 0 0.0072107504546333363 0.38728201883715813 0 -0.0054743533919896503 0.38690481092539941 0 0.0072107504546333363 0.38728201883715813 0 0.001070809733135293 0.39713020443102531 0 0.0072107504546333363 0.38728201883715813 0 0.001070809733135293 0.39713020443102531 0 0.01120610574732093 0.39271719013762202 0 0.0003017242007555127 0.40934541341293268 0 0.001070809733135293 0.39713020443102531 0 0.0093495990861410198 0.40448850696485622 0 0.001070809733135293 0.39713020443102531 0 0.0093495990861410198 0.40448850696485622 0 0.012156983673388961 0.39902848963191789 0 0.0093495990861410198 0.40448850696485622 0 0.012156983673388961 0.39902848963191789 0 0.019650616758423819 0.40414825253129738 0 0.001070809733135293 0.39713020443102531 0 0.012156983673388961 0.39902848963191789 0 0.01120610574732093 0.39271719013762202 0 0.012156983673388961 0.39902848963191789 0 0.01120610574732093 0.39271719013762202 0 0.016257878267224711 0.39497422160804629 0 0.012156983673388961 0.39902848963191789 0 0.016257878267224711 0.39497422160804629 0 0.017325416583474511 0.39877456384303772 0 0.01120610574732093 0.39271719013762202 0 0.016257878267224711 0.39497422160804629 0 0.01606138687367039 0.39050720349298379 0 0.02758758721845625 0.40740681180423072 0 0.01988203520547499 0.38288934701655231 0 0.01934315623569802 0.39176116408432871 0 0.016257878267224711 0.39497422160804629 0 0.020872070181569741 0.39631909837095319 0 0.01988203520547499 0.38288934701655231 0 0.034495573835431607 0.40073527602456371 0 0.01934315623569802 0.39176116408432871 0 0.016257878267224711 0.39497422160804629 0 0.01606138687367039 0.39050720349298379 0 0.02758758721845625 0.40740681180423072 0 0.020872070181569741 0.39631909837095319 0 0.01988203520547499 0.38288934701655231 0 0.02758758721845625 0.40740681180423072 0 0.01988203520547499 0.38288934701655231 0 0.034495573835431607 0.40073527602456371 0 0.016257878267224711 0.39497422160804629 0 0.020872070181569741 0.39631909837095319 0 0.017325416583474511 0.39877456384303772 0 0.020872070181569741 0.39631909837095319 0 0.017325416583474511 0.39877456384303772 0 0.019650616758423819 0.40414825253129738 0 0.02758758721845625 0.40740681180423072 0 0.020872070181569741 0.39631909837095319 0 0.019650616758423819 0.40414825253129738 0 0.012156983673388961 0.39902848963191789 0 0.017325416583474511 0.39877456384303772 0 0.019650616758423819 0.40414825253129738 0 0.01988203520547499 0.38288934701655231 0 0.018315081762784811 0.37790362687730422 0 0.036576226651724712 0.38716624209846551 0 0.01988203520547499 0.38288934701655231 0 0.036576226651724712 0.38716624209846551 0 0.034495573835431607 0.40073527602456371 0 0.018315081762784811 0.37790362687730422 0 0.036576226651724712 0.38716624209846551 0 0.02976032822572941 0.37275231573656709 0 0.018315081762784811 0.37790362687730422 0 0.036576226651724712 0.38716624209846551 0 0.01988203520547499 0.38288934701655231 0 0.036576226651724712 0.38716624209846551 0 0.01163451322886209 0.38431326156695161 0 0.01988203520547499 0.38288934701655231 0 0.01705813743730164 0.38649888651752012 0 0.01934315623569802 0.39176116408432871 0 0.020872070181569741 0.39631909837095319 0 0.01988203520547499 0.38288934701655231 0 0.01934315623569802 0.39176116408432871 0 0.01988203520547499 0.38288934701655231 0 0.018086178938036199 0.38791415027784648 0 0.01988203520547499 0.38288934701655231 0 0.01705813743730164 0.38649888651752012 0 0.018086178938036199 0.38791415027784648 0 0.01705813743730164 0.38649888651752012 0 0.01606138687367039 0.39050720349298379 0 0.018086178938036199 0.38791415027784648 0 0.01934315623569802 0.39176116408432871 0 0.01606138687367039 0.39050720349298379 0 0.018086178938036199 0.38791415027784648 0 0.01435774726068363 0.37589634491238511 0 0.018315081762784811 0.37790362687730422 0 0.01435774726068363 0.37589634491238511 0 0.01988203520547499 0.38288934701655231 0 0.018315081762784811 0.37790362687730422 0 0.01435774726068363 0.37589634491238511 0 0.01988203520547499 0.38288934701655231 0 0.01988203520547499 0.38288934701655231 0 0.018315081762784811 0.37790362687730422 0 0.036576226651724712 0.38716624209846551 0 0.040962593656130378 0.37323865800543782 0 0.02976032822572941 0.37275231573656709 0 0.036576226651724712 0.38716624209846551 0 0.055874786045326218 0.38694027600877678 0 0.040962593656130378 0.37323865800543782 0 0.036576226651724712 0.38716624209846551 0 0.054798311928427122 0.39183456923207127 0 0.036576226651724712 0.38716624209846551 0 0.053893161086207127 0.39594992469078277 0 0.036576226651724712 0.38716624209846551 0 0.034495573835431607 0.40073527602456371 0 0.053893161086207127 0.39594992469078277 0 0.048925855814001953 0.41853425639935421 0 0.034495573835431607 0.40073527602456371 0 0.053893161086207127 0.39594992469078277 0 0.048925855814001953 0.41853425639935421 0 0.053893161086207127 0.39594992469078277 0 0.056992999701906862 0.39752225832700749 0 0.058874103558952243 0.41532369335408192 0 0.056992999701906862 0.39752225832700749 0 0.06543029009962617 0.40180191192696191 0 0.036576226651724712 0.38716624209846551 0 0.053893161086207127 0.39594992469078277 0 0.054798311928427122 0.39183456923207127 0 0.053893161086207127 0.39594992469078277 0 0.054798311928427122 0.39183456923207127 0 0.056436317365598759 0.39225421084340351 0 0.056992999701906862 0.39752225832700749 0 0.06543029009962617 0.40180191192696191 0 0.053893161086207127 0.39594992469078277 0 0.056436317365598759 0.39225421084340351 0 0.054798311928427122 0.39183456923207127 0 0.056436317365598759 0.39225421084340351 0 0.054798311928427122 0.39183456923207127 0 0.056436317365598759 0.39225421084340351 0 0.056992999701906862 0.39752225832700749 0 0.053893161086207127 0.39594992469078277 0 0.056436317365598759 0.39225421084340351 0 0.056992999701906862 0.39752225832700749 0 0.053893161086207127 0.39594992469078277 0 0.056992999701906862 0.39752225832700749 0 0.056992999701906862 0.39752225832700749 0 0.06543029009962617 0.40180191192696191 0 0.055874786045326218 0.38694027600877678 0 0.065017024174273588 0.37996073360828198 0 0.062089660088900919 0.35868375275609621 0 0.036576226651724712 0.38716624209846551 0 0.054798311928427122 0.39183456923207127 0 0.055874786045326218 0.38694027600877678 0 0.055874786045326218 0.38694027600877678 0 0.053666088357461027 0.36603872491276429 0 0.055874786045326218 0.38694027600877678 0 0.053666088357461027 0.36603872491276429 0 0.040962593656130378 0.37323865800543782 0 0.055874786045326218 0.38694027600877678 0 0.062080340978049507 0.38724718425530807 0 0.065017024174273588 0.37996073360828198 0 0.056436317365598759 0.39225421084340351 0 0.055874786045326218 0.38694027600877678 0 0.056436317365598759 0.39225421084340351 0 0.055874786045326218 0.38694027600877678 0 0.062080340978049507 0.38724718425530807 0 0.056436317365598759 0.39225421084340351 0 0.054798311928427122 0.39183456923207127 0 0.055874786045326218 0.38694027600877678 0 0.054798311928427122 0.39183456923207127 0 0.055874786045326218 0.38694027600877678 0 0.065017024174273588 0.37996073360828198 0 0.070993236326999068 0.3898335165607697 0 0.072724686239180547 0.37517862892352127 0 0.062080340978049507 0.38724718425530807 0 0.065017024174273588 0.37996073360828198 0 0.070993236326999068 0.3898335165607697 0 0.056436317365598759 0.39225421084340351 0 0.062080340978049507 0.38724718425530807 0 0.070993236326999068 0.3898335165607697 0 0.070993236326999068 0.3898335165607697 0 0.072724686239180547 0.37517862892352127 0 0.08240584312956431 0.38751155396831782 0 0.072724686239180547 0.37517862892352127 0 0.08240584312956431 0.38751155396831782 0 0.092898601466366665 0.38057687625451592 0 0.08240584312956431 0.38751155396831782 0 0.092898601466366665 0.38057687625451592 0 0.092905572141590342 0.39119619798395783 0 0.082593074146247253 0.39895532630587599 0 0.099400647725924246 0.40326126882565938 0 0.0881500440514041 0.40454234123056071 0 0.082593074146247253 0.39895532630587599 0 0.099400647725924246 0.40326126882565938 0 0.092905572141590342 0.39119619798395783 0 0.082593074146247253 0.39895532630587599 0 0.10557420256027721 0.39807626294141812 0 0.0881500440514041 0.40454234123056071 0 0.09236938485191043 0.40857295464265242 0 0.099400647725924246 0.40326126882565938 0 0.08240584312956431 0.38751155396831782 0 0.092905572141590342 0.39119619798395783 0 0.082593074146247253 0.39895532630587599 0 0.070993236326999068 0.3898335165607697 0 0.08240584312956431 0.38751155396831782 0 0.082593074146247253 0.39895532630587599 0 0.079734695572365774 0.39906466366480742 0 0.080955737982550069 0.40439000943940889 0 0.076879418210706083 0.40274452829247481 0 0.079734695572365774 0.39906466366480742 0 0.082593074146247253 0.39895532630587599 0 0.080955737982550069 0.40439000943940889 0 0.079734695572365774 0.39906466366480742 0 0.082593074146247253 0.39895532630587599 0 0.0881500440514041 0.40454234123056071 0 0.080955737982550069 0.40439000943940889 0 0.086720167275842933 0.40924109952875348 0 0.0881500440514041 0.40454234123056071 0 0.082593074146247253 0.39895532630587599 0 0.080955737982550069 0.40439000943940889 0 0.080955737982550069 0.40439000943940889 0 0.076879418210706083 0.40274452829247481 0 0.073658824719399066 0.40605801971965838 0 0.079734695572365774 0.39906466366480742 0 0.076879418210706083 0.40274452829247481 0 0.070427909193539015 0.40038466688946123 0 0.056436317365598759 0.39225421084340351 0 0.079734695572365774 0.39906466366480742 0 0.082593074146247253 0.39895532630587599 0 0.056436317365598759 0.39225421084340351 0 0.070993236326999068 0.3898335165607697 0 0.082593074146247253 0.39895532630587599 0 0.056436317365598759 0.39225421084340351 0 0.082593074146247253 0.39895532630587599 0 0.056436317365598759 0.39225421084340351 0 0.079734695572365774 0.39906466366480742 0 0.070427909193539015 0.40038466688946123 0 0.076879418210706083 0.40274452829247481 0 0.070427909193539015 0.40038466688946123 0 0.073658824719399066 0.40605801971965838 0 0.056436317365598759 0.39225421084340351 0 0.070427909193539015 0.40038466688946123 0 0.06543029009962617 0.40180191192696191 0 0.070427909193539015 0.40038466688946123 0 0.073658824719399066 0.40605801971965838 0 0.06543029009962617 0.40180191192696191 0 0.058874103558952243 0.41532369335408192 0 0.073658824719399066 0.40605801971965838 0 0.06543029009962617 0.40180191192696191 0 0.058874103558952243 0.41532369335408192 0 0.073658824719399066 0.40605801971965838 0 0.072184483305783975 0.42099269002537543 0 0.073658824719399066 0.40605801971965838 0 0.072184483305783975 0.42099269002537543 0 0.08111455516402305 0.41230709948695948 0 0.060755207416000032 0.43312512838115602 0 0.072184483305783975 0.42099269002537543 0 0.080220686202615105 0.43336027065544508 0 0.060755207416000032 0.43312512838115602 0 0.058874103558952243 0.41532369335408192 0 0.072184483305783975 0.42099269002537543 0 0.072184483305783975 0.42099269002537543 0 0.080220686202615105 0.43336027065544508 0 0.082735472910104191 0.42193651136447202 0 0.080220686202615105 0.43336027065544508 0 0.082735472910104191 0.42193651136447202 0 0.091062831568227975 0.42762811424709418 0 0.082735472910104191 0.42193651136447202 0 0.091062831568227975 0.42762811424709418 0 0.091011114329327014 0.4163930928441858 0 0.094203021356174491 0.44051308139264422 0 0.080220686202615105 0.43336027065544508 0 0.091062831568227975 0.42762811424709418 0 0.080955737982550069 0.40439000943940889 0 0.073658824719399066 0.40605801971965838 0 0.08111455516402305 0.41230709948695948 0 0.080955737982550069 0.40439000943940889 0 0.08111455516402305 0.41230709948695948 0 0.086720167275842933 0.40924109952875348 0 0.082735472910104191 0.42193651136447202 0 0.08111455516402305 0.41230709948695948 0 0.091011114329327014 0.4163930928441858 0 0.072184483305783975 0.42099269002537543 0 0.082735472910104191 0.42193651136447202 0 0.08111455516402305 0.41230709948695948 0 0.091011114329327014 0.4163930928441858 0 0.086720167275842933 0.40924109952875348 0 0.09236938485191043 0.40857295464265242 0 0.08111455516402305 0.41230709948695948 0 0.091011114329327014 0.4163930928441858 0 0.086720167275842933 0.40924109952875348 0 0.0881500440514041 0.40454234123056071 0 0.086720167275842933 0.40924109952875348 0 0.09236938485191043 0.40857295464265242 0 0.09236938485191043 0.40857295464265242 0 0.1001717579937062 0.41299973253768252 0 0.099400647725924246 0.40326126882565938 0 0.091011114329327014 0.4163930928441858 0 0.09236938485191043 0.40857295464265242 0 0.1001717579937062 0.41299973253768252 0 0.091011114329327014 0.4163930928441858 0 0.1001717579937062 0.41299973253768252 0 0.1040333401019371 0.42483892244307048 0 0.1001717579937062 0.41299973253768252 0 0.1091927495810963 0.41083518293804899 0 0.1040333401019371 0.42483892244307048 0 0.1001717579937062 0.41299973253768252 0 0.1091927495810963 0.41083518293804899 0 0.099400647725924246 0.40326126882565938 0 0.094203021356174491 0.44051308139264422 0 0.091062831568227975 0.42762811424709418 0 0.1040333401019371 0.42483892244307048 0 0.1120873126348796 0.43982294092707469 0 0.094203021356174491 0.44051308139264422 0 0.1040333401019371 0.42483892244307048 0 0.091062831568227975 0.42762811424709418 0 0.091011114329327014 0.4163930928441858 0 0.1040333401019371 0.42483892244307048 0 0.1120873126348796 0.43982294092707469 0 0.1175527331909661 0.42679583271804089 0 0.12871815320562041 0.43466583165173361 0 0.1175527331909661 0.42679583271804089 0 0.12354057177514161 0.41451783302713818 0 0.12871815320562041 0.43466583165173361 0 0.1120873126348796 0.43982294092707469 0 0.1040333401019371 0.42483892244307048 0 0.1175527331909661 0.42679583271804089 0 0.1091927495810963 0.41083518293804899 0 0.1175527331909661 0.42679583271804089 0 0.12354057177514161 0.41451783302713818 0 0.1091927495810963 0.41083518293804899 0 0.1040333401019371 0.42483892244307048 0 0.1175527331909661 0.42679583271804089 0 0.1091927495810963 0.41083518293804899 0 0.12354057177514161 0.41451783302713818 0 0.11649934323065771 0.40435332523174727 0 0.10557420256027721 0.39807626294141812 0 0.1285553309743071 0.39719719957696181 0 0.1157457599755379 0.39107618009759781 0 0.1216506356793817 0.39367055133170381 0 0.10557420256027721 0.39807626294141812 0 0.11649934323065771 0.40435332523174727 0 0.10557420256027721 0.39807626294141812 0 0.1285553309743071 0.39719719957696181 0 0.12354057177514161 0.41451783302713818 0 0.11649934323065771 0.40435332523174727 0 0.1285553309743071 0.39719719957696181 0 0.1216506356793817 0.39367055133170381 0 0.10557420256027721 0.39807626294141812 0 0.1285553309743071 0.39719719957696181 0 0.1091927495810963 0.41083518293804899 0 0.11649934323065771 0.40435332523174727 0 0.10557420256027721 0.39807626294141812 0 0.1157457599755379 0.39107618009759781 0 0.1085674073099771 0.38936953578857042 0 0.10557420256027721 0.39807626294141812 0 0.1157457599755379 0.39107618009759781 0 0.1216506356793817 0.39367055133170381 0 0.1221936754757523 0.38201776534713261 0 0.1216506356793817 0.39367055133170381 0 0.1221936754757523 0.38201776534713261 0 0.12908589727908371 0.39536466004297027 0 0.1127212843932778 0.38431138880599502 0 0.1054387770609619 0.3829438847160192 0 0.1124647875659914 0.37495380869916328 0 0.1221936754757523 0.38201776534713261 0 0.1127212843932778 0.38431138880599502 0 0.1124647875659914 0.37495380869916328 0 0.1157457599755379 0.39107618009759781 0 0.1221936754757523 0.38201776534713261 0 0.1127212843932778 0.38431138880599502 0 0.1157457599755379 0.39107618009759781 0 0.1127212843932778 0.38431138880599502 0 0.1085674073099771 0.38936953578857042 0 0.1127212843932778 0.38431138880599502 0 0.1085674073099771 0.38936953578857042 0 0.1054387770609619 0.3829438847160192 0 0.1085674073099771 0.38936953578857042 0 0.1054387770609619 0.3829438847160192 0 0.10124068767829041 0.38944022776909187 0 0.1054387770609619 0.3829438847160192 0 0.1021155245870535 0.37277726806771072 0 0.1124647875659914 0.37495380869916328 0 0.092898601466366665 0.38057687625451592 0 0.1054387770609619 0.3829438847160192 0 0.1021155245870535 0.37277726806771072 0 0.092898601466366665 0.38057687625451592 0 0.092905572141590342 0.39119619798395783 0 0.10124068767829041 0.38944022776909187 0 0.092898601466366665 0.38057687625451592 0 0.1054387770609619 0.3829438847160192 0 0.10124068767829041 0.38944022776909187 0 0.092905572141590342 0.39119619798395783 0 0.10124068767829041 0.38944022776909187 0 0.10557420256027721 0.39807626294141812 0 0.082593074146247253 0.39895532630587599 0 0.10557420256027721 0.39807626294141812 0 0.082593074146247253 0.39895532630587599 0 0.099400647725924246 0.40326126882565938 0 0.10557420256027721 0.39807626294141812 0 0.1091927495810963 0.41083518293804899 0 0.099400647725924246 0.40326126882565938 0 0.10557420256027721 0.39807626294141812 0 0.1085674073099771 0.38936953578857042 0 0.10124068767829041 0.38944022776909187 0 0.10557420256027721 0.39807626294141812 0 0.1087136220885809 0.36375204553692198 0 0.11100695411121569 0.34574928257736159 0 0.091865820175198121 0.36046395575044138 0 0.11100695411121569 0.34574928257736159 0 0.090458274953169826 0.33736835793811898 0 0.091865820175198121 0.36046395575044138 0 0.11100695411121569 0.34574928257736159 0 0.091865820175198121 0.36046395575044138 0 0.092898601466366665 0.38057687625451592 0 0.1021155245870535 0.37277726806771072 0 0.091865820175198121 0.36046395575044138 0 0.1021155245870535 0.37277726806771072 0 0.1087136220885809 0.36375204553692198 0 0.091865820175198121 0.36046395575044138 0 0.1021155245870535 0.37277726806771072 0 0.1087136220885809 0.36375204553692198 0 0.1124647875659914 0.37495380869916328 0 0.1221936754757523 0.38201776534713261 0 0.1124647875659914 0.37495380869916328 0 0.12360584179032209 0.36392049972120022 0 0.1087136220885809 0.36375204553692198 0 0.1124647875659914 0.37495380869916328 0 0.12360584179032209 0.36392049972120022 0 0.12360584179032209 0.36392049972120022 0 0.11100695411121569 0.34574928257736159 0 0.12833795940246001 0.34700075057717827 0 0.1087136220885809 0.36375204553692198 0 0.12360584179032209 0.36392049972120022 0 0.11100695411121569 0.34574928257736159 0 0.11100695411121569 0.34574928257736159 0 0.13014808804723321 0.3310346094042817 0 0.12833795940246001 0.34700075057717827 0 0.11100695411121569 0.34574928257736159 0 0.11039072908054989 0.32267407292378231 0 0.13014808804723321 0.3310346094042817 0 0.11100695411121569 0.34574928257736159 0 0.13014808804723321 0.3310346094042817 0 0.11039072908054989 0.32267407292378231 0 0.12496083242975529 0.30444588660503741 0 0.13422900814516761 0.31653623307016659 0 0.11039072908054989 0.32267407292378231 0 0.13422900814516761 0.31653623307016659 0 0.13014808804723321 0.3310346094042817 0 0.11039072908054989 0.32267407292378231 0 0.086172663892169682 0.31915546021024488 0 0.098173082577820828 0.30624186333084968 0 0.11039072908054989 0.32267407292378231 0 0.090458274953169826 0.33736835793811898 0 0.086172663892169682 0.31915546021024488 0 0.11100695411121569 0.34574928257736159 0 0.11039072908054989 0.32267407292378231 0 0.090458274953169826 0.33736835793811898 0 0.090458274953169826 0.33736835793811898 0 0.068304534132474309 0.33042722950341508 0 0.077598779490911415 0.34918618080923258 0 0.090458274953169826 0.33736835793811898 0 0.086172663892169682 0.31915546021024488 0 0.068304534132474309 0.33042722950341508 0 0.068304534132474309 0.33042722950341508 0 0.074519408176047713 0.30217070625073422 0 0.068304534132474309 0.33042722950341508 0 0.054251120055457409 0.31145660125386099 0 0.074519408176047713 0.30217070625073422 0 0.086172663892169682 0.31915546021024488 0 0.068304534132474309 0.33042722950341508 0 0.074519408176047713 0.30217070625073422 0 0.068304534132474309 0.33042722950341508 0 0.077598779490911415 0.34918618080923258 0 0.062089660088900919 0.35868375275609621 0 0.068304534132474309 0.33042722950341508 0 0.062089660088900919 0.35868375275609621 0 0.090458274953169826 0.33736835793811898 0 0.077598779490911415 0.34918618080923258 0 0.091865820175198121 0.36046395575044138 0 0.072724686239180547 0.37517862892352127 0 0.092898601466366665 0.38057687625451592 0 0.091865820175198121 0.36046395575044138 0 0.072724686239180547 0.37517862892352127 0 0.077598779490911415 0.34918618080923258 0 0.091865820175198121 0.36046395575044138 0 0.072724686239180547 0.37517862892352127 0 0.091865820175198121 0.36046395575044138 0 0.065017024174273588 0.37996073360828198 0 0.072724686239180547 0.37517862892352127 0 0.062089660088900919 0.35868375275609621 0 0.072724686239180547 0.37517862892352127 0 0.077598779490911415 0.34918618080923258 0 0.062089660088900919 0.35868375275609621 0 0.055874786045326218 0.38694027600877678 0 0.062089660088900919 0.35868375275609621 0 0.055874786045326218 0.38694027600877678 0 0.053666088357461027 0.36603872491276429 0 0.062089660088900919 0.35868375275609621 0 0.053666088357461027 0.36603872491276429 0 0.046962496688083048 0.35299416481355539 0 0.043619432604898922 0.36311942958524152 0 0.062089660088900919 0.35868375275609621 0 0.046962496688083048 0.35299416481355539 0 0.051105614345591063 0.33605842809022668 0 0.053666088357461027 0.36603872491276429 0 0.062089660088900919 0.35868375275609621 0 0.046962496688083048 0.35299416481355539 0 0.046962496688083048 0.35299416481355539 0 0.034923589504795231 0.35100601870119441 0 0.036947089277444958 0.34066772608807061 0 0.046962496688083048 0.35299416481355539 0 0.034923589504795231 0.35100601870119441 0 0.043619432604898922 0.36311942958524152 0 0.034923589504795231 0.35100601870119441 0 0.043619432604898922 0.36311942958524152 0 0.032437169308509067 0.36138391406646142 0 0.034923589504795231 0.35100601870119441 0 0.02472796635547626 0.34785446889165572 0 0.036947089277444958 0.34066772608807061 0 0.053666088357461027 0.36603872491276429 0 0.040962593656130378 0.37323865800543782 0 0.043619432604898922 0.36311942958524152 0 0.040962593656130378 0.37323865800543782 0 0.043619432604898922 0.36311942958524152 0 0.032437169308509067 0.36138391406646142 0 0.040962593656130378 0.37323865800543782 0 0.032437169308509067 0.36138391406646142 0 0.02976032822572941 0.37275231573656709 0 0.018315081762784811 0.37790362687730422 0 0.02976032822572941 0.37275231573656709 0 0.0233288568109488 0.36316149890103577 0 0.018315081762784811 0.37790362687730422 0 0.0233288568109488 0.36316149890103577 0 0.011403738402244399 0.35591316893319069 0 0.032437169308509067 0.36138391406646142 0 0.02976032822572941 0.37275231573656709 0 0.0233288568109488 0.36316149890103577 0 0.032437169308509067 0.36138391406646142 0 0.0233288568109488 0.36316149890103577 0 0.02472796635547626 0.34785446889165572 0 0.034923589504795231 0.35100601870119441 0 0.032437169308509067 0.36138391406646142 0 0.02472796635547626 0.34785446889165572 0 0.0233288568109488 0.36316149890103577 0 0.02472796635547626 0.34785446889165572 0 0.011403738402244399 0.35591316893319069 0 -0.0013608865823279599 0.34562029302020791 0 0.011403738402244399 0.35591316893319069 0 0.0044923950417040384 0.33392271098907722 0 0.02472796635547626 0.34785446889165572 0 0.011403738402244399 0.35591316893319069 0 0.0044923950417040384 0.33392271098907722 0 0.011403738402244399 0.35591316893319069 0 0.0044923950417040384 0.33392271098907722 0 -0.0013608865823279599 0.34562029302020791 0 0.011403738402244399 0.35591316893319069 0 0.00032778255234733322 0.35859113446164348 0 0.018315081762784811 0.37790362687730422 0 0.011403738402244399 0.35591316893319069 0 -0.0065440401913426979 0.36529431443838611 0 -0.00067073482694354758 0.37762392033480258 0 0.01435774726068363 0.37589634491238511 0 0.01435774726068363 0.37589634491238511 0 0.018315081762784811 0.37790362687730422 0 0.011403738402244399 0.35591316893319069 0 -0.0065440401913426979 0.36529431443838611 0 0.01435774726068363 0.37589634491238511 0 -0.0065440401913426979 0.36529431443838611 0 0.01435774726068363 0.37589634491238511 0 0.00032778255234733322 0.35859113446164348 0 0.01435774726068363 0.37589634491238511 0 0.011403738402244399 0.35591316893319069 0 0.00032778255234733322 0.35859113446164348 0 0.01435774726068363 0.37589634491238511 0 0.00032778255234733322 0.35859113446164348 0 0.0016004684540106961 0.31539730491907031 0 0.0044923950417040384 0.33392271098907722 0 0.021397570703708849 0.32629443492432281 0 0.0016004684540106961 0.31539730491907031 0 0.021397570703708849 0.32629443492432281 0 0.01560086854912553 0.31031750530905439 0 0.02472796635547626 0.34785446889165572 0 0.0044923950417040384 0.33392271098907722 0 0.021397570703708849 0.32629443492432281 0 0.02472796635547626 0.34785446889165572 0 0.021397570703708849 0.32629443492432281 0 0.036947089277444958 0.34066772608807061 0 0.021397570703708849 0.32629443492432281 0 0.027221376718670299 0.31346913307278079 0 0.01560086854912553 0.31031750530905439 0 0.021397570703708849 0.32629443492432281 0 0.027221376718670299 0.31346913307278079 0 0.038078785831185742 0.32212109412636192 0 0.027221376718670299 0.31346913307278079 0 0.038078785831185742 0.32212109412636192 0 0.036623880545488902 0.3040937164186272 0 0.038078785831185742 0.32212109412636192 0 0.054251120055457409 0.31145660125386099 0 0.036623880545488902 0.3040937164186272 0 0.038078785831185742 0.32212109412636192 0 0.036947089277444958 0.34066772608807061 0 0.051105614345591063 0.33605842809022668 0 0.046962496688083048 0.35299416481355539 0 0.036947089277444958 0.34066772608807061 0 0.051105614345591063 0.33605842809022668 0 0.021397570703708849 0.32629443492432281 0 0.038078785831185742 0.32212109412636192 0 0.036947089277444958 0.34066772608807061 0 0.068304534132474309 0.33042722950341508 0 0.062089660088900919 0.35868375275609621 0 0.051105614345591063 0.33605842809022668 0 0.038078785831185742 0.32212109412636192 0 0.051105614345591063 0.33605842809022668 0 0.054251120055457409 0.31145660125386099 0 0.068304534132474309 0.33042722950341508 0 0.051105614345591063 0.33605842809022668 0 0.054251120055457409 0.31145660125386099 0 0.054251120055457409 0.31145660125386099 0 0.061452592880278142 0.28846541514743501 0 0.046730650284115507 0.29379908006415101 0 0.061452592880278142 0.28846541514743501 0 0.046730650284115507 0.29379908006415101 0 0.049194961118583548 0.27706551229920873 0 0.032052674213105543 0.28553045157759971 0 0.046730650284115507 0.29379908006415101 0 0.049194961118583548 0.27706551229920873 0 0.032052674213105543 0.28553045157759971 0 0.046730650284115507 0.29379908006415101 0 0.036623880545488902 0.3040937164186272 0 0.054251120055457409 0.31145660125386099 0 0.046730650284115507 0.29379908006415101 0 0.036623880545488902 0.3040937164186272 0 0.027221376718670299 0.31346913307278079 0 0.036623880545488902 0.3040937164186272 0 0.021408676170398908 0.29818593841700891 0 0.027221376718670299 0.31346913307278079 0 0.021408676170398908 0.29818593841700891 0 0.01560086854912553 0.31031750530905439 0 0.032052674213105543 0.28553045157759971 0 0.036623880545488902 0.3040937164186272 0 0.021408676170398908 0.29818593841700891 0 0.032052674213105543 0.28553045157759971 0 0.021408676170398908 0.29818593841700891 0 0.01064662556271443 0.28472868941542351 0 0.021408676170398908 0.29818593841700891 0 0.01064662556271443 0.28472868941542351 0 0.0063762506988388904 0.29824071521208928 0 -0.0022395925531549271 0.28356760718216012 0 0.01064662556271443 0.28472868941542351 0 0.0063762506988388904 0.29824071521208928 0 0.0016004684540106961 0.31539730491907031 0 0.0063762506988388904 0.29824071521208928 0 0.01560086854912553 0.31031750530905439 0 -0.0079627798591106851 0.29928032967144369 0 0.0016004684540106961 0.31539730491907031 0 0.0063762506988388904 0.29824071521208928 0 0.021408676170398908 0.29818593841700891 0 0.0063762506988388904 0.29824071521208928 0 0.01560086854912553 0.31031750530905439 0 0.0033175730282707641 0.2445665149317956 0 0.01164717701069515 0.25660482424707032 0 0.00047521130853933868 0.25416036586211238 0 0.01164717701069515 0.25660482424707032 0 0.00047521130853933868 0.25416036586211238 0 0.0022025357355817152 0.26940323130523758 0 0.01064662556271443 0.28472868941542351 0 0.0022025357355817152 0.26940323130523758 0 0.01948293145456358 0.27184933587450261 0 0.01164717701069515 0.25660482424707032 0 0.0022025357355817152 0.26940323130523758 0 0.01948293145456358 0.27184933587450261 0 -0.0022395925531549271 0.28356760718216012 0 0.01064662556271443 0.28472868941542351 0 0.0022025357355817152 0.26940323130523758 0 0.032052674213105543 0.28553045157759971 0 0.01064662556271443 0.28472868941542351 0 0.01948293145456358 0.27184933587450261 0 0.032052674213105543 0.28553045157759971 0 0.01948293145456358 0.27184933587450261 0 0.037115677735634713 0.26788832469996893 0 0.01948293145456358 0.27184933587450261 0 0.02432872974249253 0.25806580094613818 0 0.037115677735634713 0.26788832469996893 0 0.020076080794722961 0.24158369656263581 0 0.02432872974249253 0.25806580094613818 0 0.037771473829277202 0.2553436681161233 0 0.020076080794722961 0.24158369656263581 0 0.01164717701069515 0.25660482424707032 0 0.02432872974249253 0.25806580094613818 0 0.01164717701069515 0.25660482424707032 0 0.01948293145456358 0.27184933587450261 0 0.02432872974249253 0.25806580094613818 0 0.04338863777594297 0.2403754752039193 0 0.037771473829277202 0.2553436681161233 0 0.050871755800454332 0.25902773905465898 0 0.02432872974249253 0.25806580094613818 0 0.037771473829277202 0.2553436681161233 0 0.037115677735634713 0.26788832469996893 0 0.037771473829277202 0.2553436681161233 0 0.037115677735634713 0.26788832469996893 0 0.050871755800454332 0.25902773905465898 0 0.032052674213105543 0.28553045157759971 0 0.037115677735634713 0.26788832469996893 0 0.049194961118583548 0.27706551229920873 0 0.037115677735634713 0.26788832469996893 0 0.049194961118583548 0.27706551229920873 0 0.050871755800454332 0.25902773905465898 0 0.061452592880278142 0.28846541514743501 0 0.049194961118583548 0.27706551229920873 0 0.065242149069581867 0.26529748938618858 0 0.049194961118583548 0.27706551229920873 0 0.050871755800454332 0.25902773905465898 0 0.065242149069581867 0.26529748938618858 0 0.062165487909077548 0.24803933384970869 0 0.050871755800454332 0.25902773905465898 0 0.065242149069581867 0.26529748938618858 0 0.087033814489476558 0.24527275296806711 0 0.065242149069581867 0.26529748938618858 0 0.080734282219622908 0.27391418299805359 0 0.062165487909077548 0.24803933384970869 0 0.087033814489476558 0.24527275296806711 0 0.065242149069581867 0.26529748938618858 0 0.087033814489476558 0.24527275296806711 0 0.080734282219622908 0.27391418299805359 0 0.0942959948629154 0.26367962182747318 0 0.087033814489476558 0.24527275296806711 0 0.080734282219622908 0.27391418299805359 0 0.080734282219622908 0.27391418299805359 0 0.0942959948629154 0.26367962182747318 0 0.10301539504201181 0.27984346199386928 0 0.080734282219622908 0.27391418299805359 0 0.0942959948629154 0.26367962182747318 0 0.061452592880278142 0.28846541514743501 0 0.065242149069581867 0.26529748938618858 0 0.080734282219622908 0.27391418299805359 0 0.061452592880278142 0.28846541514743501 0 0.080734282219622908 0.27391418299805359 0 0.080734282219622908 0.27391418299805359 0 0.074519408176047713 0.30217070625073422 0 0.061452592880278142 0.28846541514743501 0 0.080734282219622908 0.27391418299805359 0 0.074519408176047713 0.30217070625073422 0 0.054251120055457409 0.31145660125386099 0 0.061452592880278142 0.28846541514743501 0 0.074519408176047713 0.30217070625073422 0 0.086172663892169682 0.31915546021024488 0 0.074519408176047713 0.30217070625073422 0 0.098173082577820828 0.30624186333084968 0 0.074519408176047713 0.30217070625073422 0 0.089110542003875359 0.29054255364337661 0 0.098173082577820828 0.30624186333084968 0 0.080734282219622908 0.27391418299805359 0 0.089110542003875359 0.29054255364337661 0 0.10301539504201181 0.27984346199386928 0 0.080734282219622908 0.27391418299805359 0 0.074519408176047713 0.30217070625073422 0 0.089110542003875359 0.29054255364337661 0 0.089110542003875359 0.29054255364337661 0 0.098173082577820828 0.30624186333084968 0 0.10301539504201181 0.27984346199386928 0 0.098173082577820828 0.30624186333084968 0 0.10301539504201181 0.27984346199386928 0 0.098173082577820828 0.30624186333084968 0 0.11978240172064911 0.28695662208056077 0 0.10301539504201181 0.27984346199386928 0 0.098173082577820828 0.30624186333084968 0 0.12496083242975529 0.30444588660503741 0 0.11978240172064911 0.28695662208056077 0 0.11039072908054989 0.32267407292378231 0 0.098173082577820828 0.30624186333084968 0 0.12496083242975529 0.30444588660503741 0 0.11978240172064911 0.28695662208056077 0 0.11817576697139651 0.26946049530858668 0 0.10301539504201181 0.27984346199386928 0 0.11978240172064911 0.28695662208056077 0 0.11817576697139651 0.26946049530858668 0 0.1331218567022289 0.27058837840266531 0 0.11817576697139651 0.26946049530858668 0 0.1078577075062053 0.25344506065688938 0 0.10301539504201181 0.27984346199386928 0 0.11817576697139651 0.26946049530858668 0 0.1078577075062053 0.25344506065688938 0 0.1270353610302927 0.2556630655402955 0 0.1244058537741223 0.24095674006690179 0 0.1078577075062053 0.25344506065688938 0 0.1270353610302927 0.2556630655402955 0 0.087033814489476558 0.24527275296806711 0 0.1078577075062053 0.25344506065688938 0 0.0942959948629154 0.26367962182747318 0 0.1078577075062053 0.25344506065688938 0 0.0942959948629154 0.26367962182747318 0 0.1078577075062053 0.25344506065688938 0 0.10301539504201181 0.27984346199386928 0 0.1078577075062053 0.25344506065688938 0 0.0942959948629154 0.26367962182747318 0 0.10301539504201181 0.27984346199386928 0 0.15403728395719471 0.26785852021915663 0 0.14003752464599961 0.28665889883687179 0 0.15917308762361529 0.28862062013321882 0 0.15403728395719471 0.26785852021915663 0 0.1331218567022289 0.27058837840266531 0 0.14003752464599961 0.28665889883687179 0 0.15403728395719471 0.26785852021915663 0 0.14207266941067731 0.25429494532217828 0 0.1331218567022289 0.27058837840266531 0 0.15909390048808211 0.23994219765572231 0 0.15403728395719471 0.26785852021915663 0 0.14207266941067731 0.25429494532217828 0 0.14207266941067731 0.25429494532217828 0 0.1270353610302927 0.2556630655402955 0 0.1331218567022289 0.27058837840266531 0 0.1375354717924622 0.24144830538913781 0 0.14207266941067731 0.25429494532217828 0 0.1270353610302927 0.2556630655402955 0 0.11817576697139651 0.26946049530858668 0 0.1270353610302927 0.2556630655402955 0 0.1331218567022289 0.27058837840266531 0 0.11978240172064911 0.28695662208056077 0 0.1331218567022289 0.27058837840266531 0 0.14003752464599961 0.28665889883687179 0 0.12496083242975529 0.30444588660503741 0 0.11978240172064911 0.28695662208056077 0 0.14003752464599961 0.28665889883687179 0 0.12496083242975529 0.30444588660503741 0 0.14739218510116969 0.3024581390834612 0 0.13422900814516761 0.31653623307016659 0 0.12496083242975529 0.30444588660503741 0 0.14003752464599961 0.28665889883687179 0 0.14739218510116969 0.3024581390834612 0 0.14739218510116969 0.3024581390834612 0 0.16654023381285521 0.30778195500079591 0 0.1492892219832507 0.31631993623120191 0 0.14739218510116969 0.3024581390834612 0 0.1492892219832507 0.31631993623120191 0 0.13422900814516761 0.31653623307016659 0 0.14003752464599961 0.28665889883687179 0 0.14739218510116969 0.3024581390834612 0 0.15917308762361529 0.28862062013321882 0 0.15917308762361529 0.28862062013321882 0 0.16654023381285521 0.30778195500079591 0 0.18799391324462461 0.29178305015285011 0 0.16654023381285521 0.30778195500079591 0 0.18799391324462461 0.29178305015285011 0 0.18214602066367869 0.32334086661069222 0 0.14739218510116969 0.3024581390834612 0 0.15917308762361529 0.28862062013321882 0 0.16654023381285521 0.30778195500079591 0 0.15917308762361529 0.28862062013321882 0 0.1735439068663534 0.26586262390428622 0 0.18799391324462461 0.29178305015285011 0 0.1735439068663534 0.26586262390428622 0 0.19275539635886371 0.27129693120052739 0 0.18799391324462461 0.29178305015285011 0 0.1735439068663534 0.26586262390428622 0 0.18799391324462461 0.29178305015285011 0 0.15403728395719471 0.26785852021915663 0 0.15917308762361529 0.28862062013321882 0 0.1735439068663534 0.26586262390428622 0 0.15909390048808211 0.23994219765572231 0 0.15403728395719471 0.26785852021915663 0 0.1735439068663534 0.26586262390428622 0 0.15909390048808211 0.23994219765572231 0 0.1735439068663534 0.26586262390428622 0 0.1735439068663534 0.26586262390428622 0 0.19402547653892269 0.2513042233153665 0 0.19275539635886371 0.27129693120052739 0 0.19402547653892269 0.2513042233153665 0 0.19275539635886371 0.27129693120052739 0 0.21362706689854 0.27401875958396288 0 0.19275539635886371 0.27129693120052739 0 0.21362706689854 0.27401875958396288 0 0.18799391324462461 0.29178305015285011 0 0.22401105288474299 0.24617677621174849 0 0.19402547653892269 0.2513042233153665 0 0.21362706689854 0.27401875958396288 0 0.22401105288474299 0.24617677621174849 0 0.21362706689854 0.27401875958396288 0 0.2491232997100411 0.27499102044158258 0 0.22401105288474299 0.24617677621174849 0 0.2491232997100411 0.27499102044158258 0 0.25494958077958341 0.24704778346759729 0 0.21362706689854 0.27401875958396288 0 0.2491232997100411 0.27499102044158258 0 0.219911786909884 0.30115689032247289 0 0.2491232997100411 0.27499102044158258 0 0.24329701864049891 0.30293425741556779 0 0.219911786909884 0.30115689032247289 0 0.2491232997100411 0.27499102044158258 0 0.24329701864049891 0.30293425741556779 0 0.2561341270831009 0.29361965500531428 0 0.2491232997100411 0.27499102044158258 0 0.24329701864049891 0.30293425741556779 0 0.24329701864049891 0.30293425741556779 0 0.219911786909884 0.30115689032247289 0 0.23747073757095671 0.33087749438955311 0 0.219911786909884 0.30115689032247289 0 0.18799391324462461 0.29178305015285011 0 0.20244391962289579 0.317703476401414 0 0.21362706689854 0.27401875958396288 0 0.219911786909884 0.30115689032247289 0 0.18799391324462461 0.29178305015285011 0 0.18799391324462461 0.29178305015285011 0 0.20244391962289579 0.317703476401414 0 0.18214602066367869 0.32334086661069222 0 0.18799391324462461 0.29178305015285011 0 0.20244391962289579 0.317703476401414 0 0.20244391962289579 0.317703476401414 0 0.2028155326368275 0.35055051924468911 0 0.18214602066367869 0.32334086661069222 0 0.20244391962289579 0.317703476401414 0 0.21631593152210921 0.33397215977387418 0 0.2028155326368275 0.35055051924468911 0 0.219911786909884 0.30115689032247289 0 0.20244391962289579 0.317703476401414 0 0.21631593152210921 0.33397215977387418 0 0.219911786909884 0.30115689032247289 0 0.21631593152210921 0.33397215977387418 0 0.23747073757095671 0.33087749438955311 0 0.21631593152210921 0.33397215977387418 0 0.23747073757095671 0.33087749438955311 0 0.2316444565014166 0.35882073136353881 0 0.23747073757095671 0.33087749438955311 0 0.24016673933363319 0.34658002488201861 0 0.25028467481420658 0.33562139442698519 0 0.23747073757095671 0.33087749438955311 0 0.24814843161697739 0.32009082697531699 0 0.25028467481420658 0.33562139442698519 0 0.24329701864049891 0.30293425741556779 0 0.23747073757095671 0.33087749438955311 0 0.24814843161697739 0.32009082697531699 0 0.24329701864049891 0.30293425741556779 0 0.23747073757095671 0.33087749438955311 0 0.24090397226774299 0.36147702751475969 0 0.2316444565014166 0.35882073136353881 0 0.24024776489195371 0.36328570410949268 0 0.2404073156153497 0.37023893769413779 0 0.2316444565014166 0.35882073136353881 0 0.24024776489195371 0.36328570410949268 0 0.24090397226774299 0.36147702751475969 0 0.2316444565014166 0.35882073136353881 0 0.24024776489195371 0.36328570410949268 0 0.24090397226774299 0.36147702751475969 0 0.2404073156153497 0.37023893769413779 0 0.24761582503357821 0.38164311764153508 0 0.25005170792376319 0.36921264391621123 0 0.2404073156153497 0.37023893769413779 0 0.24591538179404909 0.36291466077473311 0 0.25005170792376319 0.36921264391621123 0 0.24024776489195371 0.36328570410949268 0 0.2404073156153497 0.37023893769413779 0 0.24591538179404909 0.36291466077473311 0 0.24090397226774299 0.36147702751475969 0 0.24591538179404909 0.36291466077473311 0 0.24024776489195371 0.36328570410949268 0 0.24090397226774299 0.36147702751475969 0 0.24591538179404909 0.36291466077473311 0 0.24090397226774299 0.36147702751475969 0 0.24591538179404909 0.36291466077473311 0 0.25028467481420658 0.33562139442698519 0 0.23747073757095671 0.33087749438955311 0 0.24016673933363319 0.34658002488201861 0 0.2316444565014166 0.35882073136353881 0 0.24090397226774299 0.36147702751475969 0 0.24016673933363319 0.34658002488201861 0 0.25028467481420658 0.33562139442698519 0 0.24090397226774299 0.36147702751475969 0 0.25028467481420658 0.33562139442698519 0 0.23747073757095671 0.33087749438955311 0 0.2316444565014166 0.35882073136353881 0 0.24090397226774299 0.36147702751475969 0 0.24016673933363319 0.34658002488201861 0 0.2316444565014166 0.35882073136353881 0 0.2404073156153497 0.37023893769413779 0 0.2316444565014166 0.35882073136353881 0 0.22603118358132801 0.38574236688599911 0 0.2316444565014166 0.35882073136353881 0 0.22603118358132801 0.38574236688599911 0 0.2316444565014166 0.35882073136353881 0 0.20360332422706151 0.37079139387234489 0 0.2028155326368275 0.35055051924468911 0 0.2316444565014166 0.35882073136353881 0 0.20360332422706151 0.37079139387234489 0 0.2129228686508399 0.3808311143725745 0 0.21631593152210921 0.33397215977387418 0 0.2316444565014166 0.35882073136353881 0 0.2028155326368275 0.35055051924468911 0 0.2316444565014166 0.35882073136353881 0 0.2028155326368275 0.35055051924468911 0 0.2028155326368275 0.35055051924468911 0 0.1739866087722384 0.34228030712583962 0 0.20360332422706151 0.37079139387234489 0 0.2028155326368275 0.35055051924468911 0 0.17974203181532961 0.36796009863213719 0 0.17974203181532961 0.36796009863213719 0 0.15837126304053081 0.35332223988311529 0 0.15243049198008679 0.37247231776681711 0 0.15837126304053081 0.35332223988311529 0 0.1739866087722384 0.34228030712583962 0 0.14588794159129989 0.33733155432701339 0 0.17974203181532961 0.36796009863213719 0 0.15837126304053081 0.35332223988311529 0 0.1739866087722384 0.34228030712583962 0 0.2028155326368275 0.35055051924468911 0 0.17974203181532961 0.36796009863213719 0 0.1739866087722384 0.34228030712583962 0 0.2028155326368275 0.35055051924468911 0 0.1739866087722384 0.34228030712583962 0 0.18214602066367869 0.32334086661069222 0 0.1739866087722384 0.34228030712583962 0 0.18214602066367869 0.32334086661069222 0 0.16399396935736971 0.32482984321932917 0 0.16654023381285521 0.30778195500079591 0 0.16399396935736971 0.32482984321932917 0 0.1492892219832507 0.31631993623120191 0 0.16654023381285521 0.30778195500079591 0 0.18214602066367869 0.32334086661069222 0 0.16399396935736971 0.32482984321932917 0 0.1739866087722384 0.34228030712583962 0 0.16399396935736971 0.32482984321932917 0 0.1451576849076493 0.33401009500699003 0 0.1739866087722384 0.34228030712583962 0 0.1451576849076493 0.33401009500699003 0 0.1739866087722384 0.34228030712583962 0 0.1451576849076493 0.33401009500699003 0 0.14588794159129989 0.33733155432701339 0 0.1451576849076493 0.33401009500699003 0 0.14588794159129989 0.33733155432701339 0 0.1366416529096349 0.33762343828404912 0 0.1451576849076493 0.33401009500699003 0 0.1492892219832507 0.31631993623120191 0 0.13014808804723321 0.3310346094042817 0 0.16399396935736971 0.32482984321932917 0 0.1451576849076493 0.33401009500699003 0 0.1492892219832507 0.31631993623120191 0 0.1492892219832507 0.31631993623120191 0 0.13014808804723321 0.3310346094042817 0 0.1492892219832507 0.31631993623120191 0 0.13422900814516761 0.31653623307016659 0 0.13014808804723321 0.3310346094042817 0 0.1366416529096349 0.33762343828404912 0 0.13014808804723321 0.3310346094042817 0 0.12833795940246001 0.34700075057717827 0 0.1451576849076493 0.33401009500699003 0 0.1366416529096349 0.33762343828404912 0 0.13014808804723321 0.3310346094042817 0 0.1366416529096349 0.33762343828404912 0 0.14028726015389401 0.35667592289899891 0 0.12833795940246001 0.34700075057717827 0 0.12360584179032209 0.36392049972120022 0 0.14028726015389401 0.35667592289899891 0 0.12833795940246001 0.34700075057717827 0 0.1221936754757523 0.38201776534713261 0 0.12360584179032209 0.36392049972120022 0 0.13468657871648809 0.37602029147098431 0 0.12360584179032209 0.36392049972120022 0 0.14028726015389401 0.35667592289899891 0 0.13468657871648809 0.37602029147098431 0 0.14028726015389401 0.35667592289899891 0 0.13468657871648809 0.37602029147098431 0 0.14028726015389401 0.35667592289899891 0 0.15243049198008679 0.37247231776681711 0 0.13468657871648809 0.37602029147098431 0 0.15837126304053081 0.35332223988311529 0 0.14028726015389401 0.35667592289899891 0 0.15243049198008679 0.37247231776681711 0 0.15837126304053081 0.35332223988311529 0 0.14588794159129989 0.33733155432701339 0 0.14028726015389401 0.35667592289899891 0 0.14588794159129989 0.33733155432701339 0 0.1366416529096349 0.33762343828404912 0 0.14028726015389401 0.35667592289899891 0 0.14588794159129989 0.33733155432701339 0 0.14028726015389401 0.35667592289899891 0 0.1300035976888447 0.39714180115666542 0 0.15866923440218589 0.39604529664219762 0 0.14156546826894631 0.38722024844395131 0 0.1300035976888447 0.39714180115666542 0 0.15866923440218589 0.39604529664219762 0 0.1300035976888447 0.39714180115666542 0 0.1405424734269384 0.41755049790244059 0 0.15866923440218589 0.39604529664219762 0 0.15243049198008679 0.37247231776681711 0 0.14156546826894631 0.38722024844395131 0 0.15866923440218589 0.39604529664219762 0 0.15243049198008679 0.37247231776681711 0 0.14156546826894631 0.38722024844395131 0 0.13468657871648809 0.37602029147098431 0 0.13468657871648809 0.37602029147098431 0 0.12908589727908371 0.39536466004297027 0 0.1221936754757523 0.38201776534713261 0 0.13468657871648809 0.37602029147098431 0 0.12908589727908371 0.39536466004297027 0 0.14156546826894631 0.38722024844395131 0 0.13468657871648809 0.37602029147098431 0 0.12908589727908371 0.39536466004297027 0 0.1221936754757523 0.38201776534713261 0 0.12908589727908371 0.39536466004297027 0 0.12354057177514161 0.41451783302713818 0 0.1285553309743071 0.39719719957696181 0 0.1300035976888447 0.39714180115666542 0 0.12354057177514161 0.41451783302713818 0 0.1285553309743071 0.39719719957696181 0 0.1216506356793817 0.39367055133170381 0 0.1285553309743071 0.39719719957696181 0 0.12908589727908371 0.39536466004297027 0 0.1285553309743071 0.39719719957696181 0 0.12908589727908371 0.39536466004297027 0 0.1285553309743071 0.39719719957696181 0 0.1300035976888447 0.39714180115666542 0 0.12908589727908371 0.39536466004297027 0 0.1285553309743071 0.39719719957696181 0 0.1300035976888447 0.39714180115666542 0 0.1300035976888447 0.39714180115666542 0 0.12908589727908371 0.39536466004297027 0 0.14156546826894631 0.38722024844395131 0 0.1300035976888447 0.39714180115666542 0 0.12908589727908371 0.39536466004297027 0 0.1300035976888447 0.39714180115666542 0 0.1405424734269384 0.41755049790244059 0 0.12354057177514161 0.41451783302713818 0 0.1300035976888447 0.39714180115666542 0 0.1405424734269384 0.41755049790244059 0 0.12354057177514161 0.41451783302713818 0 0.1405424734269384 0.41755049790244059 0 0.12871815320562041 0.43466583165173361 0 0.1405424734269384 0.41755049790244059 0 0.12871815320562041 0.43466583165173361 0 0.15108134916503091 0.4379591946482162 0 0.1405424734269384 0.41755049790244059 0 0.15108134916503091 0.4379591946482162 0 0.1405424734269384 0.41755049790244059 0 0.16022732018329919 0.41871283051871711 0 0.15108134916503091 0.4379591946482162 0 0.1405424734269384 0.41755049790244059 0 0.16022732018329919 0.41871283051871711 0 0.15866923440218589 0.39604529664219762 0 0.16022732018329919 0.41871283051871711 0 0.17377996395145581 0.43073208133707458 0 0.17802619892132349 0.41346101517008721 0 0.16022732018329919 0.41871283051871711 0 0.17802619892132349 0.41346101517008721 0 0.15866923440218589 0.39604529664219762 0 0.16022732018329919 0.41871283051871711 0 0.17377996395145581 0.43073208133707458 0 0.15108134916503091 0.4379591946482162 0 0.17377996395145581 0.43073208133707458 0 0.17802619892132349 0.41346101517008721 0 0.19054566718507959 0.42627160418424992 0 0.17377996395145581 0.43073208133707458 0 0.19054566718507959 0.42627160418424992 0 0.18735308758551081 0.44138998106780619 0 0.17802619892132349 0.41346101517008721 0 0.18733487111552699 0.39494879212772932 0 0.19517556040866291 0.41262679059175822 0 0.18733487111552699 0.39494879212772932 0 0.15866923440218589 0.39604529664219762 0 0.17802619892132349 0.41346101517008721 0 0.18733487111552699 0.39494879212772932 0 0.15866923440218589 0.39604529664219762 0 0.17974203181532961 0.36796009863213719 0 0.15243049198008679 0.37247231776681711 0 0.15866923440218589 0.39604529664219762 0 0.17974203181532961 0.36796009863213719 0 0.18733487111552699 0.39494879212772932 0 0.15866923440218589 0.39604529664219762 0 0.20360332422706151 0.37079139387234489 0 0.17974203181532961 0.36796009863213719 0 0.18733487111552699 0.39494879212772932 0 0.20360332422706151 0.37079139387234489 0 0.18733487111552699 0.39494879212772932 0 0.2129228686508399 0.3808311143725745 0 0.18733487111552699 0.39494879212772932 0 0.21600050782886809 0.39385228761326091 0 0.18733487111552699 0.39494879212772932 0 0.21600050782886809 0.39385228761326091 0 0.2059198250517851 0.40682114990551049 0 0.18733487111552699 0.39494879212772932 0 0.2059198250517851 0.40682114990551049 0 0.19517556040866291 0.41262679059175822 0 0.21600050782886809 0.39385228761326091 0 0.22041791066124161 0.41266400240845991 0 0.2059198250517851 0.40682114990551049 0 0.18733487111552699 0.39494879212772932 0 0.21600050782886809 0.39385228761326091 0 0.2129228686508399 0.3808311143725745 0 0.21600050782886809 0.39385228761326091 0 0.2129228686508399 0.3808311143725745 0 0.22603118358132801 0.38574236688599911 0 0.2316444565014166 0.35882073136353881 0 0.2129228686508399 0.3808311143725745 0 0.22603118358132801 0.38574236688599911 0 0.22603118358132801 0.38574236688599911 0 0.24580998856459521 0.40054263298170251 0 0.22041791066124161 0.41266400240845991 0 0.21600050782886809 0.39385228761326091 0 0.22603118358132801 0.38574236688599911 0 0.22041791066124161 0.41266400240845991 0 0.22603118358132801 0.38574236688599911 0 0.22041791066124161 0.41266400240845991 0 0.22603118358132801 0.38574236688599911 0 0.24580998856459521 0.40054263298170251 0 0.24761582503357821 0.38164311764153508 0 0.2404073156153497 0.37023893769413779 0 0.22603118358132801 0.38574236688599911 0 0.24761582503357821 0.38164311764153508 0 0.22041791066124161 0.41266400240845991 0 0.21480463774115521 0.43958563793092059 0 0.23849738327141329 0.44426205765397908 0 0.24996995068754571 0.42280432817475272 0 0.22041791066124161 0.41266400240845991 0 0.23849738327141329 0.44426205765397908 0 0.24580998856459521 0.40054263298170251 0 0.24996995068754571 0.42280432817475272 0 0.22041791066124161 0.41266400240845991 0 0.22041791066124161 0.41266400240845991 0 0.20580833429273229 0.4225099434628854 0 0.21480463774115521 0.43958563793092059 0 0.20580833429273229 0.4225099434628854 0 0.20313085795079219 0.43690981347588748 0 0.21480463774115521 0.43958563793092059 0 0.22041791066124161 0.41266400240845991 0 0.21480463774115521 0.43958563793092059 0 0.22041791066124161 0.41266400240845991 0 0.20580833429273229 0.4225099434628854 0 0.2059198250517851 0.40682114990551049 0 0.20580833429273229 0.4225099434628854 0 0.2059198250517851 0.40682114990551049 0 0.19517556040866291 0.41262679059175822 0 0.17802619892132349 0.41346101517008721 0 0.19517556040866291 0.41262679059175822 0 0.19054566718507959 0.42627160418424992 0 0.20580833429273229 0.4225099434628854 0 0.19517556040866291 0.41262679059175822 0 0.19054566718507959 0.42627160418424992 0 0.20313085795079219 0.43690981347588748 0 0.19054566718507959 0.42627160418424992 0 0.18735308758551081 0.44138998106780619 0 0.20580833429273229 0.4225099434628854 0 0.20313085795079219 0.43690981347588748 0 0.19054566718507959 0.42627160418424992 0 0.20313085795079219 0.43690981347588748 0 0.19504285978318431 0.45466170487141122 0 0.2091913648210687 0.46650727345338161 0 0.19504285978318431 0.45466170487141122 0 0.1826597071652378 0.45705772648723558 0 0.18735308758551081 0.44138998106780619 0 0.20313085795079219 0.43690981347588748 0 0.19504285978318431 0.45466170487141122 0 0.18735308758551081 0.44138998106780619 0 0.19504285978318431 0.45466170487141122 0 0.2091913648210687 0.46650727345338161 0 0.19287928139331181 0.47144372987274508 0 0.19504285978318431 0.45466170487141122 0 0.19287928139331181 0.47144372987274508 0 0.1826597071652378 0.45705772648723558 0 0.2091913648210687 0.46650727345338161 0 0.21480463774115521 0.43958563793092059 0 0.22557023870532281 0.45828151921643651 0 0.20313085795079219 0.43690981347588748 0 0.2091913648210687 0.46650727345338161 0 0.20313085795079219 0.43690981347588748 0 0.2091913648210687 0.46650727345338161 0 0.21480463774115521 0.43958563793092059 0 0.2091913648210687 0.46650727345338161 0 0.21480463774115521 0.43958563793092059 0 0.21480463774115521 0.43958563793092059 0 0.22557023870532281 0.45828151921643651 0 0.23849738327141329 0.44426205765397908 0 0.2091913648210687 0.46650727345338161 0 0.22557023870532281 0.45828151921643651 0 0.22329707023703491 0.4715332779003597 0 0.22557023870532281 0.45828151921643651 0 0.238736028437779 0.46630249794273121 0 0.23849738327141329 0.44426205765397908 0 0.22557023870532281 0.45828151921643651 0 0.238736028437779 0.46630249794273121 0 0.22329707023703491 0.4715332779003597 0 0.238736028437779 0.46630249794273121 0 0.23849738327141329 0.44426205765397908 0 0.25631317879978011 0.4582985295720689 0 0.23643214410235289 0.5 0 0.25585543599716343 0.47870803415390789 0 0.25681480449457028 0.49999999999999789 0 0.23643214410235289 0.5 0 0.2303672949554019 0.48332146216255928 0 0.25585543599716343 0.47870803415390789 0 0.238736028437779 0.46630249794273121 0 0.2303672949554019 0.48332146216255928 0 0.25585543599716343 0.47870803415390789 0 0.238736028437779 0.46630249794273121 0 0.2303672949554019 0.48332146216255928 0 0.22329707023703491 0.4715332779003597 0 0.2303672949554019 0.48332146216255928 0 0.22329707023703491 0.4715332779003597 0 0.21262042426560221 0.48325363672668997 0 0.23643214410235289 0.5 0 0.2303672949554019 0.48332146216255928 0 0.21604948371013541 0.49999999999999828 0 0.2303672949554019 0.48332146216255928 0 0.21604948371013541 0.49999999999999828 0 0.21262042426560221 0.48325363672668997 0 0.205699678463693 0.48325363672669469 0 0.20220799210631579 0.50000000000000755 0 0.20916005136465471 0.49268645432281077 0 0.205699678463693 0.48325363672669469 0 0.20220799210631579 0.50000000000000755 0 0.21604948371013541 0.49999999999999828 0 0.20916005136465471 0.49268645432281077 0 0.21262042426560221 0.48325363672668997 0 0.21604948371013541 0.49999999999999828 0 0.21262042426560221 0.48325363672668997 0 0.20916005136465471 0.49268645432281077 0 0.21262042426560221 0.48325363672668997 0 0.205699678463693 0.48325363672669469 0 0.21604948371013541 0.49999999999999828 0 0.20916005136465471 0.49268645432281077 0 0.20220799210631579 0.50000000000000755 0 0.2091913648210687 0.46650727345338161 0 0.21262042426560221 0.48325363672668997 0 0.2091913648210687 0.46650727345338161 0 0.21262042426560221 0.48325363672668997 0 0.205699678463693 0.48325363672669469 0 0.2091913648210687 0.46650727345338161 0 0.205699678463693 0.48325363672669469 0 0.2091913648210687 0.46650727345338161 0 0.22329707023703491 0.4715332779003597 0 0.21262042426560221 0.48325363672668997 0 0.2091913648210687 0.46650727345338161 0 0.205699678463693 0.48325363672669469 0 0.19287928139331181 0.47144372987274508 0 0.205699678463693 0.48325363672669469 0 0.19287928139331181 0.47144372987274508 0 0.1892139081113163 0.48677445279636927 0 0.1892139081113163 0.48677445279636927 0 0.20220799210631579 0.50000000000000755 0 0.1731296956491177 0.5 0 0.205699678463693 0.48325363672669469 0 0.1892139081113163 0.48677445279636927 0 0.20220799210631579 0.50000000000000755 0 0.1892139081113163 0.48677445279636927 0 0.1731296956491177 0.5 0 0.17215910064121609 0.47877658813976759 0 0.1731296956491177 0.5 0 0.14405139919191959 0.5 0 0.1555178379815072 0.48388362023534659 0 0.1731296956491177 0.5 0 0.17215910064121609 0.47877658813976759 0 0.1555178379815072 0.48388362023534659 0 0.17215910064121609 0.47877658813976759 0 0.1616202249031235 0.45836789139399192 0 0.1555178379815072 0.48388362023534659 0 0.19287928139331181 0.47144372987274508 0 0.17215910064121609 0.47877658813976759 0 0.1826597071652378 0.45705772648723558 0 0.19287928139331181 0.47144372987274508 0 0.1892139081113163 0.48677445279636927 0 0.17215910064121609 0.47877658813976759 0 0.17215910064121609 0.47877658813976759 0 0.1826597071652378 0.45705772648723558 0 0.1616202249031235 0.45836789139399192 0 0.1826597071652378 0.45705772648723558 0 0.17311998506939141 0.44643827693373561 0 0.1616202249031235 0.45836789139399192 0 0.1826597071652378 0.45705772648723558 0 0.17311998506939141 0.44643827693373561 0 0.18735308758551081 0.44138998106780619 0 0.17377996395145581 0.43073208133707458 0 0.17311998506939141 0.44643827693373561 0 0.18735308758551081 0.44138998106780619 0 0.17311998506939141 0.44643827693373561 0 0.1616202249031235 0.45836789139399192 0 0.15108134916503091 0.4379591946482162 0 0.17377996395145581 0.43073208133707458 0 0.17311998506939141 0.44643827693373561 0 0.15108134916503091 0.4379591946482162 0 0.1616202249031235 0.45836789139399192 0 0.15108134916503091 0.4379591946482162 0 0.17215910064121609 0.47877658813976759 0 0.1616202249031235 0.45836789139399192 0 0.1616202249031235 0.45836789139399192 0 0.14203192387584751 0.45327422573962078 0 0.14076210561664479 0.47146752768455508 0 0.1616202249031235 0.45836789139399192 0 0.14203192387584751 0.45327422573962078 0 0.15108134916503091 0.4379591946482162 0 0.12871815320562041 0.43466583165173361 0 0.14203192387584751 0.45327422573962078 0 0.15108134916503091 0.4379591946482162 0 0.1231284793179246 0.45545423868953949 0 0.12871815320562041 0.43466583165173361 0 0.14203192387584751 0.45327422573962078 0 0.1231284793179246 0.45545423868953949 0 0.14203192387584751 0.45327422573962078 0 0.14076210561664479 0.47146752768455508 0 0.11820724104135991 0.47530286670540522 0 0.1231284793179246 0.45545423868953949 0 0.14076210561664479 0.47146752768455508 0 0.11820724104135991 0.47530286670540522 0 0.14405139919191959 0.5 0 0.14076210561664479 0.47146752768455508 0 0.1149731027347216 0.49999999999999989 0 0.11820724104135991 0.47530286670540522 0 0.14405139919191959 0.5 0 0.14405139919191959 0.5 0 0.1555178379815072 0.48388362023534659 0 0.14076210561664479 0.47146752768455508 0 0.1616202249031235 0.45836789139399192 0 0.1555178379815072 0.48388362023534659 0 0.14076210561664479 0.47146752768455508 0 0.36322923817304331 0.5 0 0.3652648981400346 0.47029979777246861 0 0.34283080147562089 0.47832572309175769 0 0.36322923817304331 0.5 0 0.34283080147562089 0.47832572309175769 0 0.33507958616049732 0.49999999999999978 0 0.36322923817304331 0.5 0 0.3652648981400346 0.47029979777246861 0 0.38097782784805367 0.48331026011004302 0 0.3652648981400346 0.47029979777246861 0 0.36315633028076788 0.4466208348051468 0 0.35514930771495162 0.44948012714920188 0 0.3652648981400346 0.47029979777246861 0 0.37194898797328879 0.45994418933491849 0 0.38426163089839083 0.46487213250996318 0 0.3652648981400346 0.47029979777246861 0 0.37194898797328879 0.45994418933491849 0 0.36315633028076788 0.4466208348051468 0 0.3652648981400346 0.47029979777246861 0 0.36315633028076788 0.4466208348051468 0 0.36315633028076788 0.4466208348051468 0 0.36613111052846958 0.44334276379690157 0 0.36104776242150127 0.42294187183782522 0 0.37058484443506401 0.45061447078965372 0 0.36613111052846958 0.44334276379690157 0 0.38084676333875378 0.43932955647730842 0 0.37194898797328879 0.45994418933491849 0 0.37058484443506401 0.45061447078965372 0 0.36315633028076788 0.4466208348051468 0 0.37058484443506401 0.45061447078965372 0 0.36315633028076788 0.4466208348051468 0 0.36613111052846958 0.44334276379690157 0 0.36315633028076788 0.4466208348051468 0 0.35516139452853113 0.44260638446465322 0 0.35539682592795191 0.43232635279941722 0 0.35516139452853113 0.44260638446465322 0 0.35514930771495162 0.44948012714920188 0 0.34694311419045282 0.44199822310484682 0 0.35516139452853113 0.44260638446465322 0 0.34694311419045282 0.44199822310484682 0 0.35539682592795191 0.43232635279941722 0 0.36315633028076788 0.4466208348051468 0 0.35516139452853113 0.44260638446465322 0 0.35514930771495162 0.44948012714920188 0 0.35514930771495162 0.44948012714920188 0 0.34694311419045282 0.44199822310484682 0 0.35058201679074458 0.45665144618351572 0 0.3652648981400346 0.47029979777246861 0 0.35058201679074458 0.45665144618351572 0 0.34283080147562089 0.47832572309175769 0 0.35058201679074458 0.45665144618351572 0 0.34283080147562089 0.47832572309175769 0 0.3652648981400346 0.47029979777246861 0 0.35514930771495162 0.44948012714920188 0 0.35058201679074458 0.45665144618351572 0 0.34694311419045282 0.44199822310484682 0 0.35058201679074458 0.45665144618351572 0 0.33171052960434788 0.46104518378681308 0 0.35058201679074458 0.45665144618351572 0 0.33171052960434788 0.46104518378681308 0 0.34283080147562089 0.47832572309175769 0 0.34694311419045282 0.44199822310484682 0 0.33171052960434788 0.46104518378681308 0 0.32615144089989462 0.44243726961269281 0 0.32615144089989462 0.44243726961269281 0 0.30303922876478617 0.46162484640846069 0 0.33171052960434788 0.46104518378681308 0 0.31959977782299559 0.4815246643127134 0 0.30303922876478617 0.46162484640846069 0 0.33171052960434788 0.46104518378681308 0 0.32615144089989462 0.44243726961269281 0 0.30303922876478617 0.46162484640846069 0 0.33171052960434788 0.46104518378681308 0 0.31959977782299559 0.4815246643127134 0 0.34283080147562089 0.47832572309175769 0 0.31959977782299559 0.4815246643127134 0 0.34283080147562089 0.47832572309175769 0 0.33507958616049732 0.49999999999999978 0 0.34283080147562089 0.47832572309175769 0 0.33507958616049732 0.49999999999999978 0 0.31959977782299559 0.4815246643127134 0 0.33507958616049732 0.49999999999999978 0 0.30899132560518822 0.5 0 0.31959977782299559 0.4815246643127134 0 0.30899132560518822 0.5 0 0.29889208277450541 0.48479238678508058 0 0.30899132560518822 0.5 0 0.29889208277450541 0.48479238678508058 0 0.28290306504987928 0.5 0 0.31959977782299559 0.4815246643127134 0 0.29889208277450541 0.48479238678508058 0 0.30303922876478617 0.46162484640846069 0 0.29889208277450541 0.48479238678508058 0 0.27992701662967778 0.48081242320422862 0 0.30303922876478617 0.46162484640846069 0 0.27992701662967778 0.48081242320422862 0 0.30303922876478617 0.46162484640846069 0 0.29889208277450541 0.48479238678508058 0 0.28290306504987928 0.5 0 0.27992701662967778 0.48081242320422862 0 0.28290306504987928 0.5 0 0.27992701662967778 0.48081242320422862 0 0.25681480449457028 0.49999999999999789 0 0.27992701662967778 0.48081242320422862 0 0.25681480449457028 0.49999999999999789 0 0.27992701662967778 0.48081242320422862 0 0.25585543599716343 0.47870803415390789 0 0.27889596379422471 0.46025069657202938 0 0.27992701662967778 0.48081242320422862 0 0.25585543599716343 0.47870803415390789 0 0.25681480449457028 0.49999999999999789 0 0.23849738327141329 0.44426205765397908 0 0.25631317879978011 0.4582985295720689 0 0.2662720815989979 0.44217733979803342 0 0.238736028437779 0.46630249794273121 0 0.25585543599716343 0.47870803415390789 0 0.25631317879978011 0.4582985295720689 0 0.25585543599716343 0.47870803415390789 0 0.25631317879978011 0.4582985295720689 0 0.27889596379422471 0.46025069657202938 0 0.25631317879978011 0.4582985295720689 0 0.27889596379422471 0.46025069657202938 0 0.2662720815989979 0.44217733979803342 0 0.27889596379422471 0.46025069657202938 0 0.2662720815989979 0.44217733979803342 0 0.29290899579484619 0.44108096107501499 0 0.32615144089989462 0.44243726961269281 0 0.29290899579484619 0.44108096107501499 0 0.30303922876478617 0.46162484640846069 0 0.27992701662967778 0.48081242320422862 0 0.27889596379422471 0.46025069657202938 0 0.30303922876478617 0.46162484640846069 0 0.27889596379422471 0.46025069657202938 0 0.29290899579484619 0.44108096107501499 0 0.30303922876478617 0.46162484640846069 0 0.32615144089989462 0.44243726961269281 0 0.29290899579484619 0.44108096107501499 0 0.30232691561065322 0.41891058133268683 0 0.30232691561065322 0.41891058133268683 0 0.27661489550267171 0.42623389812043749 0 0.27159653382131549 0.40619628022170012 0 0.29290899579484619 0.44108096107501499 0 0.30232691561065322 0.41891058133268683 0 0.27661489550267171 0.42623389812043749 0 0.2662720815989979 0.44217733979803342 0 0.29290899579484619 0.44108096107501499 0 0.27661489550267171 0.42623389812043749 0 0.24996995068754571 0.42280432817475272 0 0.27661489550267171 0.42623389812043749 0 0.27159653382131549 0.40619628022170012 0 0.24580998856459521 0.40054263298170251 0 0.24996995068754571 0.42280432817475272 0 0.27159653382131549 0.40619628022170012 0 0.24996995068754571 0.42280432817475272 0 0.2662720815989979 0.44217733979803342 0 0.27661489550267171 0.42623389812043749 0 0.24996995068754571 0.42280432817475272 0 0.23849738327141329 0.44426205765397908 0 0.2662720815989979 0.44217733979803342 0 0.24761582503357821 0.38164311764153508 0 0.26138274312239479 0.38960004966570261 0 0.25966169563054903 0.37131174102628473 0 0.24580998856459521 0.40054263298170251 0 0.24761582503357821 0.38164311764153508 0 0.26138274312239479 0.38960004966570261 0 0.26138274312239479 0.38960004966570261 0 0.27330698448387147 0.37469951363824061 0 0.25966169563054903 0.37131174102628473 0 0.24580998856459521 0.40054263298170251 0 0.26138274312239479 0.38960004966570261 0 0.27159653382131549 0.40619628022170012 0 0.26138274312239479 0.38960004966570261 0 0.27159653382131549 0.40619628022170012 0 0.29208071496988558 0.39267045880393181 0 0.26138274312239479 0.38960004966570261 0 0.29208071496988558 0.39267045880393181 0 0.27330698448387147 0.37469951363824061 0 0.29208071496988558 0.39267045880393181 0 0.30159743858176269 0.36527439497231667 0 0.27330698448387147 0.37469951363824061 0 0.30232691561065322 0.41891058133268683 0 0.27159653382131549 0.40619628022170012 0 0.29208071496988558 0.39267045880393181 0 0.30232691561065322 0.41891058133268683 0 0.29208071496988558 0.39267045880393181 0 0.31624402982930039 0.40633742295899511 0 0.29208071496988558 0.39267045880393181 0 0.31811035933990112 0.38767496883788138 0 0.31624402982930039 0.40633742295899511 0 0.31811035933990112 0.38767496883788138 0 0.30159743858176269 0.36527439497231667 0 0.29208071496988558 0.39267045880393181 0 0.31811035933990112 0.38767496883788138 0 0.30159743858176269 0.36527439497231667 0 0.31811035933990112 0.38767496883788138 0 0.3419154308722735 0.38049517512393249 0 0.32606877849920318 0.36295201243896491 0 0.31811035933990112 0.38767496883788138 0 0.3419154308722735 0.38049517512393249 0 0.34474519401016068 0.39723474206612241 0 0.31811035933990112 0.38767496883788138 0 0.33462328009803949 0.41007554270344632 0 0.34474519401016068 0.39723474206612241 0 0.33462328009803949 0.41007554270344632 0 0.34847350230109247 0.41110848433972591 0 0.34474519401016068 0.39723474206612241 0 0.31811035933990112 0.38767496883788138 0 0.31624402982930039 0.40633742295899511 0 0.33462328009803949 0.41007554270344632 0 0.31811035933990112 0.38767496883788138 0 0.33462328009803949 0.41007554270344632 0 0.30232691561065322 0.41891058133268683 0 0.31624402982930039 0.40633742295899511 0 0.33088967103525208 0.42483274284750477 0 0.31624402982930039 0.40633742295899511 0 0.33088967103525208 0.42483274284750477 0 0.33462328009803949 0.41007554270344632 0 0.32615144089989462 0.44243726961269281 0 0.30232691561065322 0.41891058133268683 0 0.33088967103525208 0.42483274284750477 0 0.32615144089989462 0.44243726961269281 0 0.34926365303500251 0.42324969281692432 0 0.34694311419045282 0.44199822310484682 0 0.32615144089989462 0.44243726961269281 0 0.34926365303500251 0.42324969281692432 0 0.32615144089989462 0.44243726961269281 0 0.33088967103525208 0.42483274284750477 0 0.34926365303500251 0.42324969281692432 0 0.33088967103525208 0.42483274284750477 0 0.34057618702244907 0.4173227892690754 0 0.34926365303500251 0.42324969281692432 0 0.33088967103525208 0.42483274284750477 0 0.33462328009803949 0.41007554270344632 0 0.34057618702244907 0.4173227892690754 0 0.33462328009803949 0.41007554270344632 0 0.34057618702244907 0.4173227892690754 0 0.34847350230109247 0.41110848433972591 0 0.34057618702244907 0.4173227892690754 0 0.34847350230109247 0.41110848433972591 0 0.34926365303500251 0.42324969281692432 0 0.34926365303500251 0.42324969281692432 0 0.36026209097029172 0.41411887611780479 0 0.34926365303500251 0.42324969281692432 0 0.36104776242150127 0.42294187183782522 0 0.36026209097029172 0.41411887611780479 0 0.34847350230109247 0.41110848433972591 0 0.34926365303500251 0.42324969281692432 0 0.36026209097029172 0.41411887611780479 0 0.34694311419045282 0.44199822310484682 0 0.34926365303500251 0.42324969281692432 0 0.35539682592795191 0.43232635279941722 0 0.34926365303500251 0.42324969281692432 0 0.35539682592795191 0.43232635279941722 0 0.36104776242150127 0.42294187183782522 0 0.34926365303500251 0.42324969281692432 0 0.36104776242150127 0.42294187183782522 0 0.36315633028076788 0.4466208348051468 0 0.35539682592795191 0.43232635279941722 0 0.36104776242150127 0.42294187183782522 0 0.36613111052846958 0.44334276379690157 0 0.37411669852175389 0.42260048899978497 0 0.36613111052846958 0.44334276379690157 0 0.37411669852175389 0.42260048899978497 0 0.38084676333875378 0.43932955647730842 0 0.36315633028076788 0.4466208348051468 0 0.36104776242150127 0.42294187183782522 0 0.36613111052846958 0.44334276379690157 0 0.36104776242150127 0.42294187183782522 0 0.37411669852175389 0.42260048899978497 0 0.36104776242150127 0.42294187183782522 0 0.37411669852175389 0.42260048899978497 0 0.36026209097029172 0.41411887611780479 0 0.37284319458095871 0.40367414281862951 0 0.36104776242150127 0.42294187183782522 0 0.36026209097029172 0.41411887611780479 0 0.36642002739586388 0.41825391201675788 0 0.36026209097029172 0.41411887611780479 0 0.36642002739586388 0.41825391201675788 0 0.37025355766990897 0.41335441111161653 0 0.36104776242150127 0.42294187183782522 0 0.36026209097029172 0.41411887611780479 0 0.36104776242150127 0.42294187183782522 0 0.37411669852175389 0.42260048899978497 0 0.36642002739586388 0.41825391201675788 0 0.37411669852175389 0.42260048899978497 0 0.37025355766990897 0.41335441111161653 0 0.37977049835668281 0.40791494925961469 0 0.37411669852175389 0.42260048899978497 0 0.36642002739586388 0.41825391201675788 0 0.37025355766990897 0.41335441111161653 0 0.37025355766990897 0.41335441111161653 0 0.37284319458095871 0.40367414281862951 0 0.37977049835668281 0.40791494925961469 0 0.36026209097029172 0.41411887611780479 0 0.37025355766990897 0.41335441111161653 0 0.37284319458095871 0.40367414281862951 0 0.37284319458095871 0.40367414281862951 0 0.37427470545603342 0.39259886488437662 0 0.35834689545653919 0.39261146128834201 0 0.36026209097029172 0.41411887611780479 0 0.37284319458095871 0.40367414281862951 0 0.35834689545653919 0.39261146128834201 0 0.37427470545603342 0.39259886488437662 0 0.37214310728969507 0.38163678050394728 0 0.35834689545653919 0.39261146128834201 0 0.37214310728969507 0.38163678050394728 0 0.35732695479853349 0.37685606186737369 0 0.35834689545653919 0.39261146128834201 0 0.3419154308722735 0.38049517512393249 0 0.35732695479853349 0.37685606186737369 0 0.35834689545653919 0.39261146128834201 0 0.3419154308722735 0.38049517512393249 0 0.35834689545653919 0.39261146128834201 0 0.34474519401016068 0.39723474206612241 0 0.36026209097029172 0.41411887611780479 0 0.35834689545653919 0.39261146128834201 0 0.34847350230109247 0.41110848433972591 0 0.36026209097029172 0.41411887611780479 0 0.35834689545653919 0.39261146128834201 0 0.34847350230109247 0.41110848433972591 0 0.35834689545653919 0.39261146128834201 0 0.34474519401016068 0.39723474206612241 0 0.35421240664543679 0.35181875248315791 0 0.35073699321619117 0.33541060103424902 0 0.34076441987350259 0.35181701439553931 0 0.35421240664543679 0.35181875248315791 0 0.34678356793707288 0.36518814840227343 0 0.34076441987350259 0.35181701439553931 0 0.35421240664543679 0.35181875248315791 0 0.34678356793707288 0.36518814840227343 0 0.36691376351437882 0.36217119597371328 0 0.35732695479853349 0.37685606186737369 0 0.34678356793707288 0.36518814840227343 0 0.36691376351437882 0.36217119597371328 0 0.3419154308722735 0.38049517512393249 0 0.35732695479853349 0.37685606186737369 0 0.34678356793707288 0.36518814840227343 0 0.37214310728969507 0.38163678050394728 0 0.36691376351437882 0.36217119597371328 0 0.37929378270380659 0.3724324804531805 0 0.37214310728969507 0.38163678050394728 0 0.35732695479853349 0.37685606186737369 0 0.36691376351437882 0.36217119597371328 0 0.36691376351437882 0.36217119597371328 0 0.37450386392566309 0.35250903932813898 0 0.36743902560056457 0.34283426110622212 0 0.35421240664543679 0.35181875248315791 0 0.36691376351437882 0.36217119597371328 0 0.36743902560056457 0.34283426110622212 0 0.37450386392566309 0.35250903932813898 0 0.36743902560056457 0.34283426110622212 0 0.38114831046626302 0.34254085973644938 0 0.36345938321567539 0.32976730224995621 0 0.36743902560056457 0.34283426110622212 0 0.37683778036238852 0.32283966883069543 0 0.36743902560056457 0.34283426110622212 0 0.37683778036238852 0.32283966883069543 0 0.36345938321567539 0.32976730224995621 0 0.36743902560056457 0.34283426110622212 0 0.35073699321619117 0.33541060103424902 0 0.36345938321567539 0.32976730224995621 0 0.35882373368355558 0.3179846780286586 0 0.37683778036238852 0.32283966883069543 0 0.35882373368355558 0.3179846780286586 0 0.37341720693621988 0.3072060069718926 0 0.37683778036238852 0.32283966883069543 0 0.35882373368355558 0.3179846780286586 0 0.33847833308183251 0.32308287937888808 0 0.34527818057226478 0.31148796034700921 0 0.35882373368355558 0.3179846780286586 0 0.35073699321619117 0.33541060103424902 0 0.33847833308183251 0.32308287937888808 0 0.36345938321567539 0.32976730224995621 0 0.35882373368355558 0.3179846780286586 0 0.35073699321619117 0.33541060103424902 0 0.35421240664543679 0.35181875248315791 0 0.36743902560056457 0.34283426110622212 0 0.35073699321619117 0.33541060103424902 0 0.35073699321619117 0.33541060103424902 0 0.32917182689866042 0.34037047461146702 0 0.33847833308183251 0.32308287937888808 0 0.35073699321619117 0.33541060103424902 0 0.32917182689866042 0.34037047461146702 0 0.34076441987350259 0.35181701439553931 0 0.33847833308183251 0.32308287937888808 0 0.31530272040247959 0.32119458723716082 0 0.33315209467348628 0.30912456560126272 0 0.33847833308183251 0.32308287937888808 0 0.33315209467348628 0.30912456560126272 0 0.34527818057226478 0.31148796034700921 0 0.32917182689866042 0.34037047461146702 0 0.33847833308183251 0.32308287937888808 0 0.31530272040247959 0.32119458723716082 0 0.32917182689866042 0.34037047461146702 0 0.31530272040247959 0.32119458723716082 0 0.30890600390593781 0.34355329263465351 0 0.32917182689866042 0.34037047461146702 0 0.32606877849920318 0.36295201243896491 0 0.30890600390593781 0.34355329263465351 0 0.32917182689866042 0.34037047461146702 0 0.34076441987350259 0.35181701439553931 0 0.32606877849920318 0.36295201243896491 0 0.3419154308722735 0.38049517512393249 0 0.34678356793707288 0.36518814840227343 0 0.32606877849920318 0.36295201243896491 0 0.34678356793707288 0.36518814840227343 0 0.34076441987350259 0.35181701439553931 0 0.32606877849920318 0.36295201243896491 0 0.31811035933990112 0.38767496883788138 0 0.32606877849920318 0.36295201243896491 0 0.30159743858176269 0.36527439497231667 0 0.32606877849920318 0.36295201243896491 0 0.30159743858176269 0.36527439497231667 0 0.30890600390593781 0.34355329263465351 0 0.30159743858176269 0.36527439497231667 0 0.28508451782362432 0.34287382110675202 0 0.30890600390593781 0.34355329263465351 0 0.30159743858176269 0.36527439497231667 0 0.28508451782362432 0.34287382110675202 0 0.30159743858176269 0.36527439497231667 0 0.28200148964941107 0.35894842177391151 0 0.28508451782362432 0.34287382110675202 0 0.30159743858176269 0.36527439497231667 0 0.28200148964941107 0.35894842177391151 0 0.27330698448387147 0.37469951363824061 0 0.28200148964941107 0.35894842177391151 0 0.27330698448387147 0.37469951363824061 0 0.26801701770838621 0.35294595737833651 0 0.27330698448387147 0.37469951363824061 0 0.26801701770838621 0.35294595737833651 0 0.25966169563054903 0.37131174102628473 0 0.28200148964941107 0.35894842177391151 0 0.26801701770838621 0.35294595737833651 0 0.28508451782362432 0.34287382110675202 0 0.24591538179404909 0.36291466077473311 0 0.25665832154529022 0.35995476244436508 0 0.25028467481420658 0.33562139442698519 0 0.26801701770838621 0.35294595737833651 0 0.25665832154529022 0.35995476244436508 0 0.25028467481420658 0.33562139442698519 0 0.26801701770838621 0.35294595737833651 0 0.25665832154529022 0.35995476244436508 0 0.25966169563054903 0.37131174102628473 0 0.25665832154529022 0.35995476244436508 0 0.25005170792376319 0.36921264391621123 0 0.25966169563054903 0.37131174102628473 0 0.24591538179404909 0.36291466077473311 0 0.25665832154529022 0.35995476244436508 0 0.25005170792376319 0.36921264391621123 0 0.24761582503357821 0.38164311764153508 0 0.25005170792376319 0.36921264391621123 0 0.25966169563054903 0.37131174102628473 0 0.24814843161697739 0.32009082697531699 0 0.25028467481420658 0.33562139442698519 0 0.25966537736066891 0.30976576133921041 0 0.25028467481420658 0.33562139442698519 0 0.25966537736066891 0.30976576133921041 0 0.25028467481420658 0.33562139442698519 0 0.27545148295346489 0.32395774146719108 0 0.25966537736066891 0.30976576133921041 0 0.26801701770838621 0.35294595737833651 0 0.25028467481420658 0.33562139442698519 0 0.27545148295346489 0.32395774146719108 0 0.26801701770838621 0.35294595737833651 0 0.27545148295346489 0.32395774146719108 0 0.28508451782362432 0.34287382110675202 0 0.27545148295346489 0.32395774146719108 0 0.2962107412298966 0.32865446544125998 0 0.29431024055787852 0.31103522980626891 0 0.27545148295346489 0.32395774146719108 0 0.28508451782362432 0.34287382110675202 0 0.2962107412298966 0.32865446544125998 0 0.28508451782362432 0.34287382110675202 0 0.2962107412298966 0.32865446544125998 0 0.30890600390593781 0.34355329263465351 0 0.31530272040247959 0.32119458723716082 0 0.2962107412298966 0.32865446544125998 0 0.30890600390593781 0.34355329263465351 0 0.31530272040247959 0.32119458723716082 0 0.30810385879977581 0.30578012114764852 0 0.29431024055787852 0.31103522980626891 0 0.31530272040247959 0.32119458723716082 0 0.2962107412298966 0.32865446544125998 0 0.29431024055787852 0.31103522980626891 0 0.30810385879977581 0.30578012114764852 0 0.30199444687006838 0.29046059972866772 0 0.32080802736867681 0.30043006781849679 0 0.30810385879977581 0.30578012114764852 0 0.30199444687006838 0.29046059972866772 0 0.29431024055787852 0.31103522980626891 0 0.30199444687006838 0.29046059972866772 0 0.28109568959453402 0.29910435500726551 0 0.28610650991799269 0.27549666945081952 0 0.30199444687006838 0.29046059972866772 0 0.29431024055787852 0.31103522980626891 0 0.28109568959453402 0.29910435500726551 0 0.27545148295346489 0.32395774146719108 0 0.29431024055787852 0.31103522980626891 0 0.28109568959453402 0.29910435500726551 0 0.28109568959453402 0.29910435500726551 0 0.26904607990713109 0.28391012825143552 0 0.25966537736066891 0.30976576133921041 0 0.27545148295346489 0.32395774146719108 0 0.28109568959453402 0.29910435500726551 0 0.25966537736066891 0.30976576133921041 0 0.28109568959453402 0.29910435500726551 0 0.26904607990713109 0.28391012825143552 0 0.28610650991799269 0.27549666945081952 0 0.2491232997100411 0.27499102044158258 0 0.26904607990713109 0.28391012825143552 0 0.2561341270831009 0.29361965500531428 0 0.26904607990713109 0.28391012825143552 0 0.2561341270831009 0.29361965500531428 0 0.25966537736066891 0.30976576133921041 0 0.26904607990713109 0.28391012825143552 0 0.25966537736066891 0.30976576133921041 0 0.24329701864049891 0.30293425741556779 0 0.2561341270831009 0.29361965500531428 0 0.25966537736066891 0.30976576133921041 0 0.24329701864049891 0.30293425741556779 0 0.24814843161697739 0.32009082697531699 0 0.25966537736066891 0.30976576133921041 0 0.2491232997100411 0.27499102044158258 0 0.25494958077958341 0.24704778346759729 0 0.26268891347914319 0.26252821620207728 0 0.26993901073603449 0.24410306538797069 0 0.25494958077958341 0.24704778346759729 0 0.2491232997100411 0.27499102044158258 0 0.26268891347914319 0.26252821620207728 0 0.25494958077958341 0.24704778346759729 0 0.2491232997100411 0.27499102044158258 0 0.26904607990713109 0.28391012825143552 0 0.26268891347914319 0.26252821620207728 0 0.26904607990713109 0.28391012825143552 0 0.26268891347914319 0.26252821620207728 0 0.27842678245359342 0.25805449516366058 0 0.26904607990713109 0.28391012825143552 0 0.27842678245359342 0.25805449516366058 0 0.28610650991799269 0.27549666945081952 0 0.26904607990713109 0.28391012825143552 0 0.27842678245359342 0.25805449516366058 0 0.26268891347914319 0.26252821620207728 0 0.27842678245359342 0.25805449516366058 0 0.26993901073603449 0.24410306538797069 0 0.27842678245359342 0.25805449516366058 0 0.29074571980289893 0.26203259197459738 0 0.29514053821466729 0.24985609646969639 0 0.27842678245359342 0.25805449516366058 0 0.29074571980289893 0.26203259197459738 0 0.28610650991799269 0.27549666945081952 0 0.29074571980289893 0.26203259197459738 0 0.30247359142928049 0.26751333086350698 0 0.29514053821466729 0.24985609646969639 0 0.30199444687006838 0.29046059972866772 0 0.28610650991799269 0.27549666945081952 0 0.30247359142928049 0.26751333086350698 0 0.29074571980289893 0.26203259197459738 0 0.28610650991799269 0.27549666945081952 0 0.30247359142928049 0.26751333086350698 0 0.30199444687006838 0.29046059972866772 0 0.30247359142928049 0.26751333086350698 0 0.32179308666045159 0.27959005606589671 0 0.30247359142928049 0.26751333086350698 0 0.3078176624771719 0.25120614758642712 0 0.31634010255820838 0.26329977255457132 0 0.30247359142928049 0.26751333086350698 0 0.29514053821466729 0.24985609646969639 0 0.30247359142928049 0.26751333086350698 0 0.3078176624771719 0.25120614758642712 0 0.29514053821466729 0.24985609646969639 0 0.3078176624771719 0.25120614758642712 0 0.31634010255820838 0.26329977255457132 0 0.32244193652835401 0.24455979569445449 0 0.31634010255820838 0.26329977255457132 0 0.32928613963110082 0.26045247784265457 0 0.32244193652835401 0.24455979569445449 0 0.32928613963110082 0.26045247784265457 0 0.33886092546904878 0.24786697082744721 0 0.32244193652835401 0.24455979569445449 0 0.32928613963110082 0.26045247784265457 0 0.33626265305852698 0.27105496874545321 0 0.34477542511817272 0.26073847106546522 0 0.32928613963110082 0.26045247784265457 0 0.34477542511817272 0.26073847106546522 0 0.33886092546904878 0.24786697082744721 0 0.32928613963110082 0.26045247784265457 0 0.33626265305852698 0.27105496874545321 0 0.32179308666045159 0.27959005606589671 0 0.33626265305852698 0.27105496874545321 0 0.32179308666045159 0.27959005606589671 0 0.34177037305462299 0.28199983596141909 0 0.33626265305852698 0.27105496874545321 0 0.34177037305462299 0.28199983596141909 0 0.35004773682271362 0.27220138577473019 0 0.33626265305852698 0.27105496874545321 0 0.34477542511817272 0.26073847106546522 0 0.35004773682271362 0.27220138577473019 0 0.31634010255820838 0.26329977255457132 0 0.32928613963110082 0.26045247784265457 0 0.32179308666045159 0.27959005606589671 0 0.30247359142928049 0.26751333086350698 0 0.31634010255820838 0.26329977255457132 0 0.32179308666045159 0.27959005606589671 0 0.30199444687006838 0.29046059972866772 0 0.32179308666045159 0.27959005606589671 0 0.32080802736867681 0.30043006781849679 0 0.32179308666045159 0.27959005606589671 0 0.32080802736867681 0.30043006781849679 0 0.33543657509005131 0.29464342474159833 0 0.31530272040247959 0.32119458723716082 0 0.30810385879977581 0.30578012114764852 0 0.32080802736867681 0.30043006781849679 0 0.31530272040247959 0.32119458723716082 0 0.32080802736867681 0.30043006781849679 0 0.33315209467348628 0.30912456560126272 0 0.34362895190851228 0.30268441937036378 0 0.33543657509005131 0.29464342474159833 0 0.35144390341242998 0.29359899592652722 0 0.32080802736867681 0.30043006781849679 0 0.33315209467348628 0.30912456560126272 0 0.33543657509005131 0.29464342474159833 0 0.33315209467348628 0.30912456560126272 0 0.34362895190851228 0.30268441937036378 0 0.33543657509005131 0.29464342474159833 0 0.33315209467348628 0.30912456560126272 0 0.34362895190851228 0.30268441937036378 0 0.34527818057226478 0.31148796034700921 0 0.33543657509005131 0.29464342474159833 0 0.34177037305462299 0.28199983596141909 0 0.35144390341242998 0.29359899592652722 0 0.32179308666045159 0.27959005606589671 0 0.33543657509005131 0.29464342474159833 0 0.34177037305462299 0.28199983596141909 0 0.34177037305462299 0.28199983596141909 0 0.35144390341242998 0.29359899592652722 0 0.35443624077670771 0.28386101817298892 0 0.35144390341242998 0.29359899592652722 0 0.35443624077670771 0.28386101817298892 0 0.36238439837582298 0.2958361883927455 0 0.35882373368355558 0.3179846780286586 0 0.35230778951393732 0.3045632593558727 0 0.36238439837582298 0.2958361883927455 0 0.34362895190851228 0.30268441937036378 0 0.34527818057226478 0.31148796034700921 0 0.35230778951393732 0.3045632593558727 0 0.34362895190851228 0.30268441937036378 0 0.35144390341242998 0.29359899592652722 0 0.35230778951393732 0.3045632593558727 0 0.35144390341242998 0.29359899592652722 0 0.35230778951393732 0.3045632593558727 0 0.36238439837582298 0.2958361883927455 0 0.35882373368355558 0.3179846780286586 0 0.34527818057226478 0.31148796034700921 0 0.35230778951393732 0.3045632593558727 0 0.35882373368355558 0.3179846780286586 0 0.37341720693621988 0.3072060069718926 0 0.36238439837582298 0.2958361883927455 0 0.35882373368355558 0.3179846780286586 0 0.36238439837582298 0.2958361883927455 0 0.37341720693621988 0.3072060069718926 0 0.36999663351004952 0.29157234511309033 0 0.37341720693621988 0.3072060069718926 0 0.36238439837582298 0.2958361883927455 0 0.36999663351004952 0.29157234511309033 0 0.36238439837582298 0.2958361883927455 0 0.36594506306809038 0.27368769875683241 0 0.37341720693621988 0.3072060069718926 0 0.36999663351004952 0.29157234511309033 0 0.38143642696744751 0.29110921506516962 0 0.36999663351004952 0.29157234511309033 0 0.36594506306809038 0.27368769875683241 0 0.38105264273146783 0.27966648490801582 0 0.36238439837582298 0.2958361883927455 0 0.36999663351004952 0.29157234511309033 0 0.36594506306809038 0.27368769875683241 0 0.35443624077670771 0.28386101817298892 0 0.36238439837582298 0.2958361883927455 0 0.36594506306809038 0.27368769875683241 0 0.36594506306809038 0.27368769875683241 0 0.36950572776035739 0.25153920912091932 0 0.35709666586016098 0.26186632194622261 0 0.36594506306809038 0.27368769875683241 0 0.36950572776035739 0.25153920912091932 0 0.36594506306809038 0.27368769875683241 0 0.36950572776035739 0.25153920912091932 0 0.38046313976582352 0.26775139693093508 0 0.36950572776035739 0.25153920912091932 0 0.35461964738161222 0.24918385896047551 0 0.36950572776035739 0.25153920912091932 0 0.35709666586016098 0.26186632194622261 0 0.35461964738161222 0.24918385896047551 0 0.34477542511817272 0.26073847106546522 0 0.33886092546904878 0.24786697082744721 0 0.35461964738161222 0.24918385896047551 0 0.35709666586016098 0.26186632194622261 0 0.34477542511817272 0.26073847106546522 0 0.35461964738161222 0.24918385896047551 0 0.35709666586016098 0.26186632194622261 0 0.34477542511817272 0.26073847106546522 0 0.35004773682271362 0.27220138577473019 0 0.35443624077670771 0.28386101817298892 0 0.36594506306809038 0.27368769875683241 0 0.35004773682271362 0.27220138577473019 0 0.36594506306809038 0.27368769875683241 0 0.35709666586016098 0.26186632194622261 0 0.35004773682271362 0.27220138577473019 0 0.34177037305462299 0.28199983596141909 0 0.35443624077670771 0.28386101817298892 0 0.35004773682271362 0.27220138577473019 0 0.39729648370263898 0.27931651686635478 0 0.40752583537276849 0.25755494088418662 0 0.38851578156656291 0.25454707500255341 0 0.40752583537276849 0.25755494088418662 0 0.40226883755334308 0.2464822588706197 0 0.39729648370263898 0.27931651686635478 0 0.38851578156656291 0.25454707500255341 0 0.40752583537276849 0.25755494088418662 0 0.38851578156656291 0.25454707500255341 0 0.40752583537276849 0.25755494088418662 0 0.36950572776035739 0.25153920912091932 0 0.38851578156656291 0.25454707500255341 0 0.36950572776035739 0.25153920912091932 0 0.38851578156656291 0.25454707500255341 0 0.38046313976582352 0.26775139693093508 0 0.39729648370263898 0.27931651686635478 0 0.38046313976582352 0.26775139693093508 0 0.38105264273146783 0.27966648490801582 0 0.39729648370263898 0.27931651686635478 0 0.38851578156656291 0.25454707500255341 0 0.38046313976582352 0.26775139693093508 0 0.36594506306809038 0.27368769875683241 0 0.38046313976582352 0.26775139693093508 0 0.38105264273146783 0.27966648490801582 0 0.39729648370263898 0.27931651686635478 0 0.38105264273146783 0.27966648490801582 0 0.38143642696744751 0.29110921506516962 0 0.36999663351004952 0.29157234511309033 0 0.38105264273146783 0.27966648490801582 0 0.38143642696744751 0.29110921506516962 0 0.39729648370263898 0.27931651686635478 0 0.38143642696744751 0.29110921506516962 0 0.38706713203251258 0.30107809284852471 0 0.37341720693621988 0.3072060069718926 0 0.38143642696744751 0.29110921506516962 0 0.38706713203251258 0.30107809284852471 0 0.38706713203251258 0.30107809284852471 0 0.37683778036238852 0.32283966883069543 0 0.37341720693621988 0.3072060069718926 0 0.38706713203251258 0.30107809284852471 0 0.37683778036238852 0.32283966883069543 0 0.38706713203251258 0.30107809284852471 0 0.40641417389541329 0.29468205243350792 0 0.39595883634444151 0.31777911251623858 0 0.39729648370263898 0.27931651686635478 0 0.40641417389541329 0.29468205243350792 0 0.41428279526774192 0.27462836464934082 0 0.39729648370263898 0.27931651686635478 0 0.38706713203251258 0.30107809284852471 0 0.40641417389541329 0.29468205243350792 0 0.39729648370263898 0.27931651686635478 0 0.38706713203251258 0.30107809284852471 0 0.40641417389541329 0.29468205243350792 0 0.42669598518320762 0.28602770143730488 0 0.41428279526774192 0.27462836464934082 0 0.40641417389541329 0.29468205243350792 0 0.41746433155590812 0.31000658646496843 0 0.42669598518320762 0.28602770143730488 0 0.40641417389541329 0.29468205243350792 0 0.41746433155590812 0.31000658646496843 0 0.39595883634444151 0.31777911251623858 0 0.41746433155590812 0.31000658646496843 0 0.42669598518320762 0.28602770143730488 0 0.44232913951262298 0.31391959280655207 0 0.41746433155590812 0.31000658646496843 0 0.42669598518320762 0.28602770143730488 0 0.42669598518320762 0.28602770143730488 0 0.43592763881050528 0.26204881640964078 0 0.42669598518320762 0.28602770143730488 0 0.43592763881050528 0.26204881640964078 0 0.44452663140948218 0.27777543275381877 0 0.42669598518320762 0.28602770143730488 0 0.41428279526774192 0.27462836464934082 0 0.43592763881050528 0.26204881640964078 0 0.39729648370263898 0.27931651686635478 0 0.41428279526774192 0.27462836464934082 0 0.40752583537276849 0.25755494088418662 0 0.40752583537276849 0.25755494088418662 0 0.43592763881050528 0.26204881640964078 0 0.41905782655512402 0.24483761284381189 0 0.41428279526774192 0.27462836464934082 0 0.40752583537276849 0.25755494088418662 0 0.43592763881050528 0.26204881640964078 0 0.40752583537276849 0.25755494088418662 0 0.43592763881050528 0.26204881640964078 0 0.40752583537276849 0.25755494088418662 0 0.40226883755334308 0.2464822588706197 0 0.41183349007860359 0.24839098228651449 0 0.40752583537276849 0.25755494088418662 0 0.41183349007860359 0.24839098228651449 0 0.40752583537276849 0.25755494088418662 0 0.41905782655512402 0.24483761284381189 0 0.41183349007860359 0.24839098228651449 0 0.43592763881050528 0.26204881640964078 0 0.43223769522994931 0.24628192963172549 0 0.44328512727433877 0.24293800732935891 0 0.43592763881050528 0.26204881640964078 0 0.43223769522994931 0.24628192963172549 0 0.41905782655512402 0.24483761284381189 0 0.43592763881050528 0.26204881640964078 0 0.44328512727433877 0.24293800732935891 0 0.45280749800376741 0.26471963223540179 0 0.45250432075137192 0.24852200979866559 0 0.44476388122997662 0.24383367849195489 0 0.43592763881050528 0.26204881640964078 0 0.45280749800376741 0.26471963223540179 0 0.43592763881050528 0.26204881640964078 0 0.45280749800376741 0.26471963223540179 0 0.44476388122997662 0.24383367849195489 0 0.45280749800376741 0.26471963223540179 0 0.44476388122997662 0.24383367849195489 0 0.43592763881050528 0.26204881640964078 0 0.45280749800376741 0.26471963223540179 0 0.44452663140948218 0.27777543275381877 0 0.45280749800376741 0.26471963223540179 0 0.44452663140948218 0.27777543275381877 0 0.45914654222464729 0.28117951441257422 0 0.45280749800376741 0.26471963223540179 0 0.45914654222464729 0.28117951441257422 0 0.45280749800376741 0.26471963223540179 0 0.45914654222464729 0.28117951441257422 0 0.46039080349564893 0.26591950079398552 0 0.46039080349564893 0.26591950079398552 0 0.47108166912567551 0.26314072881126749 0 0.46952004038616041 0.27316911148712159 0 0.45914654222464729 0.28117951441257422 0 0.46039080349564893 0.26591950079398552 0 0.46952004038616041 0.27316911148712159 0 0.45914654222464729 0.28117951441257422 0 0.46952004038616041 0.27316911148712159 0 0.47458417216116783 0.28385768119426641 0 0.45280749800376741 0.26471963223540179 0 0.45954565134847608 0.25623091992402319 0 0.45250432075137192 0.24852200979866559 0 0.45280749800376741 0.26471963223540179 0 0.46039080349564893 0.26591950079398552 0 0.45954565134847608 0.25623091992402319 0 0.45280749800376741 0.26471963223540179 0 0.46039080349564893 0.26591950079398552 0 0.46039080349564893 0.26591950079398552 0 0.46487381476673062 0.25961825336901612 0 0.47108166912567551 0.26314072881126749 0 0.46039080349564893 0.26591950079398552 0 0.45954565134847608 0.25623091992402319 0 0.46487381476673062 0.25961825336901612 0 0.46487381476673062 0.25961825336901612 0 0.46847713509712202 0.2531818639467881 0 0.47108166912567551 0.26314072881126749 0 0.45954565134847608 0.25623091992402319 0 0.46487381476673062 0.25961825336901612 0 0.46847713509712202 0.2531818639467881 0 0.45954565134847608 0.25623091992402319 0 0.46847713509712202 0.2531818639467881 0 0.46161754171679409 0.24483173833628979 0 0.46847713509712202 0.2531818639467881 0 0.48278986509834998 0.25623730308823178 0 0.47108166912567551 0.26314072881126749 0 0.46847713509712202 0.2531818639467881 0 0.48278986509834998 0.25623730308823178 0 0.47374938444028158 0.24198184107150059 0 0.48278986509834998 0.25623730308823178 0 0.47108166912567551 0.26314072881126749 0 0.48099840993728649 0.27053889385300017 0 0.47108166912567551 0.26314072881126749 0 0.46952004038616041 0.27316911148712159 0 0.48099840993728649 0.27053889385300017 0 0.46952004038616041 0.27316911148712159 0 0.48099840993728649 0.27053889385300017 0 0.47458417216116783 0.28385768119426641 0 0.48099840993728649 0.27053889385300017 0 0.48629086810474531 0.28304276676422913 0 0.47458417216116783 0.28385768119426641 0 0.48099840993728649 0.27053889385300017 0 0.50000000000000067 0.27681886212755608 0 0.48629086810474531 0.28304276676422913 0 0.48278986509834998 0.25623730308823178 0 0.48099840993728649 0.27053889385300017 0 0.50000000000000067 0.27681886212755608 0 0.48278986509834998 0.25623730308823178 0 0.50000000000000067 0.27681886212755608 0 0.5 0.25111078206710408 0 0.48654754922844018 0.30927768158601687 0 0.49999999999999661 0.29810956272479938 0 0.49327377461422262 0.29304827185678739 0 0.48654754922844018 0.30927768158601687 0 0.49327377461422262 0.29304827185678739 0 0.47999743875350181 0.29625497279673713 0 0.48654754922844018 0.30927768158601687 0 0.49327377461422262 0.29304827185678739 0 0.48654754922844018 0.30927768158601687 0 0.49999999999999661 0.29810956272479938 0 0.5 0.32509439473387208 0 0.48654754922844018 0.30927768158601687 0 0.49999999999999661 0.29810956272479938 0 0.50000000000000067 0.27681886212755608 0 0.49327377461422262 0.29304827185678739 0 0.50000000000000067 0.27681886212755608 0 0.49999999999999661 0.29810956272479938 0 0.49327377461422262 0.29304827185678739 0 0.50000000000000067 0.27681886212755608 0 0.49327377461422262 0.29304827185678739 0 0.48629086810474531 0.28304276676422913 0 0.49327377461422262 0.29304827185678739 0 0.48629086810474531 0.28304276676422913 0 0.47999743875350181 0.29625497279673713 0 0.48629086810474531 0.28304276676422913 0 0.47999743875350181 0.29625497279673713 0 0.47458417216116783 0.28385768119426641 0 0.47999743875350181 0.29625497279673713 0 0.47458417216116783 0.28385768119426641 0 0.46548558644552612 0.29763939658974709 0 0.47999743875350181 0.29625497279673713 0 0.47160889508495601 0.30781250013097461 0 0.46548558644552612 0.29763939658974709 0 0.48654754922844018 0.30927768158601687 0 0.47999743875350181 0.29625497279673713 0 0.47160889508495601 0.30781250013097461 0 0.47160889508495601 0.30781250013097461 0 0.46548558644552612 0.29763939658974709 0 0.45906124631437861 0.30865649859931799 0 0.46548558644552612 0.29763939658974709 0 0.45906124631437861 0.30865649859931799 0 0.44945358384795958 0.29455359842651058 0 0.45914654222464729 0.28117951441257422 0 0.46548558644552612 0.29763939658974709 0 0.45914654222464729 0.28117951441257422 0 0.46548558644552612 0.29763939658974709 0 0.44945358384795958 0.29455359842651058 0 0.45914654222464729 0.28117951441257422 0 0.47458417216116783 0.28385768119426641 0 0.46548558644552612 0.29763939658974709 0 0.42669598518320762 0.28602770143730488 0 0.44452663140948218 0.27777543275381877 0 0.44945358384795958 0.29455359842651058 0 0.44452663140948218 0.27777543275381877 0 0.45914654222464729 0.28117951441257422 0 0.44945358384795958 0.29455359842651058 0 0.45906124631437861 0.30865649859931799 0 0.44945358384795958 0.29455359842651058 0 0.44232913951262298 0.31391959280655207 0 0.42669598518320762 0.28602770143730488 0 0.44945358384795958 0.29455359842651058 0 0.44232913951262298 0.31391959280655207 0 0.44232913951262298 0.31391959280655207 0 0.4484050161416463 0.34094331266060118 0 0.4674762826850421 0.32511049712330781 0 0.44232913951262298 0.31391959280655207 0 0.4484050161416463 0.34094331266060118 0 0.42966924988500188 0.32966760012644319 0 0.4484050161416463 0.34094331266060118 0 0.4672148068579639 0.3399438355795944 0 0.4674762826850421 0.32511049712330781 0 0.4484050161416463 0.34094331266060118 0 0.4674762826850421 0.32511049712330781 0 0.47160889508495601 0.30781250013097461 0 0.45906124631437861 0.30865649859931799 0 0.4674762826850421 0.32511049712330781 0 0.45906124631437861 0.30865649859931799 0 0.44232913951262298 0.31391959280655207 0 0.4674762826850421 0.32511049712330781 0 0.48654754922844018 0.30927768158601687 0 0.47160889508495601 0.30781250013097461 0 0.4674762826850421 0.32511049712330781 0 0.48654754922844018 0.30927768158601687 0 0.4674762826850421 0.32511049712330781 0 0.48135135234715842 0.32181535366558273 0 0.48654754922844018 0.30927768158601687 0 0.4674762826850421 0.32511049712330781 0 0.48654754922844018 0.30927768158601687 0 0.48135135234715842 0.32181535366558273 0 0.4674762826850421 0.32511049712330781 0 0.48135135234715842 0.32181535366558273 0 0.47619507238283848 0.33303328844538083 0 0.4672148068579639 0.3399438355795944 0 0.4674762826850421 0.32511049712330781 0 0.47619507238283848 0.33303328844538083 0 0.4672148068579639 0.3399438355795944 0 0.47619507238283848 0.33303328844538083 0 0.47955733091700642 0.34558032817058199 0 0.47619507238283848 0.33303328844538083 0 0.48749570633521022 0.33542215296373601 0 0.47955733091700642 0.34558032817058199 0 0.48135135234715842 0.32181535366558273 0 0.47619507238283848 0.33303328844538083 0 0.48749570633521022 0.33542215296373601 0 0.48749570633521022 0.33542215296373601 0 0.5 0.32509439473387208 0 0.5 0.3520792267429449 0 0.48654754922844018 0.30927768158601687 0 0.48135135234715842 0.32181535366558273 0 0.5 0.32509439473387208 0 0.48135135234715842 0.32181535366558273 0 0.48749570633521022 0.33542215296373601 0 0.5 0.32509439473387208 0 0.5 0.3520792267429449 0 0.48200019615565709 0.36436661532740461 0 0.5 0.37906405875201771 0 0.48749570633521022 0.33542215296373601 0 0.5 0.3520792267429449 0 0.47955733091700642 0.34558032817058199 0 0.5 0.3520792267429449 0 0.47955733091700642 0.34558032817058199 0 0.48200019615565709 0.36436661532740461 0 0.47955733091700642 0.34558032817058199 0 0.48200019615565709 0.36436661532740461 0 0.46444033216328612 0.35505175149810009 0 0.4672148068579639 0.3399438355795944 0 0.47955733091700642 0.34558032817058199 0 0.46444033216328612 0.35505175149810009 0 0.48200019615565709 0.36436661532740461 0 0.46536167478960361 0.37187362779173488 0 0.47787942611742912 0.38368470242369263 0 0.48200019615565709 0.36436661532740461 0 0.46536167478960361 0.37187362779173488 0 0.46444033216328612 0.35505175149810009 0 0.46536167478960361 0.37187362779173488 0 0.46444033216328612 0.35505175149810009 0 0.4469726374041233 0.3693248608552176 0 0.4484050161416463 0.34094331266060118 0 0.4672148068579639 0.3399438355795944 0 0.46444033216328612 0.35505175149810009 0 0.4484050161416463 0.34094331266060118 0 0.46444033216328612 0.35505175149810009 0 0.4469726374041233 0.3693248608552176 0 0.4484050161416463 0.34094331266060118 0 0.42933374959825038 0.35677612819789473 0 0.4484050161416463 0.34094331266060118 0 0.4469726374041233 0.3693248608552176 0 0.42933374959825038 0.35677612819789473 0 0.4469726374041233 0.3693248608552176 0 0.42933374959825038 0.35677612819789473 0 0.42446798995612228 0.3823095571167629 0 0.41026248305485458 0.37260894373518821 0 0.42933374959825038 0.35677612819789473 0 0.42446798995612228 0.3823095571167629 0 0.41026248305485458 0.37260894373518821 0 0.41241665464404431 0.35607746913933402 0 0.39900102430130929 0.35796435652029501 0 0.41026248305485458 0.37260894373518821 0 0.42933374959825038 0.35677612819789473 0 0.41026248305485458 0.37260894373518821 0 0.41241665464404431 0.35607746913933402 0 0.42933374959825038 0.35677612819789473 0 0.41241665464404431 0.35607746913933402 0 0.42933374959825038 0.35677612819789473 0 0.40823267792860868 0.33398547149263169 0 0.41241665464404431 0.35607746913933402 0 0.40823267792860868 0.33398547149263169 0 0.39900102430130929 0.35796435652029501 0 0.4484050161416463 0.34094331266060118 0 0.42933374959825038 0.35677612819789473 0 0.42966924988500188 0.32966760012644319 0 0.42933374959825038 0.35677612819789473 0 0.42966924988500188 0.32966760012644319 0 0.40823267792860868 0.33398547149263169 0 0.41746433155590812 0.31000658646496843 0 0.44232913951262298 0.31391959280655207 0 0.42966924988500188 0.32966760012644319 0 0.41746433155590812 0.31000658646496843 0 0.40823267792860868 0.33398547149263169 0 0.41746433155590812 0.31000658646496843 0 0.40823267792860868 0.33398547149263169 0 0.39595883634444151 0.31777911251623858 0 0.41746433155590812 0.31000658646496843 0 0.42966924988500188 0.32966760012644319 0 0.40823267792860868 0.33398547149263169 0 0.40823267792860868 0.33398547149263169 0 0.39595883634444151 0.31777911251623858 0 0.38114831046626302 0.34254085973644938 0 0.39595883634444151 0.31777911251623858 0 0.37683778036238852 0.32283966883069543 0 0.38114831046626302 0.34254085973644938 0 0.38706713203251258 0.30107809284852471 0 0.39595883634444151 0.31777911251623858 0 0.37683778036238852 0.32283966883069543 0 0.37341720693621988 0.3072060069718926 0 0.37683778036238852 0.32283966883069543 0 0.36743902560056457 0.34283426110622212 0 0.37683778036238852 0.32283966883069543 0 0.38114831046626302 0.34254085973644938 0 0.37683778036238852 0.32283966883069543 0 0.38114831046626302 0.34254085973644938 0 0.38114831046626302 0.34254085973644938 0 0.38545884057013569 0.36224205064220388 0 0.39900102430130929 0.35796435652029501 0 0.38114831046626302 0.34254085973644938 0 0.38545884057013569 0.36224205064220388 0 0.37450386392566309 0.35250903932813898 0 0.38114831046626302 0.34254085973644938 0 0.38545884057013569 0.36224205064220388 0 0.36691376351437882 0.36217119597371328 0 0.37450386392566309 0.35250903932813898 0 0.38545884057013569 0.36224205064220388 0 0.38545884057013569 0.36224205064220388 0 0.37929378270380659 0.3724324804531805 0 0.38976937067400907 0.38194324154795811 0 0.38545884057013569 0.36224205064220388 0 0.38976937067400907 0.38194324154795811 0 0.36691376351437882 0.36217119597371328 0 0.38545884057013569 0.36224205064220388 0 0.37929378270380659 0.3724324804531805 0 0.41026248305485458 0.37260894373518821 0 0.39900102430130929 0.35796435652029501 0 0.38976937067400907 0.38194324154795811 0 0.39900102430130929 0.35796435652029501 0 0.38976937067400907 0.38194324154795811 0 0.38545884057013569 0.36224205064220388 0 0.39900102430130929 0.35796435652029501 0 0.38976937067400907 0.38194324154795811 0 0.40823267792860868 0.33398547149263169 0 0.39900102430130929 0.35796435652029501 0 0.40823267792860868 0.33398547149263169 0 0.38114831046626302 0.34254085973644938 0 0.39900102430130929 0.35796435652029501 0 0.39119121651145811 0.38844175927248081 0 0.39663588658196702 0.41332651402262588 0 0.39119121651145811 0.38844175927248081 0 0.39663588658196702 0.41332651402262588 0 0.39702172168941779 0.40833197193719339 0 0.39119121651145811 0.38844175927248081 0 0.38814546080838769 0.40301694858405129 0 0.39663588658196702 0.41332651402262588 0 0.40398378192387913 0.39549148562413172 0 0.39119121651145811 0.38844175927248081 0 0.39702172168941779 0.40833197193719339 0 0.40548202512615289 0.40437777039799361 0 0.40398378192387913 0.39549148562413172 0 0.39702172168941779 0.40833197193719339 0 0.41026248305485458 0.37260894373518821 0 0.39119121651145811 0.38844175927248081 0 0.38976937067400907 0.38194324154795811 0 0.40398378192387913 0.39549148562413172 0 0.39119121651145811 0.38844175927248081 0 0.40959902796115732 0.38762686363995241 0 0.41026248305485458 0.37260894373518821 0 0.39119121651145811 0.38844175927248081 0 0.41026248305485458 0.37260894373518821 0 0.39119121651145811 0.38844175927248081 0 0.40959902796115732 0.38762686363995241 0 0.37214310728969507 0.38163678050394728 0 0.38976937067400907 0.38194324154795811 0 0.38542429819162038 0.39322940951944768 0 0.39119121651145811 0.38844175927248081 0 0.38976937067400907 0.38194324154795811 0 0.38542429819162038 0.39322940951944768 0 0.37214310728969507 0.38163678050394728 0 0.37929378270380659 0.3724324804531805 0 0.38976937067400907 0.38194324154795811 0 0.38976937067400907 0.38194324154795811 0 0.38542429819162038 0.39322940951944768 0 0.39119121651145811 0.38844175927248081 0 0.38976937067400907 0.38194324154795811 0 0.37427470545603342 0.39259886488437662 0 0.37214310728969507 0.38163678050394728 0 0.38542429819162038 0.39322940951944768 0 0.37284319458095871 0.40367414281862951 0 0.37427470545603342 0.39259886488437662 0 0.38542429819162038 0.39322940951944768 0 0.39119121651145811 0.38844175927248081 0 0.38542429819162038 0.39322940951944768 0 0.38814546080838769 0.40301694858405129 0 0.39119121651145811 0.38844175927248081 0 0.38542429819162038 0.39322940951944768 0 0.38542429819162038 0.39322940951944768 0 0.38814546080838769 0.40301694858405129 0 0.37977049835668281 0.40791494925961469 0 0.38542429819162038 0.39322940951944768 0 0.37977049835668281 0.40791494925961469 0 0.37284319458095871 0.40367414281862951 0 0.38542429819162038 0.39322940951944768 0 0.37284319458095871 0.40367414281862951 0 0.38542429819162038 0.39322940951944768 0 0.37977049835668281 0.40791494925961469 0 0.37411669852175389 0.42260048899978497 0 0.37977049835668281 0.40791494925961469 0 0.37411669852175389 0.42260048899978497 0 0.37977049835668281 0.40791494925961469 0 0.38559222735897553 0.41381259394078812 0 0.38559222735897553 0.41381259394078812 0 0.38929259252608628 0.42220406883786349 0 0.39663588658196702 0.41332651402262588 0 0.37411669852175389 0.42260048899978497 0 0.38559222735897553 0.41381259394078812 0 0.38929259252608628 0.42220406883786349 0 0.38814546080838769 0.40301694858405129 0 0.38559222735897553 0.41381259394078812 0 0.39663588658196702 0.41332651402262588 0 0.38814546080838769 0.40301694858405129 0 0.37977049835668281 0.40791494925961469 0 0.38559222735897553 0.41381259394078812 0 0.37411669852175389 0.42260048899978497 0 0.38929259252608628 0.42220406883786349 0 0.38084676333875378 0.43932955647730842 0 0.38929259252608628 0.42220406883786349 0 0.39711987732830029 0.43444333305958449 0 0.38084676333875378 0.43932955647730842 0 0.37411669852175389 0.42260048899978497 0 0.38929259252608628 0.42220406883786349 0 0.39711987732830029 0.43444333305958449 0 0.40446848653041878 0.42180764867594411 0 0.41690973072359999 0.44432134268332668 0 0.38929259252608628 0.42220406883786349 0 0.39711987732830029 0.43444333305958449 0 0.40446848653041878 0.42180764867594411 0 0.38929259252608628 0.42220406883786349 0 0.40446848653041878 0.42180764867594411 0 0.38929259252608628 0.42220406883786349 0 0.39663588658196702 0.41332651402262588 0 0.40446848653041878 0.42180764867594411 0 0.39702172168941779 0.40833197193719339 0 0.40446848653041878 0.42180764867594411 0 0.39663588658196702 0.41332651402262588 0 0.39702172168941779 0.40833197193719339 0 0.40446848653041878 0.42180764867594411 0 0.40548202512615289 0.40437777039799361 0 0.39702172168941779 0.40833197193719339 0 0.40451271911728331 0.41121417646934749 0 0.39702172168941779 0.40833197193719339 0 0.40446848653041878 0.42180764867594411 0 0.40451271911728331 0.41121417646934749 0 0.40446848653041878 0.42180764867594411 0 0.41107864312314479 0.41033931486625852 0 0.42454928240135031 0.42128310413521203 0 0.40548202512615289 0.40437777039799361 0 0.40451271911728331 0.41121417646934749 0 0.41107864312314479 0.41033931486625852 0 0.40446848653041878 0.42180764867594411 0 0.42454928240135031 0.42128310413521203 0 0.40446848653041878 0.42180764867594411 0 0.40451271911728331 0.41121417646934749 0 0.41107864312314479 0.41033931486625852 0 0.41107864312314479 0.41033931486625852 0 0.42134023352357208 0.40955821101996692 0 0.41808966835947148 0.39928257245119769 0 0.41107864312314479 0.41033931486625852 0 0.42134023352357208 0.40955821101996692 0 0.42454928240135031 0.42128310413521203 0 0.40446848653041878 0.42180764867594411 0 0.42454928240135031 0.42128310413521203 0 0.41690973072359999 0.44432134268332668 0 0.40446848653041878 0.42180764867594411 0 0.41690973072359999 0.44432134268332668 0 0.42454928240135031 0.42128310413521203 0 0.4430501017915256 0.44077023404481391 0 0.41690973072359999 0.44432134268332668 0 0.42454928240135031 0.42128310413521203 0 0.43164334021032169 0.40732785262719928 0 0.44607845725439388 0.41600061615667161 0 0.42134023352357208 0.40955821101996692 0 0.42454928240135031 0.42128310413521203 0 0.43164334021032169 0.40732785262719928 0 0.43164334021032169 0.40732785262719928 0 0.41808966835947148 0.39928257245119769 0 0.43987594111802741 0.39355899755247048 0 0.41808966835947148 0.39928257245119769 0 0.42446798995612228 0.3823095571167629 0 0.43987594111802741 0.39355899755247048 0 0.42134023352357208 0.40955821101996692 0 0.43164334021032169 0.40732785262719928 0 0.41808966835947148 0.39928257245119769 0 0.40398378192387913 0.39549148562413172 0 0.41808966835947148 0.39928257245119769 0 0.40959902796115732 0.38762686363995241 0 0.40548202512615289 0.40437777039799361 0 0.40398378192387913 0.39549148562413172 0 0.41808966835947148 0.39928257245119769 0 0.40548202512615289 0.40437777039799361 0 0.41107864312314479 0.41033931486625852 0 0.41808966835947148 0.39928257245119769 0 0.41808966835947148 0.39928257245119769 0 0.40959902796115732 0.38762686363995241 0 0.42446798995612228 0.3823095571167629 0 0.41026248305485458 0.37260894373518821 0 0.40959902796115732 0.38762686363995241 0 0.42446798995612228 0.3823095571167629 0 0.4469726374041233 0.3693248608552176 0 0.42446798995612228 0.3823095571167629 0 0.43987594111802741 0.39355899755247048 0 0.4469726374041233 0.3693248608552176 0 0.43987594111802741 0.39355899755247048 0 0.45907188490453621 0.38737560485498618 0 0.43987594111802741 0.39355899755247048 0 0.45720937254058469 0.40327253771018262 0 0.45907188490453621 0.38737560485498618 0 0.43164334021032169 0.40732785262719928 0 0.43987594111802741 0.39355899755247048 0 0.44607845725439388 0.41600061615667161 0 0.43987594111802741 0.39355899755247048 0 0.45720937254058469 0.40327253771018262 0 0.44607845725439388 0.41600061615667161 0 0.45720937254058469 0.40327253771018262 0 0.45907188490453621 0.38737560485498618 0 0.47143988281895538 0.40187628876327219 0 0.46536167478960361 0.37187362779173488 0 0.45907188490453621 0.38737560485498618 0 0.47787942611742912 0.38368470242369263 0 0.46536167478960361 0.37187362779173488 0 0.4469726374041233 0.3693248608552176 0 0.45907188490453621 0.38737560485498618 0 0.47787942611742912 0.38368470242369263 0 0.47143988281895538 0.40187628876327219 0 0.48679585158087002 0.39659833106046111 0 0.47143988281895538 0.40187628876327219 0 0.48679585158087002 0.39659833106046111 0 0.4875578346726544 0.41807660382116152 0 0.45907188490453621 0.38737560485498618 0 0.47787942611742912 0.38368470242369263 0 0.47143988281895538 0.40187628876327219 0 0.5 0.40604889076109041 0 0.48679585158087002 0.39659833106046111 0 0.5 0.37906405875201771 0 0.47787942611742912 0.38368470242369263 0 0.48679585158087002 0.39659833106046111 0 0.5 0.37906405875201771 0 0.48200019615565709 0.36436661532740461 0 0.47787942611742912 0.38368470242369263 0 0.5 0.37906405875201771 0 0.48459523642972518 0.43512642408823188 0 0.49999999999999939 0.43303372277016322 0 0.4875578346726544 0.41807660382116152 0 0.48459523642972518 0.43512642408823188 0 0.49999999999999939 0.43303372277016322 0 0.5 0.40604889076109041 0 0.48679585158087002 0.39659833106046111 0 0.4875578346726544 0.41807660382116152 0 0.5 0.40604889076109041 0 0.49999999999999939 0.43303372277016322 0 0.4875578346726544 0.41807660382116152 0 0.47143988281895538 0.40187628876327219 0 0.4875578346726544 0.41807660382116152 0 0.47031517783920318 0.41954770708478623 0 0.47143988281895538 0.40187628876327219 0 0.47031517783920318 0.41954770708478623 0 0.48459523642972518 0.43512642408823188 0 0.4875578346726544 0.41807660382116152 0 0.47031517783920318 0.41954770708478623 0 0.48459523642972518 0.43512642408823188 0 0.47031517783920318 0.41954770708478623 0 0.46919047285945109 0.43721912540630031 0 0.47031517783920318 0.41954770708478623 0 0.46919047285945109 0.43721912540630031 0 0.48459523642972518 0.43512642408823188 0 0.46919047285945109 0.43721912540630031 0 0.46919047285945109 0.43721912540630031 0 0.45607481277465389 0.42772178944190581 0 0.4430501017915256 0.44077023404481391 0 0.47031517783920318 0.41954770708478623 0 0.46919047285945109 0.43721912540630031 0 0.45607481277465389 0.42772178944190581 0 0.47031517783920318 0.41954770708478623 0 0.45607481277465389 0.42772178944190581 0 0.44607845725439388 0.41600061615667161 0 0.45720937254058469 0.40327253771018262 0 0.47143988281895538 0.40187628876327219 0 0.47031517783920318 0.41954770708478623 0 0.45720937254058469 0.40327253771018262 0 0.47031517783920318 0.41954770708478623 0 0.44607845725439388 0.41600061615667161 0 0.45607481277465389 0.42772178944190581 0 0.44607845725439388 0.41600061615667161 0 0.4430501017915256 0.44077023404481391 0 0.42454928240135031 0.42128310413521203 0 0.44607845725439388 0.41600061615667161 0 0.4430501017915256 0.44077023404481391 0 0.49999999999999939 0.43303372277016322 0 0.48136182323064919 0.45709973294516648 0 0.5 0.5 0 0.4430501017915256 0.44077023404481391 0 0.44872446492882623 0.46668211751116151 0 0.42716588521929399 0.46288089512221908 0 0.46785856765139022 0.45814608360420128 0 0.46652666244332952 0.47907304180210247 0 0.4430501017915256 0.44077023404481391 0 0.44872446492882623 0.46668211751116151 0 0.46785856765139022 0.45814608360420128 0 0.44872446492882623 0.46668211751116151 0 0.46785856765139022 0.45814608360420128 0 0.46652666244332952 0.47907304180210247 0 0.46919047285945109 0.43721912540630031 0 0.46785856765139022 0.45814608360420128 0 0.46919047285945109 0.43721912540630031 0 0.4430501017915256 0.44077023404481391 0 0.46785856765139022 0.45814608360420128 0 0.46919047285945109 0.43721912540630031 0 0.4430501017915256 0.44077023404481391 0 0.48459523642972518 0.43512642408823188 0 0.46919047285945109 0.43721912540630031 0 0.48136182323064919 0.45709973294516648 0 0.46919047285945109 0.43721912540630031 0 0.46785856765139022 0.45814608360420128 0 0.48136182323064919 0.45709973294516648 0 0.46785856765139022 0.45814608360420128 0 0.48136182323064919 0.45709973294516648 0 0.46652666244332952 0.47907304180210247 0 0.48459523642972518 0.43512642408823188 0 0.49999999999999939 0.43303372277016322 0 0.48136182323064919 0.45709973294516648 0 0.48136182323064919 0.45709973294516648 0 0.5 0.5 0 0.46652666244332952 0.47907304180210247 0 0.5 0.5 0 0.46519475723526849 0.50000000000000366 0 0.46652666244332952 0.47907304180210247 0 0.46519475723526849 0.50000000000000366 0 0.46652666244332952 0.47907304180210247 0 0.46519475723526849 0.50000000000000366 0 0.46652666244332952 0.47907304180210247 0 0.45238345665049501 0.48528624301095658 0 0.46519475723526849 0.50000000000000366 0 0.45238345665049501 0.48528624301095658 0 0.44767819421068139 0.50000000000000422 0 0.44872446492882623 0.46668211751116151 0 0.46652666244332952 0.47907304180210247 0 0.45238345665049501 0.48528624301095658 0 0.44872446492882623 0.46668211751116151 0 0.43742203971498689 0.48144044756111221 0 0.42716588521929399 0.46288089512221908 0 0.44872446492882623 0.46668211751116151 0 0.45238345665049501 0.48528624301095658 0 0.43742203971498689 0.48144044756111221 0 0.44767819421068139 0.50000000000000422 0 0.43742203971498689 0.48144044756111221 0 0.45238345665049501 0.48528624301095658 0 0.44767819421068139 0.50000000000000422 0 0.43742203971498689 0.48144044756111221 0 0.41952854219813551 0.5 0 0.41924159797384708 0.47937351050996291 0 0.43742203971498689 0.48144044756111221 0 0.44767819421068139 0.50000000000000422 0 0.41952854219813551 0.5 0 0.43742203971498689 0.48144044756111221 0 0.41952854219813551 0.5 0 0.41924159797384708 0.47937351050996291 0 0.40075448184321039 0.48137937026778321 0 0.41924159797384708 0.47937351050996291 0 0.40804609434935613 0.46238935066956799 0 0.40075448184321039 0.48137937026778321 0 0.41924159797384708 0.47937351050996291 0 0.43742203971498689 0.48144044756111221 0 0.42716588521929399 0.46288089512221908 0 0.43742203971498689 0.48144044756111221 0 0.42716588521929399 0.46288089512221908 0 0.42716588521929399 0.46288089512221908 0 0.41690973072359999 0.44432134268332668 0 0.4430501017915256 0.44077023404481391 0 0.41690973072359999 0.44432134268332668 0 0.4430501017915256 0.44077023404481391 0 0.42716588521929399 0.46288089512221908 0 0.41690973072359999 0.44432134268332668 0 0.42716588521929399 0.46288089512221908 0 0.41690973072359999 0.44432134268332668 0 0.40804609434935613 0.46238935066956799 0 0.41924159797384708 0.47937351050996291 0 0.42716588521929399 0.46288089512221908 0 0.40804609434935613 0.46238935066956799 0 0.40804609434935613 0.46238935066956799 0 0.39374728757933197 0.44746790673649051 0 0.38426163089839083 0.46487213250996318 0 0.39711987732830029 0.43444333305958449 0 0.41690973072359999 0.44432134268332668 0 0.39374728757933197 0.44746790673649051 0 0.41690973072359999 0.44432134268332668 0 0.39374728757933197 0.44746790673649051 0 0.41690973072359999 0.44432134268332668 0 0.40804609434935613 0.46238935066956799 0 0.39374728757933197 0.44746790673649051 0 0.39711987732830029 0.43444333305958449 0 0.39374728757933197 0.44746790673649051 0 0.38084676333875378 0.43932955647730842 0 0.37058484443506401 0.45061447078965372 0 0.39374728757933197 0.44746790673649051 0 0.38084676333875378 0.43932955647730842 0 0.37058484443506401 0.45061447078965372 0 0.39374728757933197 0.44746790673649051 0 0.37058484443506401 0.45061447078965372 0 0.39374728757933197 0.44746790673649051 0 0.38426163089839083 0.46487213250996318 0 0.37194898797328879 0.45994418933491849 0 0.37058484443506401 0.45061447078965372 0 0.38426163089839083 0.46487213250996318 0 0.3652648981400346 0.47029979777246861 0 0.38426163089839083 0.46487213250996318 0 0.38097782784805367 0.48331026011004302 0 0.38426163089839083 0.46487213250996318 0 0.38097782784805367 0.48331026011004302 0 0.40075448184321039 0.48137937026778321 0 0.36322923817304331 0.5 0 0.38097782784805367 0.48331026011004302 0 0.39137889018558941 0.5 0 0.38097782784805367 0.48331026011004302 0 0.39137889018558941 0.5 0 0.40075448184321039 0.48137937026778321 0 0.41952854219813551 0.5 0 0.39137889018558941 0.5 0 0.40075448184321039 0.48137937026778321 0 0.40804609434935613 0.46238935066956799 0 0.38426163089839083 0.46487213250996318 0 0.40075448184321039 0.48137937026778321 0 0.34321576465417081 0.074443708270417699 0 0.32702676143990089 0.081375297937428939 0 0.33653528856100212 0.094677843659170396 0 0.34321576465417081 0.074443708270417699 0 0.32702676143990089 0.081375297937428939 0 0.33084506607409198 0.058940478544924207 0 0.34321576465417081 0.074443708270417699 0 0.3476266704551797 0.058056005695875497 0 0.33084506607409198 0.058940478544924207 0 0.31494875062116168 0.071912515581528613 0 0.32702676143990089 0.081375297937428939 0 0.33084506607409198 0.058940478544924207 0 0.31494875062116168 0.071912515581528613 0 0.31459834717020668 0.080698041787579999 0 0.32702676143990089 0.081375297937428939 0 0.33653528856100212 0.094677843659170396 0 0.30832926032178709 0.08542899394522499 0 0.32021899964019129 0.099174312751480309 0 0.33653528856100212 0.094677843659170396 0 0.30832926032178709 0.08542899394522499 0 0.31494875062116168 0.071912515581528613 0 0.31459834717020668 0.080698041787579999 0 0.30832926032178709 0.08542899394522499 0 0.31459834717020668 0.080698041787579999 0 0.32702676143990089 0.081375297937428939 0 0.30832926032178709 0.08542899394522499 0 0.32702676143990089 0.081375297937428939 0 0.33653528856100212 0.094677843659170396 0 0.30832926032178709 0.08542899394522499 0 0.32021899964019129 0.099174312751480309 0 0.31329027622231292 0.1133349480452861 0 0.30832926032178709 0.08542899394522499 0 0.32021899964019129 0.099174312751480309 0 0.32476710579773332 0.1085759555719914 0 0.33653528856100212 0.094677843659170396 0 0.32021899964019129 0.099174312751480309 0 0.32476710579773332 0.1085759555719914 0 0.31329027622231292 0.1133349480452861 0 0.32476710579773332 0.1085759555719914 0 0.31329027622231292 0.1133349480452861 0 0.32621235694847978 0.1222722509079311 0 0.32621235694847978 0.1222722509079311 0 0.33485526837879898 0.1126352037335573 0 0.34073232166590961 0.13548419702024789 0 0.32476710579773332 0.1085759555719914 0 0.32621235694847978 0.1222722509079311 0 0.33485526837879898 0.1126352037335573 0 0.32476710579773332 0.1085759555719914 0 0.33485526837879898 0.1126352037335573 0 0.33653528856100212 0.094677843659170396 0 0.33653528856100212 0.094677843659170396 0 0.36474131680021682 0.10392669337311709 0 0.35484663379428322 0.085732721314953866 0 0.33485526837879898 0.1126352037335573 0 0.33653528856100212 0.094677843659170396 0 0.36474131680021682 0.10392669337311709 0 0.33653528856100212 0.094677843659170396 0 0.36474131680021682 0.10392669337311709 0 0.33485526837879898 0.1126352037335573 0 0.36071170464561247 0.1236790880006756 0 0.33485526837879898 0.1126352037335573 0 0.36071170464561247 0.1236790880006756 0 0.36474131680021682 0.10392669337311709 0 0.33485526837879898 0.1126352037335573 0 0.36071170464561247 0.1236790880006756 0 0.34073232166590961 0.13548419702024789 0 0.36071170464561247 0.1236790880006756 0 0.36474131680021682 0.10392669337311709 0 0.37682913357119818 0.1195748380276776 0 0.36474131680021682 0.10392669337311709 0 0.37033576376627703 0.085135047915449361 0 0.38239775012585042 0.09679742214694266 0 0.36474131680021682 0.10392669337311709 0 0.37033576376627703 0.085135047915449361 0 0.35484663379428322 0.085732721314953866 0 0.37033576376627703 0.085135047915449361 0 0.35484663379428322 0.085732721314953866 0 0.35940503518974942 0.070480313356614727 0 0.34321576465417081 0.074443708270417699 0 0.33653528856100212 0.094677843659170396 0 0.35484663379428322 0.085732721314953866 0 0.34321576465417081 0.074443708270417699 0 0.35940503518974942 0.070480313356614727 0 0.3476266704551797 0.058056005695875497 0 0.34321576465417081 0.074443708270417699 0 0.35484663379428322 0.085732721314953866 0 0.35940503518974942 0.070480313356614727 0 0.37033576376627703 0.085135047915449361 0 0.35940503518974942 0.070480313356614727 0 0.37531219647269282 0.067622786244197375 0 0.35940503518974942 0.070480313356614727 0 0.36417589956372959 0.048138366761666808 0 0.37531219647269282 0.067622786244197375 0 0.36417589956372959 0.048138366761666808 0 0.37531219647269282 0.067622786244197375 0 0.384307655284853 0.05586145074736424 0 0.36417589956372959 0.048138366761666808 0 0.36722778485000179 0.026640642846563981 0 0.35307254755412459 0.02770323183315344 0 0.36417589956372959 0.048138366761666808 0 0.36722778485000179 0.026640642846563981 0 0.38681003011234388 0.039596186089885431 0 0.36417589956372959 0.048138366761666808 0 0.35307254755412459 0.02770323183315344 0 0.34132169578246141 0.039389654490366147 0 0.35940503518974942 0.070480313356614727 0 0.36417589956372959 0.048138366761666808 0 0.3476266704551797 0.058056005695875497 0 0.36417589956372959 0.048138366761666808 0 0.3476266704551797 0.058056005695875497 0 0.34132169578246141 0.039389654490366147 0 0.36810935730077649 0.01191301879654528 0 0.37296979266914171 -0.0020125707088021081 0 0.35956703262594519 -3.0653365822368511e-05 0 0.36810935730077649 0.01191301879654528 0 0.36722778485000179 0.026640642846563981 0 0.35307254755412459 0.02770323183315344 0 0.35307254755412459 0.02770323183315344 0 0.34508123529235257 0.01343531665110261 0 0.34132169578246141 0.039389654490366147 0 0.36810935730077649 0.01191301879654528 0 0.35307254755412459 0.02770323183315344 0 0.34508123529235257 0.01343531665110261 0 0.34508123529235257 0.01343531665110261 0 0.35956703262594519 -3.0653365822368511e-05 0 0.34884077480224412 -0.01251902118816095 0 0.34508123529235257 0.01343531665110261 0 0.34884077480224412 -0.01251902118816095 0 0.36810935730077649 0.01191301879654528 0 0.34508123529235257 0.01343531665110261 0 0.35956703262594519 -3.0653365822368511e-05 0 0.34508123529235257 0.01343531665110261 0 0.33416824843822612 0.0028543964330874148 0 0.34884077480224412 -0.01251902118816095 0 0.34508123529235257 0.01343531665110261 0 0.33416824843822612 0.0028543964330874148 0 0.32548145927566891 0.022594376721784229 0 0.34508123529235257 0.01343531665110261 0 0.34132169578246141 0.039389654490366147 0 0.34508123529235257 0.01343531665110261 0 0.32548145927566891 0.022594376721784229 0 0.34132169578246141 0.039389654490366147 0 0.32548145927566891 0.022594376721784229 0 0.31871970847357589 0.0081850073039730943 0 0.30216211934907478 0.02061326415005069 0 0.32548145927566891 0.022594376721784229 0 0.31231019776705898 0.035375228694434983 0 0.30216211934907478 0.02061326415005069 0 0.33416824843822612 0.0028543964330874148 0 0.32548145927566891 0.022594376721784229 0 0.31871970847357589 0.0081850073039730943 0 0.31871970847357589 0.0081850073039730943 0 0.32285881637292918 -0.0045798931398973834 0 0.3070570211907484 -0.0028630152284567778 0 0.33416824843822612 0.0028543964330874148 0 0.31871970847357589 0.0081850073039730943 0 0.32285881637292918 -0.0045798931398973834 0 0.3476266704551797 0.058056005695875497 0 0.33084506607409198 0.058940478544924207 0 0.34132169578246141 0.039389654490366147 0 0.32548145927566891 0.022594376721784229 0 0.34132169578246141 0.039389654490366147 0 0.32499558333727901 0.040861305304805778 0 0.33084506607409198 0.058940478544924207 0 0.34132169578246141 0.039389654490366147 0 0.32499558333727901 0.040861305304805778 0 0.32548145927566891 0.022594376721784229 0 0.32499558333727901 0.040861305304805778 0 0.31231019776705898 0.035375228694434983 0 0.32499558333727901 0.040861305304805778 0 0.31346324054534608 0.052101808400430369 0 0.31231019776705898 0.035375228694434983 0 0.33084506607409198 0.058940478544924207 0 0.32499558333727901 0.040861305304805778 0 0.31346324054534608 0.052101808400430369 0 0.31494875062116168 0.071912515581528613 0 0.33084506607409198 0.058940478544924207 0 0.31346324054534608 0.052101808400430369 0 0.31346324054534608 0.052101808400430369 0 0.29726721750739732 0.044089543528557512 0 0.30093287924438011 0.064147611147035363 0 0.29726721750739732 0.044089543528557512 0 0.29358724235211903 0.061738952576121803 0 0.30093287924438011 0.064147611147035363 0 0.29726721750739732 0.044089543528557512 0 0.30093287924438011 0.064147611147035363 0 0.29726721750739732 0.044089543528557512 0 0.30216211934907478 0.02061326415005069 0 0.31346324054534608 0.052101808400430369 0 0.31231019776705898 0.035375228694434983 0 0.29726721750739732 0.044089543528557512 0 0.31231019776705898 0.035375228694434983 0 0.29726721750739732 0.044089543528557512 0 0.30216211934907478 0.02061326415005069 0 0.29726721750739732 0.044089543528557512 0 0.27584954185973548 0.03105226952815552 0 0.27796736073267031 0.049273792743801732 0 0.29726721750739732 0.044089543528557512 0 0.2936236058375411 0.024152131270374709 0 0.29726721750739732 0.044089543528557512 0 0.2936236058375411 0.024152131270374709 0 0.27584954185973548 0.03105226952815552 0 0.29726721750739732 0.044089543528557512 0 0.29358724235211903 0.061738952576121803 0 0.27796736073267031 0.049273792743801732 0 0.29358724235211903 0.061738952576121803 0 0.27796736073267031 0.049273792743801732 0 0.279541133740286 0.065264407238226546 0 0.29726721750739732 0.044089543528557512 0 0.29358724235211903 0.061738952576121803 0 0.30216211934907478 0.02061326415005069 0 0.28997999416768933 0.0042147190121911496 0 0.3070570211907484 -0.0028630152284567778 0 0.31871970847357589 0.0081850073039730943 0 0.30216211934907478 0.02061326415005069 0 0.3070570211907484 -0.0028630152284567778 0 0.30216211934907478 0.02061326415005069 0 0.3070570211907484 -0.0028630152284567778 0 0.29726721750739732 0.044089543528557512 0 0.30216211934907478 0.02061326415005069 0 0.2936236058375411 0.024152131270374709 0 0.2936236058375411 0.024152131270374709 0 0.27667655311040251 0.009795527316697545 0 0.27584954185973548 0.03105226952815552 0 0.30216211934907478 0.02061326415005069 0 0.2936236058375411 0.024152131270374709 0 0.28997999416768933 0.0042147190121911496 0 0.2936236058375411 0.024152131270374709 0 0.28997999416768933 0.0042147190121911496 0 0.27667655311040251 0.009795527316697545 0 0.2936236058375411 0.024152131270374709 0 0.28997999416768933 0.0042147190121911496 0 0.28997999416768933 0.0042147190121911496 0 0.27667655311040251 0.009795527316697545 0 0.2817679601321566 -0.0045955458450287548 0 0.27667655311040251 0.009795527316697545 0 0.26538461154397419 0.017502889771131829 0 0.26030714940074379 0.0059352488896731439 0 0.27667655311040251 0.009795527316697545 0 0.26030714940074379 0.0059352488896731439 0 0.26820256912831247 -0.0047340834733860136 0 0.27667655311040251 0.009795527316697545 0 0.26820256912831247 -0.0047340834733860136 0 0.2817679601321566 -0.0045955458450287548 0 0.27584954185973548 0.03105226952815552 0 0.2588284675124109 0.02895818885887616 0 0.26538461154397419 0.017502889771131829 0 0.27667655311040251 0.009795527316697545 0 0.27584954185973548 0.03105226952815552 0 0.26538461154397419 0.017502889771131829 0 0.24464265949144229 0.031433111837902157 0 0.2588284675124109 0.02895818885887616 0 0.25104916226469048 0.01460659558842896 0 0.2588284675124109 0.02895818885887616 0 0.26538461154397419 0.017502889771131829 0 0.25104916226469048 0.01460659558842896 0 0.25104916226469048 0.01460659558842896 0 0.26030714940074379 0.0059352488896731439 0 0.25003495375332918 -0.0026426516414230078 0 0.26538461154397419 0.017502889771131829 0 0.25104916226469048 0.01460659558842896 0 0.26030714940074379 0.0059352488896731439 0 0.27796736073267031 0.049273792743801732 0 0.26278714118156921 0.070495582831462983 0 0.279541133740286 0.065264407238226546 0 0.27796736073267031 0.049273792743801732 0 0.26119897677374893 0.043593813207648331 0 0.26278714118156921 0.070495582831462983 0 0.27584954185973548 0.03105226952815552 0 0.27796736073267031 0.049273792743801732 0 0.26119897677374893 0.043593813207648331 0 0.24464265949144229 0.031433111837902157 0 0.2588284675124109 0.02895818885887616 0 0.26119897677374893 0.043593813207648331 0 0.27584954185973548 0.03105226952815552 0 0.2588284675124109 0.02895818885887616 0 0.26119897677374893 0.043593813207648331 0 0.24547365183322131 0.050191514344339862 0 0.24464265949144229 0.031433111837902157 0 0.26119897677374893 0.043593813207648331 0 0.24547365183322131 0.050191514344339862 0 0.26119897677374893 0.043593813207648331 0 0.26278714118156921 0.070495582831462983 0 0.24647214423466929 0.089125374252427669 0 0.26994880221321799 0.085116463030039863 0 0.26052139092797749 0.096953701358618999 0 0.24647214423466929 0.089125374252427669 0 0.26278714118156921 0.070495582831462983 0 0.26994880221321799 0.085116463030039863 0 0.26994880221321799 0.085116463030039863 0 0.28573346209472089 0.091355655386134244 0 0.26052139092797749 0.096953701358618999 0 0.26278714118156921 0.070495582831462983 0 0.26994880221321799 0.085116463030039863 0 0.28990726719683729 0.079388361623685413 0 0.26278714118156921 0.070495582831462983 0 0.28990726719683729 0.079388361623685413 0 0.26278714118156921 0.070495582831462983 0 0.279541133740286 0.065264407238226546 0 0.28990726719683729 0.079388361623685413 0 0.29358724235211903 0.061738952576121803 0 0.28990726719683729 0.079388361623685413 0 0.29358724235211903 0.061738952576121803 0 0.279541133740286 0.065264407238226546 0 0.28990726719683729 0.079388361623685413 0 0.29358724235211903 0.061738952576121803 0 0.28990726719683729 0.079388361623685413 0 0.30093287924438011 0.064147611147035363 0 0.28990726719683729 0.079388361623685413 0 0.28408098612729471 0.1073315985976707 0 0.26994880221321799 0.085116463030039863 0 0.28573346209472089 0.091355655386134244 0 0.28990726719683729 0.079388361623685413 0 0.28573346209472089 0.091355655386134244 0 0.28990726719683729 0.079388361623685413 0 0.28408098612729471 0.1073315985976707 0 0.28990726719683729 0.079388361623685413 0 0.3045985409813694 0.084205678765511938 0 0.29697819269376019 0.097186470371498551 0 0.28990726719683729 0.079388361623685413 0 0.3045985409813694 0.084205678765511938 0 0.3045985409813694 0.084205678765511938 0 0.30832926032178709 0.08542899394522499 0 0.30868582832465241 0.1065708318511175 0 0.31494875062116168 0.071912515581528613 0 0.3045985409813694 0.084205678765511938 0 0.30832926032178709 0.08542899394522499 0 0.3045985409813694 0.084205678765511938 0 0.30832926032178709 0.08542899394522499 0 0.31494875062116168 0.071912515581528613 0 0.31346324054534608 0.052101808400430369 0 0.30093287924438011 0.064147611147035363 0 0.3045985409813694 0.084205678765511938 0 0.30093287924438011 0.064147611147035363 0 0.28990726719683729 0.079388361623685413 0 0.3045985409813694 0.084205678765511938 0 0.30093287924438011 0.064147611147035363 0 0.31494875062116168 0.071912515581528613 0 0.3045985409813694 0.084205678765511938 0 0.30093287924438011 0.064147611147035363 0 0.31329027622231292 0.1133349480452861 0 0.29711477439482259 0.1205117213636932 0 0.30003001155256859 0.10898711404585321 0 0.31329027622231292 0.1133349480452861 0 0.29711477439482259 0.1205117213636932 0 0.30733605305346801 0.1281681588021433 0 0.31329027622231292 0.1133349480452861 0 0.30868582832465241 0.1065708318511175 0 0.30003001155256859 0.10898711404585321 0 0.3045985409813694 0.084205678765511938 0 0.30868582832465241 0.1065708318511175 0 0.29697819269376019 0.097186470371498551 0 0.31329027622231292 0.1133349480452861 0 0.30832926032178709 0.08542899394522499 0 0.30868582832465241 0.1065708318511175 0 0.3045985409813694 0.084205678765511938 0 0.30868582832465241 0.1065708318511175 0 0.31329027622231292 0.1133349480452861 0 0.30832926032178709 0.08542899394522499 0 0.30868582832465241 0.1065708318511175 0 0.29697819269376019 0.097186470371498551 0 0.30003001155256859 0.10898711404585321 0 0.29697819269376019 0.097186470371498551 0 0.30003001155256859 0.10898711404585321 0 0.28408098612729471 0.1073315985976707 0 0.28990726719683729 0.079388361623685413 0 0.29697819269376019 0.097186470371498551 0 0.28408098612729471 0.1073315985976707 0 0.29711477439482259 0.1205117213636932 0 0.30003001155256859 0.10898711404585321 0 0.28408098612729471 0.1073315985976707 0 0.29711477439482259 0.1205117213636932 0 0.28408098612729471 0.1073315985976707 0 0.27825470505775241 0.1352748355716559 0 0.28408098612729471 0.1073315985976707 0 0.27825470505775241 0.1352748355716559 0 0.28408098612729471 0.1073315985976707 0 0.27155754232721829 0.1231889084486099 0 0.26943848897292638 0.10864146579147101 0 0.28408098612729471 0.1073315985976707 0 0.27155754232721829 0.1231889084486099 0 0.27825470505775241 0.1352748355716559 0 0.28573346209472089 0.091355655386134244 0 0.28408098612729471 0.1073315985976707 0 0.26943848897292638 0.10864146579147101 0 0.28573346209472089 0.091355655386134244 0 0.26943848897292638 0.10864146579147101 0 0.26052139092797749 0.096953701358618999 0 0.28573346209472089 0.091355655386134244 0 0.26052139092797749 0.096953701358618999 0 0.26943848897292638 0.10864146579147101 0 0.26052139092797749 0.096953701358618999 0 0.25349222478081151 0.1150387732394654 0 0.27155754232721829 0.1231889084486099 0 0.25349222478081151 0.1150387732394654 0 0.25450300942201809 0.13552387634513441 0 0.27155754232721829 0.1231889084486099 0 0.26943848897292638 0.10864146579147101 0 0.25349222478081151 0.1150387732394654 0 0.27155754232721829 0.1231889084486099 0 0.25450300942201809 0.13552387634513441 0 0.27155754232721829 0.1231889084486099 0 0.25450300942201809 0.13552387634513441 0 0.26647436710491729 0.14450839144990599 0 0.27155754232721829 0.1231889084486099 0 0.27825470505775241 0.1352748355716559 0 0.26647436710491729 0.14450839144990599 0 0.27825470505775241 0.1352748355716559 0 0.2724284239882101 0.16321807254564141 0 0.27825470505775241 0.1352748355716559 0 0.2724284239882101 0.16321807254564141 0 0.29219122382683099 0.15146406998628401 0 0.27825470505775241 0.1352748355716559 0 0.26647436710491729 0.14450839144990599 0 0.2724284239882101 0.16321807254564141 0 0.26647436710491729 0.14450839144990599 0 0.2546600769419563 0.15369846568165929 0 0.2724284239882101 0.16321807254564141 0 0.25450300942201809 0.13552387634513441 0 0.26647436710491729 0.14450839144990599 0 0.2546600769419563 0.15369846568165929 0 0.24671787672033679 0.17140241891229779 0 0.2546600769419563 0.15369846568165929 0 0.2724284239882101 0.16321807254564141 0 0.24671787672033679 0.17140241891229779 0 0.2724284239882101 0.16321807254564141 0 0.26660214291866791 0.19116130951962679 0 0.2724284239882101 0.16321807254564141 0 0.26660214291866791 0.19116130951962679 0 0.27763657324673308 0.18560230854477031 0 0.2724284239882101 0.16321807254564141 0 0.29087558546176001 0.17963886828427039 0 0.27763657324673308 0.18560230854477031 0 0.2724284239882101 0.16321807254564141 0 0.26660214291866791 0.19116130951962679 0 0.2724284239882101 0.16321807254564141 0 0.29528639462461709 0.16554271208302149 0 0.29219122382683099 0.15146406998628401 0 0.2724284239882101 0.16321807254564141 0 0.29528639462461709 0.16554271208302149 0 0.29087558546176001 0.17963886828427039 0 0.27763657324673308 0.18560230854477031 0 0.29087558546176001 0.17963886828427039 0 0.28623017210150969 0.19448764585622741 0 0.29087558546176001 0.17963886828427039 0 0.30941778853612001 0.172635297793097 0 0.30121520124504181 0.19524374170421399 0 0.29528639462461709 0.16554271208302149 0 0.29087558546176001 0.17963886828427039 0 0.30941778853612001 0.172635297793097 0 0.30941778853612001 0.172635297793097 0 0.30121520124504181 0.19524374170421399 0 0.30941778853612001 0.172635297793097 0 0.30121520124504181 0.19524374170421399 0 0.31535396758215201 0.18614837857672481 0 0.29528639462461709 0.16554271208302149 0 0.30941778853612001 0.172635297793097 0 0.306889369411183 0.15614833588077001 0 0.29528639462461709 0.16554271208302149 0 0.306889369411183 0.15614833588077001 0 0.29219122382683099 0.15146406998628401 0 0.306889369411183 0.15614833588077001 0 0.30068786947389492 0.13758506365424741 0 0.31825129212284148 0.1412409021453466 0 0.306889369411183 0.15614833588077001 0 0.30068786947389492 0.13758506365424741 0 0.29219122382683099 0.15146406998628401 0 0.29711477439482259 0.1205117213636932 0 0.30733605305346801 0.1281681588021433 0 0.30068786947389492 0.13758506365424741 0 0.30733605305346801 0.1281681588021433 0 0.30068786947389492 0.13758506365424741 0 0.31825129212284148 0.1412409021453466 0 0.29711477439482259 0.1205117213636932 0 0.27825470505775241 0.1352748355716559 0 0.30068786947389492 0.13758506365424741 0 0.27825470505775241 0.1352748355716559 0 0.30068786947389492 0.13758506365424741 0 0.29219122382683099 0.15146406998628401 0 0.26993901073603449 0.24410306538797069 0 0.2752438445389947 0.23243604213068941 0 0.28780748500005487 0.2321988620758855 0 0.27842678245359342 0.25805449516366058 0 0.26993901073603449 0.24410306538797069 0 0.28780748500005487 0.2321988620758855 0 0.26993901073603449 0.24410306538797069 0 0.26143949786560139 0.2318329716940907 0 0.2752438445389947 0.23243604213068941 0 0.26993901073603449 0.24410306538797069 0 0.25494958077958341 0.24704778346759729 0 0.26143949786560139 0.2318329716940907 0 0.24230552140110909 0.22847110245847219 0 0.25494958077958341 0.24704778346759729 0 0.26077586184912571 0.219104546493612 0 0.25494958077958341 0.24704778346759729 0 0.26077586184912571 0.219104546493612 0 0.25494958077958341 0.24704778346759729 0 0.26143949786560139 0.2318329716940907 0 0.26077586184912571 0.219104546493612 0 0.26143949786560139 0.2318329716940907 0 0.26077586184912571 0.219104546493612 0 0.27164126693784879 0.21891738194574359 0 0.26143949786560139 0.2318329716940907 0 0.27164126693784879 0.21891738194574359 0 0.28358333070782832 0.22202753503511291 0 0.26143949786560139 0.2318329716940907 0 0.2752438445389947 0.23243604213068941 0 0.28358333070782832 0.22202753503511291 0 0.26143949786560139 0.2318329716940907 0 0.28358333070782832 0.22202753503511291 0 0.26077586184912571 0.219104546493612 0 0.27164126693784879 0.21891738194574359 0 0.27733851931673081 0.2069906745009171 0 0.26077586184912571 0.219104546493612 0 0.27733851931673081 0.2069906745009171 0 0.26660214291866791 0.19116130951962679 0 0.27164126693784879 0.21891738194574359 0 0.27733851931673081 0.2069906745009171 0 0.28358333070782832 0.22202753503511291 0 0.27733851931673081 0.2069906745009171 0 0.28358333070782832 0.22202753503511291 0 0.26077586184912571 0.219104546493612 0 0.26660214291866791 0.19116130951962679 0 0.2427227817794633 0.20177562190038109 0 0.26077586184912571 0.219104546493612 0 0.26660214291866791 0.19116130951962679 0 0.2427227817794633 0.20177562190038109 0 0.24671787672033679 0.17140241891229779 0 0.26660214291866791 0.19116130951962679 0 0.27763657324673308 0.18560230854477031 0 0.26660214291866791 0.19116130951962679 0 0.27109370792562232 0.19195381396672601 0 0.27733851931673081 0.2069906745009171 0 0.26660214291866791 0.19116130951962679 0 0.27109370792562232 0.19195381396672601 0 0.27733851931673081 0.2069906745009171 0 0.27858940708462893 0.19315414109612999 0 0.28623017210150969 0.19448764585622741 0 0.27733851931673081 0.2069906745009171 0 0.27109370792562232 0.19195381396672601 0 0.27858940708462893 0.19315414109612999 0 0.27733851931673081 0.2069906745009171 0 0.27109370792562232 0.19195381396672601 0 0.27763657324673308 0.18560230854477031 0 0.27858940708462893 0.19315414109612999 0 0.28623017210150969 0.19448764585622741 0 0.27763657324673308 0.18560230854477031 0 0.27109370792562232 0.19195381396672601 0 0.27858940708462893 0.19315414109612999 0 0.27733851931673081 0.2069906745009171 0 0.28623017210150969 0.19448764585622741 0 0.28827596746501472 0.20732035654236039 0 0.28623017210150969 0.19448764585622741 0 0.30121520124504181 0.19524374170421399 0 0.28827596746501472 0.20732035654236039 0 0.29087558546176001 0.17963886828427039 0 0.28623017210150969 0.19448764585622741 0 0.30121520124504181 0.19524374170421399 0 0.30121520124504181 0.19524374170421399 0 0.31722387900592092 0.1979278423614674 0 0.31535396758215201 0.18614837857672481 0 0.30121520124504181 0.19524374170421399 0 0.31146317207749158 0.20968215559875381 0 0.31722387900592092 0.1979278423614674 0 0.31146317207749158 0.20968215559875381 0 0.29301261395396327 0.21785218561533101 0 0.31146317207749158 0.20968215559875381 0 0.29301261395396327 0.21785218561533101 0 0.31010013327432379 0.2200141133443918 0 0.30121520124504181 0.19524374170421399 0 0.31146317207749158 0.20968215559875381 0 0.29301261395396327 0.21785218561533101 0 0.30121520124504181 0.19524374170421399 0 0.29301261395396327 0.21785218561533101 0 0.30121520124504181 0.19524374170421399 0 0.29301261395396327 0.21785218561533101 0 0.28827596746501472 0.20732035654236039 0 0.27733851931673081 0.2069906745009171 0 0.28827596746501472 0.20732035654236039 0 0.28358333070782832 0.22202753503511291 0 0.29301261395396327 0.21785218561533101 0 0.28827596746501472 0.20732035654236039 0 0.28358333070782832 0.22202753503511291 0 0.29301261395396327 0.21785218561533101 0 0.28358333070782832 0.22202753503511291 0 0.28780748500005487 0.2321988620758855 0 0.29301261395396327 0.21785218561533101 0 0.28358333070782832 0.22202753503511291 0 0.28358333070782832 0.22202753503511291 0 0.28780748500005487 0.2321988620758855 0 0.2752438445389947 0.23243604213068941 0 0.28358333070782832 0.22202753503511291 0 0.28780748500005487 0.2321988620758855 0 0.29301261395396327 0.21785218561533101 0 0.28780748500005487 0.2321988620758855 0 0.29096805574921131 0.23335012223378751 0 0.29301261395396327 0.21785218561533101 0 0.28780748500005487 0.2321988620758855 0 0.29096805574921131 0.23335012223378751 0 0.31010013327432379 0.2200141133443918 0 0.30296082928090889 0.23060331541183129 0 0.29301261395396327 0.21785218561533101 0 0.29096805574921131 0.23335012223378751 0 0.31010013327432379 0.2200141133443918 0 0.29096805574921131 0.23335012223378751 0 0.31010013327432379 0.2200141133443918 0 0.31010013327432379 0.2200141133443918 0 0.31094716497486968 0.22843713139172611 0 0.30296082928090889 0.23060331541183129 0 0.31094716497486968 0.22843713139172611 0 0.30782252833044588 0.23718413172933439 0 0.31644478647112861 0.23227605407127969 0 0.31094716497486968 0.22843713139172611 0 0.30296082928090889 0.23060331541183129 0 0.30782252833044588 0.23718413172933439 0 0.29096805574921131 0.23335012223378751 0 0.30296082928090889 0.23060331541183129 0 0.30004159505764999 0.23534639384221881 0 0.30004159505764999 0.23534639384221881 0 0.29841496687003388 0.2402480059939221 0 0.30782252833044588 0.23718413172933439 0 0.30296082928090889 0.23060331541183129 0 0.30004159505764999 0.23534639384221881 0 0.30782252833044588 0.23718413172933439 0 0.3078176624771719 0.25120614758642712 0 0.29841496687003388 0.2402480059939221 0 0.30782252833044588 0.23718413172933439 0 0.3078176624771719 0.25120614758642712 0 0.29841496687003388 0.2402480059939221 0 0.29514053821466729 0.24985609646969639 0 0.28780748500005487 0.2321988620758855 0 0.29514053821466729 0.24985609646969639 0 0.29096805574921131 0.23335012223378751 0 0.29841496687003388 0.2402480059939221 0 0.29514053821466729 0.24985609646969639 0 0.27842678245359342 0.25805449516366058 0 0.28780748500005487 0.2321988620758855 0 0.29514053821466729 0.24985609646969639 0 0.28780748500005487 0.2321988620758855 0 0.29096805574921131 0.23335012223378751 0 0.29514053821466729 0.24985609646969639 0 0.27842678245359342 0.25805449516366058 0 0.28780748500005487 0.2321988620758855 0 0.29096805574921131 0.23335012223378751 0 0.30004159505764999 0.23534639384221881 0 0.29841496687003388 0.2402480059939221 0 0.33886092546904878 0.24786697082744721 0 0.33522714738646753 0.23454314765978301 0 0.32244193652835401 0.24455979569445449 0 0.33886092546904878 0.24786697082744721 0 0.33522714738646753 0.23454314765978301 0 0.34972835907369809 0.23323662930951511 0 0.3078176624771719 0.25120614758642712 0 0.30782252833044588 0.23718413172933439 0 0.32244193652835401 0.24455979569445449 0 0.30782252833044588 0.23718413172933439 0 0.32244193652835401 0.24455979569445449 0 0.31644478647112861 0.23227605407127969 0 0.33522714738646753 0.23454314765978301 0 0.32244193652835401 0.24455979569445449 0 0.32557023824236953 0.22944061045365441 0 0.32244193652835401 0.24455979569445449 0 0.32557023824236953 0.22944061045365441 0 0.31644478647112861 0.23227605407127969 0 0.32557023824236953 0.22944061045365441 0 0.31644478647112861 0.23227605407127969 0 0.32012082623729388 0.22279896784712419 0 0.31094716497486968 0.22843713139172611 0 0.31644478647112861 0.23227605407127969 0 0.32012082623729388 0.22279896784712419 0 0.31010013327432379 0.2200141133443918 0 0.31094716497486968 0.22843713139172611 0 0.32012082623729388 0.22279896784712419 0 0.32557023824236953 0.22944061045365441 0 0.32012082623729388 0.22279896784712419 0 0.32843042366163538 0.2199477933666967 0 0.32557023824236953 0.22944061045365441 0 0.33358242922747833 0.22530664300713671 0 0.32843042366163538 0.2199477933666967 0 0.33358242922747833 0.22530664300713671 0 0.32843042366163538 0.2199477933666967 0 0.33741019082389151 0.21692424486167411 0 0.33522714738646753 0.23454314765978301 0 0.32557023824236953 0.22944061045365441 0 0.33358242922747833 0.22530664300713671 0 0.33522714738646753 0.23454314765978301 0 0.3412741460230273 0.2256774186938752 0 0.34972835907369809 0.23323662930951511 0 0.33522714738646753 0.23454314765978301 0 0.33358242922747833 0.22530664300713671 0 0.3412741460230273 0.2256774186938752 0 0.33358242922747833 0.22530664300713671 0 0.3412741460230273 0.2256774186938752 0 0.33741019082389151 0.21692424486167411 0 0.3412741460230273 0.2256774186938752 0 0.33741019082389151 0.21692424486167411 0 0.35047360802779182 0.21731037574538359 0 0.33741019082389151 0.21692424486167411 0 0.32923221079943632 0.20667810445499621 0 0.34425907807025857 0.20619830764008701 0 0.32843042366163538 0.2199477933666967 0 0.33741019082389151 0.21692424486167411 0 0.32923221079943632 0.20667810445499621 0 0.32012082623729388 0.22279896784712419 0 0.32843042366163538 0.2199477933666967 0 0.32923221079943632 0.20667810445499621 0 0.31146317207749158 0.20968215559875381 0 0.32991373020102011 0.20151212558217699 0 0.31010013327432379 0.2200141133443918 0 0.32012082623729388 0.22279896784712419 0 0.32923221079943632 0.20667810445499621 0 0.31146317207749158 0.20968215559875381 0 0.31010013327432379 0.2200141133443918 0 0.32923221079943632 0.20667810445499621 0 0.31010013327432379 0.2200141133443918 0 0.32923221079943632 0.20667810445499621 0 0.31146317207749158 0.20968215559875381 0 0.32923221079943632 0.20667810445499621 0 0.32991373020102011 0.20151212558217699 0 0.31722387900592092 0.1979278423614674 0 0.32991373020102011 0.20151212558217699 0 0.32817332392389892 0.19705281034546759 0 0.31146317207749158 0.20968215559875381 0 0.31722387900592092 0.1979278423614674 0 0.32991373020102011 0.20151212558217699 0 0.31722387900592092 0.1979278423614674 0 0.32817332392389892 0.19705281034546759 0 0.31535396758215201 0.18614837857672481 0 0.32817332392389892 0.19705281034546759 0 0.34836428832454869 0.19334209556560039 0 0.33753224724474351 0.17967960322238141 0 0.32923221079943632 0.20667810445499621 0 0.34836428832454869 0.19334209556560039 0 0.32991373020102011 0.20151212558217699 0 0.32817332392389892 0.19705281034546759 0 0.34836428832454869 0.19334209556560039 0 0.32923221079943632 0.20667810445499621 0 0.32991373020102011 0.20151212558217699 0 0.34836428832454869 0.19334209556560039 0 0.32923221079943632 0.20667810445499621 0 0.34836428832454869 0.19334209556560039 0 0.34425907807025857 0.20619830764008701 0 0.32991373020102011 0.20151212558217699 0 0.34836428832454869 0.19334209556560039 0 0.34836428832454869 0.19334209556560039 0 0.3641702298427768 0.2039230631299731 0 0.34425907807025857 0.20619830764008701 0 0.34836428832454869 0.19334209556560039 0 0.3641702298427768 0.2039230631299731 0 0.37041793102521731 0.18357659570196419 0 0.3641702298427768 0.2039230631299731 0 0.37041793102521731 0.18357659570196419 0 0.38601069431360813 0.20824727479645591 0 0.34836428832454869 0.19334209556560039 0 0.37041793102521731 0.18357659570196419 0 0.3641702298427768 0.2039230631299731 0 0.36554815952559278 0.21869214634651099 0 0.38601069431360813 0.20824727479645591 0 0.3641702298427768 0.2039230631299731 0 0.36554815952559278 0.21869214634651099 0 0.35047360802779182 0.21731037574538359 0 0.3641702298427768 0.2039230631299731 0 0.34425907807025857 0.20619830764008701 0 0.35047360802779182 0.21731037574538359 0 0.33741019082389151 0.21692424486167411 0 0.34425907807025857 0.20619830764008701 0 0.35047360802779182 0.21731037574538359 0 0.36554815952559278 0.21869214634651099 0 0.35047360802779182 0.21731037574538359 0 0.34972835907369809 0.23323662930951511 0 0.3412741460230273 0.2256774186938752 0 0.35047360802779182 0.21731037574538359 0 0.34972835907369809 0.23323662930951511 0 0.36554815952559278 0.21869214634651099 0 0.34972835907369809 0.23323662930951511 0 0.36200951362038158 0.23770208135363399 0 0.36554815952559278 0.21869214634651099 0 0.37263470247525449 0.2320759712051372 0 0.38601069431360813 0.20824727479645591 0 0.36554815952559278 0.21869214634651099 0 0.37263470247525449 0.2320759712051372 0 0.36200951362038158 0.23770208135363399 0 0.36950572776035739 0.25153920912091932 0 0.37263470247525449 0.2320759712051372 0 0.38101609543015807 0.24338575978622459 0 0.36950572776035739 0.25153920912091932 0 0.37263470247525449 0.2320759712051372 0 0.36200951362038158 0.23770208135363399 0 0.36950572776035739 0.25153920912091932 0 0.37263470247525449 0.2320759712051372 0 0.36950572776035739 0.25153920912091932 0 0.36200951362038158 0.23770208135363399 0 0.35461964738161222 0.24918385896047551 0 0.33886092546904878 0.24786697082744721 0 0.34972835907369809 0.23323662930951511 0 0.35461964738161222 0.24918385896047551 0 0.34972835907369809 0.23323662930951511 0 0.36200951362038158 0.23770208135363399 0 0.35461964738161222 0.24918385896047551 0 0.33453187028169368 0.1528072291685551 0 0.34073232166590961 0.13548419702024789 0 0.3500994435423524 0.15671609215387861 0 0.33453187028169368 0.1528072291685551 0 0.34073232166590961 0.13548419702024789 0 0.31825129212284148 0.1412409021453466 0 0.32621235694847978 0.1222722509079311 0 0.34073232166590961 0.13548419702024789 0 0.31825129212284148 0.1412409021453466 0 0.31329027622231292 0.1133349480452861 0 0.30733605305346801 0.1281681588021433 0 0.31825129212284148 0.1412409021453466 0 0.31329027622231292 0.1133349480452861 0 0.31825129212284148 0.1412409021453466 0 0.31329027622231292 0.1133349480452861 0 0.32621235694847978 0.1222722509079311 0 0.31825129212284148 0.1412409021453466 0 0.31825129212284148 0.1412409021453466 0 0.3232123080233702 0.1691468562454071 0 0.33453187028169368 0.1528072291685551 0 0.31825129212284148 0.1412409021453466 0 0.3232123080233702 0.1691468562454071 0 0.306889369411183 0.15614833588077001 0 0.31825129212284148 0.1412409021453466 0 0.3232123080233702 0.1691468562454071 0 0.30941778853612001 0.172635297793097 0 0.306889369411183 0.15614833588077001 0 0.3232123080233702 0.1691468562454071 0 0.32817332392389892 0.19705281034546759 0 0.3232123080233702 0.1691468562454071 0 0.31535396758215201 0.18614837857672481 0 0.32817332392389892 0.19705281034546759 0 0.3232123080233702 0.1691468562454071 0 0.30941778853612001 0.172635297793097 0 0.3232123080233702 0.1691468562454071 0 0.31535396758215201 0.18614837857672481 0 0.32817332392389892 0.19705281034546759 0 0.3232123080233702 0.1691468562454071 0 0.33753224724474351 0.17967960322238141 0 0.33753224724474351 0.17967960322238141 0 0.33870020428184222 0.16599264501494171 0 0.3497158091013951 0.17259463296351191 0 0.33453187028169368 0.1528072291685551 0 0.3232123080233702 0.1691468562454071 0 0.33870020428184222 0.16599264501494171 0 0.3232123080233702 0.1691468562454071 0 0.33753224724474351 0.17967960322238141 0 0.33870020428184222 0.16599264501494171 0 0.33453187028169368 0.1528072291685551 0 0.33870020428184222 0.16599264501494171 0 0.3500994435423524 0.15671609215387861 0 0.3500994435423524 0.15671609215387861 0 0.3497158091013951 0.17259463296351191 0 0.36275780454265483 0.1626027949557837 0 0.33870020428184222 0.16599264501494171 0 0.3500994435423524 0.15671609215387861 0 0.3497158091013951 0.17259463296351191 0 0.3497158091013951 0.17259463296351191 0 0.36029672074915942 0.1750893498773923 0 0.36275780454265483 0.1626027949557837 0 0.34836428832454869 0.19334209556560039 0 0.3497158091013951 0.17259463296351191 0 0.36029672074915942 0.1750893498773923 0 0.34836428832454869 0.19334209556560039 0 0.33753224724474351 0.17967960322238141 0 0.3497158091013951 0.17259463296351191 0 0.37144614830940098 0.17725289199961389 0 0.37282382091114091 0.1811480052293625 0 0.37969598091178419 0.1579354887485783 0 0.34836428832454869 0.19334209556560039 0 0.37144614830940098 0.17725289199961389 0 0.37041793102521731 0.18357659570196419 0 0.34836428832454869 0.19334209556560039 0 0.37144614830940098 0.17725289199961389 0 0.34836428832454869 0.19334209556560039 0 0.36029672074915942 0.1750893498773923 0 0.37144614830940098 0.17725289199961389 0 0.36029672074915942 0.1750893498773923 0 0.37144614830940098 0.17725289199961389 0 0.3685491636282498 0.168220131395342 0 0.37144614830940098 0.17725289199961389 0 0.37041793102521731 0.18357659570196419 0 0.37282382091114091 0.1811480052293625 0 0.36275780454265483 0.1626027949557837 0 0.3685491636282498 0.168220131395342 0 0.37969598091178419 0.1579354887485783 0 0.37144614830940098 0.17725289199961389 0 0.3685491636282498 0.168220131395342 0 0.37969598091178419 0.1579354887485783 0 0.36029672074915942 0.1750893498773923 0 0.36275780454265483 0.1626027949557837 0 0.3685491636282498 0.168220131395342 0 0.36275780454265483 0.1626027949557837 0 0.36489228582993311 0.1450100060401443 0 0.37969598091178419 0.1579354887485783 0 0.3500994435423524 0.15671609215387861 0 0.36275780454265483 0.1626027949557837 0 0.36489228582993311 0.1450100060401443 0 0.34073232166590961 0.13548419702024789 0 0.3500994435423524 0.15671609215387861 0 0.36489228582993311 0.1450100060401443 0 0.36071170464561247 0.1236790880006756 0 0.34073232166590961 0.13548419702024789 0 0.36489228582993311 0.1450100060401443 0 0.36071170464561247 0.1236790880006756 0 0.36489228582993311 0.1450100060401443 0 0.38656814091242597 0.1347229722677937 0 0.36071170464561247 0.1236790880006756 0 0.38656814091242597 0.1347229722677937 0 0.36071170464561247 0.1236790880006756 0 0.38656814091242597 0.1347229722677937 0 0.37682913357119818 0.1195748380276776 0 0.38656814091242597 0.1347229722677937 0 0.40615853272192071 0.14309048346148651 0 0.38656814091242597 0.1347229722677937 0 0.40089636728556699 0.12829379399403459 0 0.40615853272192071 0.14309048346148651 0 0.38656814091242597 0.1347229722677937 0 0.40089636728556699 0.12829379399403459 0 0.39294734503943141 0.11317554308706371 0 0.39588388893971432 0.1547211272581758 0 0.40615853272192071 0.14309048346148651 0 0.41452521642655482 0.16404559597469229 0 0.38656814091242597 0.1347229722677937 0 0.39588388893971432 0.1547211272581758 0 0.40615853272192071 0.14309048346148651 0 0.38656814091242597 0.1347229722677937 0 0.37969598091178419 0.1579354887485783 0 0.38656814091242597 0.1347229722677937 0 0.39588388893971432 0.1547211272581758 0 0.37969598091178419 0.1579354887485783 0 0.36489228582993311 0.1450100060401443 0 0.38656814091242597 0.1347229722677937 0 0.37969598091178419 0.1579354887485783 0 0.37282382091114091 0.1811480052293625 0 0.37969598091178419 0.1579354887485783 0 0.39247157372588598 0.17381109583832829 0 0.37282382091114091 0.1811480052293625 0 0.37969598091178419 0.1579354887485783 0 0.39588388893971432 0.1547211272581758 0 0.37969598091178419 0.1579354887485783 0 0.39247157372588598 0.17381109583832829 0 0.37041793102521731 0.18357659570196419 0 0.37282382091114091 0.1811480052293625 0 0.39247157372588598 0.17381109583832829 0 0.37041793102521731 0.18357659570196419 0 0.39247157372588598 0.17381109583832829 0 0.39599846482279222 0.19092319514795841 0 0.37041793102521731 0.18357659570196419 0 0.39247157372588598 0.17381109583832829 0 0.39247157372588598 0.17381109583832829 0 0.40699972175963672 0.18030201128402859 0 0.39599846482279222 0.19092319514795841 0 0.39247157372588598 0.17381109583832829 0 0.41452521642655482 0.16404559597469229 0 0.40699972175963672 0.18030201128402859 0 0.39588388893971432 0.1547211272581758 0 0.39247157372588598 0.17381109583832829 0 0.41452521642655482 0.16404559597469229 0 0.39247157372588598 0.17381109583832829 0 0.41452521642655482 0.16404559597469229 0 0.41452521642655482 0.16404559597469229 0 0.40699972175963672 0.18030201128402859 0 0.42084039167938497 0.1850478740925092 0 0.41452521642655482 0.16404559597469229 0 0.42084039167938497 0.1850478740925092 0 0.42870962540330432 0.16966398510178271 0 0.42084039167938497 0.1850478740925092 0 0.43512335121598378 0.19019343281960441 0 0.43821211180393987 0.1765564928624572 0 0.42084039167938497 0.1850478740925092 0 0.42870962540330432 0.16966398510178271 0 0.43821211180393987 0.1765564928624572 0 0.42084039167938497 0.1850478740925092 0 0.42870962540330432 0.16966398510178271 0 0.41452521642655482 0.16404559597469229 0 0.42870962540330432 0.16966398510178271 0 0.43657885912722361 0.15428009611105631 0 0.41452521642655482 0.16404559597469229 0 0.43657885912722361 0.15428009611105631 0 0.41452521642655482 0.16404559597469229 0 0.43657885912722361 0.15428009611105631 0 0.4257489245314155 0.15145799465517909 0 0.42870962540330432 0.16966398510178271 0 0.43842472048903502 0.16487944026389109 0 0.43821211180393987 0.1765564928624572 0 0.42870962540330432 0.16966398510178271 0 0.43657885912722361 0.15428009611105631 0 0.43842472048903502 0.16487944026389109 0 0.42870962540330432 0.16966398510178271 0 0.43657885912722361 0.15428009611105631 0 0.43657885912722361 0.15428009611105631 0 0.4257489245314155 0.15145799465517909 0 0.43914057143511909 0.14927209925221779 0 0.4257489245314155 0.15145799465517909 0 0.43027742604204677 0.14084073658574081 0 0.420465874663906 0.13542075659567179 0 0.4257489245314155 0.15145799465517909 0 0.43027742604204677 0.14084073658574081 0 0.43914057143511909 0.14927209925221779 0 0.43575433353774651 0.12721209583989279 0 0.420465874663906 0.13542075659567179 0 0.41435083928858868 0.120193819463479 0 0.43575433353774651 0.12721209583989279 0 0.43914057143511909 0.14927209925221779 0 0.43027742604204677 0.14084073658574081 0 0.43575433353774651 0.12721209583989279 0 0.43914057143511909 0.14927209925221779 0 0.43027742604204677 0.14084073658574081 0 0.43575433353774651 0.12721209583989279 0 0.420465874663906 0.13542075659567179 0 0.40089636728556699 0.12829379399403459 0 0.420465874663906 0.13542075659567179 0 0.41435083928858868 0.120193819463479 0 0.40089636728556699 0.12829379399403459 0 0.40615853272192071 0.14309048346148651 0 0.420465874663906 0.13542075659567179 0 0.40615853272192071 0.14309048346148651 0 0.4257489245314155 0.15145799465517909 0 0.40615853272192071 0.14309048346148651 0 0.41452521642655482 0.16404559597469229 0 0.4257489245314155 0.15145799465517909 0 0.40615853272192071 0.14309048346148651 0 0.4257489245314155 0.15145799465517909 0 0.420465874663906 0.13542075659567179 0 0.38851578156656291 0.25454707500255341 0 0.39340816991845801 0.23538078381628871 0 0.40226883755334308 0.2464822588706197 0 0.39340816991845801 0.23538078381628871 0 0.40226883755334308 0.2464822588706197 0 0.41006091083032259 0.23653751236355411 0 0.36950572776035739 0.25153920912091932 0 0.38851578156656291 0.25454707500255341 0 0.38101609543015807 0.24338575978622459 0 0.37263470247525449 0.2320759712051372 0 0.39340816991845801 0.23538078381628871 0 0.38101609543015807 0.24338575978622459 0 0.38851578156656291 0.25454707500255341 0 0.39340816991845801 0.23538078381628871 0 0.38101609543015807 0.24338575978622459 0 0.37263470247525449 0.2320759712051372 0 0.39340816991845801 0.23538078381628871 0 0.38601069431360813 0.20824727479645591 0 0.39340816991845801 0.23538078381628871 0 0.40834544129671829 0.22177527837027361 0 0.41006091083032259 0.23653751236355411 0 0.39340816991845801 0.23538078381628871 0 0.38601069431360813 0.20824727479645591 0 0.40834544129671829 0.22177527837027361 0 0.38601069431360813 0.20824727479645591 0 0.40943061411236131 0.20040949964790089 0 0.40834544129671829 0.22177527837027361 0 0.38601069431360813 0.20824727479645591 0 0.40834544129671829 0.22177527837027361 0 0.37041793102521731 0.18357659570196419 0 0.38601069431360813 0.20824727479645591 0 0.39599846482279222 0.19092319514795841 0 0.40699972175963672 0.18030201128402859 0 0.39599846482279222 0.19092319514795841 0 0.40943061411236131 0.20040949964790089 0 0.38601069431360813 0.20824727479645591 0 0.39599846482279222 0.19092319514795841 0 0.40943061411236131 0.20040949964790089 0 0.40699972175963672 0.18030201128402859 0 0.42084039167938497 0.1850478740925092 0 0.40943061411236131 0.20040949964790089 0 0.42084039167938497 0.1850478740925092 0 0.40943061411236131 0.20040949964790089 0 0.42455403261897467 0.1986666939134891 0 0.43512335121598378 0.19019343281960441 0 0.42455403261897467 0.1986666939134891 0 0.43461876245302322 0.20589820618703 0 0.42084039167938497 0.1850478740925092 0 0.43512335121598378 0.19019343281960441 0 0.42455403261897467 0.1986666939134891 0 0.42455403261897467 0.1986666939134891 0 0.43461876245302322 0.20589820618703 0 0.42275704363412059 0.2117844568204009 0 0.43461876245302322 0.20589820618703 0 0.43303493062079312 0.21628689038106691 0 0.44226914948189711 0.21317547401778059 0 0.43461876245302322 0.20589820618703 0 0.43303493062079312 0.21628689038106691 0 0.42275704363412059 0.2117844568204009 0 0.43303493062079312 0.21628689038106691 0 0.42275704363412059 0.2117844568204009 0 0.42663770769755588 0.22243245443223139 0 0.40943061411236131 0.20040949964790089 0 0.42275704363412059 0.2117844568204009 0 0.40834544129671829 0.22177527837027361 0 0.42275704363412059 0.2117844568204009 0 0.40834544129671829 0.22177527837027361 0 0.42663770769755588 0.22243245443223139 0 0.40943061411236131 0.20040949964790089 0 0.42455403261897467 0.1986666939134891 0 0.42275704363412059 0.2117844568204009 0 0.40834544129671829 0.22177527837027361 0 0.43068018827982912 0.2353032819440907 0 0.41006091083032259 0.23653751236355411 0 0.40834544129671829 0.22177527837027361 0 0.43068018827982912 0.2353032819440907 0 0.40834544129671829 0.22177527837027361 0 0.42663770769755588 0.22243245443223139 0 0.43068018827982912 0.2353032819440907 0 0.43303493062079312 0.21628689038106691 0 0.42663770769755588 0.22243245443223139 0 0.43784987947526832 0.22588086884275821 0 0.42663770769755588 0.22243245443223139 0 0.43068018827982912 0.2353032819440907 0 0.43784987947526832 0.22588086884275821 0 0.43068018827982912 0.2353032819440907 0 0.43888613167037538 0.2285715882072186 0 0.43784987947526832 0.22588086884275821 0 0.43068018827982912 0.2353032819440907 0 0.43888613167037538 0.2285715882072186 0 0.43068018827982912 0.2353032819440907 0 0.43223769522994931 0.24628192963172549 0 0.41905782655512402 0.24483761284381189 0 0.43068018827982912 0.2353032819440907 0 0.41905782655512402 0.24483761284381189 0 0.43068018827982912 0.2353032819440907 0 0.43223769522994931 0.24628192963172549 0 0.44328512727433877 0.24293800732935891 0 0.43068018827982912 0.2353032819440907 0 0.44328512727433877 0.24293800732935891 0 0.43068018827982912 0.2353032819440907 0 0.41905782655512402 0.24483761284381189 0 0.41006091083032259 0.23653751236355411 0 0.41905782655512402 0.24483761284381189 0 0.41006091083032259 0.23653751236355411 0 0.41183349007860359 0.24839098228651449 0 0.40226883755334308 0.2464822588706197 0 0.41006091083032259 0.23653751236355411 0 0.41183349007860359 0.24839098228651449 0 0.46847713509712202 0.2531818639467881 0 0.46161754171679409 0.24483173833628979 0 0.47374938444028158 0.24198184107150059 0 0.46161754171679409 0.24483173833628979 0 0.46361337092165178 0.23337416018610821 0 0.47374938444028158 0.24198184107150059 0 0.46161754171679409 0.24483173833628979 0 0.45353235938768988 0.23775840785914859 0 0.46361337092165178 0.23337416018610821 0 0.46161754171679409 0.24483173833628979 0 0.45353235938768988 0.23775840785914859 0 0.45250432075137192 0.24852200979866559 0 0.45954565134847608 0.25623091992402319 0 0.46161754171679409 0.24483173833628979 0 0.45250432075137192 0.24852200979866559 0 0.45353235938768988 0.23775840785914859 0 0.45250432075137192 0.24852200979866559 0 0.44476388122997662 0.24383367849195489 0 0.43592763881050528 0.26204881640964078 0 0.44476388122997662 0.24383367849195489 0 0.44328512727433877 0.24293800732935891 0 0.45250432075137192 0.24852200979866559 0 0.44476388122997662 0.24383367849195489 0 0.44476388122997662 0.24383367849195489 0 0.44328512727433877 0.24293800732935891 0 0.44385193777626231 0.2414657376356685 0 0.44476388122997662 0.24383367849195489 0 0.44385193777626231 0.2414657376356685 0 0.44476388122997662 0.24383367849195489 0 0.44328512727433877 0.24293800732935891 0 0.44328512727433877 0.24293800732935891 0 0.44385193777626231 0.2414657376356685 0 0.44385193777626231 0.2414657376356685 0 0.43888613167037538 0.2285715882072186 0 0.43068018827982912 0.2353032819440907 0 0.44328512727433877 0.24293800732935891 0 0.44385193777626231 0.2414657376356685 0 0.43068018827982912 0.2353032819440907 0 0.44385193777626231 0.2414657376356685 0 0.43888613167037538 0.2285715882072186 0 0.44385193777626231 0.2414657376356685 0 0.44905388894425652 0.22795385839792021 0 0.45353235938768988 0.23775840785914859 0 0.44385193777626231 0.2414657376356685 0 0.44905388894425652 0.22795385839792021 0 0.45353235938768988 0.23775840785914859 0 0.44476388122997662 0.24383367849195489 0 0.44385193777626231 0.2414657376356685 0 0.44905388894425652 0.22795385839792021 0 0.43888613167037538 0.2285715882072186 0 0.45512536747942411 0.21524983386593341 0 0.43888613167037538 0.2285715882072186 0 0.45512536747942411 0.21524983386593341 0 0.43888613167037538 0.2285715882072186 0 0.43784987947526832 0.22588086884275821 0 0.45512536747942411 0.21524983386593341 0 0.44385193777626231 0.2414657376356685 0 0.44905388894425652 0.22795385839792021 0 0.43888613167037538 0.2285715882072186 0 0.43888613167037538 0.2285715882072186 0 0.43784987947526832 0.22588086884275821 0 0.44905388894425652 0.22795385839792021 0 0.45855671345366528 0.22469258081462309 0 0.45512536747942411 0.21524983386593341 0 0.46361337092165178 0.23337416018610821 0 0.46748898710506259 0.21765111985537841 0 0.45855671345366528 0.22469258081462309 0 0.46361337092165178 0.23337416018610821 0 0.46748898710506259 0.21765111985537841 0 0.45855671345366528 0.22469258081462309 0 0.46748898710506259 0.21765111985537841 0 0.45512536747942411 0.21524983386593341 0 0.45353235938768988 0.23775840785914859 0 0.45855671345366528 0.22469258081462309 0 0.46361337092165178 0.23337416018610821 0 0.45353235938768988 0.23775840785914859 0 0.44905388894425652 0.22795385839792021 0 0.45855671345366528 0.22469258081462309 0 0.45512536747942411 0.21524983386593341 0 0.45019575219992608 0.20143007500954799 0 0.47136460328847302 0.2019280795246485 0 0.45512536747942411 0.21524983386593341 0 0.47136460328847302 0.2019280795246485 0 0.46748898710506259 0.21765111985537841 0 0.45512536747942411 0.21524983386593341 0 0.47136460328847302 0.2019280795246485 0 0.43784987947526832 0.22588086884275821 0 0.45512536747942411 0.21524983386593341 0 0.44226914948189711 0.21317547401778059 0 0.43303493062079312 0.21628689038106691 0 0.43784987947526832 0.22588086884275821 0 0.44226914948189711 0.21317547401778059 0 0.43461876245302322 0.20589820618703 0 0.44226914948189711 0.21317547401778059 0 0.45019575219992608 0.20143007500954799 0 0.45512536747942411 0.21524983386593341 0 0.44226914948189711 0.21317547401778059 0 0.45019575219992608 0.20143007500954799 0 0.43512335121598378 0.19019343281960441 0 0.45019575219992608 0.20143007500954799 0 0.44728899251561721 0.1824044469013458 0 0.43512335121598378 0.19019343281960441 0 0.43461876245302322 0.20589820618703 0 0.45019575219992608 0.20143007500954799 0 0.45019575219992608 0.20143007500954799 0 0.46199161459345761 0.187518952160524 0 0.44728899251561721 0.1824044469013458 0 0.45019575219992608 0.20143007500954799 0 0.46199161459345761 0.187518952160524 0 0.47136460328847302 0.2019280795246485 0 0.46199161459345761 0.187518952160524 0 0.47136460328847302 0.2019280795246485 0 0.47657326517484949 0.1807969878393644 0 0.47136460328847302 0.2019280795246485 0 0.47657326517484949 0.1807969878393644 0 0.47136460328847302 0.2019280795246485 0 0.48097102839814199 0.19404750947112001 0 0.47661671883790008 0.2106321096164821 0 0.47136460328847302 0.2019280795246485 0 0.48097102839814199 0.19404750947112001 0 0.47657326517484949 0.1807969878393644 0 0.47136460328847302 0.2019280795246485 0 0.48097102839814199 0.19404750947112001 0 0.48097102839814199 0.19404750947112001 0 0.5 0.1996946219462 0 0.48952478129184041 0.18313350659128089 0 0.48097102839814199 0.19404750947112001 0 0.5 0.1996946219462 0 0.48738547575562302 0.21053715374480531 0 0.5 0.1996946219462 0 0.48738547575562302 0.21053715374480531 0 0.5 0.22540270200665199 0 0.46748898710506259 0.21765111985537841 0 0.47136460328847302 0.2019280795246485 0 0.46748898710506259 0.21765111985537841 0 0.47136460328847302 0.2019280795246485 0 0.47661671883790008 0.2106321096164821 0 0.48738547575562302 0.21053715374480531 0 0.47661671883790008 0.2106321096164821 0 0.47905896507385842 0.22531905836268371 0 0.48097102839814199 0.19404750947112001 0 0.48738547575562302 0.21053715374480531 0 0.47661671883790008 0.2106321096164821 0 0.46748898710506259 0.21765111985537841 0 0.47661671883790008 0.2106321096164821 0 0.47905896507385842 0.22531905836268371 0 0.46361337092165178 0.23337416018610821 0 0.47905896507385842 0.22531905836268371 0 0.47374938444028158 0.24198184107150059 0 0.46361337092165178 0.23337416018610821 0 0.46748898710506259 0.21765111985537841 0 0.47905896507385842 0.22531905836268371 0 0.48738547575562302 0.21053715374480531 0 0.47905896507385842 0.22531905836268371 0 0.5 0.22540270200665199 0 0.47905896507385842 0.22531905836268371 0 0.5 0.22540270200665199 0 0.48693942873391372 0.23894692250890201 0 0.5 0.25111078206710408 0 0.5 0.22540270200665199 0 0.48693942873391372 0.23894692250890201 0 0.48278986509834998 0.25623730308823178 0 0.5 0.25111078206710408 0 0.48693942873391372 0.23894692250890201 0 0.47905896507385842 0.22531905836268371 0 0.48693942873391372 0.23894692250890201 0 0.47374938444028158 0.24198184107150059 0 0.48278986509834998 0.25623730308823178 0 0.48693942873391372 0.23894692250890201 0 0.47374938444028158 0.24198184107150059 0 0.45954882793620572 0.1526972871408166 0 0.46283728276872421 0.14265269124325891 0 0.43969733788802789 0.15289921294690961 0 0.45954882793620572 0.1526972871408166 0 0.46495076821507092 0.14793448070128901 0 0.46991372817452493 0.15267332948252241 0 0.45954882793620572 0.1526972871408166 0 0.46567490111642068 0.16030691074103731 0 0.46991372817452493 0.15267332948252241 0 0.46495076821507092 0.14793448070128901 0 0.469507036479206 0.14582429422170129 0 0.46991372817452493 0.15267332948252241 0 0.46495076821507092 0.14793448070128901 0 0.46283728276872421 0.14265269124325891 0 0.469507036479206 0.14582429422170129 0 0.45954882793620572 0.1526972871408166 0 0.46495076821507092 0.14793448070128901 0 0.46283728276872421 0.14265269124325891 0 0.46283728276872421 0.14265269124325891 0 0.47134892443695331 0.13888367962560741 0 0.46283728276872421 0.14265269124325891 0 0.469507036479206 0.14582429422170129 0 0.47134892443695331 0.13888367962560741 0 0.46495076821507092 0.14793448070128901 0 0.46283728276872421 0.14265269124325891 0 0.45981588978332699 0.13510195951412499 0 0.47134892443695331 0.13888367962560741 0 0.45981588978332699 0.13510195951412499 0 0.47336556628470089 0.1297402906057111 0 0.47134892443695331 0.13888367962560741 0 0.46283728276872421 0.14265269124325891 0 0.45981588978332699 0.13510195951412499 0 0.47134892443695331 0.13888367962560741 0 0.46283728276872421 0.14265269124325891 0 0.45981588978332699 0.13510195951412499 0 0.45981588978332699 0.13510195951412499 0 0.47336556628470089 0.1297402906057111 0 0.4676846707616365 0.1240467421846458 0 0.45981588978332699 0.13510195951412499 0 0.4676846707616365 0.1240467421846458 0 0.46138727140880292 0.1215781937792992 0 0.45981588978332699 0.13510195951412499 0 0.45392260058380868 0.1203741018792502 0 0.46138727140880292 0.1215781937792992 0 0.45981588978332699 0.13510195951412499 0 0.45392260058380868 0.1203741018792502 0 0.45981588978332699 0.13510195951412499 0 0.44831756317027349 0.13133162028366371 0 0.45392260058380868 0.1203741018792502 0 0.46283728276872421 0.14265269124325891 0 0.45981588978332699 0.13510195951412499 0 0.44831756317027349 0.13133162028366371 0 0.45981588978332699 0.13510195951412499 0 0.44831756317027349 0.13133162028366371 0 0.43575433353774651 0.12721209583989279 0 0.44831756317027349 0.13133162028366371 0 0.43914057143511909 0.14927209925221779 0 0.44831756317027349 0.13133162028366371 0 0.43914057143511909 0.14927209925221779 0 0.44831756317027349 0.13133162028366371 0 0.45392260058380868 0.1203741018792502 0 0.43575433353774651 0.12721209583989279 0 0.44831756317027349 0.13133162028366371 0 0.44340258437772712 0.116522216251723 0 0.43575433353774651 0.12721209583989279 0 0.44831756317027349 0.13133162028366371 0 0.46283728276872421 0.14265269124325891 0 0.43969733788802789 0.15289921294690961 0 0.46283728276872421 0.14265269124325891 0 0.44831756317027349 0.13133162028366371 0 0.43914057143511909 0.14927209925221779 0 0.45954882793620572 0.1526972871408166 0 0.43969733788802789 0.15289921294690961 0 0.45407898387639628 0.1593564971265814 0 0.46283728276872421 0.14265269124325891 0 0.43914057143511909 0.14927209925221779 0 0.43969733788802789 0.15289921294690961 0 0.43657885912722361 0.15428009611105631 0 0.43914057143511909 0.14927209925221779 0 0.43969733788802789 0.15289921294690961 0 0.43657885912722361 0.15428009611105631 0 0.43914057143511909 0.14927209925221779 0 0.43914057143511909 0.14927209925221779 0 0.43969733788802789 0.15289921294690961 0 0.43969733788802789 0.15289921294690961 0 0.44032142977169958 0.15696492525085631 0 0.43657885912722361 0.15428009611105631 0 0.43969733788802789 0.15289921294690961 0 0.44032142977169958 0.15696492525085631 0 0.43657885912722361 0.15428009611105631 0 0.43969733788802789 0.15289921294690961 0 0.43657885912722361 0.15428009611105631 0 0.44032142977169958 0.15696492525085631 0 0.43842472048903502 0.16487944026389109 0 0.44032142977169958 0.15696492525085631 0 0.44274182071876272 0.16308116331524419 0 0.43842472048903502 0.16487944026389109 0 0.43969733788802789 0.15289921294690961 0 0.44032142977169958 0.15696492525085631 0 0.44726845556187173 0.1610980929067613 0 0.44032142977169958 0.15696492525085631 0 0.44274182071876272 0.16308116331524419 0 0.44726845556187173 0.1610980929067613 0 0.43842472048903502 0.16487944026389109 0 0.44495267705244451 0.16938219483946809 0 0.43821211180393987 0.1765564928624572 0 0.44274182071876272 0.16308116331524419 0 0.44495267705244451 0.16938219483946809 0 0.44726845556187173 0.1610980929067613 0 0.44274182071876272 0.16308116331524419 0 0.43842472048903502 0.16487944026389109 0 0.44495267705244451 0.16938219483946809 0 0.44495267705244451 0.16938219483946809 0 0.44726845556187173 0.1610980929067613 0 0.45396657831852871 0.16726388567381789 0 0.44726845556187173 0.1610980929067613 0 0.45407898387639628 0.1593564971265814 0 0.45396657831852871 0.16726388567381789 0 0.43969733788802789 0.15289921294690961 0 0.44726845556187173 0.1610980929067613 0 0.45407898387639628 0.1593564971265814 0 0.43512335121598378 0.19019343281960441 0 0.43821211180393987 0.1765564928624572 0 0.44728899251561721 0.1824044469013458 0 0.44495267705244451 0.16938219483946809 0 0.43821211180393987 0.1765564928624572 0 0.44728899251561721 0.1824044469013458 0 0.44495267705244451 0.16938219483946809 0 0.44728899251561721 0.1824044469013458 0 0.45396657831852871 0.16726388567381789 0 0.46199161459345761 0.187518952160524 0 0.44728899251561721 0.1824044469013458 0 0.46453545978842242 0.1710351715277135 0 0.46199161459345761 0.187518952160524 0 0.46453545978842242 0.1710351715277135 0 0.47657326517484949 0.1807969878393644 0 0.44728899251561721 0.1824044469013458 0 0.45396657831852871 0.16726388567381789 0 0.46453545978842242 0.1710351715277135 0 0.44728899251561721 0.1824044469013458 0 0.46453545978842242 0.1710351715277135 0 0.45407898387639628 0.1593564971265814 0 0.45396657831852871 0.16726388567381789 0 0.46567490111642068 0.16030691074103731 0 0.45954882793620572 0.1526972871408166 0 0.45407898387639628 0.1593564971265814 0 0.46567490111642068 0.16030691074103731 0 0.45396657831852871 0.16726388567381789 0 0.46453545978842242 0.1710351715277135 0 0.46567490111642068 0.16030691074103731 0 0.46453545978842242 0.1710351715277135 0 0.48178192706122702 0.15966589615408039 0 0.47657326517484949 0.1807969878393644 0 0.46453545978842242 0.1710351715277135 0 0.48178192706122702 0.15966589615408039 0 0.46567490111642068 0.16030691074103731 0 0.48178192706122702 0.15966589615408039 0 0.46991372817452493 0.15267332948252241 0 0.48178192706122702 0.15966589615408039 0 0.47657326517484949 0.1807969878393644 0 0.46453545978842242 0.1710351715277135 0 0.46567490111642068 0.16030691074103731 0 0.48178192706122702 0.15966589615408039 0 0.48178192706122702 0.15966589615408039 0 0.47657326517484949 0.1807969878393644 0 0.48952478129184041 0.18313350659128089 0 0.48097102839814199 0.19404750947112001 0 0.47657326517484949 0.1807969878393644 0 0.48952478129184041 0.18313350659128089 0 0.5 0.1996946219462 0 0.5 0.17398654188574789 0 0.48952478129184041 0.18313350659128089 0 0.48178192706122702 0.15966589615408039 0 0.5 0.17398654188574789 0 0.48952478129184041 0.18313350659128089 0 0.48178192706122702 0.15966589615408039 0 0.5 0.17398654188574789 0 0.49936953762119579 0.1480717311313261 0 0.48178192706122702 0.15966589615408039 0 0.49936953762119579 0.1480717311313261 0 0.48178192706122702 0.15966589615408039 0 0.49936953762119579 0.1480717311313261 0 0.48574131706840168 0.1436029926512998 0 0.49936953762119579 0.1480717311313261 0 0.48574131706840168 0.1436029926512998 0 0.49936953762119579 0.1480717311313261 0 0.48574131706840168 0.1436029926512998 0 0.49447987116949299 0.1399684248296291 0 0.48178192706122702 0.15966589615408039 0 0.48574131706840168 0.1436029926512998 0 0.48178192706122702 0.15966589615408039 0 0.48574131706840168 0.1436029926512998 0 0.47594093421795569 0.14809080686662199 0 0.48574131706840168 0.1436029926512998 0 0.47134892443695331 0.13888367962560741 0 0.48574131706840168 0.1436029926512998 0 0.47594093421795569 0.14809080686662199 0 0.47134892443695331 0.13888367962560741 0 0.47594093421795569 0.14809080686662199 0 0.469507036479206 0.14582429422170129 0 0.47134892443695331 0.13888367962560741 0 0.48178192706122702 0.15966589615408039 0 0.47594093421795569 0.14809080686662199 0 0.46991372817452493 0.15267332948252241 0 0.47594093421795569 0.14809080686662199 0 0.469507036479206 0.14582429422170129 0 0.46991372817452493 0.15267332948252241 0 0.47336556628470089 0.1297402906057111 0 0.47134892443695331 0.13888367962560741 0 0.48881050131213583 0.1311515770923474 0 0.48574131706840168 0.1436029926512998 0 0.47134892443695331 0.13888367962560741 0 0.48881050131213583 0.1311515770923474 0 0.47134892443695331 0.13888367962560741 0 0.48881050131213583 0.1311515770923474 0 0.47336556628470089 0.1297402906057111 0 0.47847762450970449 0.1228689938051494 0 0.4676846707616365 0.1240467421846458 0 0.47336556628470089 0.1297402906057111 0 0.48881050131213583 0.1311515770923474 0 0.47847762450970449 0.1228689938051494 0 0.49936953762119579 0.1480717311313261 0 0.49447987116949299 0.1399684248296291 0 0.50000000000000455 0.12619679255204649 0 0.48881050131213583 0.1311515770923474 0 0.49182152261563872 0.1189361235615571 0 0.48574131706840168 0.1436029926512998 0 0.48881050131213583 0.1311515770923474 0 0.49447987116949299 0.1399684248296291 0 0.48574131706840168 0.1436029926512998 0 0.48881050131213583 0.1311515770923474 0 0.48881050131213583 0.1311515770923474 0 0.50000000000000455 0.12619679255204649 0 0.48881050131213583 0.1311515770923474 0 0.50000000000000455 0.12619679255204649 0 0.49483756429848141 0.12405091126909019 0 0.48881050131213583 0.1311515770923474 0 0.49447987116949299 0.1399684248296291 0 0.50000000000000455 0.12619679255204649 0 0.50000000000000455 0.12619679255204649 0 0.50000000000000111 0.1216078851878751 0 0.49483756429848141 0.12405091126909019 0 0.50000000000000111 0.1216078851878751 0 0.49483756429848141 0.12405091126909019 0 0.49182152261563872 0.1189361235615571 0 0.50000000000000111 0.1216078851878751 0 0.49182152261563872 0.1189361235615571 0 0.49549982794268999 0.104013556344106 0 0.50000000000000111 0.1216078851878751 0 0.49182152261563872 0.1189361235615571 0 0.48881050131213583 0.1311515770923474 0 0.49483756429848141 0.12405091126909019 0 0.49182152261563872 0.1189361235615571 0 0.48881050131213583 0.1311515770923474 0 0.49182152261563872 0.1189361235615571 0 0.47847762450970449 0.1228689938051494 0 0.49182152261563872 0.1189361235615571 0 0.49549982794268999 0.104013556344106 0 0.50000000000000111 0.1216078851878751 0 0.49549982794268999 0.104013556344106 0 0.5 0.096246217592591887 0 0.49549982794268999 0.104013556344106 0 0.5 0.096246217592591887 0 0.48963685015160457 0.09598743714813561 0 0.49549982794268999 0.104013556344106 0 0.48963685015160457 0.09598743714813561 0 0.48487221281385168 0.1048988043322788 0 0.49182152261563872 0.1189361235615571 0 0.49549982794268999 0.104013556344106 0 0.48487221281385168 0.1048988043322788 0 0.48487221281385168 0.1048988043322788 0 0.4769019122678298 0.093939319064525059 0 0.46969151767491252 0.1117066485367917 0 0.4769019122678298 0.093939319064525059 0 0.46969151767491252 0.1117066485367917 0 0.46196087634334831 0.097007923204217444 0 0.48963685015160457 0.09598743714813561 0 0.48487221281385168 0.1048988043322788 0 0.4769019122678298 0.093939319064525059 0 0.49182152261563872 0.1189361235615571 0 0.46969151767491252 0.1117066485367917 0 0.49182152261563872 0.1189361235615571 0 0.48487221281385168 0.1048988043322788 0 0.46969151767491252 0.1117066485367917 0 0.49182152261563872 0.1189361235615571 0 0.46969151767491252 0.1117066485367917 0 0.47847762450970449 0.1228689938051494 0 0.46969151767491252 0.1117066485367917 0 0.47847762450970449 0.1228689938051494 0 0.4676846707616365 0.1240467421846458 0 0.5 0.070884549997308754 0 0.48929512851795209 0.082188021426782054 0 0.48296455246700443 0.065213586377355484 0 0.5 0.096246217592591887 0 0.5 0.070884549997308754 0 0.48929512851795209 0.082188021426782054 0 0.5 0.096246217592591887 0 0.48963685015160457 0.09598743714813561 0 0.48929512851795209 0.082188021426782054 0 0.48963685015160457 0.09598743714813561 0 0.4769019122678298 0.093939319064525059 0 0.48929512851795209 0.082188021426782054 0 0.4769019122678298 0.093939319064525059 0 0.47696408153884812 0.078625720573704816 0 0.46548892059636587 0.082995442651664628 0 0.4769019122678298 0.093939319064525059 0 0.48929512851795209 0.082188021426782054 0 0.47696408153884812 0.078625720573704816 0 0.48929512851795209 0.082188021426782054 0 0.47696408153884812 0.078625720573704816 0 0.48296455246700443 0.065213586377355484 0 0.47696408153884812 0.078625720573704816 0 0.46749221764567861 0.068365833550224964 0 0.46548892059636587 0.082995442651664628 0 0.47696408153884812 0.078625720573704816 0 0.48296455246700443 0.065213586377355484 0 0.46749221764567861 0.068365833550224964 0 0.48296455246700443 0.065213586377355484 0 0.46749221764567861 0.068365833550224964 0 0.47358773721208702 0.056791719500308667 0 0.46749221764567861 0.068365833550224964 0 0.4521246284808641 0.075401502538265164 0 0.45626015512988349 0.061921535067916179 0 0.46749221764567861 0.068365833550224964 0 0.46548892059636587 0.082995442651664628 0 0.4521246284808641 0.075401502538265164 0 0.46548892059636587 0.082995442651664628 0 0.45285323447188142 0.088097793891842094 0 0.4521246284808641 0.075401502538265164 0 0.4769019122678298 0.093939319064525059 0 0.46548892059636587 0.082995442651664628 0 0.46196087634334831 0.097007923204217444 0 0.46548892059636587 0.082995442651664628 0 0.45285323447188142 0.088097793891842094 0 0.46196087634334831 0.097007923204217444 0 0.43769121671056621 0.0798104195604874 0 0.44756151273418632 0.1044771735120263 0 0.45285323447188142 0.088097793891842094 0 0.43769121671056621 0.0798104195604874 0 0.44756151273418632 0.1044771735120263 0 0.45285323447188142 0.088097793891842094 0 0.43769121671056621 0.0798104195604874 0 0.4521246284808641 0.075401502538265164 0 0.43769121671056621 0.0798104195604874 0 0.4521246284808641 0.075401502538265164 0 0.44069262980614932 0.065520497511199982 0 0.4521246284808641 0.075401502538265164 0 0.44746609321628172 0.062458372650238903 0 0.45626015512988349 0.061921535067916179 0 0.4521246284808641 0.075401502538265164 0 0.44069262980614932 0.065520497511199982 0 0.44746609321628172 0.062458372650238903 0 0.46969151767491252 0.1117066485367917 0 0.45582167824033021 0.1166615167816792 0 0.44756151273418632 0.1044771735120263 0 0.45582167824033021 0.1166615167816792 0 0.45392260058380868 0.1203741018792502 0 0.45582167824033021 0.1166615167816792 0 0.45392260058380868 0.1203741018792502 0 0.46138727140880292 0.1215781937792992 0 0.46969151767491252 0.1117066485367917 0 0.4676846707616365 0.1240467421846458 0 0.46138727140880292 0.1215781937792992 0 0.46969151767491252 0.1117066485367917 0 0.45582167824033021 0.1166615167816792 0 0.46138727140880292 0.1215781937792992 0 0.46969151767491252 0.1117066485367917 0 0.44756151273418632 0.1044771735120263 0 0.46969151767491252 0.1117066485367917 0 0.46196087634334831 0.097007923204217444 0 0.44756151273418632 0.1044771735120263 0 0.45285323447188142 0.088097793891842094 0 0.46196087634334831 0.097007923204217444 0 0.44756151273418632 0.1044771735120263 0 0.44756151273418632 0.1044771735120263 0 0.44340258437772712 0.116522216251723 0 0.43145691186261881 0.099216089743783029 0 0.43769121671056621 0.0798104195604874 0 0.44756151273418632 0.1044771735120263 0 0.43145691186261881 0.099216089743783029 0 0.44756151273418632 0.1044771735120263 0 0.43145691186261881 0.099216089743783029 0 0.45582167824033021 0.1166615167816792 0 0.45392260058380868 0.1203741018792502 0 0.44756151273418632 0.1044771735120263 0 0.45392260058380868 0.1203741018792502 0 0.44756151273418632 0.1044771735120263 0 0.44340258437772712 0.116522216251723 0 0.45392260058380868 0.1203741018792502 0 0.44756151273418632 0.1044771735120263 0 0.44831756317027349 0.13133162028366371 0 0.45392260058380868 0.1203741018792502 0 0.44340258437772712 0.116522216251723 0 0.43575433353774651 0.12721209583989279 0 0.43145691186261881 0.099216089743783029 0 0.43575433353774651 0.12721209583989279 0 0.42233282190421989 0.10768863865435691 0 0.43145691186261881 0.099216089743783029 0 0.43575433353774651 0.12721209583989279 0 0.44340258437772712 0.116522216251723 0 0.43145691186261881 0.099216089743783029 0 0.43575433353774651 0.12721209583989279 0 0.41435083928858868 0.120193819463479 0 0.43575433353774651 0.12721209583989279 0 0.41435083928858868 0.120193819463479 0 0.42233282190421989 0.10768863865435691 0 0.41435083928858868 0.120193819463479 0 0.40753853330662809 0.10700539299698079 0 0.42233282190421989 0.10768863865435691 0 0.40693178560872761 0.098040374921784884 0 0.41523264278965161 0.1010113180495972 0 0.41456073241004859 0.093776180562917935 0 0.40693178560872761 0.098040374921784884 0 0.40753853330662809 0.10700539299698079 0 0.41523264278965161 0.1010113180495972 0 0.41523264278965161 0.1010113180495972 0 0.42224519757939971 0.098458968245934655 0 0.42233282190421989 0.10768863865435691 0 0.40753853330662809 0.10700539299698079 0 0.41523264278965161 0.1010113180495972 0 0.42233282190421989 0.10768863865435691 0 0.41456073241004859 0.093776180562917935 0 0.42224519757939971 0.098458968245934655 0 0.42272125710971747 0.091253984055554918 0 0.41523264278965161 0.1010113180495972 0 0.41456073241004859 0.093776180562917935 0 0.42224519757939971 0.098458968245934655 0 0.42224519757939971 0.098458968245934655 0 0.43145691186261881 0.099216089743783029 0 0.42272125710971747 0.091253984055554918 0 0.42224519757939971 0.098458968245934655 0 0.42233282190421989 0.10768863865435691 0 0.43145691186261881 0.099216089743783029 0 0.43769121671056621 0.0798104195604874 0 0.43145691186261881 0.099216089743783029 0 0.42913507944554907 0.084090267933335239 0 0.43145691186261881 0.099216089743783029 0 0.42913507944554907 0.084090267933335239 0 0.42913507944554907 0.084090267933335239 0 0.42272125710971747 0.091253984055554918 0 0.41644688559005377 0.080806334427989804 0 0.43145691186261881 0.099216089743783029 0 0.42913507944554907 0.084090267933335239 0 0.42272125710971747 0.091253984055554918 0 0.43769121671056621 0.0798104195604874 0 0.44069262980614932 0.065520497511199982 0 0.42782092068694588 0.055143665608948372 0 0.43769121671056621 0.0798104195604874 0 0.42681324702848028 0.068964446122887296 0 0.42782092068694588 0.055143665608948372 0 0.43769121671056621 0.0798104195604874 0 0.42782092068694588 0.055143665608948372 0 0.43769121671056621 0.0798104195604874 0 0.42913507944554907 0.084090267933335239 0 0.42681324702848028 0.068964446122887296 0 0.42913507944554907 0.084090267933335239 0 0.42681324702848028 0.068964446122887296 0 0.42913507944554907 0.084090267933335239 0 0.42681324702848028 0.068964446122887296 0 0.41644688559005377 0.080806334427989804 0 0.42681324702848028 0.068964446122887296 0 0.41760937701223788 0.06711553975020608 0 0.42782092068694588 0.055143665608948372 0 0.41760937701223788 0.06711553975020608 0 0.40642884486568731 0.073476816034132017 0 0.41053698689002233 0.057186436557072923 0 0.42681324702848028 0.068964446122887296 0 0.41760937701223788 0.06711553975020608 0 0.41644688559005377 0.080806334427989804 0 0.41760937701223788 0.06711553975020608 0 0.40642884486568731 0.073476816034132017 0 0.41644688559005377 0.080806334427989804 0 0.41456073241004859 0.093776180562917935 0 0.42272125710971747 0.091253984055554918 0 0.41644688559005377 0.080806334427989804 0 0.40642884486568731 0.073476816034132017 0 0.41644688559005377 0.080806334427989804 0 0.40379549395479247 0.085669388078653402 0 0.40693178560872761 0.098040374921784884 0 0.41456073241004859 0.093776180562917935 0 0.40379549395479247 0.085669388078653402 0 0.41456073241004859 0.093776180562917935 0 0.41644688559005377 0.080806334427989804 0 0.40379549395479247 0.085669388078653402 0 0.40379549395479247 0.085669388078653402 0 0.38695778580258622 0.084032611758444634 0 0.3975165872163518 0.097741733436766343 0 0.40379549395479247 0.085669388078653402 0 0.39437096196894061 0.068865390346876457 0 0.38695778580258622 0.084032611758444634 0 0.40642884486568731 0.073476816034132017 0 0.39437096196894061 0.068865390346876457 0 0.41053698689002233 0.057186436557072923 0 0.40642884486568731 0.073476816034132017 0 0.40379549395479247 0.085669388078653402 0 0.39437096196894061 0.068865390346876457 0 0.39437096196894061 0.068865390346876457 0 0.37531219647269282 0.067622786244197375 0 0.38695778580258622 0.084032611758444634 0 0.39437096196894061 0.068865390346876457 0 0.37531219647269282 0.067622786244197375 0 0.384307655284853 0.05586145074736424 0 0.37033576376627703 0.085135047915449361 0 0.38695778580258622 0.084032611758444634 0 0.38239775012585042 0.09679742214694266 0 0.37033576376627703 0.085135047915449361 0 0.37531219647269282 0.067622786244197375 0 0.38695778580258622 0.084032611758444634 0 0.38695778580258622 0.084032611758444634 0 0.38239775012585042 0.09679742214694266 0 0.3975165872163518 0.097741733436766343 0 0.36474131680021682 0.10392669337311709 0 0.38239775012585042 0.09679742214694266 0 0.39294734503943141 0.11317554308706371 0 0.36474131680021682 0.10392669337311709 0 0.39294734503943141 0.11317554308706371 0 0.36474131680021682 0.10392669337311709 0 0.37682913357119818 0.1195748380276776 0 0.39294734503943141 0.11317554308706371 0 0.38656814091242597 0.1347229722677937 0 0.39294734503943141 0.11317554308706371 0 0.38656814091242597 0.1347229722677937 0 0.37682913357119818 0.1195748380276776 0 0.39294734503943141 0.11317554308706371 0 0.41435083928858868 0.120193819463479 0 0.39294734503943141 0.11317554308706371 0 0.41435083928858868 0.120193819463479 0 0.40753853330662809 0.10700539299698079 0 0.39294734503943141 0.11317554308706371 0 0.40089636728556699 0.12829379399403459 0 0.41435083928858868 0.120193819463479 0 0.39294734503943141 0.11317554308706371 0 0.40753853330662809 0.10700539299698079 0 0.39294734503943141 0.11317554308706371 0 0.3975165872163518 0.097741733436766343 0 0.38239775012585042 0.09679742214694266 0 0.39294734503943141 0.11317554308706371 0 0.3975165872163518 0.097741733436766343 0 0.40693178560872761 0.098040374921784884 0 0.40753853330662809 0.10700539299698079 0 0.3975165872163518 0.097741733436766343 0 0.40693178560872761 0.098040374921784884 0 0.40379549395479247 0.085669388078653402 0 0.3975165872163518 0.097741733436766343 0 0.39294734503943141 0.11317554308706371 0 0.3975165872163518 0.097741733436766343 0 0.39016617796895542 0.02011770366871786 0 0.41334655688664912 0.028885294262948589 0 0.41310457108790888 0.013594764490871729 0 0.39016617796895542 0.02011770366871786 0 0.40304275380504079 0.040367258124605412 0 0.41334655688664912 0.028885294262948589 0 0.39016617796895542 0.02011770366871786 0 0.41310457108790888 0.013594764490871729 0 0.38782854456049609 0.0046137138984699063 0 0.41310457108790888 0.013594764490871729 0 0.40024926032729752 -0.0049551966240843591 0 0.38782854456049609 0.0046137138984699063 0 0.39016617796895542 0.02011770366871786 0 0.41310457108790888 0.013594764490871729 0 0.36810935730077649 0.01191301879654528 0 0.38782854456049609 0.0046137138984699063 0 0.37296979266914171 -0.0020125707088021081 0 0.36810935730077649 0.01191301879654528 0 0.38782854456049609 0.0046137138984699063 0 0.39016617796895542 0.02011770366871786 0 0.36722778485000179 0.026640642846563981 0 0.39016617796895542 0.02011770366871786 0 0.38681003011234388 0.039596186089885431 0 0.36722778485000179 0.026640642846563981 0 0.39016617796895542 0.02011770366871786 0 0.36810935730077649 0.01191301879654528 0 0.36722778485000179 0.026640642846563981 0 0.39016617796895542 0.02011770366871786 0 0.36417589956372959 0.048138366761666808 0 0.38681003011234388 0.039596186089885431 0 0.384307655284853 0.05586145074736424 0 0.38681003011234388 0.039596186089885431 0 0.384307655284853 0.05586145074736424 0 0.39656084889748933 0.052270593103886473 0 0.39656084889748933 0.052270593103886473 0 0.40304275380504079 0.040367258124605412 0 0.41053698689002233 0.057186436557072923 0 0.39437096196894061 0.068865390346876457 0 0.384307655284853 0.05586145074736424 0 0.39656084889748933 0.052270593103886473 0 0.39437096196894061 0.068865390346876457 0 0.39656084889748933 0.052270593103886473 0 0.41053698689002233 0.057186436557072923 0 0.38681003011234388 0.039596186089885431 0 0.39656084889748933 0.052270593103886473 0 0.40304275380504079 0.040367258124605412 0 0.39016617796895542 0.02011770366871786 0 0.38681003011234388 0.039596186089885431 0 0.40304275380504079 0.040367258124605412 0 0.40304275380504079 0.040367258124605412 0 0.41839616075525538 0.045623471833234737 0 0.41334655688664912 0.028885294262948589 0 0.41839616075525538 0.045623471833234737 0 0.4260971199774487 0.034818416188226259 0 0.41334655688664912 0.028885294262948589 0 0.41839616075525538 0.045623471833234737 0 0.41053698689002233 0.057186436557072923 0 0.42782092068694588 0.055143665608948372 0 0.41760937701223788 0.06711553975020608 0 0.41053698689002233 0.057186436557072923 0 0.42782092068694588 0.055143665608948372 0 0.40304275380504079 0.040367258124605412 0 0.41839616075525538 0.045623471833234737 0 0.41053698689002233 0.057186436557072923 0 0.41839616075525538 0.045623471833234737 0 0.42782092068694588 0.055143665608948372 0 0.43533819405077412 0.043574524545143108 0 0.42782092068694588 0.055143665608948372 0 0.43533819405077412 0.043574524545143108 0 0.43937757986663889 0.05489744073714492 0 0.44069262980614932 0.065520497511199982 0 0.42782092068694588 0.055143665608948372 0 0.43937757986663889 0.05489744073714492 0 0.41839616075525538 0.045623471833234737 0 0.4260971199774487 0.034818416188226259 0 0.43533819405077412 0.043574524545143108 0 0.4260971199774487 0.034818416188226259 0 0.43533819405077412 0.043574524545143108 0 0.43607113250424229 0.030287328747571712 0 0.43607113250424229 0.030287328747571712 0 0.42845031137635592 0.021241092324890451 0 0.44402084532050762 0.020819356678929118 0 0.4260971199774487 0.034818416188226259 0 0.43607113250424229 0.030287328747571712 0 0.42845031137635592 0.021241092324890451 0 0.42845031137635592 0.021241092324890451 0 0.4360429642068625 0.0070718253130255971 0 0.44402084532050762 0.020819356678929118 0 0.4260971199774487 0.034818416188226259 0 0.42845031137635592 0.021241092324890451 0 0.41334655688664912 0.028885294262948589 0 0.42845031137635592 0.021241092324890451 0 0.41334655688664912 0.028885294262948589 0 0.41310457108790888 0.013594764490871729 0 0.41310457108790888 0.013594764490871729 0 0.4360429642068625 0.0070718253130255971 0 0.42845031137635592 0.021241092324890451 0 0.41310457108790888 0.013594764490871729 0 0.4360429642068625 0.0070718253130255971 0 0.41310457108790888 0.013594764490871729 0 0.4360429642068625 0.0070718253130255971 0 0.42929177331634871 -0.0037271540612215069 0 0.4360429642068625 0.0070718253130255971 0 0.45898135732581608 0.00054888613517944593 0 0.4360429642068625 0.0070718253130255971 0 0.45062529342543478 0.01120764142773645 0 0.45898135732581608 0.00054888613517944593 0 0.4360429642068625 0.0070718253130255971 0 0.45898135732581608 0.00054888613517944593 0 0.45133581100961828 -0.007454179256668512 0 0.4360429642068625 0.0070718253130255971 0 0.45062529342543478 0.01120764142773645 0 0.44402084532050762 0.020819356678929118 0 0.43607113250424229 0.030287328747571712 0 0.44402084532050762 0.020819356678929118 0 0.44619843069186899 0.035015649946660052 0 0.44402084532050762 0.020819356678929118 0 0.45542839668454471 0.02912141241782782 0 0.44619843069186899 0.035015649946660052 0 0.45062529342543478 0.01120764142773645 0 0.44402084532050762 0.020819356678929118 0 0.45621242497243469 0.018139857752586312 0 0.44402084532050762 0.020819356678929118 0 0.45621242497243469 0.018139857752586312 0 0.45542839668454471 0.02912141241782782 0 0.45621242497243469 0.018139857752586312 0 0.45542839668454471 0.02912141241782782 0 0.46353923301200117 0.02451509133963797 0 0.46353923301200117 0.02451509133963797 0 0.46573411335348008 0.034924913970565831 0 0.47282881366104312 0.024873282674873709 0 0.45542839668454471 0.02912141241782782 0 0.46353923301200117 0.02451509133963797 0 0.46573411335348008 0.034924913970565831 0 0.46353923301200117 0.02451509133963797 0 0.46547184040309858 0.01530395460880289 0 0.47282881366104312 0.024873282674873709 0 0.45621242497243469 0.018139857752586312 0 0.46353923301200117 0.02451509133963797 0 0.46547184040309858 0.01530395460880289 0 0.45898135732581608 0.00054888613517944593 0 0.4750787075659022 0.01069908890941646 0 0.46261806134885403 -0.0067128078368882543 0 0.46547184040309858 0.01530395460880289 0 0.45898135732581608 0.00054888613517944593 0 0.4750787075659022 0.01069908890941646 0 0.45062529342543478 0.01120764142773645 0 0.45898135732581608 0.00054888613517944593 0 0.45794404798290728 0.010101427260997029 0 0.46547184040309858 0.01530395460880289 0 0.45898135732581608 0.00054888613517944593 0 0.45794404798290728 0.010101427260997029 0 0.45621242497243469 0.018139857752586312 0 0.46547184040309858 0.01530395460880289 0 0.45794404798290728 0.010101427260997029 0 0.45062529342543478 0.01120764142773645 0 0.45621242497243469 0.018139857752586312 0 0.45794404798290728 0.010101427260997029 0 0.44746609321628172 0.062458372650238903 0 0.4504530532396861 0.048312928357801453 0 0.45626015512988349 0.061921535067916179 0 0.44746609321628172 0.062458372650238903 0 0.43937757986663889 0.05489744073714492 0 0.4504530532396861 0.048312928357801453 0 0.44069262980614932 0.065520497511199982 0 0.44746609321628172 0.062458372650238903 0 0.43937757986663889 0.05489744073714492 0 0.43533819405077412 0.043574524545143108 0 0.43937757986663889 0.05489744073714492 0 0.4504530532396861 0.048312928357801453 0 0.4504530532396861 0.048312928357801453 0 0.44619843069186899 0.035015649946660052 0 0.45504674147312157 0.038565503506068861 0 0.43533819405077412 0.043574524545143108 0 0.4504530532396861 0.048312928357801453 0 0.44619843069186899 0.035015649946660052 0 0.43533819405077412 0.043574524545143108 0 0.43607113250424229 0.030287328747571712 0 0.44619843069186899 0.035015649946660052 0 0.45542839668454471 0.02912141241782782 0 0.44619843069186899 0.035015649946660052 0 0.45504674147312157 0.038565503506068861 0 0.45542839668454471 0.02912141241782782 0 0.45504674147312157 0.038565503506068861 0 0.46573411335348008 0.034924913970565831 0 0.46573411335348008 0.034924913970565831 0 0.46092409448828608 0.044661582602686087 0 0.47039328573654388 0.046016065662641298 0 0.45504674147312157 0.038565503506068861 0 0.46573411335348008 0.034924913970565831 0 0.46092409448828608 0.044661582602686087 0 0.4504530532396861 0.048312928357801453 0 0.45504674147312157 0.038565503506068861 0 0.46092409448828608 0.044661582602686087 0 0.4504530532396861 0.048312928357801453 0 0.46092409448828608 0.044661582602686087 0 0.46376478306690733 0.055069038243050407 0 0.46092409448828608 0.044661582602686087 0 0.46376478306690733 0.055069038243050407 0 0.47039328573654388 0.046016065662641298 0 0.46749221764567861 0.068365833550224964 0 0.46376478306690733 0.055069038243050407 0 0.47358773721208702 0.056791719500308667 0 0.46749221764567861 0.068365833550224964 0 0.46376478306690733 0.055069038243050407 0 0.45626015512988349 0.061921535067916179 0 0.4504530532396861 0.048312928357801453 0 0.46376478306690733 0.055069038243050407 0 0.45626015512988349 0.061921535067916179 0 0.48296455246700443 0.065213586377355484 0 0.47358773721208702 0.056791719500308667 0 0.48187310027256569 0.04700211605369526 0 0.46376478306690733 0.055069038243050407 0 0.47358773721208702 0.056791719500308667 0 0.47039328573654388 0.046016065662641298 0 0.47358773721208702 0.056791719500308667 0 0.48187310027256569 0.04700211605369526 0 0.47039328573654388 0.046016065662641298 0 0.48187310027256569 0.04700211605369526 0 0.47575051259006979 0.036501044798253578 0 0.48753935378295049 0.028110985655721218 0 0.48187310027256569 0.04700211605369526 0 0.47039328573654388 0.046016065662641298 0 0.47575051259006979 0.036501044798253578 0 0.46573411335348008 0.034924913970565831 0 0.47039328573654388 0.046016065662641298 0 0.47575051259006979 0.036501044798253578 0 0.46573411335348008 0.034924913970565831 0 0.47575051259006979 0.036501044798253578 0 0.47282881366104312 0.024873282674873709 0 0.49999999999999922 0.045522882402025608 0 0.48753935378295049 0.028110985655721218 0 0.49999999999999922 0.045522882402025608 0 0.48753935378295049 0.028110985655721218 0 0.5 0.024748274016683339 0 0.48187310027256569 0.04700211605369526 0 0.49999999999999922 0.045522882402025608 0 0.48753935378295049 0.028110985655721218 0 0.5 0.070884549997308754 0 0.48296455246700443 0.065213586377355484 0 0.49999999999999922 0.045522882402025608 0 0.48296455246700443 0.065213586377355484 0 0.48187310027256569 0.04700211605369526 0 0.49999999999999922 0.045522882402025608 0 0.4750787075659022 0.01069908890941646 0 0.48919669366165858 0.013119441594273539 0 0.48073329584625929 -0.0044178627012719804 0 0.4750787075659022 0.01069908890941646 0 0.46261806134885403 -0.0067128078368882543 0 0.4750787075659022 0.01069908890941646 0 0.47282881366104312 0.024873282674873709 0 0.48753935378295049 0.028110985655721218 0 0.46547184040309858 0.01530395460880289 0 0.4750787075659022 0.01069908890941646 0 0.47282881366104312 0.024873282674873709 0 0.4750787075659022 0.01069908890941646 0 0.48753935378295049 0.028110985655721218 0 0.48919669366165858 0.013119441594273539 0 0.4750787075659022 0.01069908890941646 0 0.48753935378295049 0.028110985655721218 0 0.47575051259006979 0.036501044798253578 0 0.47282881366104312 0.024873282674873709 0 0.48753935378295049 0.028110985655721218 0 0.48753935378295049 0.028110985655721218 0 0.5 0.024748274016683339 0 0.48919669366165858 0.013119441594273539 0 0.5 0.0039736656313411611 0 0.48919669366165858 0.013119441594273539 0 0.48073329584625929 -0.0044178627012719804 0 0.5 0.024748274016683339 0 0.5 0.0039736656313411611 0 0.48919669366165858 0.013119441594273539 0 0.5 0.0039736656313411611 0 0.48073329584625929 -0.0044178627012719804 0 0.50000000000000622 -0.01680094275400118 0 0.48073329584625929 -0.0044178627012719804 0 0.48206021058667148 -0.020034714330412619 0 0.50000000000000622 -0.01680094275400118 0 0.4750787075659022 0.01069908890941646 0 0.48073329584625929 -0.0044178627012719804 0 0.46261806134885403 -0.0067128078368882543 0 0.48073329584625929 -0.0044178627012719804 0 0.47183002040727551 -0.01401724715491383 0 0.46261806134885403 -0.0067128078368882543 0 0.48073329584625929 -0.0044178627012719804 0 0.47183002040727551 -0.01401724715491383 0 0.48206021058667148 -0.020034714330412619 0 0.48206021058666593 -0.028412224471249751 0 0.46984459514686028 -0.040076630291391857 0 0.46412042117333729 -0.023268485906827351 0 0.48206021058667148 -0.020034714330412619 0 0.46412042117333729 -0.023268485906827351 0 0.48206021058667148 -0.020034714330412619 0 0.48206021058666593 -0.028412224471249751 0 0.46412042117333729 -0.023268485906827351 0 0.48206021058666593 -0.028412224471249751 0 0.46412042117333729 -0.023268485906827351 0 0.47183002040727551 -0.01401724715491383 0 0.48206021058667148 -0.020034714330412619 0 0.46412042117333729 -0.023268485906827351 0 0.48206021058666593 -0.028412224471249751 0 0.49999999999999623 -0.033555963035666339 0 0.48206021058667148 -0.020034714330412619 0 0.50000000000000622 -0.01680094275400118 0 0.48206021058667148 -0.020034714330412619 0 0.48206021058666593 -0.028412224471249751 0 0.49207661235977779 -0.024223469400837531 0 0.48206021058666593 -0.028412224471249751 0 0.49207661235977779 -0.024223469400837531 0 0.49999999999999623 -0.033555963035666339 0 0.48206021058667148 -0.020034714330412619 0 0.50000000000000622 -0.01680094275400118 0 0.49207661235977779 -0.024223469400837531 0 0.50000000000000622 -0.01680094275400118 0 0.49207661235977779 -0.024223469400837531 0 0.49999999999999623 -0.033555963035666339 0 0.48206021058666593 -0.028412224471249751 0 0.49999999999999623 -0.033555963035666339 0 0.48277293437258051 -0.048408315333825037 0 0.49999999999999623 -0.033555963035666339 0 0.5 -0.061359715463813858 0 0.48277293437258051 -0.048408315333825037 0 0.5 -0.061359715463813858 0 0.48277293437258051 -0.048408315333825037 0 0.48191461224925741 -0.070604383761551093 0 0.48277293437258051 -0.048408315333825037 0 0.46320543543774523 -0.058815973949066541 0 0.48191461224925741 -0.070604383761551093 0 0.48277293437258051 -0.048408315333825037 0 0.46984459514686028 -0.040076630291391857 0 0.46320543543774523 -0.058815973949066541 0 0.48206021058666593 -0.028412224471249751 0 0.48277293437258051 -0.048408315333825037 0 0.46984459514686028 -0.040076630291391857 0 0.46984459514686028 -0.040076630291391857 0 0.45706397416397332 -0.041478151795995018 0 0.46320543543774523 -0.058815973949066541 0 0.46984459514686028 -0.040076630291391857 0 0.45706397416397332 -0.041478151795995018 0 0.46412042117333729 -0.023268485906827351 0 0.45706397416397332 -0.041478151795995018 0 0.46320543543774523 -0.058815973949066541 0 0.44313228485372408 -0.052109445691672002 0 0.46320543543774523 -0.058815973949066541 0 0.44313228485372408 -0.052109445691672002 0 0.44699087429774692 -0.069963638982073778 0 0.44313228485372408 -0.052109445691672002 0 0.44409341847379052 -0.02687849216711637 0 0.42587201884460679 -0.048443133163739778 0 0.45706397416397332 -0.041478151795995018 0 0.44313228485372408 -0.052109445691672002 0 0.44409341847379052 -0.02687849216711637 0 0.46412042117333729 -0.023268485906827351 0 0.43589871357485138 -0.01517669160626948 0 0.44409341847379052 -0.02687849216711637 0 0.46412042117333729 -0.023268485906827351 0 0.43589871357485138 -0.01517669160626948 0 0.44169000314882267 -0.0076823647479978621 0 0.45133581100961828 -0.007454179256668512 0 0.43589871357485138 -0.01517669160626948 0 0.45133581100961828 -0.007454179256668512 0 0.46412042117333729 -0.023268485906827351 0 0.43589871357485138 -0.01517669160626948 0 0.44169000314882267 -0.0076823647479978621 0 0.43589871357485138 -0.01517669160626948 0 0.4360429642068625 0.0070718253130255971 0 0.44169000314882267 -0.0076823647479978621 0 0.45133581100961828 -0.007454179256668512 0 0.47183002040727551 -0.01401724715491383 0 0.46261806134885403 -0.0067128078368882543 0 0.46412042117333729 -0.023268485906827351 0 0.45133581100961828 -0.007454179256668512 0 0.46261806134885403 -0.0067128078368882543 0 0.46412042117333729 -0.023268485906827351 0 0.45898135732581608 0.00054888613517944593 0 0.45133581100961828 -0.007454179256668512 0 0.46261806134885403 -0.0067128078368882543 0 0.44409341847379052 -0.02687849216711637 0 0.46412042117333729 -0.023268485906827351 0 0.45706397416397332 -0.041478151795995018 0 0.44409341847379052 -0.02687849216711637 0 0.46412042117333729 -0.023268485906827351 0 0.47959416750172218 -0.10686294287299131 0 0.5 -0.089163467891961334 0 0.46694197211191268 -0.087485304971033587 0 0.47959416750172218 -0.10686294287299131 0 0.46163052336471982 -0.1210358462461255 0 0.47963410240057891 -0.13240813631170931 0 0.5 -0.1169672203201086 0 0.47959416750172218 -0.10686294287299131 0 0.47963410240057891 -0.13240813631170931 0 0.5 -0.1169672203201086 0 0.47959416750172218 -0.10686294287299131 0 0.5 -0.089163467891961334 0 0.5 -0.089163467891961334 0 0.48191461224925741 -0.070604383761551093 0 0.46694197211191268 -0.087485304971033587 0 0.5 -0.061359715463813858 0 0.5 -0.089163467891961334 0 0.48191461224925741 -0.070604383761551093 0 0.46320543543774523 -0.058815973949066541 0 0.48191461224925741 -0.070604383761551093 0 0.46694197211191268 -0.087485304971033587 0 0.46320543543774523 -0.058815973949066541 0 0.44699087429774692 -0.069963638982073778 0 0.46694197211191268 -0.087485304971033587 0 0.44313228485372408 -0.052109445691672002 0 0.44699087429774692 -0.069963638982073778 0 0.42318629436947552 -0.069709558841117653 0 0.46694197211191268 -0.087485304971033587 0 0.45117428366893703 -0.1035159556014181 0 0.43699885424977081 -0.086956307644578068 0 0.44699087429774692 -0.069963638982073778 0 0.46694197211191268 -0.087485304971033587 0 0.43699885424977081 -0.086956307644578068 0 0.47959416750172218 -0.10686294287299131 0 0.46694197211191268 -0.087485304971033587 0 0.45117428366893703 -0.1035159556014181 0 0.45117428366893703 -0.1035159556014181 0 0.43901173578131958 -0.12280760929418839 0 0.46163052336471982 -0.1210358462461255 0 0.47959416750172218 -0.10686294287299131 0 0.45117428366893703 -0.1035159556014181 0 0.46163052336471982 -0.1210358462461255 0 0.42111085546826171 -0.102770927773233 0 0.39052644018068122 -0.1078397154782498 0 0.41336258915915769 -0.1271432711650084 0 0.43901173578131958 -0.12280760929418839 0 0.42111085546826171 -0.102770927773233 0 0.41336258915915769 -0.1271432711650084 0 0.45117428366893703 -0.1035159556014181 0 0.43901173578131958 -0.12280760929418839 0 0.42111085546826171 -0.102770927773233 0 0.45117428366893703 -0.1035159556014181 0 0.42111085546826171 -0.102770927773233 0 0.43699885424977081 -0.086956307644578068 0 0.42111085546826171 -0.102770927773233 0 0.41838507055126373 -0.084571472827164235 0 0.40128516249598001 -0.088432747113085422 0 0.41838507055126373 -0.084571472827164235 0 0.40934418617283058 -0.074987822763807041 0 0.40128516249598001 -0.088432747113085422 0 0.42111085546826171 -0.102770927773233 0 0.41838507055126373 -0.084571472827164235 0 0.43699885424977081 -0.086956307644578068 0 0.41838507055126373 -0.084571472827164235 0 0.43699885424977081 -0.086956307644578068 0 0.42318629436947552 -0.069709558841117653 0 0.44699087429774692 -0.069963638982073778 0 0.43699885424977081 -0.086956307644578068 0 0.42318629436947552 -0.069709558841117653 0 0.42318629436947552 -0.069709558841117653 0 0.40934418617283058 -0.074987822763807041 0 0.41137418155578459 -0.061978450040266919 0 0.41838507055126373 -0.084571472827164235 0 0.42318629436947552 -0.069709558841117653 0 0.40934418617283058 -0.074987822763807041 0 0.40934418617283058 -0.074987822763807041 0 0.39469262030699509 -0.068500209202295437 0 0.41137418155578459 -0.061978450040266919 0 0.40934418617283058 -0.074987822763807041 0 0.39469262030699509 -0.068500209202295437 0 0.40128516249598001 -0.088432747113085422 0 0.39469262030699509 -0.068500209202295437 0 0.38000572257336812 -0.087506064589734894 0 0.39469262030699509 -0.068500209202295437 0 0.38056803337448469 -0.063030673217119998 0 0.37942407772184072 -0.072489429308566986 0 0.39469262030699509 -0.068500209202295437 0 0.37942407772184072 -0.072489429308566986 0 0.38000572257336812 -0.087506064589734894 0 0.38056803337448469 -0.063030673217119998 0 0.37942407772184072 -0.072489429308566986 0 0.37028489932150038 -0.066280347363263215 0 0.37942407772184072 -0.072489429308566986 0 0.38000572257336812 -0.087506064589734894 0 0.37116465179009378 -0.07766205732246842 0 0.39469262030699509 -0.068500209202295437 0 0.38000572257336812 -0.087506064589734894 0 0.40128516249598001 -0.088432747113085422 0 0.39052644018068122 -0.1078397154782498 0 0.39456428370367541 -0.13953719262266001 0 0.41336258915915769 -0.1271432711650084 0 0.42111085546826171 -0.102770927773233 0 0.40128516249598001 -0.088432747113085422 0 0.39052644018068122 -0.1078397154782498 0 0.39052644018068122 -0.1078397154782498 0 0.36769029120220481 -0.088536159791491223 0 0.36991573256093291 -0.10618319967771241 0 0.38000572257336812 -0.087506064589734894 0 0.39052644018068122 -0.1078397154782498 0 0.36769029120220481 -0.088536159791491223 0 0.39052644018068122 -0.1078397154782498 0 0.36769029120220481 -0.088536159791491223 0 0.38000572257336812 -0.087506064589734894 0 0.40128516249598001 -0.088432747113085422 0 0.39052644018068122 -0.1078397154782498 0 0.39052644018068122 -0.1078397154782498 0 0.37324406044445863 -0.1181619850257994 0 0.36991573256093291 -0.10618319967771241 0 0.39052644018068122 -0.1078397154782498 0 0.37324406044445863 -0.1181619850257994 0 0.3809322245084979 -0.1296348913093702 0 0.39052644018068122 -0.1078397154782498 0 0.41336258915915769 -0.1271432711650084 0 0.4240664157742452 -0.030488498427413451 0 0.39929103678632971 -0.034954432476020182 0 0.40483487527692558 -0.019649856894510959 0 0.41807398695107417 -0.01006594411517785 0 0.4240664157742452 -0.030488498427413451 0 0.40483487527692558 -0.019649856894510959 0 0.41807398695107417 -0.01006594411517785 0 0.40483487527692558 -0.019649856894510959 0 0.40024926032729752 -0.0049551966240843591 0 0.41310457108790888 0.013594764490871729 0 0.41807398695107417 -0.01006594411517785 0 0.42929177331634871 -0.0037271540612215069 0 0.41807398695107417 -0.01006594411517785 0 0.40024926032729752 -0.0049551966240843591 0 0.41310457108790888 0.013594764490871729 0 0.41807398695107417 -0.01006594411517785 0 0.40024926032729752 -0.0049551966240843591 0 0.41807398695107417 -0.01006594411517785 0 0.43589871357485138 -0.01517669160626948 0 0.41807398695107417 -0.01006594411517785 0 0.42929177331634871 -0.0037271540612215069 0 0.43589871357485138 -0.01517669160626948 0 0.4360429642068625 0.0070718253130255971 0 0.44169000314882267 -0.0076823647479978621 0 0.42929177331634871 -0.0037271540612215069 0 0.44169000314882267 -0.0076823647479978621 0 0.42929177331634871 -0.0037271540612215069 0 0.43589871357485138 -0.01517669160626948 0 0.41807398695107417 -0.01006594411517785 0 0.43589871357485138 -0.01517669160626948 0 0.4240664157742452 -0.030488498427413451 0 0.43589871357485138 -0.01517669160626948 0 0.4240664157742452 -0.030488498427413451 0 0.44409341847379052 -0.02687849216711637 0 0.43589871357485138 -0.01517669160626948 0 0.4240664157742452 -0.030488498427413451 0 0.44409341847379052 -0.02687849216711637 0 0.4240664157742452 -0.030488498427413451 0 0.44409341847379052 -0.02687849216711637 0 0.4240664157742452 -0.030488498427413451 0 0.42587201884460679 -0.048443133163739778 0 0.44313228485372408 -0.052109445691672002 0 0.42318629436947552 -0.069709558841117653 0 0.42587201884460679 -0.048443133163739778 0 0.42587201884460679 -0.048443133163739778 0 0.40937951804062211 -0.049494353814855993 0 0.41137418155578459 -0.061978450040266919 0 0.42318629436947552 -0.069709558841117653 0 0.42587201884460679 -0.048443133163739778 0 0.41137418155578459 -0.061978450040266919 0 0.4240664157742452 -0.030488498427413451 0 0.40937951804062211 -0.049494353814855993 0 0.4240664157742452 -0.030488498427413451 0 0.40937951804062211 -0.049494353814855993 0 0.39929103678632971 -0.034954432476020182 0 0.4240664157742452 -0.030488498427413451 0 0.39929103678632971 -0.034954432476020182 0 0.4240664157742452 -0.030488498427413451 0 0.42587201884460679 -0.048443133163739778 0 0.40937951804062211 -0.049494353814855993 0 0.40937951804062211 -0.049494353814855993 0 0.39929103678632971 -0.034954432476020182 0 0.39001421926681701 -0.055659278084301302 0 0.39469262030699509 -0.068500209202295437 0 0.40937951804062211 -0.049494353814855993 0 0.41137418155578459 -0.061978450040266919 0 0.39469262030699509 -0.068500209202295437 0 0.40937951804062211 -0.049494353814855993 0 0.39469262030699509 -0.068500209202295437 0 0.40937951804062211 -0.049494353814855993 0 0.39001421926681701 -0.055659278084301302 0 0.39001421926681701 -0.055659278084301302 0 0.37451565779841439 -0.039420366524628582 0 0.39001421926681701 -0.055659278084301302 0 0.37451565779841439 -0.039420366524628582 0 0.36842435025527032 -0.052224102127173072 0 0.38056803337448469 -0.063030673217119998 0 0.39001421926681701 -0.055659278084301302 0 0.36842435025527032 -0.052224102127173072 0 0.39469262030699509 -0.068500209202295437 0 0.38056803337448469 -0.063030673217119998 0 0.39001421926681701 -0.055659278084301302 0 0.39929103678632971 -0.034954432476020182 0 0.39001421926681701 -0.055659278084301302 0 0.37451565779841439 -0.039420366524628582 0 0.39929103678632971 -0.034954432476020182 0 0.37451565779841439 -0.039420366524628582 0 0.39929103678632971 -0.034954432476020182 0 0.382493676545682 -0.017785212829862611 0 0.37451565779841439 -0.039420366524628582 0 0.39929103678632971 -0.034954432476020182 0 0.382493676545682 -0.017785212829862611 0 0.40483487527692558 -0.019649856894510959 0 0.382493676545682 -0.017785212829862611 0 0.40483487527692558 -0.019649856894510959 0 0.40024926032729752 -0.0049551966240843591 0 0.38782854456049609 0.0046137138984699063 0 0.382493676545682 -0.017785212829862611 0 0.37296979266914171 -0.0020125707088021081 0 0.38782854456049609 0.0046137138984699063 0 0.382493676545682 -0.017785212829862611 0 0.40024926032729752 -0.0049551966240843591 0 0.382493676545682 -0.017785212829862611 0 0.37296979266914171 -0.0020125707088021081 0 0.36283400306521141 -0.01097001037979665 0 0.37296979266914171 -0.0020125707088021081 0 0.36283400306521141 -0.01097001037979665 0 0.35956703262594519 -3.0653365822368511e-05 0 0.382493676545682 -0.017785212829862611 0 0.36283400306521141 -0.01097001037979665 0 0.3616782163003307 -0.025969693856393389 0 0.382493676545682 -0.017785212829862611 0 0.3616782163003307 -0.025969693856393389 0 0.37451565779841439 -0.039420366524628582 0 0.35106621809699068 -0.027882580199050561 0 0.34884077480224412 -0.01251902118816095 0 0.33686997412354469 -0.030915159696021949 0 0.3616782163003307 -0.025969693856393389 0 0.35106621809699068 -0.027882580199050561 0 0.35898449511374703 -0.034434791882784588 0 0.3616782163003307 -0.025969693856393389 0 0.34884077480224412 -0.01251902118816095 0 0.36283400306521141 -0.01097001037979665 0 0.3616782163003307 -0.025969693856393389 0 0.34884077480224412 -0.01251902118816095 0 0.3616782163003307 -0.025969693856393389 0 0.35106621809699068 -0.027882580199050561 0 0.34884077480224412 -0.01251902118816095 0 0.35106621809699068 -0.027882580199050561 0 0.34884077480224412 -0.01251902118816095 0 0.36283400306521141 -0.01097001037979665 0 0.35956703262594519 -3.0653365822368511e-05 0 0.34884077480224412 -0.01251902118816095 0 0.33416824843822612 0.0028543964330874148 0 0.34884077480224412 -0.01251902118816095 0 0.32960694340202362 -0.018283271293828628 0 0.33416824843822612 0.0028543964330874148 0 0.34884077480224412 -0.01251902118816095 0 0.33416824843822612 0.0028543964330874148 0 0.32960694340202362 -0.018283271293828628 0 0.32285881637292918 -0.0045798931398973834 0 0.34884077480224412 -0.01251902118816095 0 0.32960694340202362 -0.018283271293828628 0 0.33686997412354469 -0.030915159696021949 0 0.32960694340202362 -0.018283271293828628 0 0.33686997412354469 -0.030915159696021949 0 0.32552743523073041 -0.03549020863799069 0 0.32960694340202362 -0.018283271293828628 0 0.32285881637292918 -0.0045798931398973834 0 0.31195192303242197 -0.02633929460696427 0 0.32960694340202362 -0.018283271293828628 0 0.32552743523073041 -0.03549020863799069 0 0.31195192303242197 -0.02633929460696427 0 0.32285881637292918 -0.0045798931398973834 0 0.3070570211907484 -0.0028630152284567778 0 0.31195192303242197 -0.02633929460696427 0 0.31684682487409382 -0.049815573985472088 0 0.33506924313291819 -0.046530856597705818 0 0.31684682487409382 -0.049815573985472088 0 0.33506924313291819 -0.046530856597705818 0 0.33057542227303272 -0.062094003522218423 0 0.31684682487409382 -0.049815573985472088 0 0.32552743523073041 -0.03549020863799069 0 0.31195192303242197 -0.02633929460696427 0 0.31684682487409382 -0.049815573985472088 0 0.32552743523073041 -0.03549020863799069 0 0.33506924313291819 -0.046530856597705818 0 0.31684682487409382 -0.049815573985472088 0 0.31195192303242197 -0.02633929460696427 0 0.33686997412354469 -0.030915159696021949 0 0.33506924313291819 -0.046530856597705818 0 0.35329166139174262 -0.04324613920993936 0 0.33686997412354469 -0.030915159696021949 0 0.32552743523073041 -0.03549020863799069 0 0.33506924313291819 -0.046530856597705818 0 0.33506924313291819 -0.046530856597705818 0 0.33057542227303272 -0.062094003522218423 0 0.34495127785396201 -0.05509563637829152 0 0.33057542227303272 -0.062094003522218423 0 0.34495127785396201 -0.05509563637829152 0 0.34485414222372818 -0.069232604104732615 0 0.34495127785396201 -0.05509563637829152 0 0.35434692444611882 -0.050531247865041172 0 0.35322135215492151 -0.061030539163831769 0 0.34495127785396201 -0.05509563637829152 0 0.35322135215492151 -0.061030539163831769 0 0.34485414222372818 -0.069232604104732615 0 0.33506924313291819 -0.046530856597705818 0 0.34495127785396201 -0.05509563637829152 0 0.35329166139174262 -0.04324613920993936 0 0.34495127785396201 -0.05509563637829152 0 0.35434692444611882 -0.050531247865041172 0 0.35329166139174262 -0.04324613920993936 0 0.35434692444611882 -0.050531247865041172 0 0.35329166139174262 -0.04324613920993936 0 0.36842435025527032 -0.052224102127173072 0 0.35434692444611882 -0.050531247865041172 0 0.35329166139174262 -0.04324613920993936 0 0.35434692444611882 -0.050531247865041172 0 0.35322135215492151 -0.061030539163831769 0 0.36088031990157582 -0.060158444182070628 0 0.33506924313291819 -0.046530856597705818 0 0.35329166139174262 -0.04324613920993936 0 0.35106621809699068 -0.027882580199050561 0 0.33686997412354469 -0.030915159696021949 0 0.35329166139174262 -0.04324613920993936 0 0.35106621809699068 -0.027882580199050561 0 0.35329166139174262 -0.04324613920993936 0 0.35898449511374703 -0.034434791882784588 0 0.35106621809699068 -0.027882580199050561 0 0.35329166139174262 -0.04324613920993936 0 0.35329166139174262 -0.04324613920993936 0 0.37451565779841439 -0.039420366524628582 0 0.35329166139174262 -0.04324613920993936 0 0.35898449511374703 -0.034434791882784588 0 0.37451565779841439 -0.039420366524628582 0 0.35329166139174262 -0.04324613920993936 0 0.37451565779841439 -0.039420366524628582 0 0.36842435025527032 -0.052224102127173072 0 0.3616782163003307 -0.025969693856393389 0 0.35898449511374703 -0.034434791882784588 0 0.37451565779841439 -0.039420366524628582 0 0.3616782163003307 -0.025969693856393389 0 0.37451565779841439 -0.039420366524628582 0 0.36088031990157582 -0.060158444182070628 0 0.36842435025527032 -0.052224102127173072 0 0.37028489932150038 -0.066280347363263215 0 0.35434692444611882 -0.050531247865041172 0 0.36088031990157582 -0.060158444182070628 0 0.36842435025527032 -0.052224102127173072 0 0.38056803337448469 -0.063030673217119998 0 0.36842435025527032 -0.052224102127173072 0 0.37028489932150038 -0.066280347363263215 0 0.36088031990157582 -0.060158444182070628 0 0.37028489932150038 -0.066280347363263215 0 0.36107409634922238 -0.070134763289022933 0 0.37942407772184072 -0.072489429308566986 0 0.37028489932150038 -0.066280347363263215 0 0.37116465179009378 -0.07766205732246842 0 0.37028489932150038 -0.066280347363263215 0 0.36107409634922238 -0.070134763289022933 0 0.37116465179009378 -0.07766205732246842 0 0.36107409634922238 -0.070134763289022933 0 0.37116465179009378 -0.07766205732246842 0 0.36769029120220481 -0.088536159791491223 0 0.38000572257336812 -0.087506064589734894 0 0.37116465179009378 -0.07766205732246842 0 0.36769029120220481 -0.088536159791491223 0 0.36769029120220481 -0.088536159791491223 0 0.34485414222372818 -0.069232604104732615 0 0.36769029120220481 -0.088536159791491223 0 0.34485414222372818 -0.069232604104732615 0 0.34752233440711322 -0.095925014397212086 0 0.35322135215492151 -0.061030539163831769 0 0.36107409634922238 -0.070134763289022933 0 0.34485414222372818 -0.069232604104732615 0 0.36107409634922238 -0.070134763289022933 0 0.36769029120220481 -0.088536159791491223 0 0.34485414222372818 -0.069232604104732615 0 0.35322135215492151 -0.061030539163831769 0 0.36088031990157582 -0.060158444182070628 0 0.36107409634922238 -0.070134763289022933 0 0.37324406044445863 -0.1181619850257994 0 0.36991573256093291 -0.10618319967771241 0 0.35661241225452389 -0.1153855420982064 0 0.37324406044445863 -0.1181619850257994 0 0.35661241225452389 -0.1153855420982064 0 0.36605341536261982 -0.12957753461253621 0 0.36769029120220481 -0.088536159791491223 0 0.36991573256093291 -0.10618319967771241 0 0.36042262578905171 -0.1004845925011533 0 0.36991573256093291 -0.10618319967771241 0 0.36042262578905171 -0.1004845925011533 0 0.35661241225452389 -0.1153855420982064 0 0.34752233440711322 -0.095925014397212086 0 0.35661241225452389 -0.1153855420982064 0 0.34271718971323539 -0.1165665549788215 0 0.36769029120220481 -0.088536159791491223 0 0.36042262578905171 -0.1004845925011533 0 0.34752233440711322 -0.095925014397212086 0 0.36042262578905171 -0.1004845925011533 0 0.34752233440711322 -0.095925014397212086 0 0.35661241225452389 -0.1153855420982064 0 0.35661241225452389 -0.1153855420982064 0 0.34271718971323539 -0.1165665549788215 0 0.35165967555203398 -0.12825941537309979 0 0.35661241225452389 -0.1153855420982064 0 0.35165967555203398 -0.12825941537309979 0 0.36605341536261982 -0.12957753461253621 0 0.32856700827106311 -0.1060263640470918 0 0.33442709996955 -0.13413175907790101 0 0.34271718971323539 -0.1165665549788215 0 0.32856700827106311 -0.1060263640470918 0 0.33442709996955 -0.13413175907790101 0 0.34752233440711322 -0.095925014397212086 0 0.34271718971323539 -0.1165665549788215 0 0.32856700827106311 -0.1060263640470918 0 0.34752233440711322 -0.095925014397212086 0 0.32856700827106311 -0.1060263640470918 0 0.33764696892316137 -0.083432600571384866 0 0.32856700827106311 -0.1060263640470918 0 0.31489447902533402 -0.1013873980746024 0 0.31241121995929411 -0.11216439929534081 0 0.32856700827106311 -0.1060263640470918 0 0.31489447902533402 -0.1013873980746024 0 0.31793571368368251 -0.090739004417025676 0 0.31489447902533402 -0.1013873980746024 0 0.31793571368368251 -0.090739004417025676 0 0.31008582978154359 -0.090289965719483042 0 0.32856700827106311 -0.1060263640470918 0 0.31629808689090683 -0.12736522252802929 0 0.33442709996955 -0.13413175907790101 0 0.32856700827106311 -0.1060263640470918 0 0.31241121995929411 -0.11216439929534081 0 0.31629808689090683 -0.12736522252802929 0 0.33057542227303272 -0.062094003522218423 0 0.33394586249812541 -0.073170044303654425 0 0.32270691657257938 -0.077920969016281788 0 0.33057542227303272 -0.062094003522218423 0 0.34485414222372818 -0.069232604104732615 0 0.33394586249812541 -0.073170044303654425 0 0.34485414222372818 -0.069232604104732615 0 0.33394586249812541 -0.073170044303654425 0 0.33764696892316137 -0.083432600571384866 0 0.34485414222372818 -0.069232604104732615 0 0.34752233440711322 -0.095925014397212086 0 0.33764696892316137 -0.083432600571384866 0 0.32856700827106311 -0.1060263640470918 0 0.33764696892316137 -0.083432600571384866 0 0.32270691657257938 -0.077920969016281788 0 0.33394586249812541 -0.073170044303654425 0 0.33764696892316137 -0.083432600571384866 0 0.32270691657257938 -0.077920969016281788 0 0.32856700827106311 -0.1060263640470918 0 0.31793571368368251 -0.090739004417025676 0 0.32270691657257938 -0.077920969016281788 0 0.32856700827106311 -0.1060263640470918 0 0.32270691657257938 -0.077920969016281788 0 0.31793571368368251 -0.090739004417025676 0 0.31187166130055177 -0.077918083343233469 0 0.31008582978154359 -0.090289965719483042 0 0.31793571368368251 -0.090739004417025676 0 0.32270691657257938 -0.077920969016281788 0 0.31187166130055177 -0.077918083343233469 0 0.31684682487409382 -0.049815573985472088 0 0.32270691657257938 -0.077920969016281788 0 0.32270691657257938 -0.077920969016281788 0 0.31322425537965243 -0.064560421990568162 0 0.31187166130055177 -0.077918083343233469 0 0.31684682487409382 -0.049815573985472088 0 0.32270691657257938 -0.077920969016281788 0 0.31322425537965243 -0.064560421990568162 0 0.31684682487409382 -0.049815573985472088 0 0.33057542227303272 -0.062094003522218423 0 0.32270691657257938 -0.077920969016281788 0 0.31187166130055177 -0.077918083343233469 0 0.30147161877138479 -0.052587061617286053 0 0.31187166130055177 -0.077918083343233469 0 0.29676180595294732 -0.071890449393531411 0 0.30147161877138479 -0.052587061617286053 0 0.31322425537965243 -0.064560421990568162 0 0.31187166130055177 -0.077918083343233469 0 0.30147161877138479 -0.052587061617286053 0 0.31187166130055177 -0.077918083343233469 0 0.29999654071621301 -0.082749167719737241 0 0.29676180595294732 -0.071890449393531411 0 0.31187166130055177 -0.077918083343233469 0 0.31008582978154359 -0.090289965719483042 0 0.29999654071621301 -0.082749167719737241 0 0.31008582978154359 -0.090289965719483042 0 0.29999654071621301 -0.082749167719737241 0 0.2950153038160479 -0.093113084549566918 0 0.29999654071621301 -0.082749167719737241 0 0.2950153038160479 -0.093113084549566918 0 0.28624810272997431 -0.080534255592871334 0 0.2950153038160479 -0.093113084549566918 0 0.28624810272997431 -0.080534255592871334 0 0.27354530521084569 -0.093926454418382793 0 0.29999654071621301 -0.082749167719737241 0 0.28624810272997431 -0.080534255592871334 0 0.29676180595294732 -0.071890449393531411 0 0.28523966422876729 -0.067503157595729266 0 0.29676180595294732 -0.071890449393531411 0 0.30147161877138479 -0.052587061617286053 0 0.28624810272997431 -0.080534255592871334 0 0.28523966422876729 -0.067503157595729266 0 0.29676180595294732 -0.071890449393531411 0 0.29816907381226287 -0.1205986859781592 0 0.31241121995929411 -0.11216439929534081 0 0.31629808689090683 -0.12736522252802929 0 0.29816907381226287 -0.1205986859781592 0 0.31629808689090683 -0.12736522252802929 0 0.29816907381226287 -0.1205986859781592 0 0.31241121995929411 -0.11216439929534081 0 0.30412745179690348 -0.1054443258488212 0 0.29816907381226287 -0.1205986859781592 0 0.30412745179690348 -0.1054443258488212 0 0.29816907381226287 -0.1205986859781592 0 0.30412745179690348 -0.1054443258488212 0 0.28931579626449799 -0.10600748692043099 0 0.31489447902533402 -0.1013873980746024 0 0.31241121995929411 -0.11216439929534081 0 0.30412745179690348 -0.1054443258488212 0 0.31489447902533402 -0.1013873980746024 0 0.31008582978154359 -0.090289965719483042 0 0.30412745179690348 -0.1054443258488212 0 0.31008582978154359 -0.090289965719483042 0 0.30412745179690348 -0.1054443258488212 0 0.31008582978154359 -0.090289965719483042 0 0.2950153038160479 -0.093113084549566918 0 0.30412745179690348 -0.1054443258488212 0 0.2950153038160479 -0.093113084549566918 0 0.28931579626449799 -0.10600748692043099 0 0.27354530521084569 -0.093926454418382793 0 0.2950153038160479 -0.093113084549566918 0 0.30412745179690348 -0.1054443258488212 0 0.28931579626449799 -0.10600748692043099 0 0.29816907381226287 -0.1205986859781592 0 0.2751701027619905 -0.11201446920110809 0 0.28236854192236022 -0.1266475018654877 0 0.29816907381226287 -0.1205986859781592 0 0.28931579626449799 -0.10600748692043099 0 0.2751701027619905 -0.11201446920110809 0 0.29816907381226287 -0.1205986859781592 0 0.2751701027619905 -0.11201446920110809 0 0.2751701027619905 -0.11201446920110809 0 0.25976613814471872 -0.12883274783915649 0 0.28236854192236022 -0.1266475018654877 0 0.28931579626449799 -0.10600748692043099 0 0.2751701027619905 -0.11201446920110809 0 0.27354530521084569 -0.093926454418382793 0 0.2751701027619905 -0.11201446920110809 0 0.27354530521084569 -0.093926454418382793 0 0.25217113171171812 -0.1034302524240575 0 0.2751701027619905 -0.11201446920110809 0 0.25217113171171812 -0.1034302524240575 0 0.27354530521084569 -0.093926454418382793 0 0.25217113171171812 -0.1034302524240575 0 0.25927670826862431 -0.087727198681998048 0 0.2751701027619905 -0.11201446920110809 0 0.25217113171171812 -0.1034302524240575 0 0.25976613814471872 -0.12883274783915649 0 0.25217113171171812 -0.1034302524240575 0 0.25976613814471872 -0.12883274783915649 0 0.28523966422876729 -0.067503157595729266 0 0.26670174670577901 -0.075147979036387924 0 0.27501504698375162 -0.057356042338570327 0 0.28624810272997431 -0.080534255592871334 0 0.28523966422876729 -0.067503157595729266 0 0.26670174670577901 -0.075147979036387924 0 0.28624810272997431 -0.080534255592871334 0 0.27354530521084569 -0.093926454418382793 0 0.26670174670577901 -0.075147979036387924 0 0.27354530521084569 -0.093926454418382793 0 0.26670174670577901 -0.075147979036387924 0 0.25927670826862431 -0.087727198681998048 0 0.26670174670577901 -0.075147979036387924 0 0.25927670826862431 -0.087727198681998048 0 0.24468864944615479 -0.07840410884916385 0 0.25217113171171812 -0.1034302524240575 0 0.25927670826862431 -0.087727198681998048 0 0.24468864944615479 -0.07840410884916385 0 0.26670174670577901 -0.075147979036387924 0 0.24855847519611851 -0.062125023059855351 0 0.24468864944615479 -0.07840410884916385 0 0.26670174670577901 -0.075147979036387924 0 0.27501504698375162 -0.057356042338570327 0 0.24855847519611851 -0.062125023059855351 0 0.2579440466679993 -0.05195994356778131 0 0.27501504698375162 -0.057356042338570327 0 0.24855847519611851 -0.062125023059855351 0 0.2579440466679993 -0.05195994356778131 0 0.24855847519611851 -0.062125023059855351 0 0.24760222002503099 -0.050950223762612899 0 0.27501504698375162 -0.057356042338570327 0 0.24855847519611851 -0.062125023059855351 0 0.2579440466679993 -0.05195994356778131 0 0.25299300391118551 -0.04310368261356385 0 0.24760222002503099 -0.050950223762612899 0 0.2579440466679993 -0.05195994356778131 0 0.27501504698375162 -0.057356042338570327 0 0.26600136706267857 -0.045005290071584707 0 0.27501504698375162 -0.057356042338570327 0 0.27619454633832868 -0.045336401685876479 0 0.26600136706267857 -0.045005290071584707 0 0.27501504698375162 -0.057356042338570327 0 0.27619454633832868 -0.045336401685876479 0 0.28207228041135118 -0.047842198018279748 0 0.274588615552388 -0.037902910896476023 0 0.27189135028948153 -0.030818948195909981 0 0.28210817334266231 -0.038858953824495682 0 0.274588615552388 -0.037902910896476023 0 0.27619454633832868 -0.045336401685876479 0 0.28210817334266231 -0.038858953824495682 0 0.27619454633832868 -0.045336401685876479 0 0.28207228041135118 -0.047842198018279748 0 0.28210817334266231 -0.038858953824495682 0 0.274588615552388 -0.037902910896476023 0 0.27619454633832868 -0.045336401685876479 0 0.26600136706267857 -0.045005290071584707 0 0.274588615552388 -0.037902910896476023 0 0.26600136706267857 -0.045005290071584707 0 0.2594185418876877 -0.03419799285932737 0 0.274588615552388 -0.037902910896476023 0 0.2594185418876877 -0.03419799285932737 0 0.27189135028948153 -0.030818948195909981 0 0.26600136706267857 -0.045005290071584707 0 0.2594185418876877 -0.03419799285932737 0 0.25299300391118551 -0.04310368261356385 0 0.2579440466679993 -0.05195994356778131 0 0.26600136706267857 -0.045005290071584707 0 0.25299300391118551 -0.04310368261356385 0 0.2594185418876877 -0.03419799285932737 0 0.25299300391118551 -0.04310368261356385 0 0.24397063804091951 -0.031284812218233142 0 0.27189135028948153 -0.030818948195909981 0 0.24706627646947341 -0.017072313160196539 0 0.27189135028948153 -0.030818948195909981 0 0.26607156354799588 -0.020750802732959171 0 0.24706627646947341 -0.017072313160196539 0 0.2594185418876877 -0.03419799285932737 0 0.27189135028948153 -0.030818948195909981 0 0.24706627646947341 -0.017072313160196539 0 0.2594185418876877 -0.03419799285932737 0 0.24397063804091951 -0.031284812218233142 0 0.24706627646947341 -0.017072313160196539 0 0.25003495375332918 -0.0026426516414230078 0 0.26820256912831247 -0.0047340834733860136 0 0.26607156354799588 -0.020750802732959171 0 0.26030714940074379 0.0059352488896731439 0 0.25003495375332918 -0.0026426516414230078 0 0.26820256912831247 -0.0047340834733860136 0 0.25003495375332918 -0.0026426516414230078 0 0.26607156354799588 -0.020750802732959171 0 0.25003495375332918 -0.0026426516414230078 0 0.26607156354799588 -0.020750802732959171 0 0.24706627646947341 -0.017072313160196539 0 0.26820256912831247 -0.0047340834733860136 0 0.27511062241403939 -0.013830210662667149 0 0.26607156354799588 -0.020750802732959171 0 0.27511062241403939 -0.013830210662667149 0 0.2863363824978376 -0.0157226932459925 0 0.2817679601321566 -0.0045955458450287548 0 0.26820256912831247 -0.0047340834733860136 0 0.27511062241403939 -0.013830210662667149 0 0.2817679601321566 -0.0045955458450287548 0 0.26607156354799588 -0.020750802732959171 0 0.28210817334266231 -0.038858953824495682 0 0.26607156354799588 -0.020750802732959171 0 0.27771469802186222 -0.026594722962639119 0 0.28210817334266231 -0.038858953824495682 0 0.27189135028948153 -0.030818948195909981 0 0.26607156354799588 -0.020750802732959171 0 0.28210817334266231 -0.038858953824495682 0 0.27511062241403939 -0.013830210662667149 0 0.26607156354799588 -0.020750802732959171 0 0.27424076456911589 -0.020132053981468018 0 0.26607156354799588 -0.020750802732959171 0 0.27424076456911589 -0.020132053981468018 0 0.27771469802186222 -0.026594722962639119 0 0.27511062241403939 -0.013830210662667149 0 0.2780661742925663 -0.019352479567606641 0 0.2863363824978376 -0.0157226932459925 0 0.27424076456911589 -0.020132053981468018 0 0.2780661742925663 -0.019352479567606641 0 0.27771469802186222 -0.026594722962639119 0 0.2780661742925663 -0.019352479567606641 0 0.27771469802186222 -0.026594722962639119 0 0.2863363824978376 -0.0157226932459925 0 0.27511062241403939 -0.013830210662667149 0 0.27424076456911589 -0.020132053981468018 0 0.2780661742925663 -0.019352479567606641 0 0.27771469802186222 -0.026594722962639119 0 0.2863363824978376 -0.0157226932459925 0 0.28210817334266231 -0.038858953824495682 0 0.2863363824978376 -0.0157226932459925 0 0.30023897524055593 -0.015997077330369869 0 0.2939040006346097 -0.034154877431639891 0 0.2863363824978376 -0.0157226932459925 0 0.28210817334266231 -0.038858953824495682 0 0.2863363824978376 -0.0157226932459925 0 0.28210817334266231 -0.038858953824495682 0 0.28795392759619842 -0.034068728263322218 0 0.2863363824978376 -0.0157226932459925 0 0.2939040006346097 -0.034154877431639891 0 0.2863363824978376 -0.0157226932459925 0 0.28795392759619842 -0.034068728263322218 0 0.2939040006346097 -0.034154877431639891 0 0.28997999416768933 0.0042147190121911496 0 0.2863363824978376 -0.0157226932459925 0 0.2817679601321566 -0.0045955458450287548 0 0.28997999416768933 0.0042147190121911496 0 0.2863363824978376 -0.0157226932459925 0 0.30023897524055593 -0.015997077330369869 0 0.28997999416768933 0.0042147190121911496 0 0.2863363824978376 -0.0157226932459925 0 0.2863363824978376 -0.0157226932459925 0 0.2817679601321566 -0.0045955458450287548 0 0.3070570211907484 -0.0028630152284567778 0 0.30023897524055593 -0.015997077330369869 0 0.31195192303242197 -0.02633929460696427 0 0.28997999416768933 0.0042147190121911496 0 0.3070570211907484 -0.0028630152284567778 0 0.30023897524055593 -0.015997077330369869 0 0.3070570211907484 -0.0028630152284567778 0 0.31195192303242197 -0.02633929460696427 0 0.30023897524055593 -0.015997077330369869 0 0.31195192303242197 -0.02633929460696427 0 0.2939040006346097 -0.034154877431639891 0 0.31684682487409382 -0.049815573985472088 0 0.31195192303242197 -0.02633929460696427 0 0.30604359182812751 -0.040724201910340402 0 0.30604359182812751 -0.040724201910340402 0 0.30147161877138479 -0.052587061617286053 0 0.2939040006346097 -0.034154877431639891 0 0.31195192303242197 -0.02633929460696427 0 0.30604359182812751 -0.040724201910340402 0 0.2939040006346097 -0.034154877431639891 0 0.30147161877138479 -0.052587061617286053 0 0.2939040006346097 -0.034154877431639891 0 0.31684682487409382 -0.049815573985472088 0 0.30604359182812751 -0.040724201910340402 0 0.30147161877138479 -0.052587061617286053 0 0.31684682487409382 -0.049815573985472088 0 0.30147161877138479 -0.052587061617286053 0 0.31684682487409382 -0.049815573985472088 0 0.31322425537965243 -0.064560421990568162 0 0.30147161877138479 -0.052587061617286053 0 0.27501504698375162 -0.057356042338570327 0 0.30147161877138479 -0.052587061617286053 0 0.27501504698375162 -0.057356042338570327 0 0.29178126022357231 -0.049781569078208222 0 0.28207228041135118 -0.047842198018279748 0 0.27501504698375162 -0.057356042338570327 0 0.30147161877138479 -0.052587061617286053 0 0.29178126022357231 -0.049781569078208222 0 0.30147161877138479 -0.052587061617286053 0 0.29178126022357231 -0.049781569078208222 0 0.2911466399014333 -0.041978503306567119 0 0.28523966422876729 -0.067503157595729266 0 0.27501504698375162 -0.057356042338570327 0 0.30147161877138479 -0.052587061617286053 0 0.29178126022357231 -0.049781569078208222 0 0.28207228041135118 -0.047842198018279748 0 0.28210817334266231 -0.038858953824495682 0 0.29178126022357231 -0.049781569078208222 0 0.28210817334266231 -0.038858953824495682 0 0.29178126022357231 -0.049781569078208222 0 0.28824750026596663 -0.041171938618148309 0 0.28210817334266231 -0.038858953824495682 0 0.30147161877138479 -0.052587061617286053 0 0.2939040006346097 -0.034154877431639891 0 0.2911466399014333 -0.041978503306567119 0 0.28824750026596663 -0.041171938618148309 0 0.28210817334266231 -0.038858953824495682 0 0.28795392759619842 -0.034068728263322218 0 0.28795392759619842 -0.034068728263322218 0 0.2939040006346097 -0.034154877431639891 0 0.2911466399014333 -0.041978503306567119 0 0.28824750026596663 -0.041171938618148309 0 0.28795392759619842 -0.034068728263322218 0 0.2911466399014333 -0.041978503306567119 0 0.29178126022357231 -0.049781569078208222 0 0.28824750026596663 -0.041171938618148309 0 0.2911466399014333 -0.041978503306567119 0 0.28168122311440241 -0.20213062459209699 0 0.28840629521808431 -0.2246235105148397 0 0.27382009539536778 -0.21673279293196701 0 0.28168122311440241 -0.20213062459209699 0 0.28840629521808431 -0.2246235105148397 0 0.28968428509206012 -0.20989851347345401 0 0.28168122311440241 -0.20213062459209699 0 0.28840629521808431 -0.2246235105148397 0 0.28968428509206012 -0.20989851347345401 0 0.29476884377419221 -0.20240719502118051 0 0.30237935007385741 -0.21271514629057309 0 0.28968428509206012 -0.20989851347345401 0 0.29716003486495779 -0.2251401685432011 0 0.28968428509206012 -0.20989851347345401 0 0.30237935007385741 -0.21271514629057309 0 0.29716003486495779 -0.2251401685432011 0 0.28968428509206012 -0.20989851347345401 0 0.28168122311440241 -0.20213062459209699 0 0.29476884377419221 -0.20240719502118051 0 0.28168122311440241 -0.20213062459209699 0 0.29313179120074351 -0.18930667127450571 0 0.27495615101071719 -0.17963773866935531 0 0.28168122311440241 -0.20213062459209699 0 0.29313179120074351 -0.18930667127450571 0 0.29476884377419221 -0.20240719502118051 0 0.29313179120074351 -0.18930667127450571 0 0.29476884377419221 -0.20240719502118051 0 0.30696756938989761 -0.19798501947527269 0 0.29313179120074351 -0.18930667127450571 0 0.30696756938989761 -0.19798501947527269 0 0.30886710665493611 -0.1837676958436277 0 0.30237935007385741 -0.21271514629057309 0 0.31864981353696548 -0.20678952397020861 0 0.3130958005882219 -0.21967627529909561 0 0.30696756938989761 -0.19798501947527269 0 0.30237935007385741 -0.21271514629057309 0 0.31864981353696548 -0.20678952397020861 0 0.29476884377419221 -0.20240719502118051 0 0.30696756938989761 -0.19798501947527269 0 0.30237935007385741 -0.21271514629057309 0 0.30237935007385741 -0.21271514629057309 0 0.30465612311638612 -0.2215424269716573 0 0.3130958005882219 -0.21967627529909561 0 0.30485188908610711 -0.22787930023183159 0 0.30465612311638612 -0.2215424269716573 0 0.3130958005882219 -0.21967627529909561 0 0.3042739140707692 -0.2412674872516582 0 0.31734508736484551 -0.23290525431488179 0 0.3130958005882219 -0.21967627529909561 0 0.3042739140707692 -0.2412674872516582 0 0.3130958005882219 -0.21967627529909561 0 0.29716003486495779 -0.2251401685432011 0 0.3042739140707692 -0.2412674872516582 0 0.30485188908610711 -0.22787930023183159 0 0.29716003486495779 -0.2251401685432011 0 0.3042739140707692 -0.2412674872516582 0 0.30485188908610711 -0.22787930023183159 0 0.3042739140707692 -0.2412674872516582 0 0.3130958005882219 -0.21967627529909561 0 0.29716003486495779 -0.2251401685432011 0 0.2997900432073603 -0.23891867671536501 0 0.2951042651066712 -0.23700412913271579 0 0.30237935007385741 -0.21271514629057309 0 0.29716003486495779 -0.2251401685432011 0 0.30465612311638612 -0.2215424269716573 0 0.30485188908610711 -0.22787930023183159 0 0.29716003486495779 -0.2251401685432011 0 0.30465612311638612 -0.2215424269716573 0 0.29716003486495779 -0.2251401685432011 0 0.2997900432073603 -0.23891867671536501 0 0.3042739140707692 -0.2412674872516582 0 0.3042739140707692 -0.2412674872516582 0 0.31804462129350758 -0.24772816378385529 0 0.313431876769172 -0.24051789070311791 0 0.3042739140707692 -0.2412674872516582 0 0.313431876769172 -0.24051789070311791 0 0.31734508736484551 -0.23290525431488179 0 0.3042739140707692 -0.2412674872516582 0 0.31734508736484551 -0.23290525431488179 0 0.29857489742664139 -0.24107667238433039 0 0.2997900432073603 -0.23891867671536501 0 0.2951042651066712 -0.23700412913271579 0 0.29857489742664139 -0.24107667238433039 0 0.2997900432073603 -0.23891867671536501 0 0.3042739140707692 -0.2412674872516582 0 0.3042739140707692 -0.2412674872516582 0 0.29513136732176481 -0.24711639643758279 0 0.2979847593016951 -0.25665994025510208 0 0.3042739140707692 -0.2412674872516582 0 0.29513136732176481 -0.24711639643758279 0 0.3042739140707692 -0.2412674872516582 0 0.2979847593016951 -0.25665994025510208 0 0.29857489742664139 -0.24107667238433039 0 0.3042739140707692 -0.2412674872516582 0 0.29513136732176481 -0.24711639643758279 0 0.29058836712597941 -0.23840163631392999 0 0.2854602794072037 -0.2485743865016761 0 0.27184916022266431 -0.25370467315110129 0 0.29513136732176481 -0.24711639643758279 0 0.2951042651066712 -0.23700412913271579 0 0.28840629521808431 -0.2246235105148397 0 0.29513136732176481 -0.24711639643758279 0 0.29058836712597941 -0.23840163631392999 0 0.28840629521808431 -0.2246235105148397 0 0.29513136732176481 -0.24711639643758279 0 0.28840629521808431 -0.2246235105148397 0 0.29513136732176481 -0.24711639643758279 0 0.28998000308739291 -0.2441515530426939 0 0.29058836712597941 -0.23840163631392999 0 0.291929707635663 -0.24916464593111459 0 0.28998000308739291 -0.2441515530426939 0 0.2854602794072037 -0.2485743865016761 0 0.291929707635663 -0.24916464593111459 0 0.29513136732176481 -0.24711639643758279 0 0.28998000308739291 -0.2441515530426939 0 0.291929707635663 -0.24916464593111459 0 0.28998000308739291 -0.2441515530426939 0 0.291929707635663 -0.24916464593111459 0 0.29513136732176481 -0.24711639643758279 0 0.29857489742664139 -0.24107667238433039 0 0.29513136732176481 -0.24711639643758279 0 0.2951042651066712 -0.23700412913271579 0 0.29058836712597941 -0.23840163631392999 0 0.28220233683764168 -0.2326678976172149 0 0.27752906157895829 -0.2408815798583257 0 0.28998000308739291 -0.2441515530426939 0 0.29058836712597941 -0.23840163631392999 0 0.2854602794072037 -0.2485743865016761 0 0.28968428509206012 -0.20989851347345401 0 0.29716003486495779 -0.2251401685432011 0 0.28840629521808431 -0.2246235105148397 0 0.29716003486495779 -0.2251401685432011 0 0.2951042651066712 -0.23700412913271579 0 0.28840629521808431 -0.2246235105148397 0 0.28220233683764168 -0.2326678976172149 0 0.28840629521808431 -0.2246235105148397 0 0.27725974971447881 -0.22698620649444429 0 0.29058836712597941 -0.23840163631392999 0 0.28220233683764168 -0.2326678976172149 0 0.28840629521808431 -0.2246235105148397 0 0.27725974971447881 -0.22698620649444429 0 0.26950196321059477 -0.2256917350499478 0 0.27382009539536778 -0.21673279293196701 0 0.26950196321059477 -0.2256917350499478 0 0.25734944507526192 -0.2244181072738636 0 0.27382009539536778 -0.21673279293196701 0 0.28840629521808431 -0.2246235105148397 0 0.27725974971447881 -0.22698620649444429 0 0.27382009539536778 -0.21673279293196701 0 0.28220233683764168 -0.2326678976172149 0 0.27725974971447881 -0.22698620649444429 0 0.27236805791070517 -0.2352150963582518 0 0.27725974971447881 -0.22698620649444429 0 0.26950196321059477 -0.2256917350499478 0 0.27236805791070517 -0.2352150963582518 0 0.26950196321059477 -0.2256917350499478 0 0.27236805791070517 -0.2352150963582518 0 0.25734944507526192 -0.2244181072738636 0 0.29058836712597941 -0.23840163631392999 0 0.27184916022266431 -0.25370467315110129 0 0.29058836712597941 -0.23840163631392999 0 0.27752906157895829 -0.2408815798583257 0 0.27184916022266431 -0.25370467315110129 0 0.27752906157895829 -0.2408815798583257 0 0.27236805791070517 -0.2352150963582518 0 0.27063738579780111 -0.24441859585113029 0 0.28220233683764168 -0.2326678976172149 0 0.27752906157895829 -0.2408815798583257 0 0.27236805791070517 -0.2352150963582518 0 0.27236805791070517 -0.2352150963582518 0 0.27063738579780111 -0.24441859585113029 0 0.26135136627733557 -0.24335663806303959 0 0.27063738579780111 -0.24441859585113029 0 0.26135136627733557 -0.24335663806303959 0 0.27184916022266431 -0.25370467315110129 0 0.27752906157895829 -0.2408815798583257 0 0.27063738579780111 -0.24441859585113029 0 0.27184916022266431 -0.25370467315110129 0 0.26135136627733557 -0.24335663806303959 0 0.25734944507526192 -0.2244181072738636 0 0.24777135244263701 -0.23671177136949731 0 0.26135136627733557 -0.24335663806303959 0 0.27184916022266431 -0.25370467315110129 0 0.24941326827896371 -0.25204479198237911 0 0.26135136627733557 -0.24335663806303959 0 0.24941326827896371 -0.25204479198237911 0 0.24777135244263701 -0.23671177136949731 0 0.27236805791070517 -0.2352150963582518 0 0.26135136627733557 -0.24335663806303959 0 0.25734944507526192 -0.2244181072738636 0 0.25734944507526192 -0.2244181072738636 0 0.26615279804298742 -0.2020279229716086 0 0.25734944507526192 -0.2244181072738636 0 0.26615279804298742 -0.2020279229716086 0 0.24030206773615961 -0.20334160873751869 0 0.25734944507526192 -0.2244181072738636 0 0.27382009539536778 -0.21673279293196701 0 0.26615279804298742 -0.2020279229716086 0 0.28168122311440241 -0.20213062459209699 0 0.27382009539536778 -0.21673279293196701 0 0.26615279804298742 -0.2020279229716086 0 0.28168122311440241 -0.20213062459209699 0 0.27495615101071719 -0.17963773866935531 0 0.28168122311440241 -0.20213062459209699 0 0.26615279804298742 -0.2020279229716086 0 0.27495615101071719 -0.17963773866935531 0 0.26615279804298742 -0.2020279229716086 0 0.27495615101071719 -0.17963773866935531 0 0.26615279804298742 -0.2020279229716086 0 0.25237487993077268 -0.1854134165861285 0 0.27495615101071719 -0.17963773866935531 0 0.26615279804298742 -0.2020279229716086 0 0.25237487993077268 -0.1854134165861285 0 0.24030206773615961 -0.20334160873751869 0 0.25237487993077268 -0.1854134165861285 0 0.25359002948659382 -0.1686457834652231 0 0.27495615101071719 -0.17963773866935531 0 0.25359002948659382 -0.1686457834652231 0 0.27495615101071719 -0.17963773866935531 0 0.26736114457771959 -0.15423524325425539 0 0.25359002948659382 -0.1686457834652231 0 0.26736114457771959 -0.15423524325425539 0 0.24031126033631481 -0.1492057693513387 0 0.27495615101071719 -0.17963773866935531 0 0.26736114457771959 -0.15423524325425539 0 0.28269379194456312 -0.15995805443895561 0 0.27495615101071719 -0.17963773866935531 0 0.28269379194456312 -0.15995805443895561 0 0.27495615101071719 -0.17963773866935531 0 0.26736114457771959 -0.15423524325425539 0 0.25976613814471872 -0.12883274783915649 0 0.26736114457771959 -0.15423524325425539 0 0.25976613814471872 -0.12883274783915649 0 0.26736114457771959 -0.15423524325425539 0 0.24031126033631481 -0.1492057693513387 0 0.26736114457771959 -0.15423524325425539 0 0.27361591050076423 -0.13852850149844309 0 0.28269379194456312 -0.15995805443895561 0 0.25976613814471872 -0.12883274783915649 0 0.26736114457771959 -0.15423524325425539 0 0.27361591050076423 -0.13852850149844309 0 0.25976613814471872 -0.12883274783915649 0 0.27361591050076423 -0.13852850149844309 0 0.28236854192236022 -0.1266475018654877 0 0.29816907381226287 -0.1205986859781592 0 0.29043143287841322 -0.14027837020855741 0 0.27361591050076423 -0.13852850149844309 0 0.29043143287841322 -0.14027837020855741 0 0.28236854192236022 -0.1266475018654877 0 0.29816907381226287 -0.1205986859781592 0 0.29043143287841322 -0.14027837020855741 0 0.28236854192236022 -0.1266475018654877 0 0.29043143287841322 -0.14027837020855741 0 0.29766109830062643 -0.15448190524251321 0 0.28269379194456312 -0.15995805443895561 0 0.27361591050076423 -0.13852850149844309 0 0.29043143287841322 -0.14027837020855741 0 0.28269379194456312 -0.15995805443895561 0 0.29043143287841322 -0.14027837020855741 0 0.28269379194456312 -0.15995805443895561 0 0.29043143287841322 -0.14027837020855741 0 0.29766109830062643 -0.15448190524251321 0 0.3061690718918767 -0.13994350956376861 0 0.29766109830062643 -0.15448190524251321 0 0.3061690718918767 -0.13994350956376861 0 0.31309929819091181 -0.1554523564089898 0 0.29816907381226287 -0.1205986859781592 0 0.3061690718918767 -0.13994350956376861 0 0.31629808689090683 -0.12736522252802929 0 0.29816907381226287 -0.1205986859781592 0 0.29043143287841322 -0.14027837020855741 0 0.3061690718918767 -0.13994350956376861 0 0.29313179120074351 -0.18930667127450571 0 0.27495615101071719 -0.17963773866935531 0 0.29884831447376858 -0.17031429644722559 0 0.29766109830062643 -0.15448190524251321 0 0.28269379194456312 -0.15995805443895561 0 0.29884831447376858 -0.17031429644722559 0 0.27495615101071719 -0.17963773866935531 0 0.28269379194456312 -0.15995805443895561 0 0.29884831447376858 -0.17031429644722559 0 0.29766109830062643 -0.15448190524251321 0 0.29884831447376858 -0.17031429644722559 0 0.31309929819091181 -0.1554523564089898 0 0.29884831447376858 -0.17031429644722559 0 0.32004865061391541 -0.1702057551223598 0 0.31309929819091181 -0.1554523564089898 0 0.29313179120074351 -0.18930667127450571 0 0.29884831447376858 -0.17031429644722559 0 0.30886710665493611 -0.1837676958436277 0 0.29884831447376858 -0.17031429644722559 0 0.30886710665493611 -0.1837676958436277 0 0.32004865061391541 -0.1702057551223598 0 0.30886710665493611 -0.1837676958436277 0 0.3265725362381614 -0.18620575551805049 0 0.32004865061391541 -0.1702057551223598 0 0.32004865061391541 -0.1702057551223598 0 0.33994766466411991 -0.16060875969792021 0 0.31309929819091181 -0.1554523564089898 0 0.33994766466411991 -0.16060875969792021 0 0.34546822935869292 -0.18708576031793869 0 0.3265725362381614 -0.18620575551805049 0 0.32004865061391541 -0.1702057551223598 0 0.33994766466411991 -0.16060875969792021 0 0.3265725362381614 -0.18620575551805049 0 0.33994766466411991 -0.16060875969792021 0 0.34546822935869292 -0.18708576031793869 0 0.31629808689090683 -0.12736522252802929 0 0.32167829997371777 -0.142512988668893 0 0.33442709996955 -0.13413175907790101 0 0.31629808689090683 -0.12736522252802929 0 0.33442709996955 -0.13413175907790101 0 0.3061690718918767 -0.13994350956376861 0 0.31629808689090683 -0.12736522252802929 0 0.32167829997371777 -0.142512988668893 0 0.33994766466411991 -0.16060875969792021 0 0.32167829997371777 -0.142512988668893 0 0.31309929819091181 -0.1554523564089898 0 0.3061690718918767 -0.13994350956376861 0 0.32167829997371777 -0.142512988668893 0 0.31309929819091181 -0.1554523564089898 0 0.33994766466411991 -0.16060875969792021 0 0.33442709996955 -0.13413175907790101 0 0.33994766466411991 -0.16060875969792021 0 0.32167829997371777 -0.142512988668893 0 0.33442709996955 -0.13413175907790101 0 0.34271718971323539 -0.1165665549788215 0 0.33442709996955 -0.13413175907790101 0 0.35165967555203398 -0.12825941537309979 0 0.33442709996955 -0.13413175907790101 0 0.3610895514042945 -0.14408334614773599 0 0.33442709996955 -0.13413175907790101 0 0.35165967555203398 -0.12825941537309979 0 0.3610895514042945 -0.14408334614773599 0 0.33994766466411991 -0.16060875969792021 0 0.33442709996955 -0.13413175907790101 0 0.3610895514042945 -0.14408334614773599 0 0.37182405102584182 -0.15269576782050351 0 0.3610895514042945 -0.14408334614773599 0 0.35828682792329147 -0.16503572971336311 0 0.3610895514042945 -0.14408334614773599 0 0.38775200283903821 -0.15403493321757261 0 0.37182405102584182 -0.15269576782050351 0 0.3610895514042945 -0.14408334614773599 0 0.38775200283903821 -0.15403493321757261 0 0.3610895514042945 -0.14408334614773599 0 0.36605341536261982 -0.12957753461253621 0 0.37807829556362521 -0.13937357958197499 0 0.35165967555203398 -0.12825941537309979 0 0.3610895514042945 -0.14408334614773599 0 0.36605341536261982 -0.12957753461253621 0 0.37324406044445863 -0.1181619850257994 0 0.36605341536261982 -0.12957753461253621 0 0.3809322245084979 -0.1296348913093702 0 0.34546822935869292 -0.18708576031793869 0 0.35828682792329147 -0.16503572971336311 0 0.37310464316350828 -0.18070501458271709 0 0.33994766466411991 -0.16060875969792021 0 0.34546822935869292 -0.18708576031793869 0 0.35828682792329147 -0.16503572971336311 0 0.33994766466411991 -0.16060875969792021 0 0.3610895514042945 -0.14408334614773599 0 0.35828682792329147 -0.16503572971336311 0 0.37182405102584182 -0.15269576782050351 0 0.35828682792329147 -0.16503572971336311 0 0.37310464316350828 -0.18070501458271709 0 0.37182405102584182 -0.15269576782050351 0 0.37310464316350828 -0.18070501458271709 0 0.34546822935869292 -0.18708576031793869 0 0.37310464316350828 -0.18070501458271709 0 0.3602124092899377 -0.19778725841685441 0 0.37310464316350828 -0.18070501458271709 0 0.37438523530117479 -0.20871426134493071 0 0.37310464316350828 -0.18070501458271709 0 0.3602124092899377 -0.19778725841685441 0 0.37438523530117479 -0.20871426134493071 0 0.3602124092899377 -0.19778725841685441 0 0.37438523530117479 -0.20871426134493071 0 0.350988794053266 -0.2135627609379572 0 0.37438523530117479 -0.20871426134493071 0 0.350988794053266 -0.2135627609379572 0 0.3623049599606849 -0.22373835677064191 0 0.34546822935869292 -0.18708576031793869 0 0.350988794053266 -0.2135627609379572 0 0.34546822935869292 -0.18708576031793869 0 0.3602124092899377 -0.19778725841685441 0 0.350988794053266 -0.2135627609379572 0 0.34546822935869292 -0.18708576031793869 0 0.350988794053266 -0.2135627609379572 0 0.33373826598195111 -0.20336659221318709 0 0.3265725362381614 -0.18620575551805049 0 0.34546822935869292 -0.18708576031793869 0 0.33373826598195111 -0.20336659221318709 0 0.350988794053266 -0.2135627609379572 0 0.33373826598195111 -0.20336659221318709 0 0.32914535894970381 -0.22078835502507271 0 0.33373826598195111 -0.20336659221318709 0 0.31864981353696548 -0.20678952397020861 0 0.32914535894970381 -0.22078835502507271 0 0.31864981353696548 -0.20678952397020861 0 0.3130958005882219 -0.21967627529909561 0 0.32914535894970381 -0.22078835502507271 0 0.30696756938989761 -0.19798501947527269 0 0.30886710665493611 -0.1837676958436277 0 0.3265725362381614 -0.18620575551805049 0 0.30696756938989761 -0.19798501947527269 0 0.3265725362381614 -0.18620575551805049 0 0.31864981353696548 -0.20678952397020861 0 0.3265725362381614 -0.18620575551805049 0 0.33373826598195111 -0.20336659221318709 0 0.31864981353696548 -0.20678952397020861 0 0.32802734263297723 -0.23770827501970929 0 0.31804462129350758 -0.24772816378385529 0 0.33467662114387559 -0.2488269959300099 0 0.32802734263297723 -0.23770827501970929 0 0.31804462129350758 -0.24772816378385529 0 0.313431876769172 -0.24051789070311791 0 0.32802734263297723 -0.23770827501970929 0 0.313431876769172 -0.24051789070311791 0 0.31734508736484551 -0.23290525431488179 0 0.32802734263297723 -0.23770827501970929 0 0.31734508736484551 -0.23290525431488179 0 0.32914535894970381 -0.22078835502507271 0 0.31734508736484551 -0.23290525431488179 0 0.3130958005882219 -0.21967627529909561 0 0.32914535894970381 -0.22078835502507271 0 0.32802734263297723 -0.23770827501970929 0 0.32914535894970381 -0.22078835502507271 0 0.34167278892590702 -0.23087977610060781 0 0.350988794053266 -0.2135627609379572 0 0.32914535894970381 -0.22078835502507271 0 0.34167278892590702 -0.23087977610060781 0 0.32802734263297723 -0.23770827501970929 0 0.34167278892590702 -0.23087977610060781 0 0.34187504398382879 -0.24231148928041971 0 0.32802734263297723 -0.23770827501970929 0 0.33467662114387559 -0.2488269959300099 0 0.34187504398382879 -0.24231148928041971 0 0.33467662114387559 -0.2488269959300099 0 0.34187504398382879 -0.24231148928041971 0 0.34699486394243811 -0.25281787941728412 0 0.34187504398382879 -0.24231148928041971 0 0.35650935874783912 -0.24003976155797571 0 0.34699486394243811 -0.25281787941728412 0 0.35650935874783912 -0.24003976155797571 0 0.36320192539390711 -0.2409424638419122 0 0.34699486394243811 -0.25281787941728412 0 0.34167278892590702 -0.23087977610060781 0 0.34187504398382879 -0.24231148928041971 0 0.35650935874783912 -0.24003976155797571 0 0.350988794053266 -0.2135627609379572 0 0.35650935874783912 -0.24003976155797571 0 0.350988794053266 -0.2135627609379572 0 0.34167278892590702 -0.23087977610060781 0 0.35650935874783912 -0.24003976155797571 0 0.350988794053266 -0.2135627609379572 0 0.35650935874783912 -0.24003976155797571 0 0.3623049599606849 -0.22373835677064191 0 0.37438523530117479 -0.20871426134493071 0 0.3623049599606849 -0.22373835677064191 0 0.36700008498682618 -0.23168730908821161 0 0.37438523530117479 -0.20871426134493071 0 0.36700008498682618 -0.23168730908821161 0 0.37566582743884142 -0.23672350810714449 0 0.35650935874783912 -0.24003976155797571 0 0.3623049599606849 -0.22373835677064191 0 0.36700008498682618 -0.23168730908821161 0 0.36320192539390711 -0.2409424638419122 0 0.37566582743884142 -0.23672350810714449 0 0.36637750262327767 -0.25604841268339917 0 0.35650935874783912 -0.24003976155797571 0 0.36700008498682618 -0.23168730908821161 0 0.36320192539390711 -0.2409424638419122 0 0.36700008498682618 -0.23168730908821161 0 0.36320192539390711 -0.2409424638419122 0 0.37566582743884142 -0.23672350810714449 0 0.37566582743884142 -0.23672350810714449 0 0.38705476891237228 -0.23931282901767181 0 0.38501913675399713 -0.24914562436818319 0 0.38705476891237228 -0.23931282901767181 0 0.38501913675399713 -0.24914562436818319 0 0.39774780830335238 -0.24401085831176519 0 0.39774780830335238 -0.24401085831176519 0 0.39045500092440749 -0.22479722914186079 0 0.39774780830335238 -0.24401085831176519 0 0.39045500092440749 -0.22479722914186079 0 0.41578474540907928 -0.23630763538388591 0 0.38705476891237228 -0.23931282901767181 0 0.39774780830335238 -0.24401085831176519 0 0.39045500092440749 -0.22479722914186079 0 0.39045500092440749 -0.22479722914186079 0 0.4112922835148477 -0.21611381161775739 0 0.41578474540907928 -0.23630763538388591 0 0.37438523530117479 -0.20871426134493071 0 0.37566582743884142 -0.23672350810714449 0 0.37438523530117479 -0.20871426134493071 0 0.37566582743884142 -0.23672350810714449 0 0.39045500092440749 -0.22479722914186079 0 0.37566582743884142 -0.23672350810714449 0 0.38705476891237228 -0.23931282901767181 0 0.39045500092440749 -0.22479722914186079 0 0.37438523530117479 -0.20871426134493071 0 0.39045500092440749 -0.22479722914186079 0 0.39404090883256249 -0.20093079063824129 0 0.37310464316350828 -0.18070501458271709 0 0.37438523530117479 -0.20871426134493071 0 0.39404090883256249 -0.20093079063824129 0 0.39404090883256249 -0.20093079063824129 0 0.41262989716734533 -0.19870985140977901 0 0.40237839292409178 -0.17654457573240259 0 0.39404090883256249 -0.20093079063824129 0 0.4112922835148477 -0.21611381161775739 0 0.41262989716734533 -0.19870985140977901 0 0.39045500092440749 -0.22479722914186079 0 0.39404090883256249 -0.20093079063824129 0 0.4112922835148477 -0.21611381161775739 0 0.4112922835148477 -0.21611381161775739 0 0.41262989716734533 -0.19870985140977901 0 0.4264264944412095 -0.20811287089305841 0 0.41262989716734533 -0.19870985140977901 0 0.43571027680975971 -0.19415788034827969 0 0.4264264944412095 -0.20811287089305841 0 0.41262989716734533 -0.19870985140977901 0 0.43571027680975971 -0.19415788034827969 0 0.41262989716734533 -0.19870985140977901 0 0.43571027680975971 -0.19415788034827969 0 0.4216621317212621 -0.18156026097022529 0 0.4264264944412095 -0.20811287089305841 0 0.43023877513862191 -0.22305049511118469 0 0.44527947845078047 -0.20803721692302529 0 0.43571027680975971 -0.19415788034827969 0 0.4264264944412095 -0.20811287089305841 0 0.44527947845078047 -0.20803721692302529 0 0.4112922835148477 -0.21611381161775739 0 0.4264264944412095 -0.20811287089305841 0 0.43023877513862191 -0.22305049511118469 0 0.43023877513862191 -0.22305049511118469 0 0.43496911510992031 -0.2345548532000207 0 0.41578474540907928 -0.23630763538388591 0 0.43023877513862191 -0.22305049511118469 0 0.43496911510992031 -0.2345548532000207 0 0.44611138270366629 -0.22401899675725531 0 0.43496911510992031 -0.2345548532000207 0 0.41578474540907928 -0.23630763538388591 0 0.42922951437517931 -0.25058730383524569 0 0.39774780830335238 -0.24401085831176519 0 0.411950670942477 -0.2485325712531416 0 0.41578474540907928 -0.23630763538388591 0 0.411950670942477 -0.2485325712531416 0 0.41578474540907928 -0.23630763538388591 0 0.42922951437517931 -0.25058730383524569 0 0.4112922835148477 -0.21611381161775739 0 0.43023877513862191 -0.22305049511118469 0 0.41578474540907928 -0.23630763538388591 0 0.39052644018068122 -0.1078397154782498 0 0.39456428370367541 -0.13953719262266001 0 0.3809322245084979 -0.1296348913093702 0 0.39456428370367541 -0.13953719262266001 0 0.4084183261168417 -0.14881956649568451 0 0.41336258915915769 -0.1271432711650084 0 0.39456428370367541 -0.13953719262266001 0 0.3809322245084979 -0.1296348913093702 0 0.37807829556362521 -0.13937357958197499 0 0.36605341536261982 -0.12957753461253621 0 0.3809322245084979 -0.1296348913093702 0 0.37807829556362521 -0.13937357958197499 0 0.39456428370367541 -0.13953719262266001 0 0.37807829556362521 -0.13937357958197499 0 0.38775200283903821 -0.15403493321757261 0 0.3610895514042945 -0.14408334614773599 0 0.37807829556362521 -0.13937357958197499 0 0.38775200283903821 -0.15403493321757261 0 0.39456428370367541 -0.13953719262266001 0 0.38775200283903821 -0.15403493321757261 0 0.4084183261168417 -0.14881956649568451 0 0.38775200283903821 -0.15403493321757261 0 0.40237839292409178 -0.17654457573240259 0 0.4084183261168417 -0.14881956649568451 0 0.37182405102584182 -0.15269576782050351 0 0.37310464316350828 -0.18070501458271709 0 0.38775200283903821 -0.15403493321757261 0 0.37310464316350828 -0.18070501458271709 0 0.38775200283903821 -0.15403493321757261 0 0.40237839292409178 -0.17654457573240259 0 0.37310464316350828 -0.18070501458271709 0 0.39404090883256249 -0.20093079063824129 0 0.40237839292409178 -0.17654457573240259 0 0.40237839292409178 -0.17654457573240259 0 0.4216621317212621 -0.18156026097022529 0 0.41947850252413849 -0.16496509625344871 0 0.41262989716734533 -0.19870985140977901 0 0.40237839292409178 -0.17654457573240259 0 0.4216621317212621 -0.18156026097022529 0 0.4216621317212621 -0.18156026097022529 0 0.41947850252413849 -0.16496509625344871 0 0.43811358918097493 -0.17342390110721639 0 0.43571027680975971 -0.19415788034827969 0 0.4216621317212621 -0.18156026097022529 0 0.43811358918097493 -0.17342390110721639 0 0.41947850252413849 -0.16496509625344871 0 0.43619873813763421 -0.14644682685176699 0 0.43811358918097493 -0.17342390110721639 0 0.40237839292409178 -0.17654457573240259 0 0.41947850252413849 -0.16496509625344871 0 0.4084183261168417 -0.14881956649568451 0 0.4084183261168417 -0.14881956649568451 0 0.43619873813763421 -0.14644682685176699 0 0.41336258915915769 -0.1271432711650084 0 0.41947850252413849 -0.16496509625344871 0 0.4084183261168417 -0.14881956649568451 0 0.43619873813763421 -0.14644682685176699 0 0.43901173578131958 -0.12280760929418839 0 0.43619873813763421 -0.14644682685176699 0 0.41336258915915769 -0.1271432711650084 0 0.43619873813763421 -0.14644682685176699 0 0.41336258915915769 -0.1271432711650084 0 0.46163052336471982 -0.1210358462461255 0 0.45864299977358441 -0.1419613825554705 0 0.47963410240057891 -0.13240813631170931 0 0.43901173578131958 -0.12280760929418839 0 0.43619873813763421 -0.14644682685176699 0 0.45864299977358441 -0.1419613825554705 0 0.43901173578131958 -0.12280760929418839 0 0.46163052336471982 -0.1210358462461255 0 0.45864299977358441 -0.1419613825554705 0 0.43619873813763421 -0.14644682685176699 0 0.45903488711611068 -0.16575038253852559 0 0.43619873813763421 -0.14644682685176699 0 0.45864299977358441 -0.1419613825554705 0 0.45903488711611068 -0.16575038253852559 0 0.45864299977358441 -0.1419613825554705 0 0.45903488711611068 -0.16575038253852559 0 0.47722908752874449 -0.15598024155790499 0 0.43619873813763421 -0.14644682685176699 0 0.45903488711611068 -0.16575038253852559 0 0.43811358918097493 -0.17342390110721639 0 0.45903488711611068 -0.16575038253852559 0 0.43811358918097493 -0.17342390110721639 0 0.45879065645217398 -0.18960590928678039 0 0.43571027680975971 -0.19415788034827969 0 0.43811358918097493 -0.17342390110721639 0 0.45879065645217398 -0.18960590928678039 0 0.45903488711611068 -0.16575038253852559 0 0.4818710360945887 -0.18505393822528249 0 0.45879065645217398 -0.18960590928678039 0 0.4818710360945887 -0.18505393822528249 0 0.45879065645217398 -0.18960590928678039 0 0.45903488711611068 -0.16575038253852559 0 0.4818710360945887 -0.18505393822528249 0 0.45903488711611068 -0.16575038253852559 0 0.48128596764317438 -0.17412007688751299 0 0.4818710360945887 -0.18505393822528249 0 0.48128596764317438 -0.17412007688751299 0 0.48424049398231539 -0.1799308086440263 0 0.4818710360945887 -0.18505393822528249 0 0.4818710360945887 -0.18505393822528249 0 0.48654223612207659 -0.1890025361232742 0 0.4818710360945887 -0.18505393822528249 0 0.48775951498783499 -0.18405566905972301 0 0.48654223612207659 -0.1890025361232742 0 0.4818710360945887 -0.18505393822528249 0 0.48775951498783499 -0.18405566905972301 0 0.48775951498783499 -0.18405566905972301 0 0.49349822150766959 -0.18097467519165339 0 0.48654223612207659 -0.1890025361232742 0 0.49349822150766959 -0.18097467519165339 0 0.5 -0.17257472517640321 0 0.50000000000000222 -0.20037847760455049 0 0.48775951498783499 -0.18405566905972301 0 0.48654223612207659 -0.1890025361232742 0 0.48424049398231539 -0.1799308086440263 0 0.4818710360945887 -0.18505393822528249 0 0.48775951498783499 -0.18405566905972301 0 0.49349822150766959 -0.18097467519165339 0 0.5 -0.17257472517640321 0 0.49106179600078292 -0.1706356174700123 0 0.48424049398231539 -0.1799308086440263 0 0.48775951498783499 -0.18405566905972301 0 0.49106179600078292 -0.1706356174700123 0 0.48775951498783499 -0.18405566905972301 0 0.49106179600078292 -0.1706356174700123 0 0.48128596764317438 -0.17412007688751299 0 0.48424049398231539 -0.1799308086440263 0 0.49106179600078292 -0.1706356174700123 0 0.48775951498783499 -0.18405566905972301 0 0.49349822150766959 -0.18097467519165339 0 0.49106179600078292 -0.1706356174700123 0 0.49106179600078292 -0.1706356174700123 0 0.47722908752874449 -0.15598024155790499 0 0.5 -0.14477097274825579 0 0.5 -0.17257472517640321 0 0.49106179600078292 -0.1706356174700123 0 0.5 -0.14477097274825579 0 0.48128596764317438 -0.17412007688751299 0 0.49106179600078292 -0.1706356174700123 0 0.47722908752874449 -0.15598024155790499 0 0.45903488711611068 -0.16575038253852559 0 0.48128596764317438 -0.17412007688751299 0 0.47722908752874449 -0.15598024155790499 0 0.45864299977358441 -0.1419613825554705 0 0.47722908752874449 -0.15598024155790499 0 0.47963410240057891 -0.13240813631170931 0 0.47722908752874449 -0.15598024155790499 0 0.5 -0.14477097274825579 0 0.47963410240057891 -0.13240813631170931 0 0.5 -0.1169672203201086 0 0.5 -0.14477097274825579 0 0.47963410240057891 -0.13240813631170931 0 0.46073846277092212 -0.2235349735040657 0 0.45341841306806208 -0.23795012018882319 0 0.47760731176094362 -0.2253129365423984 0 0.45341841306806208 -0.23795012018882319 0 0.47760731176094362 -0.2253129365423984 0 0.46073846277092212 -0.2235349735040657 0 0.45341841306806208 -0.23795012018882319 0 0.44611138270366629 -0.22401899675725531 0 0.46073846277092212 -0.2235349735040657 0 0.44611138270366629 -0.22401899675725531 0 0.45681723750518649 -0.21534995484900271 0 0.45341841306806208 -0.23795012018882319 0 0.47760731176094362 -0.2253129365423984 0 0.47136528790181081 -0.25067973055093579 0 0.45341841306806208 -0.23795012018882319 0 0.47136528790181081 -0.25067973055093579 0 0.45883540598867018 -0.26104788066570112 0 0.43496911510992031 -0.2345548532000207 0 0.45341841306806208 -0.23795012018882319 0 0.42922951437517931 -0.25058730383524569 0 0.45341841306806208 -0.23795012018882319 0 0.44604531227022581 -0.25100248469376613 0 0.42922951437517931 -0.25058730383524569 0 0.45341841306806208 -0.23795012018882319 0 0.42922951437517931 -0.25058730383524569 0 0.43496911510992031 -0.2345548532000207 0 0.45341841306806208 -0.23795012018882319 0 0.44611138270366629 -0.22401899675725531 0 0.44611138270366629 -0.22401899675725531 0 0.44527947845078047 -0.20803721692302529 0 0.45681723750518649 -0.21534995484900271 0 0.43023877513862191 -0.22305049511118469 0 0.44611138270366629 -0.22401899675725531 0 0.44527947845078047 -0.20803721692302529 0 0.43571027680975971 -0.19415788034827969 0 0.45879065645217398 -0.18960590928678039 0 0.43571027680975971 -0.19415788034827969 0 0.44527947845078047 -0.20803721692302529 0 0.45879065645217398 -0.18960590928678039 0 0.45879065645217398 -0.18960590928678039 0 0.46457861632726799 -0.20339712701136431 0 0.47603223937246503 -0.19572712848007789 0 0.44527947845078047 -0.20803721692302529 0 0.45879065645217398 -0.18960590928678039 0 0.46457861632726799 -0.20339712701136431 0 0.44527947845078047 -0.20803721692302529 0 0.45681723750518649 -0.21534995484900271 0 0.46457861632726799 -0.20339712701136431 0 0.45681723750518649 -0.21534995484900271 0 0.46457861632726799 -0.20339712701136431 0 0.46967522396175942 -0.21418314445914019 0 0.46073846277092212 -0.2235349735040657 0 0.45681723750518649 -0.21534995484900271 0 0.46967522396175942 -0.21418314445914019 0 0.48207477394150949 -0.2071577363328361 0 0.48521376607617278 -0.22133904085991779 0 0.47760731176094362 -0.2253129365423984 0 0.48207477394150949 -0.2071577363328361 0 0.47760731176094362 -0.2253129365423984 0 0.48207477394150949 -0.2071577363328361 0 0.46967522396175942 -0.21418314445914019 0 0.47760731176094362 -0.2253129365423984 0 0.46457861632726799 -0.20339712701136431 0 0.48207477394150949 -0.2071577363328361 0 0.46967522396175942 -0.21418314445914019 0 0.48207477394150949 -0.2071577363328361 0 0.48654223612207659 -0.1890025361232742 0 0.4818710360945887 -0.18505393822528249 0 0.45879065645217398 -0.18960590928678039 0 0.47603223937246503 -0.19572712848007789 0 0.46457861632726799 -0.20339712701136431 0 0.48207477394150949 -0.2071577363328361 0 0.47603223937246503 -0.19572712848007789 0 0.48207477394150949 -0.2071577363328361 0 0.47603223937246503 -0.19572712848007789 0 0.48654223612207659 -0.1890025361232742 0 0.4818710360945887 -0.18505393822528249 0 0.47603223937246503 -0.19572712848007789 0 0.48654223612207659 -0.1890025361232742 0 0.48207477394150949 -0.2071577363328361 0 0.48654223612207659 -0.1890025361232742 0 0.50000000000000222 -0.20037847760455049 0 0.49349822150766959 -0.18097467519165339 0 0.48654223612207659 -0.1890025361232742 0 0.50000000000000222 -0.20037847760455049 0 0.48654223612207659 -0.1890025361232742 0 0.50000000000000222 -0.20037847760455049 0 0.48207477394150949 -0.2071577363328361 0 0.50000000000000222 -0.20037847760455049 0 0.48521376607617278 -0.22133904085991779 0 0.50000000000000222 -0.20037847760455049 0 0.5 -0.23076829214970379 0 0.48521376607617278 -0.22133904085991779 0 0.5 -0.23076829214970379 0 0.48521376607617278 -0.22133904085991779 0 0.48683727314778552 -0.239955940865235 0 0.5 -0.23076829214970379 0 0.48683727314778552 -0.239955940865235 0 0.5 -0.27167970422321941 0 0.48521376607617278 -0.22133904085991779 0 0.47760731176094362 -0.2253129365423984 0 0.48683727314778552 -0.239955940865235 0 0.46073846277092212 -0.2235349735040657 0 0.46967522396175942 -0.21418314445914019 0 0.47760731176094362 -0.2253129365423984 0 0.48521376607617278 -0.22133904085991779 0 0.47760731176094362 -0.2253129365423984 0 0.47760731176094362 -0.2253129365423984 0 0.47136528790181081 -0.25067973055093579 0 0.47760731176094362 -0.2253129365423984 0 0.48683727314778552 -0.239955940865235 0 0.47136528790181081 -0.25067973055093579 0 0.48683727314778552 -0.239955940865235 0 0.5 -0.27167970422321941 0 0.47136528790181081 -0.25067973055093579 0 0.5 -0.27167970422321941 0 0.46512326404267962 -0.27604652455947348 0 0.48386819308826379 -0.29286407614893811 0 0.5 -0.27167970422321941 0 0.47136528790181081 -0.25067973055093579 0 0.46512326404267962 -0.27604652455947348 0 0.47136528790181081 -0.25067973055093579 0 0.46512326404267962 -0.27604652455947348 0 0.47136528790181081 -0.25067973055093579 0 0.45883540598867018 -0.26104788066570112 0 0.46512326404267962 -0.27604652455947348 0 0.45883540598867018 -0.26104788066570112 0 0.46512326404267962 -0.27604652455947348 0 0.44147400199355852 -0.27831754779078982 0 0.44147400199355852 -0.27831754779078982 0 0.44604531227022581 -0.25100248469376613 0 0.4260443471405328 -0.27023431496738531 0 0.44147400199355852 -0.27831754779078982 0 0.44604531227022581 -0.25100248469376613 0 0.45341841306806208 -0.23795012018882319 0 0.45883540598867018 -0.26104788066570112 0 0.44604531227022581 -0.25100248469376613 0 0.45883540598867018 -0.26104788066570112 0 0.44147400199355852 -0.27831754779078982 0 0.44604531227022581 -0.25100248469376613 0 0.44960099619169402 -0.29458277394041599 0 0.45165435972363033 -0.31750061875422447 0 0.43690269171689122 -0.30563261088781352 0 0.44147400199355852 -0.27831754779078982 0 0.43690269171689122 -0.30563261088781352 0 0.44147400199355852 -0.27831754779078982 0 0.44960099619169402 -0.29458277394041599 0 0.43690269171689122 -0.30563261088781352 0 0.46512326404267962 -0.27604652455947348 0 0.44147400199355852 -0.27831754779078982 0 0.44960099619169402 -0.29458277394041599 0 0.46512326404267962 -0.27604652455947348 0 0.44960099619169402 -0.29458277394041599 0 0.46338400640707222 -0.30133178958201662 0 0.44960099619169402 -0.29458277394041599 0 0.46338400640707222 -0.30133178958201662 0 0.45165435972363033 -0.31750061875422447 0 0.47956548521586218 -0.31132492880113322 0 0.48386819308826379 -0.29286407614893811 0 0.5 -0.3267420563239461 0 0.46338400640707222 -0.30133178958201662 0 0.47956548521586218 -0.31132492880113322 0 0.48386819308826379 -0.29286407614893811 0 0.5 -0.27167970422321941 0 0.48386819308826379 -0.29286407614893811 0 0.5 -0.3267420563239461 0 0.46338400640707222 -0.30133178958201662 0 0.47956548521586218 -0.31132492880113322 0 0.47100974136811302 -0.32436179314963198 0 0.46512326404267962 -0.27604652455947348 0 0.46338400640707222 -0.30133178958201662 0 0.48386819308826379 -0.29286407614893811 0 0.5 -0.3267420563239461 0 0.47554329295333242 -0.33800741662336159 0 0.47486325362603682 -0.35855217694652092 0 0.5 -0.3267420563239461 0 0.47486325362603682 -0.35855217694652092 0 0.5 -0.40086959399265382 0 0.5 -0.3267420563239461 0 0.47554329295333242 -0.33800741662336159 0 0.47100974136811302 -0.32436179314963198 0 0.47956548521586218 -0.31132492880113322 0 0.5 -0.3267420563239461 0 0.47100974136811302 -0.32436179314963198 0 0.47554329295333242 -0.33800741662336159 0 0.47486325362603682 -0.35855217694652092 0 0.45630017681918011 -0.34237364007334758 0 0.47486325362603682 -0.35855217694652092 0 0.45957054745845283 -0.36205554899524178 0 0.45885106581400209 -0.37714289743110407 0 0.45957054745845283 -0.36205554899524178 0 0.44941918645496648 -0.36846659655922059 0 0.45885106581400209 -0.37714289743110407 0 0.45957054745845283 -0.36205554899524178 0 0.44917479875553529 -0.3570538746276507 0 0.45630017681918011 -0.34237364007334758 0 0.47486325362603682 -0.35855217694652092 0 0.45957054745845283 -0.36205554899524178 0 0.45630017681918011 -0.34237364007334758 0 0.44176062718739351 -0.346575818430789 0 0.44159061227024721 -0.3603854869970633 0 0.45630017681918011 -0.34237364007334758 0 0.44159061227024721 -0.3603854869970633 0 0.45630017681918011 -0.34237364007334758 0 0.44917479875553529 -0.3570538746276507 0 0.44159061227024721 -0.3603854869970633 0 0.45630017681918011 -0.34237364007334758 0 0.44176062718739351 -0.346575818430789 0 0.44159061227024721 -0.3603854869970633 0 0.43198163494265041 -0.34834692802135669 0 0.45957054745845283 -0.36205554899524178 0 0.44917479875553529 -0.3570538746276507 0 0.44941918645496648 -0.36846659655922059 0 0.44917479875553529 -0.3570538746276507 0 0.43802792323842482 -0.3677256042742148 0 0.44941918645496648 -0.36846659655922059 0 0.44917479875553529 -0.3570538746276507 0 0.43802792323842482 -0.3677256042742148 0 0.44917479875553529 -0.3570538746276507 0 0.44159061227024721 -0.3603854869970633 0 0.43802792323842482 -0.3677256042742148 0 0.43802792323842482 -0.3677256042742148 0 0.44941918645496648 -0.36846659655922059 0 0.44084272753645581 -0.38151313668121611 0 0.46338400640707222 -0.30133178958201662 0 0.47100974136811302 -0.32436179314963198 0 0.45165435972363033 -0.31750061875422447 0 0.47100974136811302 -0.32436179314963198 0 0.45630017681918011 -0.34237364007334758 0 0.45165435972363033 -0.31750061875422447 0 0.47100974136811302 -0.32436179314963198 0 0.45630017681918011 -0.34237364007334758 0 0.47554329295333242 -0.33800741662336159 0 0.47100974136811302 -0.32436179314963198 0 0.45630017681918011 -0.34237364007334758 0 0.44176062718739351 -0.346575818430789 0 0.45630017681918011 -0.34237364007334758 0 0.43233138144022398 -0.33294767398483699 0 0.45630017681918011 -0.34237364007334758 0 0.45165435972363033 -0.31750061875422447 0 0.43233138144022398 -0.33294767398483699 0 0.45165435972363033 -0.31750061875422447 0 0.43233138144022398 -0.33294767398483699 0 0.43690269171689122 -0.30563261088781352 0 0.43233138144022398 -0.33294767398483699 0 0.43690269171689122 -0.30563261088781352 0 0.42244344880873758 -0.30907398889075871 0 0.43233138144022398 -0.33294767398483699 0 0.41449042315108492 -0.32616473260276879 0 0.42244344880873758 -0.30907398889075871 0 0.43233138144022398 -0.33294767398483699 0 0.43690269171689122 -0.30563261088781352 0 0.43233138144022398 -0.33294767398483699 0 0.43198163494265041 -0.34834692802135669 0 0.4162376001584322 -0.34487540520527288 0 0.44176062718739351 -0.346575818430789 0 0.43233138144022398 -0.33294767398483699 0 0.43198163494265041 -0.34834692802135669 0 0.43233138144022398 -0.33294767398483699 0 0.41449042315108492 -0.32616473260276879 0 0.4162376001584322 -0.34487540520527288 0 0.41449042315108492 -0.32616473260276879 0 0.4162376001584322 -0.34487540520527288 0 0.39778316565025917 -0.33190432405970599 0 0.41449042315108492 -0.32616473260276879 0 0.40365651969777122 -0.31202227087326923 0 0.42244344880873758 -0.30907398889075871 0 0.44159061227024721 -0.3603854869970633 0 0.42688104772131419 -0.37839733392077901 0 0.44159061227024721 -0.3603854869970633 0 0.42567437536831187 -0.36239960834063301 0 0.42688104772131419 -0.37839733392077901 0 0.44159061227024721 -0.3603854869970633 0 0.43802792323842482 -0.3677256042742148 0 0.42688104772131419 -0.37839733392077901 0 0.43802792323842482 -0.3677256042742148 0 0.42688104772131419 -0.37839733392077901 0 0.42567437536831187 -0.36239960834063301 0 0.43198163494265041 -0.34834692802135669 0 0.4162376001584322 -0.34487540520527288 0 0.44159061227024721 -0.3603854869970633 0 0.42567437536831187 -0.36239960834063301 0 0.43198163494265041 -0.34834692802135669 0 0.42567437536831187 -0.36239960834063301 0 0.4162376001584322 -0.34487540520527288 0 0.40967639703941677 -0.363602925129073 0 0.4162376001584322 -0.34487540520527288 0 0.40967639703941677 -0.363602925129073 0 0.3990582037478192 -0.35164177891218568 0 0.42567437536831187 -0.36239960834063301 0 0.42688104772131419 -0.37839733392077901 0 0.41162489827265342 -0.37873796623632899 0 0.42567437536831187 -0.36239960834063301 0 0.40967639703941677 -0.363602925129073 0 0.41162489827265342 -0.37873796623632899 0 0.40967639703941677 -0.363602925129073 0 0.38966485235670051 -0.37059153397532613 0 0.40967639703941677 -0.363602925129073 0 0.3990582037478192 -0.35164177891218568 0 0.38966485235670051 -0.37059153397532613 0 0.40967639703941677 -0.363602925129073 0 0.38966485235670051 -0.37059153397532613 0 0.41162489827265342 -0.37873796623632899 0 0.3990582037478192 -0.35164177891218568 0 0.38192900353428688 -0.34723470619155072 0 0.38966485235670051 -0.37059153397532613 0 0.38966485235670051 -0.37059153397532613 0 0.36965330767398402 -0.37758014282157909 0 0.3735091138277577 -0.36305344566353492 0 0.38966485235670051 -0.37059153397532613 0 0.36965330767398402 -0.37758014282157909 0 0.38192900353428688 -0.34723470619155072 0 0.38966485235670051 -0.37059153397532613 0 0.3735091138277577 -0.36305344566353492 0 0.39778316565025917 -0.33190432405970599 0 0.38621747114592181 -0.3137403414653725 0 0.40365651969777122 -0.31202227087326923 0 0.41449042315108492 -0.32616473260276879 0 0.39778316565025917 -0.33190432405970599 0 0.40365651969777122 -0.31202227087326923 0 0.4162376001584322 -0.34487540520527288 0 0.3990582037478192 -0.35164177891218568 0 0.39778316565025917 -0.33190432405970599 0 0.3990582037478192 -0.35164177891218568 0 0.38192900353428688 -0.34723470619155072 0 0.39778316565025917 -0.33190432405970599 0 0.38192900353428688 -0.34723470619155072 0 0.39778316565025917 -0.33190432405970599 0 0.37070984176141458 -0.32505235146457262 0 0.38621747114592181 -0.3137403414653725 0 0.37031759423030031 -0.3074186043801363 0 0.37070984176141458 -0.32505235146457262 0 0.39778316565025917 -0.33190432405970599 0 0.38621747114592181 -0.3137403414653725 0 0.37070984176141458 -0.32505235146457262 0 0.38621747114592181 -0.3137403414653725 0 0.3911032014364299 -0.29734216823677267 0 0.37031759423030031 -0.3074186043801363 0 0.3911032014364299 -0.29734216823677267 0 0.36690509370049079 -0.29011375724132538 0 0.37031759423030031 -0.3074186043801363 0 0.38621747114592181 -0.3137403414653725 0 0.40365651969777122 -0.31202227087326923 0 0.3911032014364299 -0.29734216823677267 0 0.40365651969777122 -0.31202227087326923 0 0.3911032014364299 -0.29734216823677267 0 0.41374203224551742 -0.28614923818621413 0 0.3911032014364299 -0.29734216823677267 0 0.39810946931644309 -0.27995387060445359 0 0.41374203224551742 -0.28614923818621413 0 0.3911032014364299 -0.29734216823677267 0 0.38467883351923232 -0.28382820494760319 0 0.39810946931644309 -0.27995387060445359 0 0.38467883351923232 -0.28382820494760319 0 0.37648759509713009 -0.2765227328299919 0 0.36690509370049079 -0.29011375724132538 0 0.3911032014364299 -0.29734216823677267 0 0.38467883351923232 -0.28382820494760319 0 0.36690509370049079 -0.29011375724132538 0 0.37648759509713009 -0.2765227328299919 0 0.38761166784148648 -0.27233002045465332 0 0.37694641957650787 -0.26473275486935821 0 0.38467883351923232 -0.28382820494760319 0 0.37648759509713009 -0.2765227328299919 0 0.38761166784148648 -0.27233002045465332 0 0.38467883351923232 -0.28382820494760319 0 0.38761166784148648 -0.27233002045465332 0 0.39810946931644309 -0.27995387060445359 0 0.37566582743884142 -0.23672350810714449 0 0.38501913675399713 -0.24914562436818319 0 0.37694641957650787 -0.26473275486935821 0 0.37566582743884142 -0.23672350810714449 0 0.37694641957650787 -0.26473275486935821 0 0.38761166784148648 -0.27233002045465332 0 0.37694641957650787 -0.26473275486935821 0 0.38967533817649491 -0.25933429836508298 0 0.38501913675399713 -0.24914562436818319 0 0.37694641957650787 -0.26473275486935821 0 0.38967533817649491 -0.25933429836508298 0 0.39774780830335238 -0.24401085831176519 0 0.38967533817649491 -0.25933429836508298 0 0.4050406156822971 -0.2632244874816696 0 0.39774780830335238 -0.24401085831176519 0 0.411950670942477 -0.2485325712531416 0 0.4050406156822971 -0.2632244874816696 0 0.39774780830335238 -0.24401085831176519 0 0.4050406156822971 -0.2632244874816696 0 0.38761166784148648 -0.27233002045465332 0 0.38967533817649491 -0.25933429836508298 0 0.4050406156822971 -0.2632244874816696 0 0.38501913675399713 -0.24914562436818319 0 0.39774780830335238 -0.24401085831176519 0 0.38967533817649491 -0.25933429836508298 0 0.38761166784148648 -0.27233002045465332 0 0.4050406156822971 -0.2632244874816696 0 0.39810946931644309 -0.27995387060445359 0 0.38761166784148648 -0.27233002045465332 0 0.4050406156822971 -0.2632244874816696 0 0.4050406156822971 -0.2632244874816696 0 0.39810946931644309 -0.27995387060445359 0 0.41374203224551742 -0.28614923818621413 0 0.4050406156822971 -0.2632244874816696 0 0.41374203224551742 -0.28614923818621413 0 0.4050406156822971 -0.2632244874816696 0 0.4260443471405328 -0.27023431496738531 0 0.41374203224551742 -0.28614923818621413 0 0.4050406156822971 -0.2632244874816696 0 0.42922951437517931 -0.25058730383524569 0 0.4260443471405328 -0.27023431496738531 0 0.411950670942477 -0.2485325712531416 0 0.4050406156822971 -0.2632244874816696 0 0.42922951437517931 -0.25058730383524569 0 0.4050406156822971 -0.2632244874816696 0 0.42922951437517931 -0.25058730383524569 0 0.44604531227022581 -0.25100248469376613 0 0.42922951437517931 -0.25058730383524569 0 0.4260443471405328 -0.27023431496738531 0 0.44147400199355852 -0.27831754779078982 0 0.4260443471405328 -0.27023431496738531 0 0.42812130438104751 -0.28988154014459228 0 0.4260443471405328 -0.27023431496738531 0 0.42812130438104751 -0.28988154014459228 0 0.41374203224551742 -0.28614923818621413 0 0.44147400199355852 -0.27831754779078982 0 0.42812130438104751 -0.28988154014459228 0 0.43690269171689122 -0.30563261088781352 0 0.42812130438104751 -0.28988154014459228 0 0.43690269171689122 -0.30563261088781352 0 0.42244344880873758 -0.30907398889075871 0 0.42244344880873758 -0.30907398889075871 0 0.41374203224551742 -0.28614923818621413 0 0.40365651969777122 -0.31202227087326923 0 0.42244344880873758 -0.30907398889075871 0 0.41374203224551742 -0.28614923818621413 0 0.42812130438104751 -0.28988154014459228 0 0.42244344880873758 -0.30907398889075871 0 0.41374203224551742 -0.28614923818621413 0 0.5 -0.5 0 0.46723730967511162 -0.42991414813736051 0 0.5 -0.40086959399265382 0 0.5 -0.5 0 0.45587614153684469 -0.46428855554345438 0 0.46723730967511162 -0.42991414813736051 0 0.46287937400061402 -0.5 0 0.45587614153684469 -0.46428855554345438 0 0.4365911069037926 -0.47444356030908469 0 0.46287937400061402 -0.5 0 0.5 -0.5 0 0.45587614153684469 -0.46428855554345438 0 0.45587614153684469 -0.46428855554345438 0 0.43928602964371172 -0.43202637908156422 0 0.42767127107426489 -0.45408879416592018 0 0.45587614153684469 -0.46428855554345438 0 0.43928602964371172 -0.43202637908156422 0 0.46723730967511162 -0.42991414813736051 0 0.45587614153684469 -0.46428855554345438 0 0.42767127107426489 -0.45408879416592018 0 0.4365911069037926 -0.47444356030908469 0 0.44364663775437158 -0.41388631503626411 0 0.46723730967511162 -0.42991414813736051 0 0.45755318618619001 -0.39822930864767891 0 0.43928602964371172 -0.43202637908156422 0 0.44364663775437158 -0.41388631503626411 0 0.46723730967511162 -0.42991414813736051 0 0.46723730967511162 -0.42991414813736051 0 0.5 -0.40086959399265382 0 0.45755318618619001 -0.39822930864767891 0 0.5 -0.40086959399265382 0 0.45885106581400209 -0.37714289743110407 0 0.45755318618619001 -0.39822930864767891 0 0.47486325362603682 -0.35855217694652092 0 0.5 -0.40086959399265382 0 0.45885106581400209 -0.37714289743110407 0 0.44364663775437158 -0.41388631503626411 0 0.45755318618619001 -0.39822930864767891 0 0.43584872031727401 -0.3980744520670581 0 0.45755318618619001 -0.39822930864767891 0 0.44084272753645581 -0.38151313668121611 0 0.43584872031727401 -0.3980744520670581 0 0.45885106581400209 -0.37714289743110407 0 0.45755318618619001 -0.39822930864767891 0 0.44084272753645581 -0.38151313668121611 0 0.44941918645496648 -0.36846659655922059 0 0.45885106581400209 -0.37714289743110407 0 0.44084272753645581 -0.38151313668121611 0 0.44084272753645581 -0.38151313668121611 0 0.4285828798788448 -0.38945093767273498 0 0.43584872031727401 -0.3980744520670581 0 0.4285828798788448 -0.38945093767273498 0 0.42688104772131419 -0.37839733392077901 0 0.41869574767071738 -0.3913011594857071 0 0.43802792323842482 -0.3677256042742148 0 0.44084272753645581 -0.38151313668121611 0 0.42688104772131419 -0.37839733392077901 0 0.44084272753645581 -0.38151313668121611 0 0.4285828798788448 -0.38945093767273498 0 0.42688104772131419 -0.37839733392077901 0 0.43584872031727401 -0.3980744520670581 0 0.42027180334078479 -0.39958328197921322 0 0.42252126837004372 -0.41619517625207192 0 0.4285828798788448 -0.38945093767273498 0 0.41869574767071738 -0.3913011594857071 0 0.42027180334078479 -0.39958328197921322 0 0.4285828798788448 -0.38945093767273498 0 0.43584872031727401 -0.3980744520670581 0 0.42027180334078479 -0.39958328197921322 0 0.41547555440020301 -0.39236334896533931 0 0.4106204345799469 -0.39396482339939148 0 0.40031947300378767 -0.41092195531751718 0 0.41547555440020301 -0.39236334896533931 0 0.40031947300378767 -0.41092195531751718 0 0.41869574767071738 -0.3913011594857071 0 0.41547555440020301 -0.39236334896533931 0 0.42027180334078479 -0.39958328197921322 0 0.41547555440020301 -0.39236334896533931 0 0.42027180334078479 -0.39958328197921322 0 0.40031947300378767 -0.41092195531751718 0 0.41869574767071738 -0.3913011594857071 0 0.41547555440020301 -0.39236334896533931 0 0.41547555440020301 -0.39236334896533931 0 0.4106204345799469 -0.39396482339939148 0 0.42688104772131419 -0.37839733392077901 0 0.41547555440020301 -0.39236334896533931 0 0.4106204345799469 -0.39396482339939148 0 0.42688104772131419 -0.37839733392077901 0 0.4106204345799469 -0.39396482339939148 0 0.42688104772131419 -0.37839733392077901 0 0.4106204345799469 -0.39396482339939148 0 0.41162489827265342 -0.37873796623632899 0 0.42688104772131419 -0.37839733392077901 0 0.41869574767071738 -0.3913011594857071 0 0.41547555440020301 -0.39236334896533931 0 0.42688104772131419 -0.37839733392077901 0 0.41547555440020301 -0.39236334896533931 0 0.4106204345799469 -0.39396482339939148 0 0.41162489827265342 -0.37873796623632899 0 0.3952616674798492 -0.38746827747242918 0 0.38966485235670051 -0.37059153397532613 0 0.41162489827265342 -0.37873796623632899 0 0.3952616674798492 -0.38746827747242918 0 0.38966485235670051 -0.37059153397532613 0 0.37551884006030101 -0.39180620102117591 0 0.36965330767398402 -0.37758014282157909 0 0.38966485235670051 -0.37059153397532613 0 0.3952616674798492 -0.38746827747242918 0 0.37551884006030101 -0.39180620102117591 0 0.37551884006030101 -0.39180620102117591 0 0.38938651887923048 -0.4009688880545233 0 0.36815260317851439 -0.40797295270965622 0 0.3952616674798492 -0.38746827747242918 0 0.37551884006030101 -0.39180620102117591 0 0.38938651887923048 -0.4009688880545233 0 0.38938651887923048 -0.4009688880545233 0 0.36815260317851439 -0.40797295270965622 0 0.4106204345799469 -0.39396482339939148 0 0.38938651887923048 -0.4009688880545233 0 0.39538399144961689 -0.40855179906019939 0 0.4106204345799469 -0.39396482339939148 0 0.38938651887923048 -0.4009688880545233 0 0.4106204345799469 -0.39396482339939148 0 0.3952616674798492 -0.38746827747242918 0 0.38938651887923048 -0.4009688880545233 0 0.4106204345799469 -0.39396482339939148 0 0.40031947300378767 -0.41092195531751718 0 0.39538399144961689 -0.40855179906019939 0 0.4106204345799469 -0.39396482339939148 0 0.39538399144961689 -0.40855179906019939 0 0.40031947300378767 -0.41092195531751718 0 0.38516339160737401 -0.42948056166969661 0 0.40031947300378767 -0.41092195531751718 0 0.39538399144961689 -0.40855179906019939 0 0.38516339160737401 -0.42948056166969661 0 0.38938651887923048 -0.4009688880545233 0 0.38014754831928621 -0.42313877472100653 0 0.36815260317851439 -0.40797295270965622 0 0.39538399144961689 -0.40855179906019939 0 0.38014754831928621 -0.42313877472100653 0 0.38516339160737401 -0.42948056166969661 0 0.38938651887923048 -0.4009688880545233 0 0.39538399144961689 -0.40855179906019939 0 0.38014754831928621 -0.42313877472100653 0 0.39538399144961689 -0.40855179906019939 0 0.38014754831928621 -0.42313877472100653 0 0.38014754831928621 -0.42313877472100653 0 0.38516339160737401 -0.42948056166969661 0 0.37076578104489988 -0.44711042125227179 0 0.38014754831928621 -0.42313877472100653 0 0.38516339160737401 -0.42948056166969661 0 0.38516339160737401 -0.42948056166969661 0 0.39530030469494332 -0.4422971788218707 0 0.40308220274235201 -0.42720443740198227 0 0.41574046535708509 -0.43721152852483491 0 0.39530030469494332 -0.4422971788218707 0 0.40031947300378767 -0.41092195531751718 0 0.38516339160737401 -0.42948056166969661 0 0.40308220274235201 -0.42720443740198227 0 0.38516339160737401 -0.42948056166969661 0 0.40308220274235201 -0.42720443740198227 0 0.39530030469494332 -0.4422971788218707 0 0.40308220274235201 -0.42720443740198227 0 0.41574046535708509 -0.43721152852483491 0 0.42252126837004372 -0.41619517625207192 0 0.42027180334078479 -0.39958328197921322 0 0.40031947300378767 -0.41092195531751718 0 0.42252126837004372 -0.41619517625207192 0 0.40031947300378767 -0.41092195531751718 0 0.40308220274235201 -0.42720443740198227 0 0.42252126837004372 -0.41619517625207192 0 0.44364663775437158 -0.41388631503626411 0 0.43584872031727401 -0.3980744520670581 0 0.42252126837004372 -0.41619517625207192 0 0.43928602964371172 -0.43202637908156422 0 0.44364663775437158 -0.41388631503626411 0 0.42252126837004372 -0.41619517625207192 0 0.43928602964371172 -0.43202637908156422 0 0.41574046535708509 -0.43721152852483491 0 0.42252126837004372 -0.41619517625207192 0 0.43928602964371172 -0.43202637908156422 0 0.41574046535708509 -0.43721152852483491 0 0.42767127107426489 -0.45408879416592018 0 0.42767127107426489 -0.45408879416592018 0 0.41199568592353508 -0.47305320968169479 0 0.4365911069037926 -0.47444356030908469 0 0.42767127107426489 -0.45408879416592018 0 0.40543721778251229 -0.455113795974045 0 0.41199568592353508 -0.47305320968169479 0 0.41574046535708509 -0.43721152852483491 0 0.42767127107426489 -0.45408879416592018 0 0.40543721778251229 -0.455113795974045 0 0.41574046535708509 -0.43721152852483491 0 0.39530030469494332 -0.4422971788218707 0 0.40543721778251229 -0.455113795974045 0 0.39530030469494332 -0.4422971788218707 0 0.38938826969501061 -0.45565348830392871 0 0.40543721778251229 -0.455113795974045 0 0.39530030469494332 -0.4422971788218707 0 0.40543721778251229 -0.455113795974045 0 0.38516339160737401 -0.42948056166969661 0 0.38321764615389081 -0.44599143336018932 0 0.37076578104489988 -0.44711042125227179 0 0.38516339160737401 -0.42948056166969661 0 0.37076578104489988 -0.44711042125227179 0 0.38516339160737401 -0.42948056166969661 0 0.39530030469494332 -0.4422971788218707 0 0.38321764615389081 -0.44599143336018932 0 0.39530030469494332 -0.4422971788218707 0 0.38321764615389081 -0.44599143336018932 0 0.38938826969501061 -0.45565348830392871 0 0.38321764615389081 -0.44599143336018932 0 0.37800339665602961 -0.45483880684766781 0 0.38938826969501061 -0.45565348830392871 0 0.38321764615389081 -0.44599143336018932 0 0.37800339665602961 -0.45483880684766781 0 0.37076578104489988 -0.44711042125227179 0 0.38938826969501061 -0.45565348830392871 0 0.39682452159345699 -0.46863071299312692 0 0.38071868251593288 -0.47017547652877978 0 0.37800339665602961 -0.45483880684766781 0 0.38938826969501061 -0.45565348830392871 0 0.38071868251593288 -0.47017547652877978 0 0.38938826969501061 -0.45565348830392871 0 0.39682452159345699 -0.46863071299312692 0 0.40543721778251229 -0.455113795974045 0 0.39682452159345699 -0.46863071299312692 0 0.40543721778251229 -0.455113795974045 0 0.41199568592353508 -0.47305320968169479 0 0.39682452159345699 -0.46863071299312692 0 0.39551076116145201 -0.48508773826439028 0 0.41199568592353508 -0.47305320968169479 0 0.39682452159345699 -0.46863071299312692 0 0.38071868251593288 -0.47017547652877978 0 0.39551076116145201 -0.48508773826439028 0 0.38071868251593288 -0.47017547652877978 0 0.38102454440095451 -0.48448941453573868 0 0.36514252426929189 -0.48269444334978462 0 0.38071868251593288 -0.47017547652877978 0 0.39551076116145201 -0.48508773826439028 0 0.38071868251593288 -0.47017547652877978 0 0.38102454440095451 -0.48448941453573868 0 0.39551076116145201 -0.48508773826439028 0 0.38272620965714138 -0.5 0 0.38102454440095451 -0.48448941453573868 0 0.36514252426929189 -0.48269444334978462 0 0.38272620965714138 -0.5 0 0.38102454440095451 -0.48448941453573868 0 0.39551076116145201 -0.48508773826439028 0 0.38272620965714138 -0.5 0 0.39551076116145201 -0.48508773826439028 0 0.41030283980697152 -0.50000000000000067 0 0.39551076116145201 -0.48508773826439028 0 0.41030283980697152 -0.50000000000000067 0 0.41199568592353508 -0.47305320968169479 0 0.39551076116145201 -0.48508773826439028 0 0.41030283980697152 -0.50000000000000067 0 0.46287937400061402 -0.5 0 0.41030283980697152 -0.50000000000000067 0 0.4365911069037926 -0.47444356030908469 0 0.41030283980697152 -0.50000000000000067 0 0.41199568592353508 -0.47305320968169479 0 0.4365911069037926 -0.47444356030908469 0 0.32757294935748138 -0.50000000000000067 0 0.31740343337897658 -0.48066862750801242 0 0.30178835268249199 -0.49999999999999378 0 0.31740343337897658 -0.48066862750801242 0 0.34197055991995451 -0.48237014041742449 0 0.33318594541004237 -0.46050218246493141 0 0.32757294935748138 -0.50000000000000067 0 0.34197055991995451 -0.48237014041742449 0 0.35514957950731141 -0.5 0 0.32757294935748138 -0.50000000000000067 0 0.34197055991995451 -0.48237014041742449 0 0.32757294935748138 -0.50000000000000067 0 0.31740343337897658 -0.48066862750801242 0 0.34197055991995451 -0.48237014041742449 0 0.34197055991995451 -0.48237014041742449 0 0.35514957950731141 -0.5 0 0.36514252426929189 -0.48269444334978462 0 0.38272620965714138 -0.5 0 0.35514957950731141 -0.5 0 0.36514252426929189 -0.48269444334978462 0 0.36514252426929189 -0.48269444334978462 0 0.35636817048242719 -0.4647402808348482 0 0.36746865533538853 -0.46800187020368328 0 0.38071868251593288 -0.47017547652877978 0 0.36514252426929189 -0.48269444334978462 0 0.36746865533538853 -0.46800187020368328 0 0.34197055991995451 -0.48237014041742449 0 0.36514252426929189 -0.48269444334978462 0 0.35636817048242719 -0.4647402808348482 0 0.34197055991995451 -0.48237014041742449 0 0.35636817048242719 -0.4647402808348482 0 0.34197055991995451 -0.48237014041742449 0 0.35636817048242719 -0.4647402808348482 0 0.33318594541004237 -0.46050218246493141 0 0.35636817048242719 -0.4647402808348482 0 0.34739938080497462 -0.45137144836583287 0 0.33318594541004237 -0.46050218246493141 0 0.35636817048242719 -0.4647402808348482 0 0.37076578104489988 -0.44711042125227179 0 0.35636817048242719 -0.4647402808348482 0 0.3659266038704137 -0.45526321479316922 0 0.37076578104489988 -0.44711042125227179 0 0.35636817048242719 -0.4647402808348482 0 0.3659266038704137 -0.45526321479316922 0 0.36746865533538853 -0.46800187020368328 0 0.37800339665602961 -0.45483880684766781 0 0.38071868251593288 -0.47017547652877978 0 0.3659266038704137 -0.45526321479316922 0 0.38071868251593288 -0.47017547652877978 0 0.3659266038704137 -0.45526321479316922 0 0.38071868251593288 -0.47017547652877978 0 0.3659266038704137 -0.45526321479316922 0 0.36746865533538853 -0.46800187020368328 0 0.35636817048242719 -0.4647402808348482 0 0.36047177752800119 -0.44197584759851771 0 0.37076578104489988 -0.44711042125227179 0 0.37800339665602961 -0.45483880684766781 0 0.3659266038704137 -0.45526321479316922 0 0.37076578104489988 -0.44711042125227179 0 0.34739938080497462 -0.45137144836583287 0 0.33760476141913343 -0.43927194446861212 0 0.34922221561505301 -0.43253327106608241 0 0.36047177752800119 -0.44197584759851771 0 0.34739938080497462 -0.45137144836583287 0 0.34922221561505301 -0.43253327106608241 0 0.35636817048242719 -0.4647402808348482 0 0.36047177752800119 -0.44197584759851771 0 0.34739938080497462 -0.45137144836583287 0 0.33760476141913343 -0.43927194446861212 0 0.33318594541004237 -0.46050218246493141 0 0.31718344884461641 -0.43513136561392479 0 0.34739938080497462 -0.45137144836583287 0 0.33760476141913343 -0.43927194446861212 0 0.33318594541004237 -0.46050218246493141 0 0.31740343337897658 -0.48066862750801242 0 0.33318594541004237 -0.46050218246493141 0 0.30569541391616722 -0.45875693592654981 0 0.33318594541004237 -0.46050218246493141 0 0.31718344884461641 -0.43513136561392479 0 0.30569541391616722 -0.45875693592654981 0 0.31718344884461641 -0.43513136561392479 0 0.32867148377306549 -0.41150579530129983 0 0.31718344884461641 -0.43513136561392479 0 0.32867148377306549 -0.41150579530129983 0 0.33440354970446062 -0.42641126045727662 0 0.31718344884461641 -0.43513136561392479 0 0.32867148377306549 -0.41150579530129983 0 0.30966067167544409 -0.41315621452117801 0 0.32867148377306549 -0.41150579530129983 0 0.31883526335932427 -0.39532727027613512 0 0.30966067167544409 -0.41315621452117801 0 0.32867148377306549 -0.41150579530129983 0 0.34332685071390778 -0.41616179445816848 0 0.33440354970446062 -0.42641126045727662 0 0.32867148377306549 -0.41150579530129983 0 0.34332685071390778 -0.41616179445816848 0 0.34004269699992612 -0.40396955802028478 0 0.33760476141913343 -0.43927194446861212 0 0.31718344884461641 -0.43513136561392479 0 0.33440354970446062 -0.42641126045727662 0 0.34332685071390778 -0.41616179445816848 0 0.33440354970446062 -0.42641126045727662 0 0.34922221561505301 -0.43253327106608241 0 0.33760476141913343 -0.43927194446861212 0 0.33440354970446062 -0.42641126045727662 0 0.34922221561505301 -0.43253327106608241 0 0.36047177752800119 -0.44197584759851771 0 0.34922221561505301 -0.43253327106608241 0 0.3621751819149871 -0.42451524022871501 0 0.34332685071390778 -0.41616179445816848 0 0.34922221561505301 -0.43253327106608241 0 0.3621751819149871 -0.42451524022871501 0 0.38014754831928621 -0.42313877472100653 0 0.36047177752800119 -0.44197584759851771 0 0.37076578104489988 -0.44711042125227179 0 0.38014754831928621 -0.42313877472100653 0 0.36047177752800119 -0.44197584759851771 0 0.38014754831928621 -0.42313877472100653 0 0.36047177752800119 -0.44197584759851771 0 0.3621751819149871 -0.42451524022871501 0 0.38014754831928621 -0.42313877472100653 0 0.3621751819149871 -0.42451524022871501 0 0.36815260317851439 -0.40797295270965622 0 0.38014754831928621 -0.42313877472100653 0 0.36815260317851439 -0.40797295270965622 0 0.34332685071390778 -0.41616179445816848 0 0.36815260317851439 -0.40797295270965622 0 0.34801293481121481 -0.40033041733299479 0 0.34332685071390778 -0.41616179445816848 0 0.36815260317851439 -0.40797295270965622 0 0.34332685071390778 -0.41616179445816848 0 0.3621751819149871 -0.42451524022871501 0 0.36815260317851439 -0.40797295270965622 0 0.34332685071390778 -0.41616179445816848 0 0.34801293481121481 -0.40033041733299479 0 0.34004269699992612 -0.40396955802028478 0 0.36815260317851439 -0.40797295270965622 0 0.34801293481121481 -0.40033041733299479 0 0.34964176299126598 -0.38456875166782778 0 0.34801293481121481 -0.40033041733299479 0 0.34964176299126598 -0.38456875166782778 0 0.34015951870151578 -0.38788022498867519 0 0.36815260317851439 -0.40797295270965622 0 0.34964176299126598 -0.38456875166782778 0 0.37551884006030101 -0.39180620102117591 0 0.36815260317851439 -0.40797295270965622 0 0.34964176299126598 -0.38456875166782778 0 0.36965330767398402 -0.37758014282157909 0 0.34964176299126598 -0.38456875166782778 0 0.37551884006030101 -0.39180620102117591 0 0.36965330767398402 -0.37758014282157909 0 0.34964176299126598 -0.38456875166782778 0 0.36965330767398402 -0.37758014282157909 0 0.34964176299126598 -0.38456875166782778 0 0.35878297939665121 -0.37170902636990871 0 0.34964176299126598 -0.38456875166782778 0 0.34476682802891512 -0.37840512231493822 0 0.34015951870151578 -0.38788022498867519 0 0.34964176299126598 -0.38456875166782778 0 0.34015951870151578 -0.38788022498867519 0 0.34964176299126598 -0.38456875166782778 0 0.34476682802891512 -0.37840512231493822 0 0.35878297939665121 -0.37170902636990871 0 0.34964176299126598 -0.38456875166782778 0 0.34476682802891512 -0.37840512231493822 0 0.34476682802891512 -0.37840512231493822 0 0.34015951870151578 -0.38788022498867519 0 0.32650524498357569 -0.37757816806295758 0 0.34015951870151578 -0.38788022498867519 0 0.31883526335932427 -0.39532727027613512 0 0.32650524498357569 -0.37757816806295758 0 0.34476682802891512 -0.37840512231493822 0 0.34015951870151578 -0.38788022498867519 0 0.34801293481121481 -0.40033041733299479 0 0.34015951870151578 -0.38788022498867519 0 0.34004269699992612 -0.40396955802028478 0 0.32867148377306549 -0.41150579530129983 0 0.34015951870151578 -0.38788022498867519 0 0.31883526335932427 -0.39532727027613512 0 0.32867148377306549 -0.41150579530129983 0 0.34015951870151578 -0.38788022498867519 0 0.34015951870151578 -0.38788022498867519 0 0.31883526335932427 -0.39532727027613512 0 0.32867148377306549 -0.41150579530129983 0 0.34015951870151578 -0.38788022498867519 0 0.34004269699992612 -0.40396955802028478 0 0.31883526335932427 -0.39532727027613512 0 0.32650524498357569 -0.37757816806295758 0 0.30258201499485948 -0.37137008967064372 0 0.31883526335932427 -0.39532727027613512 0 0.30029365674407732 -0.39787718817984008 0 0.30258201499485948 -0.37137008967064372 0 0.31883526335932427 -0.39532727027613512 0 0.30029365674407732 -0.39787718817984008 0 0.30966067167544409 -0.41315621452117801 0 0.30029365674407732 -0.39787718817984008 0 0.28306795127522472 -0.39282861043513129 0 0.28677930252973971 -0.40793481302931189 0 0.28306795127522472 -0.39282861043513129 0 0.275692854260562 -0.40559593306558028 0 0.28677930252973971 -0.40793481302931189 0 0.28306795127522472 -0.39282861043513129 0 0.30258201499485948 -0.37137008967064372 0 0.27491050342049028 -0.36941993719165439 0 0.30029365674407732 -0.39787718817984008 0 0.28306795127522472 -0.39282861043513129 0 0.30258201499485948 -0.37137008967064372 0 0.28306795127522472 -0.39282861043513129 0 0.25601404792522159 -0.39362467660019579 0 0.27491050342049028 -0.36941993719165439 0 0.25601404792522159 -0.39362467660019579 0 0.24552839760265069 -0.3692569783896959 0 0.25601404792522159 -0.39362467660019579 0 0.27491050342049028 -0.36941993719165439 0 0.24552839760265069 -0.3692569783896959 0 0.25601404792522159 -0.39362467660019579 0 0.26649969824779418 -0.41799237481069518 0 0.25601404792522159 -0.39362467660019579 0 0.275692854260562 -0.40559593306558028 0 0.26687188412800361 -0.41621498180322147 0 0.28306795127522472 -0.39282861043513129 0 0.25601404792522159 -0.39362467660019579 0 0.275692854260562 -0.40559593306558028 0 0.275692854260562 -0.40559593306558028 0 0.27705477636961651 -0.41773101543919672 0 0.28677930252973971 -0.40793481302931189 0 0.27705477636961651 -0.41773101543919672 0 0.26649969824779418 -0.41799237481069518 0 0.27988069834404028 -0.42679904507514338 0 0.27705477636961651 -0.41773101543919672 0 0.26687188412800361 -0.41621498180322147 0 0.26649969824779418 -0.41799237481069518 0 0.26687188412800361 -0.41621498180322147 0 0.26649969824779418 -0.41799237481069518 0 0.275692854260562 -0.40559593306558028 0 0.27705477636961651 -0.41773101543919672 0 0.26687188412800361 -0.41621498180322147 0 0.26649969824779418 -0.41799237481069518 0 0.25373244854488552 -0.42047044782778947 0 0.25057671986697272 -0.41222936371469482 0 0.25601404792522159 -0.39362467660019579 0 0.26687188412800361 -0.41621498180322147 0 0.26649969824779418 -0.41799237481069518 0 0.25601404792522159 -0.39362467660019579 0 0.26649969824779418 -0.41799237481069518 0 0.25057671986697272 -0.41222936371469482 0 0.26649969824779418 -0.41799237481069518 0 0.25403880547257279 -0.42900438916523959 0 0.26115752152694371 -0.4435042172885032 0 0.26649969824779418 -0.41799237481069518 0 0.26115752152694371 -0.4435042172885032 0 0.26649969824779418 -0.41799237481069518 0 0.25373244854488552 -0.42047044782778947 0 0.25403880547257279 -0.42900438916523959 0 0.26649969824779418 -0.41799237481069518 0 0.2757355918277683 -0.43945575195352232 0 0.26115752152694371 -0.4435042172885032 0 0.26649969824779418 -0.41799237481069518 0 0.27988069834404028 -0.42679904507514338 0 0.2757355918277683 -0.43945575195352232 0 0.26649969824779418 -0.41799237481069518 0 0.2757355918277683 -0.43945575195352232 0 0.27988069834404028 -0.42679904507514338 0 0.28887861096237671 -0.43133845956091971 0 0.2757355918277683 -0.43945575195352232 0 0.28887861096237671 -0.43133845956091971 0 0.30100559765999318 -0.42651356433415971 0 0.29599177003012411 -0.44207057839850078 0 0.28887861096237671 -0.43133845956091971 0 0.28783204214589081 -0.42153170069301871 0 0.30100559765999318 -0.42651356433415971 0 0.27705477636961651 -0.41773101543919672 0 0.27988069834404028 -0.42679904507514338 0 0.28783204214589081 -0.42153170069301871 0 0.27988069834404028 -0.42679904507514338 0 0.28887861096237671 -0.43133845956091971 0 0.28783204214589081 -0.42153170069301871 0 0.27705477636961651 -0.41773101543919672 0 0.28783204214589081 -0.42153170069301871 0 0.28677930252973971 -0.40793481302931189 0 0.30029365674407732 -0.39787718817984008 0 0.28677930252973971 -0.40793481302931189 0 0.29711425415102899 -0.41340269615150171 0 0.28783204214589081 -0.42153170069301871 0 0.28677930252973971 -0.40793481302931189 0 0.29711425415102899 -0.41340269615150171 0 0.28783204214589081 -0.42153170069301871 0 0.29711425415102899 -0.41340269615150171 0 0.30100559765999318 -0.42651356433415971 0 0.29711425415102899 -0.41340269615150171 0 0.30966067167544409 -0.41315621452117801 0 0.30100559765999318 -0.42651356433415971 0 0.30029365674407732 -0.39787718817984008 0 0.29711425415102899 -0.41340269615150171 0 0.30966067167544409 -0.41315621452117801 0 0.31718344884461641 -0.43513136561392479 0 0.30100559765999318 -0.42651356433415971 0 0.29599177003012411 -0.44207057839850078 0 0.31718344884461641 -0.43513136561392479 0 0.30966067167544409 -0.41315621452117801 0 0.30100559765999318 -0.42651356433415971 0 0.31718344884461641 -0.43513136561392479 0 0.30569541391616722 -0.45875693592654981 0 0.29599177003012411 -0.44207057839850078 0 0.31718344884461641 -0.43513136561392479 0 0.30569541391616722 -0.45875693592654981 0 0.30569541391616722 -0.45875693592654981 0 0.28497148540774392 -0.46091912909634869 0 0.29599177003012411 -0.44207057839850078 0 0.30569541391616722 -0.45875693592654981 0 0.28497148540774392 -0.46091912909634869 0 0.29420737898771893 -0.48238250623917528 0 0.28887861096237671 -0.43133845956091971 0 0.29599177003012411 -0.44207057839850078 0 0.2757355918277683 -0.43945575195352232 0 0.28497148540774392 -0.46091912909634869 0 0.29599177003012411 -0.44207057839850078 0 0.2757355918277683 -0.43945575195352232 0 0.28497148540774392 -0.46091912909634869 0 0.2757355918277683 -0.43945575195352232 0 0.27050356665008057 -0.4574404931419544 0 0.2757355918277683 -0.43945575195352232 0 0.26115752152694371 -0.4435042172885032 0 0.27050356665008057 -0.4574404931419544 0 0.28497148540774392 -0.46091912909634869 0 0.2757355918277683 -0.43945575195352232 0 0.25403880547257279 -0.42900438916523959 0 0.26115752152694371 -0.4435042172885032 0 0.24335354226974559 -0.44340136313605172 0 0.26115752152694371 -0.4435042172885032 0 0.25581534480609192 -0.46901605976631089 0 0.24335354226974559 -0.44340136313605172 0 0.26115752152694371 -0.4435042172885032 0 0.27050356665008057 -0.4574404931419544 0 0.25581534480609192 -0.46901605976631089 0 0.26115752152694371 -0.4435042172885032 0 0.25581534480609192 -0.46901605976631089 0 0.27050356665008057 -0.4574404931419544 0 0.27483788968185541 -0.47430730760508671 0 0.25581534480609192 -0.46901605976631089 0 0.28497148540774392 -0.46091912909634869 0 0.27050356665008057 -0.4574404931419544 0 0.27483788968185541 -0.47430730760508671 0 0.27483788968185541 -0.47430730760508671 0 0.26599876061282679 -0.48561658066825197 0 0.28066073070789233 -0.48885487920424131 0 0.27483788968185541 -0.47430730760508671 0 0.28066073070789233 -0.48885487920424131 0 0.2853884258140536 -0.47856832688444201 0 0.27483788968185541 -0.47430730760508671 0 0.25581534480609192 -0.46901605976631089 0 0.26599876061282679 -0.48561658066825197 0 0.25581534480609192 -0.46901605976631089 0 0.25047316808524012 -0.49452790224411858 0 0.26599876061282679 -0.48561658066825197 0 0.25581534480609192 -0.46901605976631089 0 0.25047316808524012 -0.49452790224411858 0 0.25047316808524012 -0.49452790224411858 0 0.27249899621535129 -0.5 0 0.26599876061282679 -0.48561658066825197 0 0.25047316808524012 -0.49452790224411858 0 0.27249899621535129 -0.5 0 0.24320963974821061 -0.5 0 0.27249899621535129 -0.5 0 0.26599876061282679 -0.48561658066825197 0 0.28066073070789233 -0.48885487920424131 0 0.27249899621535129 -0.5 0 0.28066073070789233 -0.48885487920424131 0 0.30178835268249199 -0.49999999999999378 0 0.29226464428505688 -0.48637781227735838 0 0.29420737898771893 -0.48238250623917528 0 0.30178835268249199 -0.49999999999999378 0 0.28066073070789233 -0.48885487920424131 0 0.29226464428505688 -0.48637781227735838 0 0.30178835268249199 -0.49999999999999378 0 0.29226464428505688 -0.48637781227735838 0 0.29420737898771893 -0.48238250623917528 0 0.28066073070789233 -0.48885487920424131 0 0.29226464428505688 -0.48637781227735838 0 0.2853884258140536 -0.47856832688444201 0 0.28497148540774392 -0.46091912909634869 0 0.27483788968185541 -0.47430730760508671 0 0.2853884258140536 -0.47856832688444201 0 0.28497148540774392 -0.46091912909634869 0 0.2853884258140536 -0.47856832688444201 0 0.29420737898771893 -0.48238250623917528 0 0.28497148540774392 -0.46091912909634869 0 0.29420737898771893 -0.48238250623917528 0 0.29226464428505688 -0.48637781227735838 0 0.2853884258140536 -0.47856832688444201 0 0.29420737898771893 -0.48238250623917528 0 0.30569541391616722 -0.45875693592654981 0 0.29420737898771893 -0.48238250623917528 0 0.31740343337897658 -0.48066862750801242 0 0.30569541391616722 -0.45875693592654981 0 0.29420737898771893 -0.48238250623917528 0 0.31740343337897658 -0.48066862750801242 0 0.29420737898771893 -0.48238250623917528 0 0.30178835268249199 -0.49999999999999378 0 0.29420737898771893 -0.48238250623917528 0 0.30178835268249199 -0.49999999999999378 0 0.33952997452867151 -0.29440483145203072 0 0.32592211302054841 -0.28378066450066552 0 0.33335316779568142 -0.26696408286518142 0 0.33952997452867151 -0.29440483145203072 0 0.32421632742564671 -0.29500676982417812 0 0.32592211302054841 -0.28378066450066552 0 0.33952997452867151 -0.29440483145203072 0 0.32619101016419477 -0.30565160764247867 0 0.32769399909605368 -0.3211360152570899 0 0.33952997452867151 -0.29440483145203072 0 0.32769399909605368 -0.3211360152570899 0 0.33952997452867151 -0.29440483145203072 0 0.32619101016419477 -0.30565160764247867 0 0.32421632742564671 -0.29500676982417812 0 0.32619101016419477 -0.30565160764247867 0 0.32421632742564671 -0.29500676982417812 0 0.31206020788912658 -0.30092431780070272 0 0.31990227872068511 -0.32108790081695981 0 0.31206020788912658 -0.30092431780070272 0 0.32146187396751502 -0.31219996037930781 0 0.31990227872068511 -0.32108790081695981 0 0.31206020788912658 -0.30092431780070272 0 0.32619101016419477 -0.30565160764247867 0 0.32146187396751502 -0.31219996037930781 0 0.31206020788912658 -0.30092431780070272 0 0.31737833152569211 -0.29027242772501299 0 0.32421632742564671 -0.29500676982417812 0 0.31206020788912658 -0.30092431780070272 0 0.31737833152569211 -0.29027242772501299 0 0.32421632742564671 -0.29500676982417812 0 0.32592211302054841 -0.28378066450066552 0 0.31737833152569211 -0.29027242772501299 0 0.32592211302054841 -0.28378066450066552 0 0.31431814409233172 -0.27663395746745689 0 0.31737833152569211 -0.29027242772501299 0 0.31431814409233172 -0.27663395746745689 0 0.30660217747788238 -0.28689059486370833 0 0.32592211302054841 -0.28378066450066552 0 0.31540105894844611 -0.26233020374307042 0 0.33335316779568142 -0.26696408286518142 0 0.32592211302054841 -0.28378066450066552 0 0.31540105894844611 -0.26233020374307042 0 0.32592211302054841 -0.28378066450066552 0 0.31431814409233172 -0.27663395746745689 0 0.31540105894844611 -0.26233020374307042 0 0.31431814409233172 -0.27663395746745689 0 0.31540105894844611 -0.26233020374307042 0 0.3094751751897718 -0.26830318401182929 0 0.3042739140707692 -0.2412674872516582 0 0.31804462129350758 -0.24772816378385529 0 0.31540105894844611 -0.26233020374307042 0 0.31804462129350758 -0.24772816378385529 0 0.33467662114387559 -0.2488269959300099 0 0.32580591908283579 -0.25667358999628093 0 0.31540105894844611 -0.26233020374307042 0 0.32580591908283579 -0.25667358999628093 0 0.33335316779568142 -0.26696408286518142 0 0.31804462129350758 -0.24772816378385529 0 0.31540105894844611 -0.26233020374307042 0 0.32580591908283579 -0.25667358999628093 0 0.33467662114387559 -0.2488269959300099 0 0.33335316779568142 -0.26696408286518142 0 0.34699486394243811 -0.25281787941728412 0 0.33467662114387559 -0.2488269959300099 0 0.32580591908283579 -0.25667358999628093 0 0.33335316779568142 -0.26696408286518142 0 0.33952997452867151 -0.29440483145203072 0 0.33335316779568142 -0.26696408286518142 0 0.35136594996128928 -0.26767364764697138 0 0.33952997452867151 -0.29440483145203072 0 0.35136594996128928 -0.26767364764697138 0 0.33335316779568142 -0.26696408286518142 0 0.35136594996128928 -0.26767364764697138 0 0.34699486394243811 -0.25281787941728412 0 0.36320192539390711 -0.2409424638419122 0 0.35136594996128928 -0.26767364764697138 0 0.34699486394243811 -0.25281787941728412 0 0.36320192539390711 -0.2409424638419122 0 0.35136594996128928 -0.26767364764697138 0 0.37566582743884142 -0.23672350810714449 0 0.37694641957650787 -0.26473275486935821 0 0.36637750262327767 -0.25604841268339917 0 0.36320192539390711 -0.2409424638419122 0 0.35136594996128928 -0.26767364764697138 0 0.36637750262327767 -0.25604841268339917 0 0.35136594996128928 -0.26767364764697138 0 0.36637750262327767 -0.25604841268339917 0 0.36678533463576879 -0.27077581188203798 0 0.37694641957650787 -0.26473275486935821 0 0.36637750262327767 -0.25604841268339917 0 0.36678533463576879 -0.27077581188203798 0 0.37648759509713009 -0.2765227328299919 0 0.36678533463576879 -0.27077581188203798 0 0.36690509370049079 -0.29011375724132538 0 0.35136594996128928 -0.26767364764697138 0 0.36678533463576879 -0.27077581188203798 0 0.36690509370049079 -0.29011375724132538 0 0.37648759509713009 -0.2765227328299919 0 0.37694641957650787 -0.26473275486935821 0 0.36678533463576879 -0.27077581188203798 0 0.33952997452867151 -0.29440483145203072 0 0.35136594996128928 -0.26767364764697138 0 0.35440206301442428 -0.29981605477621898 0 0.35136594996128928 -0.26767364764697138 0 0.36690509370049079 -0.29011375724132538 0 0.35440206301442428 -0.29981605477621898 0 0.33952997452867151 -0.29440483145203072 0 0.35440206301442428 -0.29981605477621898 0 0.35314022711312221 -0.31424675745772918 0 0.35440206301442428 -0.29981605477621898 0 0.37031759423030031 -0.3074186043801363 0 0.35314022711312221 -0.31424675745772918 0 0.33952997452867151 -0.29440483145203072 0 0.35314022711312221 -0.31424675745772918 0 0.34024806216122871 -0.32325753719290629 0 0.36690509370049079 -0.29011375724132538 0 0.35440206301442428 -0.29981605477621898 0 0.37031759423030031 -0.3074186043801363 0 0.37031759423030031 -0.3074186043801363 0 0.37070984176141458 -0.32505235146457262 0 0.35314022711312221 -0.31424675745772918 0 0.37070984176141458 -0.32505235146457262 0 0.35773833489516521 -0.35172873688975542 0 0.38192900353428688 -0.34723470619155072 0 0.37070984176141458 -0.32505235146457262 0 0.35773833489516521 -0.35172873688975542 0 0.37070984176141458 -0.32505235146457262 0 0.35773833489516521 -0.35172873688975542 0 0.34336283328600148 -0.3373893599258358 0 0.35314022711312221 -0.31424675745772918 0 0.34024806216122871 -0.32325753719290629 0 0.34336283328600148 -0.3373893599258358 0 0.37070984176141458 -0.32505235146457262 0 0.35314022711312221 -0.31424675745772918 0 0.34336283328600148 -0.3373893599258358 0 0.3735091138277577 -0.36305344566353492 0 0.35773833489516521 -0.35172873688975542 0 0.35878297939665121 -0.37170902636990871 0 0.36965330767398402 -0.37758014282157909 0 0.3735091138277577 -0.36305344566353492 0 0.35878297939665121 -0.37170902636990871 0 0.38192900353428688 -0.34723470619155072 0 0.3735091138277577 -0.36305344566353492 0 0.35773833489516521 -0.35172873688975542 0 0.35773833489516521 -0.35172873688975542 0 0.3428009651558423 -0.3595379933072137 0 0.34336283328600148 -0.3373893599258358 0 0.34476682802891512 -0.37840512231493822 0 0.35773833489516521 -0.35172873688975542 0 0.34476682802891512 -0.37840512231493822 0 0.35773833489516521 -0.35172873688975542 0 0.3428009651558423 -0.3595379933072137 0 0.34476682802891512 -0.37840512231493822 0 0.35773833489516521 -0.35172873688975542 0 0.35878297939665121 -0.37170902636990871 0 0.34476682802891512 -0.37840512231493822 0 0.32618259983326497 -0.35490813306439639 0 0.34476682802891512 -0.37840512231493822 0 0.32650524498357569 -0.37757816806295758 0 0.32618259983326497 -0.35490813306439639 0 0.34476682802891512 -0.37840512231493822 0 0.3428009651558423 -0.3595379933072137 0 0.32618259983326497 -0.35490813306439639 0 0.3428009651558423 -0.3595379933072137 0 0.32618259983326497 -0.35490813306439639 0 0.34336283328600148 -0.3373893599258358 0 0.32618259983326497 -0.35490813306439639 0 0.32369461411088318 -0.33787690992554842 0 0.30992325232496132 -0.34503167122098399 0 0.32618259983326497 -0.35490813306439639 0 0.30258201499485948 -0.37137008967064372 0 0.30992325232496132 -0.34503167122098399 0 0.32650524498357569 -0.37757816806295758 0 0.32618259983326497 -0.35490813306439639 0 0.30258201499485948 -0.37137008967064372 0 0.33952997452867151 -0.29440483145203072 0 0.34024806216122871 -0.32325753719290629 0 0.32769399909605368 -0.3211360152570899 0 0.34024806216122871 -0.32325753719290629 0 0.33174973607740432 -0.32974031877721038 0 0.32769399909605368 -0.3211360152570899 0 0.32618259983326497 -0.35490813306439639 0 0.34336283328600148 -0.3373893599258358 0 0.32369461411088318 -0.33787690992554842 0 0.34024806216122871 -0.32325753719290629 0 0.34336283328600148 -0.3373893599258358 0 0.33174973607740432 -0.32974031877721038 0 0.34336283328600148 -0.3373893599258358 0 0.33174973607740432 -0.32974031877721038 0 0.32369461411088318 -0.33787690992554842 0 0.33174973607740432 -0.32974031877721038 0 0.32332780173215181 -0.32864437573824978 0 0.32369461411088318 -0.33787690992554842 0 0.32369461411088318 -0.33787690992554842 0 0.30992403424960868 -0.3299154421336426 0 0.30992325232496132 -0.34503167122098399 0 0.32332780173215181 -0.32864437573824978 0 0.32369461411088318 -0.33787690992554842 0 0.30992403424960868 -0.3299154421336426 0 0.32332780173215181 -0.32864437573824978 0 0.31990227872068511 -0.32108790081695981 0 0.30992403424960868 -0.3299154421336426 0 0.31990227872068511 -0.32108790081695981 0 0.30690184676068338 -0.31552441002254761 0 0.31206020788912658 -0.30092431780070272 0 0.33174973607740432 -0.32974031877721038 0 0.32332780173215181 -0.32864437573824978 0 0.32769399909605368 -0.3211360152570899 0 0.32332780173215181 -0.32864437573824978 0 0.31990227872068511 -0.32108790081695981 0 0.32769399909605368 -0.3211360152570899 0 0.32619101016419477 -0.30565160764247867 0 0.32146187396751502 -0.31219996037930781 0 0.32769399909605368 -0.3211360152570899 0 0.32146187396751502 -0.31219996037930781 0 0.31990227872068511 -0.32108790081695981 0 0.32769399909605368 -0.3211360152570899 0 0.30690184676068338 -0.31552441002254761 0 0.29586999617978882 -0.32123718503088838 0 0.29560033344956083 -0.30609193203522039 0 0.30690184676068338 -0.31552441002254761 0 0.30992403424960868 -0.3299154421336426 0 0.29586999617978882 -0.32123718503088838 0 0.31990227872068511 -0.32108790081695981 0 0.30690184676068338 -0.31552441002254761 0 0.30992403424960868 -0.3299154421336426 0 0.30992403424960868 -0.3299154421336426 0 0.29000446978088251 -0.34185047397158569 0 0.29586999617978882 -0.32123718503088838 0 0.30992403424960868 -0.3299154421336426 0 0.29000446978088251 -0.34185047397158569 0 0.30992325232496132 -0.34503167122098399 0 0.29000446978088251 -0.34185047397158569 0 0.29586999617978882 -0.32123718503088838 0 0.27363516151951889 -0.31625460015403761 0 0.29586999617978882 -0.32123718503088838 0 0.27363516151951889 -0.31625460015403761 0 0.29560033344956083 -0.30609193203522039 0 0.29000446978088251 -0.34185047397158569 0 0.30258201499485948 -0.37137008967064372 0 0.30992325232496132 -0.34503167122098399 0 0.29000446978088251 -0.34185047397158569 0 0.30258201499485948 -0.37137008967064372 0 0.27491050342049028 -0.36941993719165439 0 0.29000446978088251 -0.34185047397158569 0 0.27491050342049028 -0.36941993719165439 0 0.26468000253701252 -0.3465759759796197 0 0.27491050342049028 -0.36941993719165439 0 0.26468000253701252 -0.3465759759796197 0 0.24552839760265069 -0.3692569783896959 0 0.29000446978088251 -0.34185047397158569 0 0.26468000253701252 -0.3465759759796197 0 0.27363516151951889 -0.31625460015403761 0 0.26468000253701252 -0.3465759759796197 0 0.25130989591315012 -0.32681039854385813 0 0.23504274728007971 -0.34488928017919601 0 0.26468000253701252 -0.3465759759796197 0 0.27363516151951889 -0.31625460015403761 0 0.25130989591315012 -0.32681039854385813 0 0.27363516151951889 -0.31625460015403761 0 0.25130989591315012 -0.32681039854385813 0 0.25151730915107229 -0.30261758900814439 0 0.27363516151951889 -0.31625460015403761 0 0.25151730915107229 -0.30261758900814439 0 0.26772615765105978 -0.29464403974533498 0 0.25151730915107229 -0.30261758900814439 0 0.25836822002256588 -0.28655744463818972 0 0.2472057893519212 -0.28487939078625901 0 0.25151730915107229 -0.30261758900814439 0 0.25836822002256588 -0.28655744463818972 0 0.26772615765105978 -0.29464403974533498 0 0.25836822002256588 -0.28655744463818972 0 0.25276234883078902 -0.27422181336940982 0 0.2472057893519212 -0.28487939078625901 0 0.25836822002256588 -0.28655744463818972 0 0.26772615765105978 -0.29464403974533498 0 0.27010448368937651 -0.27936468896519051 0 0.26772615765105978 -0.29464403974533498 0 0.28500561387276541 -0.28842587596111308 0 0.27010448368937651 -0.27936468896519051 0 0.27363516151951889 -0.31625460015403761 0 0.26772615765105978 -0.29464403974533498 0 0.28500561387276541 -0.28842587596111308 0 0.27363516151951889 -0.31625460015403761 0 0.28500561387276541 -0.28842587596111308 0 0.27363516151951889 -0.31625460015403761 0 0.29560033344956083 -0.30609193203522039 0 0.28500561387276541 -0.28842587596111308 0 0.29560033344956083 -0.30609193203522039 0 0.28500561387276541 -0.28842587596111308 0 0.30012917447548187 -0.29418520324203312 0 0.28500561387276541 -0.28842587596111308 0 0.30012917447548187 -0.29418520324203312 0 0.30421813705756812 -0.28076073478444591 0 0.30012917447548187 -0.29418520324203312 0 0.30660217747788238 -0.28689059486370833 0 0.30421813705756812 -0.28076073478444591 0 0.30660217747788238 -0.28689059486370833 0 0.30421813705756812 -0.28076073478444591 0 0.31737833152569211 -0.29027242772501299 0 0.30660217747788238 -0.28689059486370833 0 0.31206020788912658 -0.30092431780070272 0 0.30012917447548187 -0.29418520324203312 0 0.30660217747788238 -0.28689059486370833 0 0.31206020788912658 -0.30092431780070272 0 0.30660217747788238 -0.28689059486370833 0 0.31206020788912658 -0.30092431780070272 0 0.29560033344956083 -0.30609193203522039 0 0.30012917447548187 -0.29418520324203312 0 0.31206020788912658 -0.30092431780070272 0 0.30690184676068338 -0.31552441002254761 0 0.29560033344956083 -0.30609193203522039 0 0.31206020788912658 -0.30092431780070272 0 0.3042739140707692 -0.2412674872516582 0 0.31540105894844611 -0.26233020374307042 0 0.30569939282982839 -0.2625466722533899 0 0.3042739140707692 -0.2412674872516582 0 0.31540105894844611 -0.26233020374307042 0 0.3042739140707692 -0.2412674872516582 0 0.2979847593016951 -0.25665994025510208 0 0.30569939282982839 -0.2625466722533899 0 0.2979847593016951 -0.25665994025510208 0 0.30248210488848098 -0.27170190258340032 0 0.2979847593016951 -0.25665994025510208 0 0.30569939282982839 -0.2625466722533899 0 0.30248210488848098 -0.27170190258340032 0 0.2979847593016951 -0.25665994025510208 0 0.30248210488848098 -0.27170190258340032 0 0.29637606622601093 -0.26059715176818832 0 0.2979847593016951 -0.25665994025510208 0 0.29637606622601093 -0.26059715176818832 0 0.31540105894844611 -0.26233020374307042 0 0.30569939282982839 -0.2625466722533899 0 0.3094751751897718 -0.26830318401182929 0 0.30421813705756812 -0.28076073478444591 0 0.29637606622601093 -0.26059715176818832 0 0.30421813705756812 -0.28076073478444591 0 0.30248210488848098 -0.27170190258340032 0 0.29637606622601093 -0.26059715176818832 0 0.30569939282982839 -0.2625466722533899 0 0.3094751751897718 -0.26830318401182929 0 0.30248210488848098 -0.27170190258340032 0 0.31431814409233172 -0.27663395746745689 0 0.3094751751897718 -0.26830318401182929 0 0.30248210488848098 -0.27170190258340032 0 0.31431814409233172 -0.27663395746745689 0 0.30660217747788238 -0.28689059486370833 0 0.30248210488848098 -0.27170190258340032 0 0.30660217747788238 -0.28689059486370833 0 0.30248210488848098 -0.27170190258340032 0 0.30660217747788238 -0.28689059486370833 0 0.30421813705756812 -0.28076073478444591 0 0.30248210488848098 -0.27170190258340032 0 0.28500561387276541 -0.28842587596111308 0 0.30421813705756812 -0.28076073478444591 0 0.29637606622601093 -0.26059715176818832 0 0.28500561387276541 -0.28842587596111308 0 0.28571642490841609 -0.26797023106971968 0 0.29637606622601093 -0.26059715176818832 0 0.28500561387276541 -0.28842587596111308 0 0.29637606622601093 -0.26059715176818832 0 0.28500561387276541 -0.28842587596111308 0 0.28571642490841609 -0.26797023106971968 0 0.2791372274973245 -0.27349285684854452 0 0.28571642490841609 -0.26797023106971968 0 0.2791372274973245 -0.27349285684854452 0 0.27938526347336962 -0.26580308153144511 0 0.28571642490841609 -0.26797023106971968 0 0.28425097367332108 -0.25873197556904198 0 0.27938526347336962 -0.26580308153144511 0 0.28571642490841609 -0.26797023106971968 0 0.28425097367332108 -0.25873197556904198 0 0.28882649591135701 -0.26048691973220389 0 0.28425097367332108 -0.25873197556904198 0 0.28882649591135701 -0.26048691973220389 0 0.29034581086158823 -0.25724517325013729 0 0.28571642490841609 -0.26797023106971968 0 0.28882649591135701 -0.26048691973220389 0 0.29637606622601093 -0.26059715176818832 0 0.28882649591135701 -0.26048691973220389 0 0.29637606622601093 -0.26059715176818832 0 0.29034581086158823 -0.25724517325013729 0 0.291929707635663 -0.24916464593111459 0 0.29637606622601093 -0.26059715176818832 0 0.291929707635663 -0.24916464593111459 0 0.29513136732176481 -0.24711639643758279 0 0.2979847593016951 -0.25665994025510208 0 0.29513136732176481 -0.24711639643758279 0 0.2979847593016951 -0.25665994025510208 0 0.291929707635663 -0.24916464593111459 0 0.2979847593016951 -0.25665994025510208 0 0.29637606622601093 -0.26059715176818832 0 0.291929707635663 -0.24916464593111459 0 0.29637606622601093 -0.26059715176818832 0 0.29034581086158823 -0.25724517325013729 0 0.291929707635663 -0.24916464593111459 0 0.28425097367332108 -0.25873197556904198 0 0.28281696631013142 -0.25499448721179108 0 0.291929707635663 -0.24916464593111459 0 0.28281696631013142 -0.25499448721179108 0 0.291929707635663 -0.24916464593111459 0 0.28425097367332108 -0.25873197556904198 0 0.29034581086158823 -0.25724517325013729 0 0.291929707635663 -0.24916464593111459 0 0.2854602794072037 -0.2485743865016761 0 0.28281696631013142 -0.25499448721179108 0 0.28281696631013142 -0.25499448721179108 0 0.27234602823322612 -0.26169322965026243 0 0.27184916022266431 -0.25370467315110129 0 0.28281696631013142 -0.25499448721179108 0 0.27184916022266431 -0.25370467315110129 0 0.2854602794072037 -0.2485743865016761 0 0.28281696631013142 -0.25499448721179108 0 0.27184916022266431 -0.25370467315110129 0 0.28281696631013142 -0.25499448721179108 0 0.27234602823322612 -0.26169322965026243 0 0.28425097367332108 -0.25873197556904198 0 0.27234602823322612 -0.26169322965026243 0 0.27938526347336962 -0.26580308153144511 0 0.28425097367332108 -0.25873197556904198 0 0.28281696631013142 -0.25499448721179108 0 0.27234602823322612 -0.26169322965026243 0 0.2791372274973245 -0.27349285684854452 0 0.27350526192981228 -0.26960846838630592 0 0.27010448368937651 -0.27936468896519051 0 0.28500561387276541 -0.28842587596111308 0 0.2791372274973245 -0.27349285684854452 0 0.27010448368937651 -0.27936468896519051 0 0.27234602823322612 -0.26169322965026243 0 0.27350526192981228 -0.26960846838630592 0 0.27938526347336962 -0.26580308153144511 0 0.2791372274973245 -0.27349285684854452 0 0.27350526192981228 -0.26960846838630592 0 0.27938526347336962 -0.26580308153144511 0 0.27234602823322612 -0.26169322965026243 0 0.27350526192981228 -0.26960846838630592 0 0.26605528045921872 -0.27232866940329209 0 0.27350526192981228 -0.26960846838630592 0 0.26605528045921872 -0.27232866940329209 0 0.27010448368937651 -0.27936468896519051 0 0.26605528045921872 -0.27232866940329209 0 0.27010448368937651 -0.27936468896519051 0 0.2614545241344427 -0.27772185174262642 0 0.27234602823322612 -0.26169322965026243 0 0.25066573243499007 -0.27100373908515513 0 0.25276234883078902 -0.27422181336940982 0 0.27234602823322612 -0.26169322965026243 0 0.25276234883078902 -0.27422181336940982 0 0.27234602823322612 -0.26169322965026243 0 0.26605528045921872 -0.27232866940329209 0 0.25276234883078902 -0.27422181336940982 0 0.26605528045921872 -0.27232866940329209 0 0.2614545241344427 -0.27772185174262642 0 0.25276234883078902 -0.27422181336940982 0 0.25836822002256588 -0.28655744463818972 0 0.27010448368937651 -0.27936468896519051 0 0.2614545241344427 -0.27772185174262642 0 0.25066573243499007 -0.27100373908515513 0 0.25276234883078902 -0.27422181336940982 0 0.2472057893519212 -0.28487939078625901 0 0.25836822002256588 -0.28655744463818972 0 0.2614545241344427 -0.27772185174262642 0 0.25276234883078902 -0.27422181336940982 0 0.27234602823322612 -0.26169322965026243 0 0.27184916022266431 -0.25370467315110129 0 0.25066573243499007 -0.27100373908515513 0 0.27184916022266431 -0.25370467315110129 0 0.24941326827896371 -0.25204479198237911 0 0.27184916022266431 -0.25370467315110129 0 0.25066573243499007 -0.27100373908515513 0 0.24941326827896371 -0.25204479198237911 0 0.27184916022266431 -0.25370467315110129 0 0.25066573243499007 -0.27100373908515513 0 0.25066573243499007 -0.27100373908515513 0 0.24941326827896371 -0.25204479198237911 0 0.239591062611372 -0.26058243386906221 0 0.24941326827896371 -0.25204479198237911 0 0.239591062611372 -0.26058243386906221 0 0.22697737633526319 -0.25038491081365638 0 0.24941326827896371 -0.25204479198237911 0 0.22697737633526319 -0.25038491081365638 0 0.25066573243499007 -0.27100373908515513 0 0.22948230464731609 -0.28830280501920902 0 0.25066573243499007 -0.27100373908515513 0 0.239591062611372 -0.26058243386906221 0 0.23130787339627079 -0.2688962935950584 0 0.25066573243499007 -0.27100373908515513 0 0.23130787339627079 -0.2688962935950584 0 0.22948230464731609 -0.28830280501920902 0 0.23130787339627079 -0.2688962935950584 0 0.20865389969751419 -0.26989129017983993 0 0.22948230464731609 -0.28830280501920902 0 0.23130787339627079 -0.2688962935950584 0 0.22697737633526319 -0.25038491081365638 0 0.20865389969751419 -0.26989129017983993 0 0.239591062611372 -0.26058243386906221 0 0.23130787339627079 -0.2688962935950584 0 0.22697737633526319 -0.25038491081365638 0 0.22697737633526319 -0.25038491081365638 0 0.20865389969751419 -0.26989129017983993 0 0.20454148439156261 -0.24872502964493379 0 0.20865389969751419 -0.26989129017983993 0 0.19046353696179549 -0.25907172837192899 0 0.18372472163785061 -0.27684979573022722 0 0.20865389969751419 -0.26989129017983993 0 0.20279846421311259 -0.28818382136707349 0 0.18372472163785061 -0.27684979573022722 0 0.19046353696179549 -0.25907172837192899 0 0.20454148439156261 -0.24872502964493379 0 0.18307796178796171 -0.24223340020790701 0 0.20865389969751419 -0.26989129017983993 0 0.19046353696179549 -0.25907172837192899 0 0.20454148439156261 -0.24872502964493379 0 0.2082988768596421 -0.30560187095326302 0 0.18711544907196809 -0.32290093688731691 0 0.18383251822323959 -0.30027334495282809 0 0.20279846421311259 -0.28818382136707349 0 0.2082988768596421 -0.30560187095326302 0 0.18383251822323959 -0.30027334495282809 0 0.20279846421311259 -0.28818382136707349 0 0.18372472163785061 -0.27684979573022722 0 0.18383251822323959 -0.30027334495282809 0 0.20279846421311259 -0.28818382136707349 0 0.2082988768596421 -0.30560187095326302 0 0.22948230464731609 -0.28830280501920902 0 0.20865389969751419 -0.26989129017983993 0 0.20279846421311259 -0.28818382136707349 0 0.22948230464731609 -0.28830280501920902 0 0.2082988768596421 -0.30560187095326302 0 0.22948230464731609 -0.28830280501920902 0 0.2082988768596421 -0.30560187095326302 0 0.22948230464731609 -0.28830280501920902 0 0.23278884832473909 -0.31718990752247161 0 0.25151730915107229 -0.30261758900814439 0 0.22948230464731609 -0.28830280501920902 0 0.2472057893519212 -0.28487939078625901 0 0.25066573243499007 -0.27100373908515513 0 0.22948230464731609 -0.28830280501920902 0 0.2472057893519212 -0.28487939078625901 0 0.25151730915107229 -0.30261758900814439 0 0.22948230464731609 -0.28830280501920902 0 0.23278884832473909 -0.31718990752247161 0 0.25130989591315012 -0.32681039854385813 0 0.25151730915107229 -0.30261758900814439 0 0.23278884832473909 -0.31718990752247161 0 0.25130989591315012 -0.32681039854385813 0 0.23278884832473909 -0.31718990752247161 0 0.23504274728007971 -0.34488928017919601 0 0.23278884832473909 -0.31718990752247161 0 0.23504274728007971 -0.34488928017919601 0 0.21194472367081749 -0.33113804846677469 0 0.23504274728007971 -0.34488928017919601 0 0.2163216045524515 -0.35381837877348138 0 0.21194472367081749 -0.33113804846677469 0 0.24552839760265069 -0.3692569783896959 0 0.22588730365107931 -0.3691862870278616 0 0.2387502397718638 -0.3853407040167327 0 0.24552839760265069 -0.3692569783896959 0 0.23504274728007971 -0.34488928017919601 0 0.22588730365107931 -0.3691862870278616 0 0.24552839760265069 -0.3692569783896959 0 0.23504274728007971 -0.34488928017919601 0 0.26468000253701252 -0.3465759759796197 0 0.24552839760265069 -0.3692569783896959 0 0.23504274728007971 -0.34488928017919601 0 0.23504274728007971 -0.34488928017919601 0 0.22588730365107931 -0.3691862870278616 0 0.2163216045524515 -0.35381837877348138 0 0.22588730365107931 -0.3691862870278616 0 0.2163216045524515 -0.35381837877348138 0 0.1983662921195862 -0.37568044527636768 0 0.2163216045524515 -0.35381837877348138 0 0.1983662921195862 -0.37568044527636768 0 0.2163216045524515 -0.35381837877348138 0 0.19014900216136729 -0.35062720492289151 0 0.21194472367081749 -0.33113804846677469 0 0.19014900216136729 -0.35062720492289151 0 0.17408645773899481 -0.3740438015515945 0 0.1983662921195862 -0.37568044527636768 0 0.2163216045524515 -0.35381837877348138 0 0.19014900216136729 -0.35062720492289151 0 0.1983662921195862 -0.37568044527636768 0 0.2082988768596421 -0.30560187095326302 0 0.23278884832473909 -0.31718990752247161 0 0.21194472367081749 -0.33113804846677469 0 0.19014900216136729 -0.35062720492289151 0 0.21194472367081749 -0.33113804846677469 0 0.18711544907196809 -0.32290093688731691 0 0.2082988768596421 -0.30560187095326302 0 0.21194472367081749 -0.33113804846677469 0 0.18711544907196809 -0.32290093688731691 0 0.2082988768596421 -0.30560187095326302 0 0.18711544907196809 -0.32290093688731691 0 0.18711544907196809 -0.32290093688731691 0 0.1659320212842941 -0.34020000282137081 0 0.163119153459897 -0.31529679902311591 0 0.18711544907196809 -0.32290093688731691 0 0.163119153459897 -0.31529679902311591 0 0.18383251822323959 -0.30027334495282809 0 0.19014900216136729 -0.35062720492289151 0 0.18711544907196809 -0.32290093688731691 0 0.1659320212842941 -0.34020000282137081 0 0.18711544907196809 -0.32290093688731691 0 0.1659320212842941 -0.34020000282137081 0 0.1659320212842941 -0.34020000282137081 0 0.163119153459897 -0.31529679902311591 0 0.1404087363193198 -0.33063701150748709 0 0.19014900216136729 -0.35062720492289151 0 0.17408645773899481 -0.3740438015515945 0 0.1720599116813438 -0.35678621288041051 0 0.19014900216136729 -0.35062720492289151 0 0.1659320212842941 -0.34020000282137081 0 0.1720599116813438 -0.35678621288041051 0 0.1659320212842941 -0.34020000282137081 0 0.1720599116813438 -0.35678621288041051 0 0.1580721655407191 -0.3622738422257854 0 0.17408645773899481 -0.3740438015515945 0 0.1720599116813438 -0.35678621288041051 0 0.1580721655407191 -0.3622738422257854 0 0.17408645773899481 -0.3740438015515945 0 0.1580721655407191 -0.3622738422257854 0 0.15161046301789219 -0.38170318753044291 0 0.1580721655407191 -0.3622738422257854 0 0.14147828577661811 -0.35117217678518331 0 0.13907571647812969 -0.36854319830784998 0 0.1580721655407191 -0.3622738422257854 0 0.13907571647812969 -0.36854319830784998 0 0.15161046301789219 -0.38170318753044291 0 0.1659320212842941 -0.34020000282137081 0 0.1580721655407191 -0.3622738422257854 0 0.14147828577661811 -0.35117217678518331 0 0.14147828577661811 -0.35117217678518331 0 0.13907571647812969 -0.36854319830784998 0 0.1230620795913069 -0.35557166430096671 0 0.14147828577661811 -0.35117217678518331 0 0.1207174637221239 -0.33838200636687971 0 0.1230620795913069 -0.35557166430096671 0 0.13907571647812969 -0.36854319830784998 0 0.1209336145951696 -0.37269034565107928 0 0.1230620795913069 -0.35557166430096671 0 0.163119153459897 -0.31529679902311591 0 0.1404087363193198 -0.33063701150748709 0 0.1399680607410019 -0.30639806644161738 0 0.1659320212842941 -0.34020000282137081 0 0.14147828577661811 -0.35117217678518331 0 0.1404087363193198 -0.33063701150748709 0 0.14147828577661811 -0.35117217678518331 0 0.1404087363193198 -0.33063701150748709 0 0.1207174637221239 -0.33838200636687971 0 0.1404087363193198 -0.33063701150748709 0 0.1180897302925776 -0.32117220179731237 0 0.1207174637221239 -0.33838200636687971 0 0.1404087363193198 -0.33063701150748709 0 0.1399680607410019 -0.30639806644161738 0 0.1180897302925776 -0.32117220179731237 0 0.1399680607410019 -0.30639806644161738 0 0.1180897302925776 -0.32117220179731237 0 0.163119153459897 -0.31529679902311591 0 0.1399680607410019 -0.30639806644161738 0 0.1618463911894262 -0.29162393108592233 0 0.1399680607410019 -0.30639806644161738 0 0.1618463911894262 -0.29162393108592233 0 0.1399680607410019 -0.30639806644161738 0 0.1338431130689236 -0.28347936096102522 0 0.1618463911894262 -0.29162393108592233 0 0.1399680607410019 -0.30639806644161738 0 0.1338431130689236 -0.28347936096102522 0 0.1124825677787389 -0.29901296542885808 0 0.1338431130689236 -0.28347936096102522 0 0.13414588734082231 -0.26712743203313222 0 0.1165437830558446 -0.26724620889525552 0 0.1338431130689236 -0.28347936096102522 0 0.13414588734082231 -0.26712743203313222 0 0.15173653725131131 -0.26790350092310239 0 0.13414588734082231 -0.26712743203313222 0 0.15173653725131131 -0.26790350092310239 0 0.1344601159872095 -0.24988065735314571 0 0.13414588734082231 -0.26712743203313222 0 0.1165437830558446 -0.26724620889525552 0 0.1344601159872095 -0.24988065735314571 0 0.15173653725131131 -0.26790350092310239 0 0.15911073340868501 -0.24074124695522001 0 0.1344601159872095 -0.24988065735314571 0 0.1338431130689236 -0.28347936096102522 0 0.15173653725131131 -0.26790350092310239 0 0.1618463911894262 -0.29162393108592233 0 0.15173653725131131 -0.26790350092310239 0 0.17231961729408829 -0.25765912609673708 0 0.18372472163785061 -0.27684979573022722 0 0.15173653725131131 -0.26790350092310239 0 0.18372472163785061 -0.27684979573022722 0 0.1618463911894262 -0.29162393108592233 0 0.15173653725131131 -0.26790350092310239 0 0.17231961729408829 -0.25765912609673708 0 0.15911073340868501 -0.24074124695522001 0 0.19046353696179549 -0.25907172837192899 0 0.17231961729408829 -0.25765912609673708 0 0.18372472163785061 -0.27684979573022722 0 0.19046353696179549 -0.25907172837192899 0 0.17231961729408829 -0.25765912609673708 0 0.18307796178796171 -0.24223340020790701 0 0.18372472163785061 -0.27684979573022722 0 0.18383251822323959 -0.30027334495282809 0 0.1618463911894262 -0.29162393108592233 0 0.18372472163785061 -0.27684979573022722 0 0.1618463911894262 -0.29162393108592233 0 0.163119153459897 -0.31529679902311591 0 0.18383251822323959 -0.30027334495282809 0 0.1618463911894262 -0.29162393108592233 0 0.20528007586867769 -0.47668258217227077 0 0.21392028328106991 -0.5 0 0.1846309268139289 -0.5 0 0.20528007586867769 -0.47668258217227077 0 0.17787940775918301 -0.47076326918415018 0 0.1846309268139289 -0.5 0 0.20528007586867769 -0.47668258217227077 0 0.21392028328106991 -0.5 0 0.22767023183989199 -0.47844912998791228 0 0.21392028328106991 -0.5 0 0.23957145808815161 -0.4876140033524396 0 0.24320963974821061 -0.5 0 0.21392028328106991 -0.5 0 0.23957145808815161 -0.4876140033524396 0 0.22767023183989199 -0.47844912998791228 0 0.25047316808524012 -0.49452790224411858 0 0.23957145808815161 -0.4876140033524396 0 0.24320963974821061 -0.5 0 0.25581534480609192 -0.46901605976631089 0 0.25047316808524012 -0.49452790224411858 0 0.23957145808815161 -0.4876140033524396 0 0.25581534480609192 -0.46901605976631089 0 0.23957145808815161 -0.4876140033524396 0 0.22767023183989199 -0.47844912998791228 0 0.20528007586867769 -0.47668258217227077 0 0.22767023183989199 -0.47844912998791228 0 0.2276735384278101 -0.45697781238384427 0 0.25581534480609192 -0.46901605976631089 0 0.2276735384278101 -0.45697781238384427 0 0.24335354226974559 -0.44340136313605172 0 0.25581534480609192 -0.46901605976631089 0 0.22767023183989199 -0.47844912998791228 0 0.2276735384278101 -0.45697781238384427 0 0.2276735384278101 -0.45697781238384427 0 0.24335354226974559 -0.44340136313605172 0 0.22193272642118181 -0.43704729377128571 0 0.24335354226974559 -0.44340136313605172 0 0.22193272642118181 -0.43704729377128571 0 0.1999060670901826 -0.45390528147771808 0 0.19447635234266269 -0.42890289317360158 0 0.22193272642118181 -0.43704729377128571 0 0.1999060670901826 -0.45390528147771808 0 0.22193272642118181 -0.43704729377128571 0 0.2276735384278101 -0.45697781238384427 0 0.1999060670901826 -0.45390528147771808 0 0.22193272642118181 -0.43704729377128571 0 0.20528007586867769 -0.47668258217227077 0 0.2276735384278101 -0.45697781238384427 0 0.1999060670901826 -0.45390528147771808 0 0.1999060670901826 -0.45390528147771808 0 0.17787940775918301 -0.47076326918415018 0 0.20528007586867769 -0.47668258217227077 0 0.1999060670901826 -0.45390528147771808 0 0.17787940775918301 -0.47076326918415018 0 0.1999060670901826 -0.45390528147771808 0 0.19447635234266269 -0.42890289317360158 0 0.18075728164609381 -0.43635617335593663 0 0.20022978123536661 -0.41263088266359987 0 0.2032163531412772 -0.39767412121310408 0 0.1851181657027102 -0.40921630689451183 0 0.19447635234266269 -0.42890289317360158 0 0.20022978123536661 -0.41263088266359987 0 0.1851181657027102 -0.40921630689451183 0 0.20022978123536661 -0.41263088266359987 0 0.21810825375481641 -0.41473020937318178 0 0.2032163531412772 -0.39767412121310408 0 0.19447635234266269 -0.42890289317360158 0 0.20022978123536661 -0.41263088266359987 0 0.21810825375481641 -0.41473020937318178 0 0.19447635234266269 -0.42890289317360158 0 0.21810825375481641 -0.41473020937318178 0 0.22193272642118181 -0.43704729377128571 0 0.19447635234266269 -0.42890289317360158 0 0.22193272642118181 -0.43704729377128571 0 0.22193272642118181 -0.43704729377128571 0 0.23865133771786581 -0.42425179267087848 0 0.21810825375481641 -0.41473020937318178 0 0.22193272642118181 -0.43704729377128571 0 0.23865133771786581 -0.42425179267087848 0 0.24335354226974559 -0.44340136313605172 0 0.22193272642118181 -0.43704729377128571 0 0.23865133771786581 -0.42425179267087848 0 0.25403880547257279 -0.42900438916523959 0 0.24335354226974559 -0.44340136313605172 0 0.23865133771786581 -0.42425179267087848 0 0.25373244854488552 -0.42047044782778947 0 0.25403880547257279 -0.42900438916523959 0 0.23865133771786581 -0.42425179267087848 0 0.25057671986697272 -0.41222936371469482 0 0.23865133771786581 -0.42425179267087848 0 0.2361559311271425 -0.40250495478226939 0 0.25373244854488552 -0.42047044782778947 0 0.25057671986697272 -0.41222936371469482 0 0.23865133771786581 -0.42425179267087848 0 0.21810825375481641 -0.41473020937318178 0 0.23865133771786581 -0.42425179267087848 0 0.2361559311271425 -0.40250495478226939 0 0.2361559311271425 -0.40250495478226939 0 0.2387502397718638 -0.3853407040167327 0 0.22131454057984429 -0.38613193553169628 0 0.21810825375481641 -0.41473020937318178 0 0.2361559311271425 -0.40250495478226939 0 0.22131454057984429 -0.38613193553169628 0 0.25601404792522159 -0.39362467660019579 0 0.25057671986697272 -0.41222936371469482 0 0.2361559311271425 -0.40250495478226939 0 0.25601404792522159 -0.39362467660019579 0 0.2361559311271425 -0.40250495478226939 0 0.2387502397718638 -0.3853407040167327 0 0.25601404792522159 -0.39362467660019579 0 0.24552839760265069 -0.3692569783896959 0 0.2387502397718638 -0.3853407040167327 0 0.22588730365107931 -0.3691862870278616 0 0.2387502397718638 -0.3853407040167327 0 0.22131454057984429 -0.38613193553169628 0 0.22588730365107931 -0.3691862870278616 0 0.22131454057984429 -0.38613193553169628 0 0.1983662921195862 -0.37568044527636768 0 0.22131454057984429 -0.38613193553169628 0 0.2032163531412772 -0.39767412121310408 0 0.1983662921195862 -0.37568044527636768 0 0.21810825375481641 -0.41473020937318178 0 0.22131454057984429 -0.38613193553169628 0 0.2032163531412772 -0.39767412121310408 0 0.22131454057984429 -0.38613193553169628 0 0.2032163531412772 -0.39767412121310408 0 0.2032163531412772 -0.39767412121310408 0 0.18041097968672079 -0.39754251177925398 0 0.1851181657027102 -0.40921630689451183 0 0.2032163531412772 -0.39767412121310408 0 0.1851181657027102 -0.40921630689451183 0 0.1983662921195862 -0.37568044527636768 0 0.18041097968672079 -0.39754251177925398 0 0.2032163531412772 -0.39767412121310408 0 0.1983662921195862 -0.37568044527636768 0 0.18041097968672079 -0.39754251177925398 0 0.17408645773899481 -0.3740438015515945 0 0.1983662921195862 -0.37568044527636768 0 0.18041097968672079 -0.39754251177925398 0 0.17408645773899481 -0.3740438015515945 0 0.18041097968672079 -0.39754251177925398 0 0.1678759573385398 -0.38883216256615388 0 0.18041097968672079 -0.39754251177925398 0 0.17039437937139801 -0.39787575716942492 0 0.1663970295603007 -0.40478435943182189 0 0.18041097968672079 -0.39754251177925398 0 0.17039437937139801 -0.39787575716942492 0 0.1678759573385398 -0.38883216256615388 0 0.17039437937139801 -0.39787575716942492 0 0.1613850000008433 -0.39953330201373838 0 0.1678759573385398 -0.38883216256615388 0 0.17039437937139801 -0.39787575716942492 0 0.1663970295603007 -0.40478435943182189 0 0.1613850000008433 -0.39953330201373838 0 0.1663970295603007 -0.40478435943182189 0 0.1613850000008433 -0.39953330201373838 0 0.1573391214886849 -0.40956564791455102 0 0.1613850000008433 -0.39953330201373838 0 0.15240872858856089 -0.40277400008919179 0 0.1573391214886849 -0.40956564791455102 0 0.1613850000008433 -0.39953330201373838 0 0.1678759573385398 -0.38883216256615388 0 0.15462357214282499 -0.39352529377317569 0 0.1678759573385398 -0.38883216256615388 0 0.15161046301789219 -0.38170318753044291 0 0.15462357214282499 -0.39352529377317569 0 0.17408645773899481 -0.3740438015515945 0 0.1678759573385398 -0.38883216256615388 0 0.15161046301789219 -0.38170318753044291 0 0.13907571647812969 -0.36854319830784998 0 0.15161046301789219 -0.38170318753044291 0 0.13307039381468269 -0.38436813467012287 0 0.15161046301789219 -0.38170318753044291 0 0.13307039381468269 -0.38436813467012287 0 0.14255298264109931 -0.3977708000245006 0 0.13907571647812969 -0.36854319830784998 0 0.13307039381468269 -0.38436813467012287 0 0.1209336145951696 -0.37269034565107928 0 0.14255298264109931 -0.3977708000245006 0 0.13382513298595089 -0.41050080250231269 0 0.1249994716751696 -0.40014292684677571 0 0.13307039381468269 -0.38436813467012287 0 0.14255298264109931 -0.3977708000245006 0 0.1249994716751696 -0.40014292684677571 0 0.14255298264109931 -0.3977708000245006 0 0.15240872858856089 -0.40277400008919179 0 0.14750060210575711 -0.41496844839906799 0 0.15161046301789219 -0.38170318753044291 0 0.14255298264109931 -0.3977708000245006 0 0.15462357214282499 -0.39352529377317569 0 0.14255298264109931 -0.3977708000245006 0 0.15462357214282499 -0.39352529377317569 0 0.15240872858856089 -0.40277400008919179 0 0.1613850000008433 -0.39953330201373838 0 0.15462357214282499 -0.39352529377317569 0 0.15240872858856089 -0.40277400008919179 0 0.15240872858856089 -0.40277400008919179 0 0.14750060210575711 -0.41496844839906799 0 0.1573391214886849 -0.40956564791455102 0 0.14255298264109931 -0.3977708000245006 0 0.14750060210575711 -0.41496844839906799 0 0.13382513298595089 -0.41050080250231269 0 0.14750060210575711 -0.41496844839906799 0 0.16245566725385649 -0.41940457828214123 0 0.14750060210575711 -0.41496844839906799 0 0.1507106917163149 -0.42467453522706322 0 0.16245566725385649 -0.41940457828214123 0 0.14750060210575711 -0.41496844839906799 0 0.16245566725385649 -0.41940457828214123 0 0.1573391214886849 -0.40956564791455102 0 0.13382513298595089 -0.41050080250231269 0 0.1340239380970108 -0.42629738995569078 0 0.12018061227712221 -0.41392425664623739 0 0.14750060210575711 -0.41496844839906799 0 0.13382513298595089 -0.41050080250231269 0 0.1340239380970108 -0.42629738995569078 0 0.13382513298595089 -0.41050080250231269 0 0.12018061227712221 -0.41392425664623739 0 0.1249994716751696 -0.40014292684677571 0 0.1340239380970108 -0.42629738995569078 0 0.14726030534962381 -0.4379061785036813 0 0.1244027353377859 -0.43980508899393428 0 0.1340239380970108 -0.42629738995569078 0 0.1244027353377859 -0.43980508899393428 0 0.1183138825244847 -0.42784248820866883 0 0.15564999718477571 -0.4276910401414511 0 0.15940615168859401 -0.44616165014557968 0 0.14726030534962381 -0.4379061785036813 0 0.1340239380970108 -0.42629738995569078 0 0.14562619215602229 -0.42641893572336259 0 0.14726030534962381 -0.4379061785036813 0 0.14750060210575711 -0.41496844839906799 0 0.14562619215602229 -0.42641893572336259 0 0.1507106917163149 -0.42467453522706322 0 0.14750060210575711 -0.41496844839906799 0 0.1340239380970108 -0.42629738995569078 0 0.14562619215602229 -0.42641893572336259 0 0.14562619215602229 -0.42641893572336259 0 0.1507106917163149 -0.42467453522706322 0 0.14726030534962381 -0.4379061785036813 0 0.1507106917163149 -0.42467453522706322 0 0.15564999718477571 -0.4276910401414511 0 0.14726030534962381 -0.4379061785036813 0 0.15564999718477571 -0.4276910401414511 0 0.14726030534962381 -0.4379061785036813 0 0.15564999718477571 -0.4276910401414511 0 0.16750756879565071 -0.43507647087771562 0 0.15940615168859401 -0.44616165014557968 0 0.16750756879565071 -0.43507647087771562 0 0.167019978264143 -0.42075849257591919 0 0.18075728164609381 -0.43635617335593663 0 0.15564999718477571 -0.4276910401414511 0 0.16750756879565071 -0.43507647087771562 0 0.167019978264143 -0.42075849257591919 0 0.15564999718477571 -0.4276910401414511 0 0.16245566725385649 -0.41940457828214123 0 0.15564999718477571 -0.4276910401414511 0 0.16245566725385649 -0.41940457828214123 0 0.167019978264143 -0.42075849257591919 0 0.15564999718477571 -0.4276910401414511 0 0.167019978264143 -0.42075849257591919 0 0.1507106917163149 -0.42467453522706322 0 0.15564999718477571 -0.4276910401414511 0 0.16245566725385649 -0.41940457828214123 0 0.18041097968672079 -0.39754251177925398 0 0.1663970295603007 -0.40478435943182189 0 0.16245566725385649 -0.41940457828214123 0 0.18041097968672079 -0.39754251177925398 0 0.16245566725385649 -0.41940457828214123 0 0.18041097968672079 -0.39754251177925398 0 0.16245566725385649 -0.41940457828214123 0 0.167019978264143 -0.42075849257591919 0 0.1663970295603007 -0.40478435943182189 0 0.16245566725385649 -0.41940457828214123 0 0.1573391214886849 -0.40956564791455102 0 0.16245566725385649 -0.41940457828214123 0 0.167019978264143 -0.42075849257591919 0 0.18041097968672079 -0.39754251177925398 0 0.167019978264143 -0.42075849257591919 0 0.1851181657027102 -0.40921630689451183 0 0.19447635234266269 -0.42890289317360158 0 0.167019978264143 -0.42075849257591919 0 0.1851181657027102 -0.40921630689451183 0 0.167019978264143 -0.42075849257591919 0 0.1851181657027102 -0.40921630689451183 0 0.19447635234266269 -0.42890289317360158 0 0.167019978264143 -0.42075849257591919 0 0.19447635234266269 -0.42890289317360158 0 0.167019978264143 -0.42075849257591919 0 0.18075728164609381 -0.43635617335593663 0 0.1999060670901826 -0.45390528147771808 0 0.18075728164609381 -0.43635617335593663 0 0.1736929147467402 -0.44972061749997838 0 0.16750756879565071 -0.43507647087771562 0 0.18075728164609381 -0.43635617335593663 0 0.1736929147467402 -0.44972061749997838 0 0.1999060670901826 -0.45390528147771808 0 0.1736929147467402 -0.44972061749997838 0 0.17787940775918301 -0.47076326918415018 0 0.1736929147467402 -0.44972061749997838 0 0.1560085840722846 -0.46044908972069881 0 0.17787940775918301 -0.47076326918415018 0 0.1736929147467402 -0.44972061749997838 0 0.15940615168859401 -0.44616165014557968 0 0.1560085840722846 -0.46044908972069881 0 0.16750756879565071 -0.43507647087771562 0 0.1736929147467402 -0.44972061749997838 0 0.15940615168859401 -0.44616165014557968 0 0.15940615168859401 -0.44616165014557968 0 0.14726030534962381 -0.4379061785036813 0 0.1560085840722846 -0.46044908972069881 0 0.14726030534962381 -0.4379061785036813 0 0.1320649434453921 -0.45640777872522231 0 0.1560085840722846 -0.46044908972069881 0 0.14726030534962381 -0.4379061785036813 0 0.1320649434453921 -0.45640777872522231 0 0.14726030534962381 -0.4379061785036813 0 0.1320649434453921 -0.45640777872522231 0 0.1244027353377859 -0.43980508899393428 0 0.1320649434453921 -0.45640777872522231 0 0.1560085840722846 -0.46044908972069881 0 0.1405824944173053 -0.47889401676158139 0 0.1560085840722846 -0.46044908972069881 0 0.1405824944173053 -0.47889401676158139 0 0.1628885966818979 -0.48202127513328608 0 0.1320649434453921 -0.45640777872522231 0 0.1405824944173053 -0.47889401676158139 0 0.11686958154116039 -0.47490937894676333 0 0.1405824944173053 -0.47889401676158139 0 0.1260522138796468 -0.5 0 0.11686958154116039 -0.47490937894676333 0 0.1405824944173053 -0.47889401676158139 0 0.15534157034678789 -0.5 0 0.1628885966818979 -0.48202127513328608 0 0.1405824944173053 -0.47889401676158139 0 0.1260522138796468 -0.5 0 0.15534157034678789 -0.5 0 0.15534157034678789 -0.5 0 0.1628885966818979 -0.48202127513328608 0 0.1846309268139289 -0.5 0 0.1560085840722846 -0.46044908972069881 0 0.1628885966818979 -0.48202127513328608 0 0.17787940775918301 -0.47076326918415018 0 0.1628885966818979 -0.48202127513328608 0 0.17787940775918301 -0.47076326918415018 0 0.1846309268139289 -0.5 0 0.067473500945364862 -0.5 0 0.073692270880849495 -0.47559735407258708 0 0.052572823915926131 -0.47230378516388932 0 0.073692270880849495 -0.47559735407258708 0 0.096762857412505787 -0.5 0 0.094964169561570388 -0.47167012123773477 0 0.067473500945364862 -0.5 0 0.073692270880849495 -0.47559735407258708 0 0.096762857412505787 -0.5 0 0.1260522138796468 -0.5 0 0.096762857412505787 -0.5 0 0.11686958154116039 -0.47490937894676333 0 0.096762857412505787 -0.5 0 0.11686958154116039 -0.47490937894676333 0 0.094964169561570388 -0.47167012123773477 0 0.11686958154116039 -0.47490937894676333 0 0.094964169561570388 -0.47167012123773477 0 0.10495276863735679 -0.4507188794292134 0 0.094964169561570388 -0.47167012123773477 0 0.10495276863735679 -0.4507188794292134 0 0.0825433693359795 -0.45712499374011029 0 0.1320649434453921 -0.45640777872522231 0 0.11686958154116039 -0.47490937894676333 0 0.10495276863735679 -0.4507188794292134 0 0.1320649434453921 -0.45640777872522231 0 0.11686958154116039 -0.47490937894676333 0 0.1320649434453921 -0.45640777872522231 0 0.1244027353377859 -0.43980508899393428 0 0.10495276863735679 -0.4507188794292134 0 0.1244027353377859 -0.43980508899393428 0 0.10495276863735679 -0.4507188794292134 0 0.1096002159956411 -0.43433369070279371 0 0.10495276863735679 -0.4507188794292134 0 0.09610647041903228 -0.43173431531885442 0 0.1096002159956411 -0.43433369070279371 0 0.10495276863735679 -0.4507188794292134 0 0.082122792753261425 -0.43942572309749262 0 0.09610647041903228 -0.43173431531885442 0 0.10495276863735679 -0.4507188794292134 0 0.082122792753261425 -0.43942572309749262 0 0.0825433693359795 -0.45712499374011029 0 0.073692270880849495 -0.47559735407258708 0 0.094964169561570388 -0.47167012123773477 0 0.0825433693359795 -0.45712499374011029 0 0.073692270880849495 -0.47559735407258708 0 0.06166576134957473 -0.45002130843917643 0 0.052572823915926131 -0.47230378516388932 0 0.073692270880849495 -0.47559735407258708 0 0.0825433693359795 -0.45712499374011029 0 0.06166576134957473 -0.45002130843917643 0 0.082122792753261425 -0.43942572309749262 0 0.0825433693359795 -0.45712499374011029 0 0.06166576134957473 -0.45002130843917643 0 0.082122792753261425 -0.43942572309749262 0 0.068160484233830324 -0.42993564404342582 0 0.06166576134957473 -0.45002130843917643 0 0.068350297495319526 -0.41444734961514412 0 0.08693774373590557 -0.41463980821473501 0 0.068091530647624299 -0.39846598520068438 0 0.068160484233830324 -0.42993564404342582 0 0.068350297495319526 -0.41444734961514412 0 0.08693774373590557 -0.41463980821473501 0 0.082122792753261425 -0.43942572309749262 0 0.08693774373590557 -0.41463980821473501 0 0.09610647041903228 -0.43173431531885442 0 0.082122792753261425 -0.43942572309749262 0 0.068160484233830324 -0.42993564404342582 0 0.08693774373590557 -0.41463980821473501 0 0.08693774373590557 -0.41463980821473501 0 0.09610647041903228 -0.43173431531885442 0 0.1048210324428296 -0.42158890666865839 0 0.09610647041903228 -0.43173431531885442 0 0.1096002159956411 -0.43433369070279371 0 0.1048210324428296 -0.42158890666865839 0 0.1340239380970108 -0.42629738995569078 0 0.1183138825244847 -0.42784248820866883 0 0.12018061227712221 -0.41392425664623739 0 0.1096002159956411 -0.43433369070279371 0 0.1183138825244847 -0.42784248820866883 0 0.1048210324428296 -0.42158890666865839 0 0.1244027353377859 -0.43980508899393428 0 0.1096002159956411 -0.43433369070279371 0 0.1183138825244847 -0.42784248820866883 0 0.12018061227712221 -0.41392425664623739 0 0.10794558136602191 -0.40742076047702458 0 0.1249994716751696 -0.40014292684677571 0 0.1183138825244847 -0.42784248820866883 0 0.12018061227712221 -0.41392425664623739 0 0.1048210324428296 -0.42158890666865839 0 0.12018061227712221 -0.41392425664623739 0 0.10794558136602191 -0.40742076047702458 0 0.1048210324428296 -0.42158890666865839 0 0.08693774373590557 -0.41463980821473501 0 0.10794558136602191 -0.40742076047702458 0 0.1048210324428296 -0.42158890666865839 0 0.08693774373590557 -0.41463980821473501 0 0.10794558136602191 -0.40742076047702458 0 0.10071941610261941 -0.39086433545939159 0 0.10794558136602191 -0.40742076047702458 0 0.10071941610261941 -0.39086433545939159 0 0.11557729376244701 -0.38818151787455007 0 0.13307039381468269 -0.38436813467012287 0 0.1249994716751696 -0.40014292684677571 0 0.11557729376244701 -0.38818151787455007 0 0.10794558136602191 -0.40742076047702458 0 0.1249994716751696 -0.40014292684677571 0 0.11557729376244701 -0.38818151787455007 0 0.11557729376244701 -0.38818151787455007 0 0.1051487440255557 -0.37705873079506907 0 0.1209336145951696 -0.37269034565107928 0 0.13307039381468269 -0.38436813467012287 0 0.11557729376244701 -0.38818151787455007 0 0.1209336145951696 -0.37269034565107928 0 0.10071941610261941 -0.39086433545939159 0 0.11557729376244701 -0.38818151787455007 0 0.1051487440255557 -0.37705873079506907 0 0.10071941610261941 -0.39086433545939159 0 0.1051487440255557 -0.37705873079506907 0 0.091916930331942828 -0.38114652329977639 0 0.1051487440255557 -0.37705873079506907 0 0.091916930331942828 -0.38114652329977639 0 0.091422141580256133 -0.36859951692407611 0 0.091916930331942828 -0.38114652329977639 0 0.078125224382919814 -0.37817683789068252 0 0.084589752953847117 -0.39541243547371369 0 0.091916930331942828 -0.38114652329977639 0 0.078125224382919814 -0.37817683789068252 0 0.091422141580256133 -0.36859951692407611 0 0.10071941610261941 -0.39086433545939159 0 0.091916930331942828 -0.38114652329977639 0 0.084589752953847117 -0.39541243547371369 0 0.08693774373590557 -0.41463980821473501 0 0.10071941610261941 -0.39086433545939159 0 0.084589752953847117 -0.39541243547371369 0 0.08693774373590557 -0.41463980821473501 0 0.084589752953847117 -0.39541243547371369 0 0.068091530647624299 -0.39846598520068438 0 0.078125224382919814 -0.37817683789068252 0 0.084589752953847117 -0.39541243547371369 0 0.068091530647624299 -0.39846598520068438 0 0.078125224382919814 -0.37817683789068252 0 0.068091530647624299 -0.39846598520068438 0 0.055829168339385123 -0.37563697215921871 0 0.068091530647624299 -0.39846598520068438 0 0.055829168339385123 -0.37563697215921871 0 0.04960520903696769 -0.39377343294827971 0 0.068091530647624299 -0.39846598520068438 0 0.04960520903696769 -0.39377343294827971 0 0.050211431363917897 -0.41474796100173089 0 0.04960520903696769 -0.39377343294827971 0 0.036711596780974458 -0.4023515912035831 0 0.034237674179483632 -0.38061043857941818 0 0.04960520903696769 -0.39377343294827971 0 0.036711596780974458 -0.4023515912035831 0 0.050211431363917897 -0.41474796100173089 0 0.055829168339385123 -0.37563697215921871 0 0.04960520903696769 -0.39377343294827971 0 0.034237674179483632 -0.38061043857941818 0 0.034237674179483632 -0.38061043857941818 0 0.01038429148081218 -0.38102584029784259 0 0.026595973839925749 -0.36562955813642789 0 0.034237674179483632 -0.38061043857941818 0 0.01038429148081218 -0.38102584029784259 0 0.034237674179483632 -0.38061043857941818 0 0.01038429148081218 -0.38102584029784259 0 0.02257520490341778 -0.3959904171437999 0 -0.01120363266560867 -0.38140178952487519 0 0.01038429148081218 -0.38102584029784259 0 0.0040705514187503629 -0.37047854953713238 0 -0.01120363266560867 -0.38140178952487519 0 0.01038429148081218 -0.38102584029784259 0 0.0038407065935028052 -0.40495343468598799 0 0.01038429148081218 -0.38102584029784259 0 0.0038407065935028052 -0.40495343468598799 0 0.01038429148081218 -0.38102584029784259 0 0.0038407065935028052 -0.40495343468598799 0 0.02257520490341778 -0.3959904171437999 0 0.036711596780974458 -0.4023515912035831 0 0.02257520490341778 -0.3959904171437999 0 0.026095589377715181 -0.41496839973967031 0 0.0038407065935028052 -0.40495343468598799 0 0.02257520490341778 -0.3959904171437999 0 0.026095589377715181 -0.41496839973967031 0 0.036711596780974458 -0.4023515912035831 0 0.034237674179483632 -0.38061043857941818 0 0.02257520490341778 -0.3959904171437999 0 -0.00270287829380995 -0.42888102907413228 0 0.0038407065935028052 -0.40495343468598799 0 0.0038407065935028052 -0.40495343468598799 0 0.026095589377715181 -0.41496839973967031 0 0.01180803773718256 -0.42215589113212693 0 -0.00270287829380995 -0.42888102907413228 0 0.0038407065935028052 -0.40495343468598799 0 0.01180803773718256 -0.42215589113212693 0 -0.00270287829380995 -0.42888102907413228 0 0.01180803773718256 -0.42215589113212693 0 0.01655231494745665 -0.43742959396246889 0 -0.00270287829380995 -0.42888102907413228 0 0.01655231494745665 -0.43742959396246889 0 -0.00270287829380995 -0.42888102907413228 0 -0.0053001685674761642 -0.43837840845361947 0 0.01655231494745665 -0.43742959396246889 0 0.01180803773718256 -0.42215589113212693 0 0.01655231494745665 -0.43742959396246889 0 0.032700349639989752 -0.42992557391395098 0 0.026095589377715181 -0.41496839973967031 0 0.01180803773718256 -0.42215589113212693 0 0.032700349639989752 -0.42992557391395098 0 0.032700349639989752 -0.42992557391395098 0 0.049122874164864758 -0.43256488514167868 0 0.0358075081887234 -0.445978158850805 0 0.032700349639989752 -0.42992557391395098 0 0.050211431363917897 -0.41474796100173089 0 0.049122874164864758 -0.43256488514167868 0 0.036711596780974458 -0.4023515912035831 0 0.026095589377715181 -0.41496839973967031 0 0.050211431363917897 -0.41474796100173089 0 0.026095589377715181 -0.41496839973967031 0 0.032700349639989752 -0.42992557391395098 0 0.050211431363917897 -0.41474796100173089 0 0.068350297495319526 -0.41444734961514412 0 0.068091530647624299 -0.39846598520068438 0 0.050211431363917897 -0.41474796100173089 0 0.068160484233830324 -0.42993564404342582 0 0.068350297495319526 -0.41444734961514412 0 0.050211431363917897 -0.41474796100173089 0 0.068160484233830324 -0.42993564404342582 0 0.050211431363917897 -0.41474796100173089 0 0.049122874164864758 -0.43256488514167868 0 0.068160484233830324 -0.42993564404342582 0 0.049122874164864758 -0.43256488514167868 0 0.06166576134957473 -0.45002130843917643 0 0.049122874164864758 -0.43256488514167868 0 0.06166576134957473 -0.45002130843917643 0 0.0358075081887234 -0.445978158850805 0 0.06166576134957473 -0.45002130843917643 0 0.0358075081887234 -0.445978158850805 0 0.052572823915926131 -0.47230378516388932 0 0.0358075081887234 -0.445978158850805 0 0.0299352382487287 -0.46821913647164282 0 0.052572823915926131 -0.47230378516388932 0 0.01655231494745665 -0.43742959396246889 0 0.0358075081887234 -0.445978158850805 0 0.019807651137160352 -0.45347489039890893 0 0.01655231494745665 -0.43742959396246889 0 0.032700349639989752 -0.42992557391395098 0 0.0358075081887234 -0.445978158850805 0 0.01655231494745665 -0.43742959396246889 0 0.0358075081887234 -0.445978158850805 0 0.01655231494745665 -0.43742959396246889 0 0.0063353841764966848 -0.45003473940183408 0 0.019807651137160352 -0.45347489039890893 0 -0.0053001685674761642 -0.43837840845361947 0 0.01655231494745665 -0.43742959396246889 0 0.0063353841764966848 -0.45003473940183408 0 -0.0054394056822531546 -0.45119739893176541 0 0.0063353841764966848 -0.45003473940183408 0 0.0060844971887766388 -0.46422223847203981 0 0.0063353841764966848 -0.45003473940183408 0 0.0060844971887766388 -0.46422223847203981 0 0.019807651137160352 -0.45347489039890893 0 0.0060844971887766388 -0.46422223847203981 0 0.0299352382487287 -0.46821913647164282 0 0.019807651137160352 -0.45347489039890893 0 0.0358075081887234 -0.445978158850805 0 0.0299352382487287 -0.46821913647164282 0 0.019807651137160352 -0.45347489039890893 0 0.0060844971887766388 -0.46422223847203981 0 0.0299352382487287 -0.46821913647164282 0 0.016159290622234 -0.48286779163828403 0 0.0299352382487287 -0.46821913647164282 0 0.016159290622234 -0.48286779163828403 0 0.038184144478223818 -0.5 0 -0.0065694574394461226 -0.48089979927036353 0 0.0060844971887766388 -0.46422223847203981 0 0.016159290622234 -0.48286779163828403 0 -0.0065694574394461226 -0.48089979927036353 0 0.016159290622234 -0.48286779163828403 0 0.0088947880110828992 -0.5 0 0.016159290622234 -0.48286779163828403 0 0.0088947880110828992 -0.5 0 0.038184144478223818 -0.5 0 0.0299352382487287 -0.46821913647164282 0 0.038184144478223818 -0.5 0 0.052572823915926131 -0.47230378516388932 0 0.067473500945364862 -0.5 0 0.038184144478223818 -0.5 0 0.052572823915926131 -0.47230378516388932 0 0.080058786655407457 -0.28347023957114909 0 0.088879934076627268 -0.29791687588765609 0 0.06945854773601591 -0.29876276445469002 0 0.080058786655407457 -0.28347023957114909 0 0.088879934076627268 -0.29791687588765609 0 0.095976303507599114 -0.28327754298048108 0 0.088879934076627268 -0.29791687588765609 0 0.06945854773601591 -0.29876276445469002 0 0.077699166607213987 -0.31296979370649192 0 0.088879934076627268 -0.29791687588765609 0 0.097522465944822501 -0.31154577335541478 0 0.077699166607213987 -0.31296979370649192 0 0.06945854773601591 -0.29876276445469002 0 0.077699166607213987 -0.31296979370649192 0 0.059641169008687489 -0.31112985240413121 0 0.080058786655407457 -0.28347023957114909 0 0.06945854773601591 -0.29876276445469002 0 0.065796107195033177 -0.28326172077322898 0 0.063697655715071036 -0.28126126688601422 0 0.07527313627653627 -0.263541212757674 0 0.063697655715071036 -0.28126126688601422 0 0.065796107195033177 -0.28326172077322898 0 0.079470039236460094 -0.26754212053210341 0 0.080058786655407457 -0.28347023957114909 0 0.065796107195033177 -0.28326172077322898 0 0.079470039236460094 -0.26754212053210341 0 0.065796107195033177 -0.28326172077322898 0 0.079470039236460094 -0.26754212053210341 0 0.063697655715071036 -0.28126126688601422 0 0.07527313627653627 -0.263541212757674 0 0.058448210932833013 -0.26016493281577291 0 0.063697655715071036 -0.28126126688601422 0 0.07527313627653627 -0.263541212757674 0 0.079470039236460094 -0.26754212053210341 0 0.062703829693701724 -0.25155889224497552 0 0.07527313627653627 -0.263541212757674 0 0.058448210932833013 -0.26016493281577291 0 0.062703829693701724 -0.25155889224497552 0 0.07527313627653627 -0.263541212757674 0 0.062703829693701724 -0.25155889224497552 0 0.072425152732143602 -0.25407128194192807 0 0.069827896770367659 -0.24778188081304081 0 0.062703829693701724 -0.25155889224497552 0 0.07527313627653627 -0.263541212757674 0 0.072425152732143602 -0.25407128194192807 0 0.07527313627653627 -0.263541212757674 0 0.079470039236460094 -0.26754212053210341 0 0.082106329601115816 -0.25289773034424001 0 0.069827896770367659 -0.24778188081304081 0 0.07527313627653627 -0.263541212757674 0 0.072425152732143602 -0.25407128194192807 0 0.082106329601115816 -0.25289773034424001 0 0.072425152732143602 -0.25407128194192807 0 0.082106329601115816 -0.25289773034424001 0 0.069827896770367659 -0.24778188081304081 0 0.082106329601115816 -0.25289773034424001 0 0.089521270429868349 -0.25598718989380459 0 0.07527313627653627 -0.263541212757674 0 0.082106329601115816 -0.25289773034424001 0 0.079470039236460094 -0.26754212053210341 0 0.07527313627653627 -0.263541212757674 0 0.082106329601115816 -0.25289773034424001 0 0.082106329601115816 -0.25289773034424001 0 0.089521270429868349 -0.25598718989380459 0 0.079470039236460094 -0.26754212053210341 0 0.089521270429868349 -0.25598718989380459 0 0.079470039236460094 -0.26754212053210341 0 0.089521270429868349 -0.25598718989380459 0 0.079470039236460094 -0.26754212053210341 0 0.093371167110119543 -0.26948515381637511 0 0.082106329601115816 -0.25289773034424001 0 0.089521270429868349 -0.25598718989380459 0 0.086345783183869929 -0.2434909715332195 0 0.079470039236460094 -0.26754212053210341 0 0.095976303507599114 -0.28327754298048108 0 0.079470039236460094 -0.26754212053210341 0 0.093371167110119543 -0.26948515381637511 0 0.095976303507599114 -0.28327754298048108 0 0.080058786655407457 -0.28347023957114909 0 0.079470039236460094 -0.26754212053210341 0 0.095976303507599114 -0.28327754298048108 0 0.093371167110119543 -0.26948515381637511 0 0.1165437830558446 -0.26724620889525552 0 0.095976303507599114 -0.28327754298048108 0 0.089521270429868349 -0.25598718989380459 0 0.093371167110119543 -0.26948515381637511 0 0.1165437830558446 -0.26724620889525552 0 0.089521270429868349 -0.25598718989380459 0 0.1133900508394201 -0.25028864100839737 0 0.1165437830558446 -0.26724620889525552 0 0.089521270429868349 -0.25598718989380459 0 0.1165437830558446 -0.26724620889525552 0 0.1133900508394201 -0.25028864100839737 0 0.1165437830558446 -0.26724620889525552 0 0.1344601159872095 -0.24988065735314571 0 0.1165437830558446 -0.26724620889525552 0 0.095976303507599114 -0.28327754298048108 0 0.1124825677787389 -0.29901296542885808 0 0.1338431130689236 -0.28347936096102522 0 0.1165437830558446 -0.26724620889525552 0 0.1124825677787389 -0.29901296542885808 0 0.095976303507599114 -0.28327754298048108 0 0.1124825677787389 -0.29901296542885808 0 0.088879934076627268 -0.29791687588765609 0 0.095976303507599114 -0.28327754298048108 0 0.1124825677787389 -0.29901296542885808 0 0.088879934076627268 -0.29791687588765609 0 0.097522465944822501 -0.31154577335541478 0 0.1124825677787389 -0.29901296542885808 0 0.097522465944822501 -0.31154577335541478 0 0.1124825677787389 -0.29901296542885808 0 0.1180897302925776 -0.32117220179731237 0 0.1399680607410019 -0.30639806644161738 0 0.1124825677787389 -0.29901296542885808 0 0.1180897302925776 -0.32117220179731237 0 0.1180897302925776 -0.32117220179731237 0 0.1207174637221239 -0.33838200636687971 0 0.09439635882306624 -0.32906017212574379 0 0.1207174637221239 -0.33838200636687971 0 0.09439635882306624 -0.32906017212574379 0 0.10628314115335109 -0.34731054807677042 0 0.09439635882306624 -0.32906017212574379 0 0.10628314115335109 -0.34731054807677042 0 0.091021567592861674 -0.35276355210482951 0 0.097522465944822501 -0.31154577335541478 0 0.1180897302925776 -0.32117220179731237 0 0.09439635882306624 -0.32906017212574379 0 0.1209336145951696 -0.37269034565107928 0 0.1230620795913069 -0.35557166430096671 0 0.1074829720125477 -0.36217527705029962 0 0.1051487440255557 -0.37705873079506907 0 0.1209336145951696 -0.37269034565107928 0 0.1074829720125477 -0.36217527705029962 0 0.1230620795913069 -0.35557166430096671 0 0.10628314115335109 -0.34731054807677042 0 0.1074829720125477 -0.36217527705029962 0 0.1207174637221239 -0.33838200636687971 0 0.1230620795913069 -0.35557166430096671 0 0.10628314115335109 -0.34731054807677042 0 0.10628314115335109 -0.34731054807677042 0 0.1074829720125477 -0.36217527705029962 0 0.091021567592861674 -0.35276355210482951 0 0.1074829720125477 -0.36217527705029962 0 0.091422141580256133 -0.36859951692407611 0 0.091021567592861674 -0.35276355210482951 0 0.1051487440255557 -0.37705873079506907 0 0.1074829720125477 -0.36217527705029962 0 0.091422141580256133 -0.36859951692407611 0 0.078125224382919814 -0.37817683789068252 0 0.091422141580256133 -0.36859951692407611 0 0.07151669302989129 -0.36017112462756262 0 0.091422141580256133 -0.36859951692407611 0 0.091021567592861674 -0.35276355210482951 0 0.07151669302989129 -0.36017112462756262 0 0.091021567592861674 -0.35276355210482951 0 0.07151669302989129 -0.36017112462756262 0 0.077888335855026095 -0.34326781071236478 0 0.07151669302989129 -0.36017112462756262 0 0.077888335855026095 -0.34326781071236478 0 0.063627571255946508 -0.34228657455640649 0 0.078125224382919814 -0.37817683789068252 0 0.055829168339385123 -0.37563697215921871 0 0.07151669302989129 -0.36017112462756262 0 0.097522465944822501 -0.31154577335541478 0 0.09439635882306624 -0.32906017212574379 0 0.077699166607213987 -0.31296979370649192 0 0.09439635882306624 -0.32906017212574379 0 0.075088036355214854 -0.32877072262214219 0 0.077699166607213987 -0.31296979370649192 0 0.09439635882306624 -0.32906017212574379 0 0.091021567592861674 -0.35276355210482951 0 0.077888335855026095 -0.34326781071236478 0 0.09439635882306624 -0.32906017212574379 0 0.075088036355214854 -0.32877072262214219 0 0.077888335855026095 -0.34326781071236478 0 0.075088036355214854 -0.32877072262214219 0 0.063627571255946508 -0.34228657455640649 0 0.060872565245488792 -0.32441719104752542 0 0.075088036355214854 -0.32877072262214219 0 0.077888335855026095 -0.34326781071236478 0 0.063627571255946508 -0.34228657455640649 0 0.077699166607213987 -0.31296979370649192 0 0.060872565245488792 -0.32441719104752542 0 0.059641169008687489 -0.31112985240413121 0 0.075088036355214854 -0.32877072262214219 0 0.077699166607213987 -0.31296979370649192 0 0.060872565245488792 -0.32441719104752542 0 0.060872565245488792 -0.32441719104752542 0 0.038053390301112593 -0.32051819179759411 0 0.059641169008687489 -0.31112985240413121 0 0.060872565245488792 -0.32441719104752542 0 0.05070961191472579 -0.33537345259489593 0 0.038053390301112593 -0.32051819179759411 0 0.063627571255946508 -0.34228657455640649 0 0.05070961191472579 -0.33537345259489593 0 0.05157765244908212 -0.35260761715636879 0 0.063627571255946508 -0.34228657455640649 0 0.060872565245488792 -0.32441719104752542 0 0.05070961191472579 -0.33537345259489593 0 0.05070961191472579 -0.33537345259489593 0 0.041883148216269449 -0.33948962516593512 0 0.05157765244908212 -0.35260761715636879 0 0.032419203985279817 -0.33719112616714031 0 0.038053390301112593 -0.32051819179759411 0 0.041883148216269449 -0.33948962516593512 0 0.032419203985279817 -0.33719112616714031 0 0.038053390301112593 -0.32051819179759411 0 0.032419203985279817 -0.33719112616714031 0 0.038053390301112593 -0.32051819179759411 0 0.026619833066019831 -0.33802098591568702 0 0.038053390301112593 -0.32051819179759411 0 0.026619833066019831 -0.33802098591568702 0 0.05070961191472579 -0.33537345259489593 0 0.041883148216269449 -0.33948962516593512 0 0.038053390301112593 -0.32051819179759411 0 0.041883148216269449 -0.33948962516593512 0 0.032419203985279817 -0.33719112616714031 0 0.038202779569325017 -0.34964116318697669 0 0.055829168339385123 -0.37563697215921871 0 0.05157765244908212 -0.35260761715636879 0 0.038348875526547282 -0.365053386908753 0 0.055829168339385123 -0.37563697215921871 0 0.07151669302989129 -0.36017112462756262 0 0.05157765244908212 -0.35260761715636879 0 0.07151669302989129 -0.36017112462756262 0 0.063627571255946508 -0.34228657455640649 0 0.05157765244908212 -0.35260761715636879 0 0.032419203985279817 -0.33719112616714031 0 0.038202779569325017 -0.34964116318697669 0 0.02678501766944643 -0.35386406053668629 0 0.041883148216269449 -0.33948962516593512 0 0.05157765244908212 -0.35260761715636879 0 0.038202779569325017 -0.34964116318697669 0 0.038202779569325017 -0.34964116318697669 0 0.038348875526547282 -0.365053386908753 0 0.02678501766944643 -0.35386406053668629 0 0.05157765244908212 -0.35260761715636879 0 0.038202779569325017 -0.34964116318697669 0 0.038348875526547282 -0.365053386908753 0 0.055829168339385123 -0.37563697215921871 0 0.034237674179483632 -0.38061043857941818 0 0.038348875526547282 -0.365053386908753 0 0.034237674179483632 -0.38061043857941818 0 0.038348875526547282 -0.365053386908753 0 0.026595973839925749 -0.36562955813642789 0 0.01038429148081218 -0.38102584029784259 0 0.026595973839925749 -0.36562955813642789 0 0.014873027851636789 -0.36461210607629729 0 0.038348875526547282 -0.365053386908753 0 0.026595973839925749 -0.36562955813642789 0 0.02678501766944643 -0.35386406053668629 0 0.026595973839925749 -0.36562955813642789 0 0.015186275830927611 -0.35552378003378021 0 0.014873027851636789 -0.36461210607629729 0 0.015186275830927611 -0.35552378003378021 0 0.026619833066019831 -0.33802098591568702 0 0.010804853836003551 -0.33910682360623312 0 0.032419203985279817 -0.33719112616714031 0 0.02678501766944643 -0.35386406053668629 0 0.02678501766944643 -0.35386406053668629 0 0.015186275830927611 -0.35552378003378021 0 0.026619833066019831 -0.33802098591568702 0 0.015186275830927611 -0.35552378003378021 0 0.026619833066019831 -0.33802098591568702 0 0.026595973839925749 -0.36562955813642789 0 0.02678501766944643 -0.35386406053668629 0 0.015186275830927611 -0.35552378003378021 0 0.0015555002525088151 -0.35059575599028348 0 0.015186275830927611 -0.35552378003378021 0 0.010804853836003551 -0.33910682360623312 0 -0.001872043417883932 -0.36102215386136888 0 0.0015555002525088151 -0.35059575599028348 0 0.0067626623871879302 -0.36044646909977252 0 0.0015555002525088151 -0.35059575599028348 0 0.015186275830927611 -0.35552378003378021 0 0.0067626623871879302 -0.36044646909977252 0 0.01038429148081218 -0.38102584029784259 0 0.014873027851636789 -0.36461210607629729 0 0.01038429148081218 -0.38102584029784259 0 0.014873027851636789 -0.36461210607629729 0 0.0040705514187503629 -0.37047854953713238 0 0.015186275830927611 -0.35552378003378021 0 0.014873027851636789 -0.36461210607629729 0 0.0067626623871879302 -0.36044646909977252 0 0.014873027851636789 -0.36461210607629729 0 0.0067626623871879302 -0.36044646909977252 0 0.0040705514187503629 -0.37047854953713238 0 -0.001872043417883932 -0.36102215386136888 0 0.0067626623871879302 -0.36044646909977252 0 0.0040705514187503629 -0.37047854953713238 0 0.038053390301112593 -0.32051819179759411 0 0.021246459415862819 -0.3191663136280265 0 0.031750836530512971 -0.30779239680445719 0 0.038053390301112593 -0.32051819179759411 0 0.021246459415862819 -0.3191663136280265 0 0.026030775450078061 -0.32701635499891513 0 0.021246459415862819 -0.3191663136280265 0 0.01820341901731698 -0.33035992865435287 0 0.0090071184273013884 -0.32544954253167552 0 0.021246459415862819 -0.3191663136280265 0 0.026030775450078061 -0.32701635499891513 0 0.01820341901731698 -0.33035992865435287 0 0.032419203985279817 -0.33719112616714031 0 0.02678501766944643 -0.35386406053668629 0 0.026619833066019831 -0.33802098591568702 0 0.026030775450078061 -0.32701635499891513 0 0.026619833066019831 -0.33802098591568702 0 0.01820341901731698 -0.33035992865435287 0 0.038053390301112593 -0.32051819179759411 0 0.026030775450078061 -0.32701635499891513 0 0.026619833066019831 -0.33802098591568702 0 0.026619833066019831 -0.33802098591568702 0 0.01820341901731698 -0.33035992865435287 0 0.010804853836003551 -0.33910682360623312 0 0.01820341901731698 -0.33035992865435287 0 0.010804853836003551 -0.33910682360623312 0 0.0090071184273013884 -0.32544954253167552 0 -0.003867990323782395 -0.33148502347663239 0 0.0015555002525088151 -0.35059575599028348 0 0.010804853836003551 -0.33910682360623312 0 -0.003867990323782395 -0.33148502347663239 0 0.010804853836003551 -0.33910682360623312 0 0.0090071184273013884 -0.32544954253167552 0 0.021246459415862819 -0.3191663136280265 0 0.0090071184273013884 -0.32544954253167552 0 0.0024429241655047648 -0.31136478390375899 0 -0.003867990323782395 -0.33148502347663239 0 0.0090071184273013884 -0.32544954253167552 0 0.0024429241655047648 -0.31136478390375899 0 0.021246459415862819 -0.3191663136280265 0 0.0024429241655047648 -0.31136478390375899 0 0.02116736988997555 -0.30436736871709269 0 -0.00052655649588606579 -0.28989551180493978 0 0.0024429241655047648 -0.31136478390375899 0 0.010976805133597429 -0.29723147387346388 0 0.0024429241655047648 -0.31136478390375899 0 0.010976805133597429 -0.29723147387346388 0 0.02116736988997555 -0.30436736871709269 0 -0.00052655649588606579 -0.28989551180493978 0 0.0075670693673515234 -0.27352296654111902 0 -0.00052655649588606579 -0.28989551180493978 0 0.010976805133597429 -0.29723147387346388 0 0.017700964567276802 -0.28215929623982949 0 -0.00052655649588606579 -0.28989551180493978 0 0.017700964567276802 -0.28215929623982949 0 0.0075670693673515234 -0.27352296654111902 0 0.017700964567276802 -0.28215929623982949 0 0.022455687600277101 -0.29260670211649947 0 0.029586144202844309 -0.28436003439063479 0 0.010976805133597429 -0.29723147387346388 0 0.017700964567276802 -0.28215929623982949 0 0.022455687600277101 -0.29260670211649947 0 0.022455687600277101 -0.29260670211649947 0 0.029586144202844309 -0.28436003439063479 0 0.033435299200594092 -0.29450967107591902 0 0.017700964567276802 -0.28215929623982949 0 0.029586144202844309 -0.28436003439063479 0 0.0249641513667366 -0.2775843017090841 0 0.010976805133597429 -0.29723147387346388 0 0.022455687600277101 -0.29260670211649947 0 0.02116736988997555 -0.30436736871709269 0 0.022455687600277101 -0.29260670211649947 0 0.02116736988997555 -0.30436736871709269 0 0.033435299200594092 -0.29450967107591902 0 0.02116736988997555 -0.30436736871709269 0 0.031750836530512971 -0.30779239680445719 0 0.033435299200594092 -0.29450967107591902 0 0.021246459415862819 -0.3191663136280265 0 0.02116736988997555 -0.30436736871709269 0 0.031750836530512971 -0.30779239680445719 0 0.038053390301112593 -0.32051819179759411 0 0.048308806897990803 -0.30336518253778938 0 0.052122175153606107 -0.29898132101435471 0 0.038053390301112593 -0.32051819179759411 0 0.044851663845019818 -0.3004004388036538 0 0.038053390301112593 -0.32051819179759411 0 0.052122175153606107 -0.29898132101435471 0 0.038053390301112593 -0.32051819179759411 0 0.031750836530512971 -0.30779239680445719 0 0.044851663845019818 -0.3004004388036538 0 0.038053390301112593 -0.32051819179759411 0 0.044851663845019818 -0.3004004388036538 0 0.048308806897990803 -0.30336518253778938 0 0.031750836530512971 -0.30779239680445719 0 0.044851663845019818 -0.3004004388036538 0 0.033435299200594092 -0.29450967107591902 0 0.044851663845019818 -0.3004004388036538 0 0.042392754713437397 -0.28842031161803561 0 0.051649937388926412 -0.28028268580971327 0 0.029586144202844309 -0.28436003439063479 0 0.033435299200594092 -0.29450967107591902 0 0.037119395614566703 -0.28342204255641729 0 0.033435299200594092 -0.29450967107591902 0 0.037119395614566703 -0.28342204255641729 0 0.042392754713437397 -0.28842031161803561 0 0.042392754713437397 -0.28842031161803561 0 0.051649937388926412 -0.28028268580971327 0 0.043537557774860243 -0.28076149207465462 0 0.037119395614566703 -0.28342204255641729 0 0.042392754713437397 -0.28842031161803561 0 0.043537557774860243 -0.28076149207465462 0 0.044851663845019818 -0.3004004388036538 0 0.033435299200594092 -0.29450967107591902 0 0.042392754713437397 -0.28842031161803561 0 0.063697655715071036 -0.28126126688601422 0 0.065796107195033177 -0.28326172077322898 0 0.052122175153606107 -0.29898132101435471 0 0.065796107195033177 -0.28326172077322898 0 0.052122175153606107 -0.29898132101435471 0 0.044851663845019818 -0.3004004388036538 0 0.052122175153606107 -0.29898132101435471 0 0.051649937388926412 -0.28028268580971327 0 0.06945854773601591 -0.29876276445469002 0 0.065796107195033177 -0.28326172077322898 0 0.052122175153606107 -0.29898132101435471 0 0.063697655715071036 -0.28126126688601422 0 0.052122175153606107 -0.29898132101435471 0 0.051649937388926412 -0.28028268580971327 0 0.063697655715071036 -0.28126126688601422 0 0.052122175153606107 -0.29898132101435471 0 0.044851663845019818 -0.3004004388036538 0 0.051649937388926412 -0.28028268580971327 0 0.038053390301112593 -0.32051819179759411 0 0.059641169008687489 -0.31112985240413121 0 0.052122175153606107 -0.29898132101435471 0 0.06945854773601591 -0.29876276445469002 0 0.059641169008687489 -0.31112985240413121 0 0.052122175153606107 -0.29898132101435471 0 0.044851663845019818 -0.3004004388036538 0 0.048308806897990803 -0.30336518253778938 0 0.052122175153606107 -0.29898132101435471 0 0.048308806897990803 -0.30336518253778938 0 0.052122175153606107 -0.29898132101435471 0 0.050090843598353668 -0.25869020174430551 0 0.048997783545794787 -0.2672202628634105 0 0.042946161147801518 -0.26029462354970101 0 0.050090843598353668 -0.25869020174430551 0 0.058448210932833013 -0.26016493281577291 0 0.048997783545794787 -0.2672202628634105 0 0.050090843598353668 -0.25869020174430551 0 0.053677517429650129 -0.25246082983958912 0 0.058448210932833013 -0.26016493281577291 0 0.050090843598353668 -0.25869020174430551 0 0.053677517429650129 -0.25246082983958912 0 0.046384544935688901 -0.25331035965305398 0 0.062703829693701724 -0.25155889224497552 0 0.053677517429650129 -0.25246082983958912 0 0.058448210932833013 -0.26016493281577291 0 0.063697655715071036 -0.28126126688601422 0 0.058448210932833013 -0.26016493281577291 0 0.051649937388926412 -0.28028268580971327 0 0.058448210932833013 -0.26016493281577291 0 0.051649937388926412 -0.28028268580971327 0 0.058448210932833013 -0.26016493281577291 0 0.051649937388926412 -0.28028268580971327 0 0.048997783545794787 -0.2672202628634105 0 0.051649937388926412 -0.28028268580971327 0 0.048997783545794787 -0.2672202628634105 0 0.045392559701949588 -0.27463748511959762 0 0.048997783545794787 -0.2672202628634105 0 0.042447155975648937 -0.26895591581472172 0 0.045392559701949588 -0.27463748511959762 0 0.042447155975648937 -0.26895591581472172 0 0.040330363824517587 -0.27596706903548801 0 0.03676847194699525 -0.27008576207762691 0 0.042447155975648937 -0.26895591581472172 0 0.045392559701949588 -0.27463748511959762 0 0.040330363824517587 -0.27596706903548801 0 0.042447155975648937 -0.26895591581472172 0 0.03676847194699525 -0.27008576207762691 0 0.03824028706871023 -0.26454371508809099 0 0.051649937388926412 -0.28028268580971327 0 0.043537557774860243 -0.28076149207465462 0 0.045392559701949588 -0.27463748511959762 0 0.043537557774860243 -0.28076149207465462 0 0.045392559701949588 -0.27463748511959762 0 0.040330363824517587 -0.27596706903548801 0 0.037119395614566703 -0.28342204255641729 0 0.043537557774860243 -0.28076149207465462 0 0.040330363824517587 -0.27596706903548801 0 0.029586144202844309 -0.28436003439063479 0 0.037119395614566703 -0.28342204255641729 0 0.032467603247062667 -0.27551193346939429 0 0.037119395614566703 -0.28342204255641729 0 0.040330363824517587 -0.27596706903548801 0 0.032467603247062667 -0.27551193346939429 0 0.040330363824517587 -0.27596706903548801 0 0.032467603247062667 -0.27551193346939429 0 0.03676847194699525 -0.27008576207762691 0 0.03676847194699525 -0.27008576207762691 0 0.03824028706871023 -0.26454371508809099 0 0.030356949619036809 -0.26545017698043938 0 0.032467603247062667 -0.27551193346939429 0 0.03676847194699525 -0.27008576207762691 0 0.030356949619036809 -0.26545017698043938 0 0.035197548114303492 -0.25984137652445222 0 0.03824028706871023 -0.26454371508809099 0 0.030356949619036809 -0.26545017698043938 0 0.035197548114303492 -0.25984137652445222 0 0.029826609722838172 -0.25765902340911462 0 0.030356949619036809 -0.26545017698043938 0 0.035197548114303492 -0.25984137652445222 0 0.03824028706871023 -0.26454371508809099 0 0.042946161147801518 -0.26029462354970101 0 0.035197548114303492 -0.25984137652445222 0 0.042946161147801518 -0.26029462354970101 0 0.038671451147736867 -0.25489112921067941 0 0.048997783545794787 -0.2672202628634105 0 0.042447155975648937 -0.26895591581472172 0 0.042946161147801518 -0.26029462354970101 0 0.042447155975648937 -0.26895591581472172 0 0.03824028706871023 -0.26454371508809099 0 0.042946161147801518 -0.26029462354970101 0 0.050090843598353668 -0.25869020174430551 0 0.042946161147801518 -0.26029462354970101 0 0.046384544935688901 -0.25331035965305398 0 0.042946161147801518 -0.26029462354970101 0 0.046384544935688901 -0.25331035965305398 0 0.038671451147736867 -0.25489112921067941 0 0.046384544935688901 -0.25331035965305398 0 0.038671451147736867 -0.25489112921067941 0 0.040118222591635049 -0.24766863944016759 0 0.03529786710185176 -0.25163447564792718 0 0.038671451147736867 -0.25489112921067941 0 0.040118222591635049 -0.24766863944016759 0 0.03529786710185176 -0.25163447564792718 0 0.038671451147736867 -0.25489112921067941 0 0.033810766502452877 -0.2554126872986402 0 0.035197548114303492 -0.25984137652445222 0 0.038671451147736867 -0.25489112921067941 0 0.033810766502452877 -0.2554126872986402 0 0.035197548114303492 -0.25984137652445222 0 0.033810766502452877 -0.2554126872986402 0 0.029826609722838172 -0.25765902340911462 0 0.033810766502452877 -0.2554126872986402 0 0.030454019068070069 -0.25193522675490437 0 0.029826609722838172 -0.25765902340911462 0 0.03529786710185176 -0.25163447564792718 0 0.030454019068070069 -0.25193522675490437 0 0.033631707520631979 -0.2477135930621831 0 0.03529786710185176 -0.25163447564792718 0 0.033810766502452877 -0.2554126872986402 0 0.030454019068070069 -0.25193522675490437 0 0.030454019068070069 -0.25193522675490437 0 0.0267352583951911 -0.25284955961741568 0 0.0277571905396953 -0.2499907392011039 0 0.0267352583951911 -0.25284955961741568 0 0.0277571905396953 -0.2499907392011039 0 0.02482532577051803 -0.24987812388289099 0 0.0267352583951911 -0.25284955961741568 0 0.02348724125531346 -0.2527901514595311 0 0.02482532577051803 -0.24987812388289099 0 0.02348724125531346 -0.2527901514595311 0 0.022987142824545 -0.25065546356829899 0 0.02482532577051803 -0.24987812388289099 0 0.0267352583951911 -0.25284955961741568 0 0.024979666229338771 -0.25613140484917318 0 0.029826609722838172 -0.25765902340911462 0 0.0267352583951911 -0.25284955961741568 0 0.02348724125531346 -0.2527901514595311 0 0.024979666229338771 -0.25613140484917318 0 0.030454019068070069 -0.25193522675490437 0 0.0267352583951911 -0.25284955961741568 0 0.029826609722838172 -0.25765902340911462 0 0.029826609722838172 -0.25765902340911462 0 0.030356949619036809 -0.26545017698043938 0 0.025797414645011261 -0.26106883074765119 0 0.025797414645011261 -0.26106883074765119 0 0.021944349879663479 -0.26229407456505499 0 0.024871094500048641 -0.26562906839986161 0 0.030356949619036809 -0.26545017698043938 0 0.025797414645011261 -0.26106883074765119 0 0.024871094500048641 -0.26562906839986161 0 0.024979666229338771 -0.25613140484917318 0 0.029826609722838172 -0.25765902340911462 0 0.025797414645011261 -0.26106883074765119 0 0.024979666229338771 -0.25613140484917318 0 0.025797414645011261 -0.26106883074765119 0 0.021981259759296001 -0.25866419786066119 0 0.019232118397543189 -0.26016851598415058 0 0.015660695230590198 -0.25715042127729881 0 0.017601552955903911 -0.26569319226008431 0 0.025797414645011261 -0.26106883074765119 0 0.021981259759296001 -0.25866419786066119 0 0.021944349879663479 -0.26229407456505499 0 0.021981259759296001 -0.25866419786066119 0 0.021944349879663479 -0.26229407456505499 0 0.019232118397543189 -0.26016851598415058 0 0.021981259759296001 -0.25866419786066119 0 0.019232118397543189 -0.26016851598415058 0 0.018972734162262379 -0.257040693957654 0 0.021944349879663479 -0.26229407456505499 0 0.019232118397543189 -0.26016851598415058 0 0.017601552955903911 -0.26569319226008431 0 0.021944349879663479 -0.26229407456505499 0 0.024871094500048641 -0.26562906839986161 0 0.017601552955903911 -0.26569319226008431 0 0.019232118397543189 -0.26016851598415058 0 0.015660695230590198 -0.25715042127729881 0 0.018972734162262379 -0.257040693957654 0 0.015660695230590198 -0.25715042127729881 0 0.019116382563835271 -0.25448773886101861 0 0.022901711176966599 -0.24744588554918889 0 0.015660695230590198 -0.25715042127729881 0 0.018972734162262379 -0.257040693957654 0 0.015660695230590198 -0.25715042127729881 0 0.018972734162262379 -0.257040693957654 0 0.019116382563835271 -0.25448773886101861 0 0.019116382563835271 -0.25448773886101861 0 0.020734293095381929 -0.25250769338158541 0 0.022901711176966599 -0.24744588554918889 0 0.020734293095381929 -0.25250769338158541 0 0.022987142824545 -0.25065546356829899 0 0.022901711176966599 -0.24744588554918889 0 0.02348724125531346 -0.2527901514595311 0 0.020734293095381929 -0.25250769338158541 0 0.02158237025945187 -0.25529091866834569 0 0.02348724125531346 -0.2527901514595311 0 0.020734293095381929 -0.25250769338158541 0 0.022987142824545 -0.25065546356829899 0 0.02348724125531346 -0.2527901514595311 0 0.024979666229338771 -0.25613140484917318 0 0.02158237025945187 -0.25529091866834569 0 0.024979666229338771 -0.25613140484917318 0 0.021981259759296001 -0.25866419786066119 0 0.02158237025945187 -0.25529091866834569 0 0.021981259759296001 -0.25866419786066119 0 0.018972734162262379 -0.257040693957654 0 0.02158237025945187 -0.25529091866834569 0 0.018972734162262379 -0.257040693957654 0 0.019116382563835271 -0.25448773886101861 0 0.02158237025945187 -0.25529091866834569 0 0.019116382563835271 -0.25448773886101861 0 0.020734293095381929 -0.25250769338158541 0 0.02158237025945187 -0.25529091866834569 0 0.029586144202844309 -0.28436003439063479 0 0.032467603247062667 -0.27551193346939429 0 0.0249641513667366 -0.2775843017090841 0 0.032467603247062667 -0.27551193346939429 0 0.0249641513667366 -0.2775843017090841 0 0.02469732623336825 -0.27083088302238678 0 0.032467603247062667 -0.27551193346939429 0 0.030356949619036809 -0.26545017698043938 0 0.02469732623336825 -0.27083088302238678 0 0.030356949619036809 -0.26545017698043938 0 0.02469732623336825 -0.27083088302238678 0 0.024871094500048641 -0.26562906839986161 0 0.02469732623336825 -0.27083088302238678 0 0.017601552955903911 -0.26569319226008431 0 0.018506212898127421 -0.2739581279545007 0 0.02469732623336825 -0.27083088302238678 0 0.024871094500048641 -0.26562906839986161 0 0.017601552955903911 -0.26569319226008431 0 0.017700964567276802 -0.28215929623982949 0 0.0249641513667366 -0.2775843017090841 0 0.018506212898127421 -0.2739581279545007 0 0.0249641513667366 -0.2775843017090841 0 0.02469732623336825 -0.27083088302238678 0 0.018506212898127421 -0.2739581279545007 0 0.017700964567276802 -0.28215929623982949 0 0.018506212898127421 -0.2739581279545007 0 0.0075670693673515234 -0.27352296654111902 0 0.017601552955903911 -0.26569319226008431 0 0.018506212898127421 -0.2739581279545007 0 0.0075670693673515234 -0.27352296654111902 0 0.015660695230590198 -0.25715042127729881 0 0.0075670693673515234 -0.27352296654111902 0 0.015660695230590198 -0.25715042127729881 0 0.017601552955903911 -0.26569319226008431 0 0.0075670693673515234 -0.27352296654111902 0 0.015660695230590198 -0.25715042127729881 0 0.0075670693673515234 -0.27352296654111902 0 0.00049130024963215009 -0.25765298090485123 0 0.015660695230590198 -0.25715042127729881 0 0.00049130024963215009 -0.25765298090485123 0 0.015660695230590198 -0.25715042127729881 0 0.00049130024963215009 -0.25765298090485123 0 0.0079700889931284234 -0.2488444263655121 0 0.015660695230590198 -0.25715042127729881 0 0.0079700889931284234 -0.2488444263655121 0 0.017306029491071059 -0.24647555438416999 0 -0.0063224142407883634 -0.2365155487568012 0 0.0079700889931284234 -0.2488444263655121 0 0.0098248924707808345 -0.2390638950421218 0 -0.0063224142407883634 -0.2365155487568012 0 0.00049130024963215009 -0.25765298090485123 0 0.0079700889931284234 -0.2488444263655121 0 0.0079700889931284234 -0.2488444263655121 0 0.012559471802801739 -0.2438150277508265 0 0.0098248924707808345 -0.2390638950421218 0 0.0079700889931284234 -0.2488444263655121 0 0.012559471802801739 -0.2438150277508265 0 0.017306029491071059 -0.24647555438416999 0 0.012559471802801739 -0.2438150277508265 0 0.015136876256226639 -0.24087623521150239 0 0.017306029491071059 -0.24647555438416999 0 0.012559471802801739 -0.2438150277508265 0 0.015136876256226639 -0.24087623521150239 0 0.0098248924707808345 -0.2390638950421218 0 0.015136876256226639 -0.24087623521150239 0 0.0098248924707808345 -0.2390638950421218 0 0.016143804243804249 -0.23529760337640451 0 -0.0063224142407883634 -0.2365155487568012 0 0.0098248924707808345 -0.2390638950421218 0 0.01158621716064011 -0.22685883353376191 0 -0.0063224142407883634 -0.2365155487568012 0 0.01158621716064011 -0.22685883353376191 0 0.0020332662497475049 -0.21487555698120009 0 0.01158621716064011 -0.22685883353376191 0 0.018941424593650068 -0.23013319839081711 0 0.016143804243804249 -0.23529760337640451 0 0.0098248924707808345 -0.2390638950421218 0 0.01158621716064011 -0.22685883353376191 0 0.016143804243804249 -0.23529760337640451 0 0.018941424593650068 -0.23013319839081711 0 0.024416023320037991 -0.22210368771235539 0 0.026335809749597039 -0.22966075932603 0 0.01158621716064011 -0.22685883353376191 0 0.024416023320037991 -0.22210368771235539 0 0.020127285165961281 -0.20891069371584789 0 0.018941424593650068 -0.23013319839081711 0 0.022248131163237161 -0.23297577284240861 0 0.016143804243804249 -0.23529760337640451 0 0.018941424593650068 -0.23013319839081711 0 0.022248131163237161 -0.23297577284240861 0 0.026335809749597039 -0.22966075932603 0 0.01158621716064011 -0.22685883353376191 0 0.018941424593650068 -0.23013319839081711 0 0.024416023320037991 -0.22210368771235539 0 0.022248131163237161 -0.23297577284240861 0 0.02875225806917369 -0.2306675804874338 0 0.020293102490864301 -0.23765698602956181 0 0.024416023320037991 -0.22210368771235539 0 0.026335809749597039 -0.22966075932603 0 0.02875225806917369 -0.2306675804874338 0 0.022248131163237161 -0.23297577284240861 0 0.026335809749597039 -0.22966075932603 0 0.02875225806917369 -0.2306675804874338 0 0.026335809749597039 -0.22966075932603 0 0.02875225806917369 -0.2306675804874338 0 0.02875225806917369 -0.2306675804874338 0 0.027726758956206819 -0.23574894043553621 0 0.023914130081939711 -0.2445424521521242 0 0.02875225806917369 -0.2306675804874338 0 0.027726758956206819 -0.23574894043553621 0 0.031831852126775632 -0.2370629976945986 0 0.027726758956206819 -0.23574894043553621 0 0.0295276368541872 -0.23821494027419399 0 0.031831852126775632 -0.2370629976945986 0 0.015660695230590198 -0.25715042127729881 0 0.02875225806917369 -0.2306675804874338 0 0.017306029491071059 -0.24647555438416999 0 0.027726758956206819 -0.23574894043553621 0 0.027661262230590958 -0.24036474618361531 0 0.023914130081939711 -0.2445424521521242 0 0.027726758956206819 -0.23574894043553621 0 0.0295276368541872 -0.23821494027419399 0 0.027661262230590958 -0.24036474618361531 0 0.02875225806917369 -0.2306675804874338 0 0.017306029491071059 -0.24647555438416999 0 0.020293102490864301 -0.23765698602956181 0 0.015660695230590198 -0.25715042127729881 0 0.02875225806917369 -0.2306675804874338 0 0.015660695230590198 -0.25715042127729881 0 0.02875225806917369 -0.2306675804874338 0 0.023914130081939711 -0.2445424521521242 0 0.027661262230590958 -0.24036474618361531 0 0.03089067410317543 -0.23968307678302589 0 0.03160580661706535 -0.24284790517388291 0 0.0295276368541872 -0.23821494027419399 0 0.03089067410317543 -0.23968307678302589 0 0.031831852126775632 -0.2370629976945986 0 0.0295276368541872 -0.23821494027419399 0 0.027661262230590958 -0.24036474618361531 0 0.03089067410317543 -0.23968307678302589 0 0.027661262230590958 -0.24036474618361531 0 0.027870327633918859 -0.24382896602819309 0 0.03160580661706535 -0.24284790517388291 0 0.027870327633918859 -0.24382896602819309 0 0.029563394617361759 -0.24726198140940681 0 0.03160580661706535 -0.24284790517388291 0 0.030454019068070069 -0.25193522675490437 0 0.029563394617361759 -0.24726198140940681 0 0.0277571905396953 -0.2499907392011039 0 0.030454019068070069 -0.25193522675490437 0 0.029563394617361759 -0.24726198140940681 0 0.033631707520631979 -0.2477135930621831 0 0.027870327633918859 -0.24382896602819309 0 0.029563394617361759 -0.24726198140940681 0 0.026233031997981399 -0.24720022504273331 0 0.029563394617361759 -0.24726198140940681 0 0.0277571905396953 -0.2499907392011039 0 0.026233031997981399 -0.24720022504273331 0 0.0277571905396953 -0.2499907392011039 0 0.026233031997981399 -0.24720022504273331 0 0.02482532577051803 -0.24987812388289099 0 0.026233031997981399 -0.24720022504273331 0 0.023914130081939711 -0.2445424521521242 0 0.022901711176966599 -0.24744588554918889 0 0.022987142824545 -0.25065546356829899 0 0.02482532577051803 -0.24987812388289099 0 0.022901711176966599 -0.24744588554918889 0 0.026233031997981399 -0.24720022504273331 0 0.02482532577051803 -0.24987812388289099 0 0.022901711176966599 -0.24744588554918889 0 0.027661262230590958 -0.24036474618361531 0 0.027870327633918859 -0.24382896602819309 0 0.023914130081939711 -0.2445424521521242 0 0.027870327633918859 -0.24382896602819309 0 0.026233031997981399 -0.24720022504273331 0 0.023914130081939711 -0.2445424521521242 0 0.015660695230590198 -0.25715042127729881 0 0.023914130081939711 -0.2445424521521242 0 0.022901711176966599 -0.24744588554918889 0 0.015136876256226639 -0.24087623521150239 0 0.017306029491071059 -0.24647555438416999 0 0.020293102490864301 -0.23765698602956181 0 0.015136876256226639 -0.24087623521150239 0 0.016143804243804249 -0.23529760337640451 0 0.020293102490864301 -0.23765698602956181 0 0.022248131163237161 -0.23297577284240861 0 0.016143804243804249 -0.23529760337640451 0 0.020293102490864301 -0.23765698602956181 0 -0.00035099122794750298 -0.2126752397117791 0 -0.00202087689091199 -0.19757434369856569 0 0.010388946740283411 -0.1932355652055989 0 -0.001562610981016798 -0.18361050673851009 0 -0.00202087689091199 -0.19757434369856569 0 0.010388946740283411 -0.1932355652055989 0 0.01158621716064011 -0.22685883353376191 0 0.0020332662497475049 -0.21487555698120009 0 0.020127285165961281 -0.20891069371584789 0 0.010388946740283411 -0.1932355652055989 0 0.0020332662497475049 -0.21487555698120009 0 0.010388946740283411 -0.1932355652055989 0 0.0020332662497475049 -0.21487555698120009 0 0.020127285165961281 -0.20891069371584789 0 -0.00035099122794750298 -0.2126752397117791 0 0.010388946740283411 -0.1932355652055989 0 0.0020332662497475049 -0.21487555698120009 0 0.024416023320037991 -0.22210368771235539 0 0.020127285165961281 -0.20891069371584789 0 0.040753145181205763 -0.20639106082024211 0 0.020127285165961281 -0.20891069371584789 0 0.030972477254537709 -0.1882193826992761 0 0.040753145181205763 -0.20639106082024211 0 0.010388946740283411 -0.1932355652055989 0 0.020127285165961281 -0.20891069371584789 0 0.030972477254537709 -0.1882193826992761 0 0.044499450056427838 -0.18847507150435849 0 0.040753145181205763 -0.20639106082024211 0 0.054535099935959612 -0.19478226112263461 0 0.030972477254537709 -0.1882193826992761 0 0.044499450056427838 -0.18847507150435849 0 0.040753145181205763 -0.20639106082024211 0 0.02875225806917369 -0.2306675804874338 0 0.040753145181205763 -0.20639106082024211 0 0.040753145181205763 -0.20639106082024211 0 0.033834142895605261 -0.22403741856333481 0 0.052103333711837813 -0.22090525552187329 0 0.055799551880045532 -0.20734340869110471 0 0.052103333711837813 -0.22090525552187329 0 0.069998313543449306 -0.21515582394718261 0 0.040753145181205763 -0.20639106082024211 0 0.055799551880045532 -0.20734340869110471 0 0.052103333711837813 -0.22090525552187329 0 0.040753145181205763 -0.20639106082024211 0 0.055799551880045532 -0.20734340869110471 0 0.054535099935959612 -0.19478226112263461 0 0.054535099935959612 -0.19478226112263461 0 0.063912387591975914 -0.19104191345081159 0 0.065357351828634808 -0.20063098025530479 0 0.055799551880045532 -0.20734340869110471 0 0.054535099935959612 -0.19478226112263461 0 0.065357351828634808 -0.20063098025530479 0 0.054535099935959612 -0.19478226112263461 0 0.063912387591975914 -0.19104191345081159 0 0.058973797476597853 -0.18343696360130959 0 0.044499450056427838 -0.18847507150435849 0 0.054535099935959612 -0.19478226112263461 0 0.058973797476597853 -0.18343696360130959 0 0.02875225806917369 -0.2306675804874338 0 0.050134523110866747 -0.2395765717322775 0 0.02875225806917369 -0.2306675804874338 0 0.039387143244772008 -0.24036508008757501 0 0.050134523110866747 -0.2395765717322775 0 0.039387143244772008 -0.24036508008757501 0 0.040118222591635049 -0.24766863944016759 0 0.050134523110866747 -0.2395765717322775 0 0.046384544935688901 -0.25331035965305398 0 0.040118222591635049 -0.24766863944016759 0 0.050134523110866747 -0.2395765717322775 0 0.039387143244772008 -0.24036508008757501 0 0.040118222591635049 -0.24766863944016759 0 0.035714722010110389 -0.2438740473361127 0 0.040118222591635049 -0.24766863944016759 0 0.035714722010110389 -0.2438740473361127 0 0.033631707520631979 -0.2477135930621831 0 0.03529786710185176 -0.25163447564792718 0 0.040118222591635049 -0.24766863944016759 0 0.033631707520631979 -0.2477135930621831 0 0.035714722010110389 -0.2438740473361127 0 0.03160580661706535 -0.24284790517388291 0 0.033830730076447553 -0.2407750189167549 0 0.029563394617361759 -0.24726198140940681 0 0.033631707520631979 -0.2477135930621831 0 0.03160580661706535 -0.24284790517388291 0 0.035714722010110389 -0.2438740473361127 0 0.033631707520631979 -0.2477135930621831 0 0.03160580661706535 -0.24284790517388291 0 0.02875225806917369 -0.2306675804874338 0 0.039387143244772008 -0.24036508008757501 0 0.031831852126775632 -0.2370629976945986 0 0.03089067410317543 -0.23968307678302589 0 0.03160580661706535 -0.24284790517388291 0 0.033830730076447553 -0.2407750189167549 0 0.039387143244772008 -0.24036508008757501 0 0.033830730076447553 -0.2407750189167549 0 0.031831852126775632 -0.2370629976945986 0 0.03089067410317543 -0.23968307678302589 0 0.033830730076447553 -0.2407750189167549 0 0.031831852126775632 -0.2370629976945986 0 0.039387143244772008 -0.24036508008757501 0 0.035714722010110389 -0.2438740473361127 0 0.033830730076447553 -0.2407750189167549 0 0.02875225806917369 -0.2306675804874338 0 0.033834142895605261 -0.22403741856333481 0 0.050134523110866747 -0.2395765717322775 0 0.033834142895605261 -0.22403741856333481 0 0.050134523110866747 -0.2395765717322775 0 0.02875225806917369 -0.2306675804874338 0 0.040753145181205763 -0.20639106082024211 0 0.033834142895605261 -0.22403741856333481 0 0.033834142895605261 -0.22403741856333481 0 0.052103333711837813 -0.22090525552187329 0 0.050134523110866747 -0.2395765717322775 0 0.024416023320037991 -0.22210368771235539 0 0.02875225806917369 -0.2306675804874338 0 0.040753145181205763 -0.20639106082024211 0 0.052103333711837813 -0.22090525552187329 0 0.050134523110866747 -0.2395765717322775 0 0.064993044344923687 -0.23065338634328161 0 0.052103333711837813 -0.22090525552187329 0 0.064993044344923687 -0.23065338634328161 0 0.069998313543449306 -0.21515582394718261 0 0.050134523110866747 -0.2395765717322775 0 0.069827896770367659 -0.24778188081304081 0 0.064993044344923687 -0.23065338634328161 0 0.050134523110866747 -0.2395765717322775 0 0.069827896770367659 -0.24778188081304081 0 0.062703829693701724 -0.25155889224497552 0 0.050134523110866747 -0.2395765717322775 0 0.069827896770367659 -0.24778188081304081 0 0.053677517429650129 -0.25246082983958912 0 0.046384544935688901 -0.25331035965305398 0 0.050134523110866747 -0.2395765717322775 0 0.062703829693701724 -0.25155889224497552 0 0.053677517429650129 -0.25246082983958912 0 0.050134523110866747 -0.2395765717322775 0 0.062703829693701724 -0.25155889224497552 0 0.050134523110866747 -0.2395765717322775 0 0.069827896770367659 -0.24778188081304081 0 0.082901154588096618 -0.22984739970203441 0 0.064993044344923687 -0.23065338634328161 0 0.086345783183869929 -0.2434909715332195 0 0.082901154588096618 -0.22984739970203441 0 0.1005201005528239 -0.2433428962020481 0 0.082106329601115816 -0.25289773034424001 0 0.069827896770367659 -0.24778188081304081 0 0.086345783183869929 -0.2434909715332195 0 0.069827896770367659 -0.24778188081304081 0 0.086345783183869929 -0.2434909715332195 0 0.082901154588096618 -0.22984739970203441 0 0.089521270429868349 -0.25598718989380459 0 0.086345783183869929 -0.2434909715332195 0 0.1005201005528239 -0.2433428962020481 0 0.082901154588096618 -0.22984739970203441 0 0.084469933874463582 -0.21306727289928559 0 0.1019065646498976 -0.21838659383714651 0 0.082901154588096618 -0.22984739970203441 0 0.069998313543449306 -0.21515582394718261 0 0.084469933874463582 -0.21306727289928559 0 0.082901154588096618 -0.22984739970203441 0 0.064993044344923687 -0.23065338634328161 0 0.069998313543449306 -0.21515582394718261 0 0.055799551880045532 -0.20734340869110471 0 0.069998313543449306 -0.21515582394718261 0 0.065357351828634808 -0.20063098025530479 0 0.069998313543449306 -0.21515582394718261 0 0.077765301608961612 -0.20226988498890461 0 0.084469933874463582 -0.21306727289928559 0 0.069998313543449306 -0.21515582394718261 0 0.065357351828634808 -0.20063098025530479 0 0.077765301608961612 -0.20226988498890461 0 0.063912387591975914 -0.19104191345081159 0 0.072012649948333562 -0.19224799428471839 0 0.070754667393314721 -0.18542434919168951 0 0.063912387591975914 -0.19104191345081159 0 0.065357351828634808 -0.20063098025530479 0 0.072012649948333562 -0.19224799428471839 0 0.077765301608961612 -0.20226988498890461 0 0.072012649948333562 -0.19224799428471839 0 0.080257637779933375 -0.1925623362842547 0 0.065357351828634808 -0.20063098025530479 0 0.077765301608961612 -0.20226988498890461 0 0.072012649948333562 -0.19224799428471839 0 0.072012649948333562 -0.19224799428471839 0 0.080257637779933375 -0.1925623362842547 0 0.075488243463364135 -0.1864055029103141 0 0.072012649948333562 -0.19224799428471839 0 0.070754667393314721 -0.18542434919168951 0 0.075488243463364135 -0.1864055029103141 0 0.080257637779933375 -0.1925623362842547 0 0.089778334981912761 -0.1996766620211603 0 0.077650105313931322 -0.1809667302051719 0 0.089778334981912761 -0.1996766620211603 0 0.092137253151728438 -0.18327146209142109 0 0.077650105313931322 -0.1809667302051719 0 0.089778334981912761 -0.1996766620211603 0 0.077650105313931322 -0.1809667302051719 0 0.077765301608961612 -0.20226988498890461 0 0.080257637779933375 -0.1925623362842547 0 0.089778334981912761 -0.1996766620211603 0 0.089778334981912761 -0.1996766620211603 0 0.084469933874463582 -0.21306727289928559 0 0.1019065646498976 -0.21838659383714651 0 0.077765301608961612 -0.20226988498890461 0 0.089778334981912761 -0.1996766620211603 0 0.084469933874463582 -0.21306727289928559 0 0.089778334981912761 -0.1996766620211603 0 0.1019065646498976 -0.21838659383714651 0 0.10424936649884731 -0.19458935953816539 0 0.089778334981912761 -0.1996766620211603 0 0.1019065646498976 -0.21838659383714651 0 0.089778334981912761 -0.1996766620211603 0 0.10424936649884731 -0.19458935953816539 0 0.092137253151728438 -0.18327146209142109 0 0.10424936649884731 -0.19458935953816539 0 0.1247230407301535 -0.20277423270655601 0 0.11145624433347941 -0.17915844029364439 0 0.1019065646498976 -0.21838659383714651 0 0.1247230407301535 -0.20277423270655601 0 0.1206944459261682 -0.22158199379826299 0 0.1019065646498976 -0.21838659383714651 0 0.10424936649884731 -0.19458935953816539 0 0.1247230407301535 -0.20277423270655601 0 0.1019065646498976 -0.21838659383714651 0 0.1206944459261682 -0.22158199379826299 0 0.11403479431788251 -0.23709652565313261 0 0.1206944459261682 -0.22158199379826299 0 0.11403479431788251 -0.23709652565313261 0 0.12616712520463391 -0.23654057206254361 0 0.1133900508394201 -0.25028864100839737 0 0.1344601159872095 -0.24988065735314571 0 0.12616712520463391 -0.23654057206254361 0 0.1133900508394201 -0.25028864100839737 0 0.11403479431788251 -0.23709652565313261 0 0.12616712520463391 -0.23654057206254361 0 0.089521270429868349 -0.25598718989380459 0 0.1133900508394201 -0.25028864100839737 0 0.1005201005528239 -0.2433428962020481 0 0.1133900508394201 -0.25028864100839737 0 0.11403479431788251 -0.23709652565313261 0 0.1005201005528239 -0.2433428962020481 0 0.089521270429868349 -0.25598718989380459 0 0.1005201005528239 -0.2433428962020481 0 0.082901154588096618 -0.22984739970203441 0 0.1019065646498976 -0.21838659383714651 0 0.1005201005528239 -0.2433428962020481 0 0.1019065646498976 -0.21838659383714651 0 0.11403479431788251 -0.23709652565313261 0 0.1005201005528239 -0.2433428962020481 0 0.1019065646498976 -0.21838659383714651 0 0.11403479431788251 -0.23709652565313261 0 0.1000021695681607 -0.1486505333570898 0 0.1218457728544511 -0.14634428416477779 0 0.099570964923464012 -0.16338249335105409 0 0.1000021695681607 -0.1486505333570898 0 0.10457996379453929 -0.13411701588187011 0 0.1218457728544511 -0.14634428416477779 0 0.1000021695681607 -0.1486505333570898 0 0.10457996379453929 -0.13411701588187011 0 0.089238316580562069 -0.14129178221629071 0 0.10457996379453929 -0.13411701588187011 0 0.089238316580562069 -0.14129178221629071 0 0.093276076896539092 -0.1286178544377217 0 0.10457996379453929 -0.13411701588187011 0 0.093276076896539092 -0.1286178544377217 0 0.1019680937093175 -0.1204899574292715 0 0.10457996379453929 -0.13411701588187011 0 0.1019680937093175 -0.1204899574292715 0 0.11199665453089359 -0.1213608178677146 0 0.10457996379453929 -0.13411701588187011 0 0.11797789242900381 -0.1295923989417764 0 0.1218457728544511 -0.14634428416477779 0 0.11797789242900381 -0.1295923989417764 0 0.1218457728544511 -0.14634428416477779 0 0.12903096964394609 -0.12821889392704361 0 0.10457996379453929 -0.13411701588187011 0 0.11797789242900381 -0.1295923989417764 0 0.11199665453089359 -0.1213608178677146 0 0.1218457728544511 -0.14634428416477779 0 0.099570964923464012 -0.16338249335105409 0 0.1218457728544511 -0.14634428416477779 0 0.1203433207253979 -0.16419310509890711 0 0.099570964923464012 -0.16338249335105409 0 0.1203433207253979 -0.16419310509890711 0 0.11145624433347941 -0.17915844029364439 0 0.099570964923464012 -0.16338249335105409 0 0.1247230407301535 -0.20277423270655601 0 0.11145624433347941 -0.17915844029364439 0 0.13118888741524959 -0.17828484679720519 0 0.1203433207253979 -0.16419310509890711 0 0.11145624433347941 -0.17915844029364439 0 0.13118888741524959 -0.17828484679720519 0 0.10424936649884731 -0.19458935953816539 0 0.11145624433347941 -0.17915844029364439 0 0.092137253151728438 -0.18327146209142109 0 0.11145624433347941 -0.17915844029364439 0 0.099570964923464012 -0.16338249335105409 0 0.092137253151728438 -0.18327146209142109 0 0.1000021695681607 -0.1486505333570898 0 0.099570964923464012 -0.16338249335105409 0 0.084775829687787074 -0.15811709117145631 0 0.099570964923464012 -0.16338249335105409 0 0.084775829687787074 -0.15811709117145631 0 0.077650105313931322 -0.1809667302051719 0 0.099570964923464012 -0.16338249335105409 0 0.092137253151728438 -0.18327146209142109 0 0.077650105313931322 -0.1809667302051719 0 0.099570964923464012 -0.16338249335105409 0 0.077650105313931322 -0.1809667302051719 0 0.092137253151728438 -0.18327146209142109 0 0.077650105313931322 -0.1809667302051719 0 0.070754667393314721 -0.18542434919168951 0 0.077650105313931322 -0.1809667302051719 0 0.058973797476597853 -0.18343696360130959 0 0.077650105313931322 -0.1809667302051719 0 0.06727452775557892 -0.17572243964410411 0 0.047755392056064883 -0.1762108390078691 0 0.077650105313931322 -0.1809667302051719 0 0.047755392056064883 -0.1762108390078691 0 0.077650105313931322 -0.1809667302051719 0 0.06727452775557892 -0.17572243964410411 0 0.067264880328211568 -0.16494569030935621 0 0.077650105313931322 -0.1809667302051719 0 0.067264880328211568 -0.16494569030935621 0 0.080257637779933375 -0.1925623362842547 0 0.075488243463364135 -0.1864055029103141 0 0.077650105313931322 -0.1809667302051719 0 0.070754667393314721 -0.18542434919168951 0 0.075488243463364135 -0.1864055029103141 0 0.077650105313931322 -0.1809667302051719 0 0.070754667393314721 -0.18542434919168951 0 0.077650105313931322 -0.1809667302051719 0 0.063912387591975914 -0.19104191345081159 0 0.070754667393314721 -0.18542434919168951 0 0.058973797476597853 -0.18343696360130959 0 0.084775829687787074 -0.15811709117145631 0 0.077650105313931322 -0.1809667302051719 0 0.067264880328211568 -0.16494569030935621 0 0.06727452775557892 -0.17572243964410411 0 0.067264880328211568 -0.16494569030935621 0 0.058201709698138322 -0.1697542582154131 0 0.067264880328211568 -0.16494569030935621 0 0.073499759828008826 -0.14462513713605529 0 0.057233603663944317 -0.14947067808138301 0 0.084775829687787074 -0.15811709117145631 0 0.067264880328211568 -0.16494569030935621 0 0.073499759828008826 -0.14462513713605529 0 0.084775829687787074 -0.15811709117145631 0 0.073499759828008826 -0.14462513713605529 0 0.089238316580562069 -0.14129178221629071 0 0.1000021695681607 -0.1486505333570898 0 0.084775829687787074 -0.15811709117145631 0 0.089238316580562069 -0.14129178221629071 0 0.073499759828008826 -0.14462513713605529 0 0.089238316580562069 -0.14129178221629071 0 0.081299156058704941 -0.13080726735558429 0 0.093276076896539092 -0.1286178544377217 0 0.081299156058704941 -0.13080726735558429 0 0.092215919959629966 -0.11708647250262259 0 0.089238316580562069 -0.14129178221629071 0 0.093276076896539092 -0.1286178544377217 0 0.081299156058704941 -0.13080726735558429 0 0.073499759828008826 -0.14462513713605529 0 0.081299156058704941 -0.13080726735558429 0 0.064107838268901388 -0.12382153687929261 0 0.073499759828008826 -0.14462513713605529 0 0.057233603663944317 -0.14947067808138301 0 0.064107838268901388 -0.12382153687929261 0 0.048563256318854352 -0.13838432494696681 0 0.035999756578172927 -0.1305566012559625 0 0.064107838268901388 -0.12382153687929261 0 0.035999756578172927 -0.1305566012559625 0 0.064107838268901388 -0.12382153687929261 0 0.048563256318854352 -0.13838432494696681 0 0.057233603663944317 -0.14947067808138301 0 0.064107838268901388 -0.12382153687929261 0 0.048563256318854352 -0.13838432494696681 0 0.057233603663944317 -0.14947067808138301 0 0.036911826764398782 -0.14968848357122941 0 0.057233603663944317 -0.14947067808138301 0 0.036911826764398782 -0.14968848357122941 0 0.050512038652697891 -0.16213806390032309 0 0.036911826764398782 -0.14968848357122941 0 0.035999756578172927 -0.1305566012559625 0 0.028418367387582261 -0.14018251459665679 0 0.036911826764398782 -0.14968848357122941 0 0.035999756578172927 -0.1305566012559625 0 0.048563256318854352 -0.13838432494696681 0 0.036911826764398782 -0.14968848357122941 0 0.035999756578172927 -0.1305566012559625 0 0.06727452775557892 -0.17572243964410411 0 0.047755392056064883 -0.1762108390078691 0 0.058201709698138322 -0.1697542582154131 0 0.077650105313931322 -0.1809667302051719 0 0.058973797476597853 -0.18343696360130959 0 0.047755392056064883 -0.1762108390078691 0 0.044499450056427838 -0.18847507150435849 0 0.058973797476597853 -0.18343696360130959 0 0.047755392056064883 -0.1762108390078691 0 0.067264880328211568 -0.16494569030935621 0 0.057233603663944317 -0.14947067808138301 0 0.050512038652697891 -0.16213806390032309 0 0.067264880328211568 -0.16494569030935621 0 0.058201709698138322 -0.1697542582154131 0 0.050512038652697891 -0.16213806390032309 0 0.047755392056064883 -0.1762108390078691 0 0.058201709698138322 -0.1697542582154131 0 0.050512038652697891 -0.16213806390032309 0 0.067264880328211568 -0.16494569030935621 0 0.057233603663944317 -0.14947067808138301 0 0.036911826764398782 -0.14968848357122941 0 0.050512038652697891 -0.16213806390032309 0 0.037823896950625012 -0.16882036588649629 0 0.036911826764398782 -0.14968848357122941 0 0.037823896950625012 -0.16882036588649629 0 0.036911826764398782 -0.14968848357122941 0 0.037823896950625012 -0.16882036588649629 0 0.02212748706042535 -0.16283446067878579 0 0.047755392056064883 -0.1762108390078691 0 0.050512038652697891 -0.16213806390032309 0 0.037823896950625012 -0.16882036588649629 0 0.030972477254537709 -0.1882193826992761 0 0.047755392056064883 -0.1762108390078691 0 0.018744627230822739 -0.1715955734299989 0 0.047755392056064883 -0.1762108390078691 0 0.018744627230822739 -0.1715955734299989 0 0.047755392056064883 -0.1762108390078691 0 0.037823896950625012 -0.16882036588649629 0 0.018744627230822739 -0.1715955734299989 0 0.030972477254537709 -0.1882193826992761 0 0.044499450056427838 -0.18847507150435849 0 0.047755392056064883 -0.1762108390078691 0 0.010388946740283411 -0.1932355652055989 0 0.030972477254537709 -0.1882193826992761 0 0.018744627230822739 -0.1715955734299989 0 0.037823896950625012 -0.16882036588649629 0 0.018744627230822739 -0.1715955734299989 0 0.02212748706042535 -0.16283446067878579 0 0.018744627230822739 -0.1715955734299989 0 0.02212748706042535 -0.16283446067878579 0 0.0094179980265004133 -0.16137796583832639 0 0.018744627230822739 -0.1715955734299989 0 0.02212748706042535 -0.16283446067878579 0 -0.0029564485302149561 -0.16814319192382471 0 0.018744627230822739 -0.1715955734299989 0 0.0094179980265004133 -0.16137796583832639 0 -0.0029564485302149561 -0.16814319192382471 0 0.018744627230822739 -0.1715955734299989 0 -0.0033235935641301711 -0.15019260388118941 0 -0.0029564485302149561 -0.16814319192382471 0 0.0094179980265004133 -0.16137796583832639 0 0.02212748706042535 -0.16283446067878579 0 0.0094179980265004133 -0.16137796583832639 0 0.013298387093938401 -0.15126760942889 0 0.010388946740283411 -0.1932355652055989 0 0.018744627230822739 -0.1715955734299989 0 -0.0029564485302149561 -0.16814319192382471 0 -0.001562610981016798 -0.18361050673851009 0 0.018744627230822739 -0.1715955734299989 0 -0.001562610981016798 -0.18361050673851009 0 0.010388946740283411 -0.1932355652055989 0 0.018744627230822739 -0.1715955734299989 0 0.035999756578172927 -0.1305566012559625 0 0.01742042181861847 -0.1350084531133085 0 0.028418367387582261 -0.14018251459665679 0 0.035999756578172927 -0.1305566012559625 0 0.01742042181861847 -0.1350084531133085 0 0.035999756578172927 -0.1305566012559625 0 0.01742042181861847 -0.1350084531133085 0 0.02186532501536748 -0.11780269970397771 0 0.036911826764398782 -0.14968848357122941 0 0.028418367387582261 -0.14018251459665679 0 0.023620751805395929 -0.14768146349402919 0 0.01742042181861847 -0.1350084531133085 0 0.023620751805395929 -0.14768146349402919 0 0.013298387093938401 -0.15126760942889 0 0.036911826764398782 -0.14968848357122941 0 0.02212748706042535 -0.16283446067878579 0 0.023620751805395929 -0.14768146349402919 0 0.02212748706042535 -0.16283446067878579 0 0.023620751805395929 -0.14768146349402919 0 0.013298387093938401 -0.15126760942889 0 0.01742042181861847 -0.1350084531133085 0 0.028418367387582261 -0.14018251459665679 0 0.023620751805395929 -0.14768146349402919 0 -0.0033235935641301711 -0.15019260388118941 0 0.01742042181861847 -0.1350084531133085 0 0.013298387093938401 -0.15126760942889 0 -0.0033235935641301711 -0.15019260388118941 0 0.0094179980265004133 -0.16137796583832639 0 0.013298387093938401 -0.15126760942889 0 -0.0033235935641301711 -0.15019260388118941 0 0.01742042181861847 -0.1350084531133085 0 0.0058329922717625807 -0.12546816913575429 0 0.01742042181861847 -0.1350084531133085 0 0.0058329922717625807 -0.12546816913575429 0 0.02186532501536748 -0.11780269970397771 0 -0.0033235935641301711 -0.15019260388118941 0 0.0058329922717625807 -0.12546816913575429 0 0.0058329922717625807 -0.12546816913575429 0 0.02186532501536748 -0.11780269970397771 0 0.014989578107655291 -0.1007437343903194 0 -0.0077232851748614091 -0.10638989326261419 0 0.0058329922717625807 -0.12546816913575429 0 0.014989578107655291 -0.1007437343903194 0 0.0058329922717625807 -0.12546816913575429 0 0.014989578107655291 -0.1007437343903194 0 0.035999756578172927 -0.1305566012559625 0 0.02186532501536748 -0.11780269970397771 0 0.034811397391136978 -0.105629190561068 0 0.02186532501536748 -0.11780269970397771 0 0.014989578107655291 -0.1007437343903194 0 0.034811397391136978 -0.105629190561068 0 0.014989578107655291 -0.1007437343903194 0 0.027288937826246439 -0.093495775641900994 0 0.034811397391136978 -0.105629190561068 0 -0.0077232851748614091 -0.10638989326261419 0 0.014989578107655291 -0.1007437343903194 0 0.0050540432637859716 -0.084113766953887337 0 0.014989578107655291 -0.1007437343903194 0 0.0050540432637859716 -0.084113766953887337 0 0.024146163943547991 -0.076019299644884492 0 0.0050540432637859716 -0.084113766953887337 0 0.0092477650977098626 -0.064368816240441773 0 0.024146163943547991 -0.076019299644884492 0 0.0092477650977098626 -0.064368816240441773 0 0.024146163943547991 -0.076019299644884492 0 0.02732483240684221 -0.056238893830174552 0 0.014989578107655291 -0.1007437343903194 0 0.024146163943547991 -0.076019299644884492 0 0.027288937826246439 -0.093495775641900994 0 0.014989578107655291 -0.1007437343903194 0 0.024146163943547991 -0.076019299644884492 0 0.024146163943547991 -0.076019299644884492 0 0.027288937826246439 -0.093495775641900994 0 0.033623038204101438 -0.080701779866173468 0 0.046645591853428987 -0.090830156300881051 0 0.033623038204101438 -0.080701779866173468 0 0.034811397391136978 -0.105629190561068 0 0.027288937826246439 -0.093495775641900994 0 0.033623038204101438 -0.080701779866173468 0 0.034811397391136978 -0.105629190561068 0 0.046645591853428987 -0.090830156300881051 0 0.033623038204101438 -0.080701779866173468 0 0.045985647732461048 -0.072301659729948786 0 0.033623038204101438 -0.080701779866173468 0 0.034811397391136978 -0.105629190561068 0 0.024146163943547991 -0.076019299644884492 0 0.033623038204101438 -0.080701779866173468 0 0.045985647732461048 -0.072301659729948786 0 0.045985647732461048 -0.072301659729948786 0 0.02732483240684221 -0.056238893830174552 0 0.024146163943547991 -0.076019299644884492 0 0.045985647732461048 -0.072301659729948786 0 0.02732483240684221 -0.056238893830174552 0 0.045985647732461048 -0.072301659729948786 0 0.062300524038059302 -0.071753260583215878 0 0.064646463058079917 -0.088364425629723062 0 0.045985647732461048 -0.072301659729948786 0 0.062300524038059302 -0.071753260583215878 0 0.048031863779855667 -0.054517103037987527 0 0.045985647732461048 -0.072301659729948786 0 0.064646463058079917 -0.088364425629723062 0 0.046645591853428987 -0.090830156300881051 0 0.045985647732461048 -0.072301659729948786 0 0.064646463058079917 -0.088364425629723062 0 0.054161412881365591 -0.107153725717492 0 0.067098547567220446 -0.1050469919706765 0 0.064646463058079917 -0.088364425629723062 0 0.046645591853428987 -0.090830156300881051 0 0.054161412881365591 -0.107153725717492 0 0.064646463058079917 -0.088364425629723062 0 0.054161412881365591 -0.107153725717492 0 0.064107838268901388 -0.12382153687929261 0 0.067098547567220446 -0.1050469919706765 0 0.054161412881365591 -0.107153725717492 0 0.047270101279894221 -0.1167902636034537 0 0.064107838268901388 -0.12382153687929261 0 0.035999756578172927 -0.1305566012559625 0 0.047270101279894221 -0.1167902636034537 0 0.064107838268901388 -0.12382153687929261 0 0.035999756578172927 -0.1305566012559625 0 0.047270101279894221 -0.1167902636034537 0 0.034811397391136978 -0.105629190561068 0 0.035999756578172927 -0.1305566012559625 0 0.034811397391136978 -0.105629190561068 0 0.054161412881365591 -0.107153725717492 0 0.047270101279894221 -0.1167902636034537 0 0.034811397391136978 -0.105629190561068 0 0.046645591853428987 -0.090830156300881051 0 0.054161412881365591 -0.107153725717492 0 0.034811397391136978 -0.105629190561068 0 0.022217226013664351 -0.0055872265525528384 0 0.03060027243949667 -0.02187522955259075 0 0.038885991402647938 -0.0041326468328035859 0 -0.01053138900806062 -0.0016732157023093791 0 0.0078250260732223645 0.0079748320655576126 0 0.0042224259336068716 -0.0095401143416764724 0 0.0078250260732223645 0.0079748320655576126 0 0.022217226013664351 -0.0055872265525528384 0 0.0042224259336068716 -0.0095401143416764724 0 0.022217226013664351 -0.0055872265525528384 0 0.0042224259336068716 -0.0095401143416764724 0 0.010733998625292149 -0.026185843662049318 0 -0.01099324388464553 -0.02216079228255444 0 0.0042224259336068716 -0.0095401143416764724 0 0.010733998625292149 -0.026185843662049318 0 0.022217226013664351 -0.0055872265525528384 0 0.010733998625292149 -0.026185843662049318 0 0.022217226013664351 -0.0055872265525528384 0 0.010733998625292149 -0.026185843662049318 0 0.03060027243949667 -0.02187522955259075 0 0.010733998625292149 -0.026185843662049318 0 0.03060027243949667 -0.02187522955259075 0 0.024028565056782931 -0.040989421776293257 0 -0.00074922876307530716 -0.04678446077154845 0 0.024028565056782931 -0.040989421776293257 0 0.01496298344956374 -0.052095398154613837 0 -0.00074922876307530716 -0.04678446077154845 0 0.010733998625292149 -0.026185843662049318 0 -0.00074922876307530716 -0.04678446077154845 0 0.024028565056782931 -0.040989421776293257 0 -0.00074922876307530716 -0.04678446077154845 0 0.010733998625292149 -0.026185843662049318 0 0.024028565056782931 -0.040989421776293257 0 -0.00074922876307530716 -0.04678446077154845 0 0.0092477650977098626 -0.064368816240441773 0 0.01496298344956374 -0.052095398154613837 0 0.0092477650977098626 -0.064368816240441773 0 0.01496298344956374 -0.052095398154613837 0 0.02732483240684221 -0.056238893830174552 0 0.024028565056782931 -0.040989421776293257 0 0.01496298344956374 -0.052095398154613837 0 0.02732483240684221 -0.056238893830174552 0 0.024028565056782931 -0.040989421776293257 0 0.02732483240684221 -0.056238893830174552 0 0.037047905030030047 -0.046734950356371367 0 0.02732483240684221 -0.056238893830174552 0 0.048031863779855667 -0.054517103037987527 0 0.037047905030030047 -0.046734950356371367 0 0.045985647732461048 -0.072301659729948786 0 0.02732483240684221 -0.056238893830174552 0 0.048031863779855667 -0.054517103037987527 0 0.048031863779855667 -0.054517103037987527 0 0.063477301439090403 -0.044034110958462533 0 0.07160719104961448 -0.058001059390971513 0 0.062300524038059302 -0.071753260583215878 0 0.048031863779855667 -0.054517103037987527 0 0.07160719104961448 -0.058001059390971513 0 0.048031863779855667 -0.054517103037987527 0 0.048806358876639387 -0.035194382781030181 0 0.063477301439090403 -0.044034110958462533 0 0.048806358876639387 -0.035194382781030181 0 0.068432667974595768 -0.02945981884690882 0 0.063477301439090403 -0.044034110958462533 0 0.024028565056782931 -0.040989421776293257 0 0.048806358876639387 -0.035194382781030181 0 0.03060027243949667 -0.02187522955259075 0 0.024028565056782931 -0.040989421776293257 0 0.048806358876639387 -0.035194382781030181 0 0.048031863779855667 -0.054517103037987527 0 0.048806358876639387 -0.035194382781030181 0 0.037047905030030047 -0.046734950356371367 0 0.024028565056782931 -0.040989421776293257 0 0.048806358876639387 -0.035194382781030181 0 0.037047905030030047 -0.046734950356371367 0 0.03060027243949667 -0.02187522955259075 0 0.048806358876639387 -0.035194382781030181 0 0.053139809575763933 -0.01610114405353642 0 0.048806358876639387 -0.035194382781030181 0 0.053139809575763933 -0.01610114405353642 0 0.068432667974595768 -0.02945981884690882 0 0.055371168948838471 0.0020488466120764381 0 0.053139809575763933 -0.01610114405353642 0 0.038885991402647938 -0.0041326468328035859 0 0.055371168948838471 0.0020488466120764381 0 0.053139809575763933 -0.01610114405353642 0 0.077041884495645599 -0.01091369733278263 0 0.03060027243949667 -0.02187522955259075 0 0.053139809575763933 -0.01610114405353642 0 0.038885991402647938 -0.0041326468328035859 0 0.055371168948838471 0.0020488466120764381 0 0.077041884495645599 -0.01091369733278263 0 0.053139809575763933 -0.01610114405353642 0 0.077041884495645599 -0.01091369733278263 0 0.068432667974595768 -0.02945981884690882 0 0.077041884495645599 -0.01091369733278263 0 0.068432667974595768 -0.02945981884690882 0 0.086987607315071019 -0.038050014327474763 0 0.077041884495645599 -0.01091369733278263 0 0.086987607315071019 -0.038050014327474763 0 0.1079919319815745 -0.018462824269473339 0 0.086987607315071019 -0.038050014327474763 0 0.063477301439090403 -0.044034110958462533 0 0.07160719104961448 -0.058001059390971513 0 0.068432667974595768 -0.02945981884690882 0 0.086987607315071019 -0.038050014327474763 0 0.063477301439090403 -0.044034110958462533 0 0.086987607315071019 -0.038050014327474763 0 0.07160719104961448 -0.058001059390971513 0 0.092063192506608202 -0.059124671770267402 0 0.086987607315071019 -0.038050014327474763 0 0.092063192506608202 -0.059124671770267402 0 0.10985794092932449 -0.052868924299524722 0 0.092063192506608202 -0.059124671770267402 0 0.10985794092932449 -0.052868924299524722 0 0.1059392310307383 -0.071295208142979391 0 0.10985794092932449 -0.052868924299524722 0 0.12696682437677689 -0.070088749548364387 0 0.13137729635440329 -0.046462841198936969 0 0.1131012591984983 -0.035832572660110883 0 0.12929151941211839 -0.023318259205144621 0 0.13137729635440329 -0.046462841198936969 0 0.10985794092932449 -0.052868924299524722 0 0.1131012591984983 -0.035832572660110883 0 0.13137729635440329 -0.046462841198936969 0 0.086987607315071019 -0.038050014327474763 0 0.10985794092932449 -0.052868924299524722 0 0.1131012591984983 -0.035832572660110883 0 0.09772296499453581 0.01127246079497179 0 0.12899625664807809 0.0011243657885281809 0 0.1079919319815745 -0.018462824269473339 0 0.086987607315071019 -0.038050014327474763 0 0.1079919319815745 -0.018462824269473339 0 0.086987607315071019 -0.038050014327474763 0 0.1131012591984983 -0.035832572660110883 0 0.1079919319815745 -0.018462824269473339 0 0.1131012591984983 -0.035832572660110883 0 0.1079919319815745 -0.018462824269473339 0 0.12929151941211839 -0.023318259205144621 0 0.12899625664807809 0.0011243657885281809 0 0.1079919319815745 -0.018462824269473339 0 0.12899625664807809 0.0011243657885281809 0 0.1079919319815745 -0.018462824269473339 0 0.12929151941211839 -0.023318259205144621 0 0.09772296499453581 0.01127246079497179 0 0.077041884495645599 -0.01091369733278263 0 0.1079919319815745 -0.018462824269473339 0 0.083307278383698724 -0.1044271915294973 0 0.064646463058079917 -0.088364425629723062 0 0.088282783856410862 -0.091068601708344993 0 0.083307278383698724 -0.1044271915294973 0 0.088282783856410862 -0.091068601708344993 0 0.104362939714312 -0.099272394613000636 0 0.092215919959629966 -0.11708647250262259 0 0.064107838268901388 -0.12382153687929261 0 0.083307278383698724 -0.1044271915294973 0 0.1019680937093175 -0.1204899574292715 0 0.083307278383698724 -0.1044271915294973 0 0.092215919959629966 -0.11708647250262259 0 0.1019680937093175 -0.1204899574292715 0 0.083307278383698724 -0.1044271915294973 0 0.092215919959629966 -0.11708647250262259 0 0.064107838268901388 -0.12382153687929261 0 0.081299156058704941 -0.13080726735558429 0 0.092215919959629966 -0.11708647250262259 0 0.064107838268901388 -0.12382153687929261 0 0.083307278383698724 -0.1044271915294973 0 0.064107838268901388 -0.12382153687929261 0 0.067098547567220446 -0.1050469919706765 0 0.083307278383698724 -0.1044271915294973 0 0.064646463058079917 -0.088364425629723062 0 0.083307278383698724 -0.1044271915294973 0 0.067098547567220446 -0.1050469919706765 0 0.064646463058079917 -0.088364425629723062 0 0.062300524038059302 -0.071753260583215878 0 0.064646463058079917 -0.088364425629723062 0 0.085852778899848062 -0.076153051150110909 0 0.062300524038059302 -0.071753260583215878 0 0.07160719104961448 -0.058001059390971513 0 0.085852778899848062 -0.076153051150110909 0 0.07160719104961448 -0.058001059390971513 0 0.092063192506608202 -0.059124671770267402 0 0.085852778899848062 -0.076153051150110909 0 0.085852778899848062 -0.076153051150110909 0 0.088282783856410862 -0.091068601708344993 0 0.1021843600249383 -0.086313995846484776 0 0.064646463058079917 -0.088364425629723062 0 0.085852778899848062 -0.076153051150110909 0 0.088282783856410862 -0.091068601708344993 0 0.088282783856410862 -0.091068601708344993 0 0.1021843600249383 -0.086313995846484776 0 0.104362939714312 -0.099272394613000636 0 0.1021843600249383 -0.086313995846484776 0 0.1059392310307383 -0.071295208142979391 0 0.1172400015891157 -0.086700521598227623 0 0.1021843600249383 -0.086313995846484776 0 0.1172400015891157 -0.086700521598227623 0 0.104362939714312 -0.099272394613000636 0 0.092063192506608202 -0.059124671770267402 0 0.085852778899848062 -0.076153051150110909 0 0.1059392310307383 -0.071295208142979391 0 0.085852778899848062 -0.076153051150110909 0 0.1021843600249383 -0.086313995846484776 0 0.1059392310307383 -0.071295208142979391 0 0.10985794092932449 -0.052868924299524722 0 0.1059392310307383 -0.071295208142979391 0 0.12696682437677689 -0.070088749548364387 0 0.1059392310307383 -0.071295208142979391 0 0.1172400015891157 -0.086700521598227623 0 0.12696682437677689 -0.070088749548364387 0 0.1172400015891157 -0.086700521598227623 0 0.12982688902167511 -0.082777782864273092 0 0.12696682437677689 -0.070088749548364387 0 0.1172400015891157 -0.086700521598227623 0 0.12060534330411669 -0.1026816577874184 0 0.104362939714312 -0.099272394613000636 0 0.12060534330411669 -0.1026816577874184 0 0.104362939714312 -0.099272394613000636 0 0.1119446863680357 -0.110926867469701 0 0.1172400015891157 -0.086700521598227623 0 0.12060534330411669 -0.1026816577874184 0 0.13288059278572889 -0.094015881008673086 0 0.083307278383698724 -0.1044271915294973 0 0.104362939714312 -0.099272394613000636 0 0.10039574954384101 -0.1087791027603676 0 0.104362939714312 -0.099272394613000636 0 0.10039574954384101 -0.1087791027603676 0 0.1119446863680357 -0.110926867469701 0 0.083307278383698724 -0.1044271915294973 0 0.10039574954384101 -0.1087791027603676 0 0.1019680937093175 -0.1204899574292715 0 0.093276076896539092 -0.1286178544377217 0 0.092215919959629966 -0.11708647250262259 0 0.1019680937093175 -0.1204899574292715 0 0.10039574954384101 -0.1087791027603676 0 0.1019680937093175 -0.1204899574292715 0 0.1119446863680357 -0.110926867469701 0 0.1019680937093175 -0.1204899574292715 0 0.11199665453089359 -0.1213608178677146 0 0.1119446863680357 -0.110926867469701 0 0.11199665453089359 -0.1213608178677146 0 0.1119446863680357 -0.110926867469701 0 0.1234009210852593 -0.1171621356382048 0 0.12060534330411669 -0.1026816577874184 0 0.1119446863680357 -0.110926867469701 0 0.1234009210852593 -0.1171621356382048 0 0.11797789242900381 -0.1295923989417764 0 0.1234009210852593 -0.1171621356382048 0 0.12903096964394609 -0.12821889392704361 0 0.11797789242900381 -0.1295923989417764 0 0.11199665453089359 -0.1213608178677146 0 0.1234009210852593 -0.1171621356382048 0 0.1234009210852593 -0.1171621356382048 0 0.13728103571384309 -0.11878450841089561 0 0.12903096964394609 -0.12821889392704361 0 0.1234009210852593 -0.1171621356382048 0 0.13728103571384309 -0.11878450841089561 0 0.1359439498246974 -0.1068423973405898 0 0.13728103571384309 -0.11878450841089561 0 0.14853879561489269 -0.1125720920589502 0 0.1359439498246974 -0.1068423973405898 0 0.14853879561489269 -0.1125720920589502 0 0.14412058078543941 -0.1293060749785028 0 0.13728103571384309 -0.11878450841089561 0 0.14853879561489269 -0.1125720920589502 0 0.14412058078543941 -0.1293060749785028 0 0.16447989349435571 -0.1137330460258798 0 0.14412058078543941 -0.1293060749785028 0 0.15979813855800859 -0.12870721131531479 0 0.14853879561489269 -0.1125720920589502 0 0.16447989349435571 -0.1137330460258798 0 0.14412058078543941 -0.1293060749785028 0 0.16447989349435571 -0.1137330460258798 0 0.14412058078543941 -0.1293060749785028 0 0.14853879561489269 -0.1125720920589502 0 0.1529570104443439 -0.095838109139396943 0 0.16447989349435571 -0.1137330460258798 0 0.14853879561489269 -0.1125720920589502 0 0.1529570104443439 -0.095838109139396943 0 0.14853879561489269 -0.1125720920589502 0 0.1529570104443439 -0.095838109139396943 0 0.1359439498246974 -0.1068423973405898 0 0.1529570104443439 -0.095838109139396943 0 0.13288059278572889 -0.094015881008673086 0 0.1359439498246974 -0.1068423973405898 0 0.12060534330411669 -0.1026816577874184 0 0.1234009210852593 -0.1171621356382048 0 0.1359439498246974 -0.1068423973405898 0 0.12060534330411669 -0.1026816577874184 0 0.13288059278572889 -0.094015881008673086 0 0.1359439498246974 -0.1068423973405898 0 0.1172400015891157 -0.086700521598227623 0 0.13288059278572889 -0.094015881008673086 0 0.12982688902167511 -0.082777782864273092 0 0.13288059278572889 -0.094015881008673086 0 0.12982688902167511 -0.082777782864273092 0 0.14222013733507879 -0.080305979301827313 0 0.12696682437677689 -0.070088749548364387 0 0.14222013733507879 -0.080305979301827313 0 0.14316521223565329 -0.061447709633379838 0 0.12982688902167511 -0.082777782864273092 0 0.12696682437677689 -0.070088749548364387 0 0.14222013733507879 -0.080305979301827313 0 0.15471534196114339 -0.069989586433129525 0 0.14316521223565329 -0.061447709633379838 0 0.16067810800971979 -0.056316847586669903 0 0.15471534196114339 -0.069989586433129525 0 0.14222013733507879 -0.080305979301827313 0 0.14316521223565329 -0.061447709633379838 0 0.15471534196114339 -0.069989586433129525 0 0.14222013733507879 -0.080305979301827313 0 0.15771167583260479 -0.083013261254308413 0 0.1529570104443439 -0.095838109139396943 0 0.13288059278572889 -0.094015881008673086 0 0.14222013733507879 -0.080305979301827313 0 0.1529570104443439 -0.095838109139396943 0 0.14222013733507879 -0.080305979301827313 0 0.15771167583260479 -0.083013261254308413 0 0.1529570104443439 -0.095838109139396943 0 0.1697805734726853 -0.090454429208289625 0 0.15771167583260479 -0.083013261254308413 0 0.1697805734726853 -0.090454429208289625 0 0.15771167583260479 -0.083013261254308413 0 0.1699222082232083 -0.072418513846476906 0 0.15471534196114339 -0.069989586433129525 0 0.1699222082232083 -0.072418513846476906 0 0.16067810800971979 -0.056316847586669903 0 0.15471534196114339 -0.069989586433129525 0 0.15771167583260479 -0.083013261254308413 0 0.1699222082232083 -0.072418513846476906 0 0.1699222082232083 -0.072418513846476906 0 0.18757497365838169 -0.062320608357063788 0 0.18877344663832629 -0.079563627910417475 0 0.1699222082232083 -0.072418513846476906 0 0.17458571788712651 -0.056309532338375337 0 0.18757497365838169 -0.062320608357063788 0 0.1697805734726853 -0.090454429208289625 0 0.18483920620327299 -0.098160017073258249 0 0.18877344663832629 -0.079563627910417475 0 0.1697805734726853 -0.090454429208289625 0 0.1699222082232083 -0.072418513846476906 0 0.18877344663832629 -0.079563627910417475 0 0.18483920620327299 -0.098160017073258249 0 0.16447989349435571 -0.1137330460258798 0 0.1697805734726853 -0.090454429208289625 0 0.18483920620327299 -0.098160017073258249 0 0.16447989349435571 -0.1137330460258798 0 0.18483920620327299 -0.098160017073258249 0 0.18301470947231921 -0.1168696029716651 0 0.16447989349435571 -0.1137330460258798 0 0.18301470947231921 -0.1168696029716651 0 0.16447989349435571 -0.1137330460258798 0 0.17193112639388489 -0.12579093126961119 0 0.16447989349435571 -0.1137330460258798 0 0.15979813855800859 -0.12870721131531479 0 0.17193112639388489 -0.12579093126961119 0 0.1529570104443439 -0.095838109139396943 0 0.1697805734726853 -0.090454429208289625 0 0.16447989349435571 -0.1137330460258798 0 0.15126813850280721 0.003815696369120609 0 0.1450482230579016 -0.01331857326589473 0 0.16358003864591539 -0.0098161048976105839 0 0.15126813850280721 0.003815696369120609 0 0.12899625664807809 0.0011243657885281809 0 0.1450482230579016 -0.01331857326589473 0 0.12899625664807809 0.0011243657885281809 0 0.1450482230579016 -0.01331857326589473 0 0.12929151941211839 -0.023318259205144621 0 0.1450482230579016 -0.01331857326589473 0 0.12929151941211839 -0.023318259205144621 0 0.14517631309068299 -0.032575746991789563 0 0.1450482230579016 -0.01331857326589473 0 0.14517631309068299 -0.032575746991789563 0 0.1570218519080786 -0.02401346872419979 0 0.1450482230579016 -0.01331857326589473 0 0.1570218519080786 -0.02401346872419979 0 0.16358003864591539 -0.0098161048976105839 0 0.14517631309068299 -0.032575746991789563 0 0.15987565354317429 -0.039852205601100248 0 0.1570218519080786 -0.02401346872419979 0 0.14517631309068299 -0.032575746991789563 0 0.13137729635440329 -0.046462841198936969 0 0.1480545166467267 -0.047331070202375307 0 0.14517631309068299 -0.032575746991789563 0 0.1480545166467267 -0.047331070202375307 0 0.15987565354317429 -0.039852205601100248 0 0.12929151941211839 -0.023318259205144621 0 0.14517631309068299 -0.032575746991789563 0 0.13137729635440329 -0.046462841198936969 0 0.12696682437677689 -0.070088749548364387 0 0.13137729635440329 -0.046462841198936969 0 0.14316521223565329 -0.061447709633379838 0 0.1480545166467267 -0.047331070202375307 0 0.16067810800971979 -0.056316847586669903 0 0.15987565354317429 -0.039852205601100248 0 0.14316521223565329 -0.061447709633379838 0 0.1480545166467267 -0.047331070202375307 0 0.16067810800971979 -0.056316847586669903 0 0.13137729635440329 -0.046462841198936969 0 0.14316521223565329 -0.061447709633379838 0 0.1480545166467267 -0.047331070202375307 0 0.1699222082232083 -0.072418513846476906 0 0.16067810800971979 -0.056316847586669903 0 0.17458571788712651 -0.056309532338375337 0 0.16067810800971979 -0.056316847586669903 0 0.17458571788712651 -0.056309532338375337 0 0.1739828617236068 -0.043735554118836617 0 0.17458571788712651 -0.056309532338375337 0 0.1876531900398071 -0.047876237797398892 0 0.18757497365838169 -0.062320608357063788 0 0.17458571788712651 -0.056309532338375337 0 0.1739828617236068 -0.043735554118836617 0 0.1876531900398071 -0.047876237797398892 0 0.1739828617236068 -0.043735554118836617 0 0.18611766867265969 -0.033272010433490311 0 0.1715849321929995 -0.02624411320862028 0 0.1739828617236068 -0.043735554118836617 0 0.18611766867265969 -0.033272010433490311 0 0.1876531900398071 -0.047876237797398892 0 0.1739828617236068 -0.043735554118836617 0 0.15987565354317429 -0.039852205601100248 0 0.1715849321929995 -0.02624411320862028 0 0.16067810800971979 -0.056316847586669903 0 0.1739828617236068 -0.043735554118836617 0 0.15987565354317429 -0.039852205601100248 0 0.15987565354317429 -0.039852205601100248 0 0.1570218519080786 -0.02401346872419979 0 0.1715849321929995 -0.02624411320862028 0 0.1570218519080786 -0.02401346872419979 0 0.1715849321929995 -0.02624411320862028 0 0.16358003864591539 -0.0098161048976105839 0 0.1715849321929995 -0.02624411320862028 0 0.17532576952413029 -0.01424455683832726 0 0.16358003864591539 -0.0098161048976105839 0 0.18611766867265969 -0.033272010433490311 0 0.1715849321929995 -0.02624411320862028 0 0.18716487996674999 -0.017445413771209579 0 0.1715849321929995 -0.02624411320862028 0 0.18716487996674999 -0.017445413771209579 0 0.17532576952413029 -0.01424455683832726 0 0.17532576952413029 -0.01424455683832726 0 0.17975938027318031 -0.0028365532445131362 0 0.16358003864591539 -0.0098161048976105839 0 0.18716487996674999 -0.017445413771209579 0 0.17532576952413029 -0.01424455683832726 0 0.17975938027318031 -0.0028365532445131362 0 0.18716487996674999 -0.017445413771209579 0 0.17975938027318031 -0.0028365532445131362 0 0.19308926441198609 -0.0044136307146925239 0 0.1674986719346665 0.0052425152058865063 0 0.15126813850280721 0.003815696369120609 0 0.16358003864591539 -0.0098161048976105839 0 0.1674986719346665 0.0052425152058865063 0 0.17975938027318031 -0.0028365532445131362 0 0.16358003864591539 -0.0098161048976105839 0 0.21224697693316549 -0.01266756196469623 0 0.2176851306636452 -0.020849921587021789 0 0.22224120264946551 -0.003325678124482743 0 0.21224697693316549 -0.01266756196469623 0 0.21006459463058891 -0.0016074886066977309 0 0.22224120264946551 -0.003325678124482743 0 0.21224697693316549 -0.01266756196469623 0 0.21006459463058891 -0.0016074886066977309 0 0.20103599691144891 -0.0144033655376056 0 0.21006459463058891 -0.0016074886066977309 0 0.19308926441198609 -0.0044136307146925239 0 0.20103599691144891 -0.0144033655376056 0 0.18716487996674999 -0.017445413771209579 0 0.19308926441198609 -0.0044136307146925239 0 0.20103599691144891 -0.0144033655376056 0 0.20103599691144891 -0.0144033655376056 0 0.19594324581687031 -0.02587269695450246 0 0.20798305635399059 -0.024330159693258 0 0.18611766867265969 -0.033272010433490311 0 0.18716487996674999 -0.017445413771209579 0 0.19594324581687031 -0.02587269695450246 0 0.18716487996674999 -0.017445413771209579 0 0.20103599691144891 -0.0144033655376056 0 0.19594324581687031 -0.02587269695450246 0 0.19594324581687031 -0.02587269695450246 0 0.20798305635399059 -0.024330159693258 0 0.20133655582680399 -0.038729839812589283 0 0.21224697693316549 -0.01266756196469623 0 0.20103599691144891 -0.0144033655376056 0 0.20798305635399059 -0.024330159693258 0 0.21224697693316549 -0.01266756196469623 0 0.20798305635399059 -0.024330159693258 0 0.2176851306636452 -0.020849921587021789 0 0.20798305635399059 -0.024330159693258 0 0.2176851306636452 -0.020849921587021789 0 0.2162307324665757 -0.035574386453295637 0 0.2162307324665757 -0.035574386453295637 0 0.20133655582680399 -0.038729839812589283 0 0.2152419568528485 -0.052634402983811661 0 0.20798305635399059 -0.024330159693258 0 0.2162307324665757 -0.035574386453295637 0 0.20133655582680399 -0.038729839812589283 0 0.18611766867265969 -0.033272010433490311 0 0.19594324581687031 -0.02587269695450246 0 0.20133655582680399 -0.038729839812589283 0 0.18611766867265969 -0.033272010433490311 0 0.20133655582680399 -0.038729839812589283 0 0.1876531900398071 -0.047876237797398892 0 0.20133655582680399 -0.038729839812589283 0 0.20033652795736079 -0.053462861485401338 0 0.1876531900398071 -0.047876237797398892 0 0.20033652795736079 -0.053462861485401338 0 0.1876531900398071 -0.047876237797398892 0 0.18757497365838169 -0.062320608357063788 0 0.20033652795736079 -0.053462861485401338 0 0.18757497365838169 -0.062320608357063788 0 0.20303848095853549 -0.066432469659465712 0 0.20033652795736079 -0.053462861485401338 0 0.2152419568528485 -0.052634402983811661 0 0.20303848095853549 -0.066432469659465712 0 0.20133655582680399 -0.038729839812589283 0 0.20033652795736079 -0.053462861485401338 0 0.2152419568528485 -0.052634402983811661 0 0.2152419568528485 -0.052634402983811661 0 0.2265958424884161 -0.05905225395291417 0 0.22430990936229489 -0.070865426762319994 0 0.2152419568528485 -0.052634402983811661 0 0.2265958424884161 -0.05905225395291417 0 0.22499967678069219 -0.04579816607273357 0 0.2265958424884161 -0.05905225395291417 0 0.2372061671805917 -0.053377965274270071 0 0.22499967678069219 -0.04579816607273357 0 0.24855847519611851 -0.062125023059855351 0 0.24760222002503099 -0.050950223762612899 0 0.2372061671805917 -0.053377965274270071 0 0.24760222002503099 -0.050950223762612899 0 0.2372061671805917 -0.053377965274270071 0 0.2422091668467975 -0.041665592312155143 0 0.2372061671805917 -0.053377965274270071 0 0.2422091668467975 -0.041665592312155143 0 0.22972368491502879 -0.02835182169937633 0 0.25299300391118551 -0.04310368261356385 0 0.24760222002503099 -0.050950223762612899 0 0.2422091668467975 -0.041665592312155143 0 0.25299300391118551 -0.04310368261356385 0 0.2422091668467975 -0.041665592312155143 0 0.24397063804091951 -0.031284812218233142 0 0.2422091668467975 -0.041665592312155143 0 0.24397063804091951 -0.031284812218233142 0 0.22972368491502879 -0.02835182169937633 0 0.2162307324665757 -0.035574386453295637 0 0.2152419568528485 -0.052634402983811661 0 0.22499967678069219 -0.04579816607273357 0 0.2162307324665757 -0.035574386453295637 0 0.22499967678069219 -0.04579816607273357 0 0.22972368491502879 -0.02835182169937633 0 0.2372061671805917 -0.053377965274270071 0 0.22499967678069219 -0.04579816607273357 0 0.22972368491502879 -0.02835182169937633 0 0.2372061671805917 -0.053377965274270071 0 0.22972368491502879 -0.02835182169937633 0 0.22972368491502879 -0.02835182169937633 0 0.24706627646947341 -0.017072313160196539 0 0.22224120264946551 -0.003325678124482743 0 0.2176851306636452 -0.020849921587021789 0 0.22972368491502879 -0.02835182169937633 0 0.22224120264946551 -0.003325678124482743 0 0.22972368491502879 -0.02835182169937633 0 0.22224120264946551 -0.003325678124482743 0 0.2176851306636452 -0.020849921587021789 0 0.2162307324665757 -0.035574386453295637 0 0.22972368491502879 -0.02835182169937633 0 0.24397063804091951 -0.031284812218233142 0 0.22972368491502879 -0.02835182169937633 0 0.24706627646947341 -0.017072313160196539 0 0.23687473425034991 1.9212442884540241e-05 0 0.25003495375332918 -0.0026426516414230078 0 0.24706627646947341 -0.017072313160196539 0 0.24706627646947341 -0.017072313160196539 0 0.22224120264946551 -0.003325678124482743 0 0.23687473425034991 1.9212442884540241e-05 0 0.24706627646947341 -0.017072313160196539 0 0.22224120264946551 -0.003325678124482743 0 0.21074392073383269 -0.11570051035242671 0 0.20968978811959829 -0.091184599564054489 0 0.23368423171251851 -0.096530136902283972 0 0.18483920620327299 -0.098160017073258249 0 0.18301470947231921 -0.1168696029716651 0 0.21074392073383269 -0.11570051035242671 0 0.18301470947231921 -0.1168696029716651 0 0.21074392073383269 -0.11570051035242671 0 0.19721031104854869 -0.12679797788774669 0 0.18483920620327299 -0.098160017073258249 0 0.21074392073383269 -0.11570051035242671 0 0.20968978811959829 -0.091184599564054489 0 0.18483920620327299 -0.098160017073258249 0 0.18877344663832629 -0.079563627910417475 0 0.20968978811959829 -0.091184599564054489 0 0.18757497365838169 -0.062320608357063788 0 0.18877344663832629 -0.079563627910417475 0 0.20303848095853549 -0.066432469659465712 0 0.18877344663832629 -0.079563627910417475 0 0.20303848095853549 -0.066432469659465712 0 0.2118788766193952 -0.077263737147753891 0 0.2152419568528485 -0.052634402983811661 0 0.20303848095853549 -0.066432469659465712 0 0.22430990936229489 -0.070865426762319994 0 0.20303848095853549 -0.066432469659465712 0 0.2118788766193952 -0.077263737147753891 0 0.22430990936229489 -0.070865426762319994 0 0.18877344663832629 -0.079563627910417475 0 0.2118788766193952 -0.077263737147753891 0 0.20968978811959829 -0.091184599564054489 0 0.2118788766193952 -0.077263737147753891 0 0.20968978811959829 -0.091184599564054489 0 0.22906547205687711 -0.082811705006606645 0 0.20968978811959829 -0.091184599564054489 0 0.22906547205687711 -0.082811705006606645 0 0.23368423171251851 -0.096530136902283972 0 0.2265958424884161 -0.05905225395291417 0 0.22430990936229489 -0.070865426762319994 0 0.24468864944615479 -0.07840410884916385 0 0.2118788766193952 -0.077263737147753891 0 0.22906547205687711 -0.082811705006606645 0 0.22430990936229489 -0.070865426762319994 0 0.22906547205687711 -0.082811705006606645 0 0.22430990936229489 -0.070865426762319994 0 0.24468864944615479 -0.07840410884916385 0 0.2372061671805917 -0.053377965274270071 0 0.24468864944615479 -0.07840410884916385 0 0.2265958424884161 -0.05905225395291417 0 0.2372061671805917 -0.053377965274270071 0 0.24468864944615479 -0.07840410884916385 0 0.24855847519611851 -0.062125023059855351 0 0.2372061671805917 -0.053377965274270071 0 0.24468864944615479 -0.07840410884916385 0 0.25217113171171812 -0.1034302524240575 0 0.24468864944615479 -0.07840410884916385 0 0.25217113171171812 -0.1034302524240575 0 0.24468864944615479 -0.07840410884916385 0 0.23368423171251851 -0.096530136902283972 0 0.22906547205687711 -0.082811705006606645 0 0.24468864944615479 -0.07840410884916385 0 0.23368423171251851 -0.096530136902283972 0 0.25217113171171812 -0.1034302524240575 0 0.23368423171251851 -0.096530136902283972 0 0.23756910191536521 -0.12174133150328011 0 0.25217113171171812 -0.1034302524240575 0 0.23368423171251851 -0.096530136902283972 0 0.21074392073383269 -0.11570051035242671 0 0.23756910191536521 -0.12174133150328011 0 0.22610043604158589 -0.13718299764841729 0 0.21074392073383269 -0.11570051035242671 0 0.23368423171251851 -0.096530136902283972 0 0.23756910191536521 -0.12174133150328011 0 0.25217113171171812 -0.1034302524240575 0 0.25976613814471872 -0.12883274783915649 0 0.23756910191536521 -0.12174133150328011 0 0.25976613814471872 -0.12883274783915649 0 0.23756910191536521 -0.12174133150328011 0 0.24031126033631481 -0.1492057693513387 0 0.23756910191536521 -0.12174133150328011 0 0.24031126033631481 -0.1492057693513387 0 0.22610043604158589 -0.13718299764841729 0 0.24031126033631481 -0.1492057693513387 0 0.22195080488334351 -0.15346069587025199 0 0.22610043604158589 -0.13718299764841729 0 0.21074392073383269 -0.11570051035242671 0 0.22610043604158589 -0.13718299764841729 0 0.20806913563047119 -0.14005198148199149 0 0.21074392073383269 -0.11570051035242671 0 0.20806913563047119 -0.14005198148199149 0 0.19721031104854869 -0.12679797788774669 0 0.22195080488334351 -0.15346069587025199 0 0.22610043604158589 -0.13718299764841729 0 0.20806913563047119 -0.14005198148199149 0 0.22195080488334351 -0.15346069587025199 0 0.20806913563047119 -0.14005198148199149 0 0.20950282591805569 -0.1670533859748749 0 0.20806913563047119 -0.14005198148199149 0 0.18330626953203119 -0.1353941858929508 0 0.1855315872487015 -0.15362698255741469 0 0.20806913563047119 -0.14005198148199149 0 0.20950282591805569 -0.1670533859748749 0 0.1855315872487015 -0.15362698255741469 0 0.20806913563047119 -0.14005198148199149 0 0.19721031104854869 -0.12679797788774669 0 0.18330626953203119 -0.1353941858929508 0 0.18301470947231921 -0.1168696029716651 0 0.19721031104854869 -0.12679797788774669 0 0.18330626953203119 -0.1353941858929508 0 0.20950282591805569 -0.1670533859748749 0 0.19957986758443899 -0.19579517450300199 0 0.18269333495847989 -0.17720105098280789 0 0.19957986758443899 -0.19579517450300199 0 0.18269333495847989 -0.17720105098280789 0 0.20950282591805569 -0.1670533859748749 0 0.1855315872487015 -0.15362698255741469 0 0.18269333495847989 -0.17720105098280789 0 0.20950282591805569 -0.1670533859748749 0 0.21975957460529871 -0.191063243340726 0 0.19957986758443899 -0.19579517450300199 0 0.20950282591805569 -0.1670533859748749 0 0.23294671157744129 -0.17473674946503859 0 0.21975957460529871 -0.191063243340726 0 0.24031126033631481 -0.1492057693513387 0 0.22195080488334351 -0.15346069587025199 0 0.23294671157744129 -0.17473674946503859 0 0.22195080488334351 -0.15346069587025199 0 0.20950282591805569 -0.1670533859748749 0 0.23294671157744129 -0.17473674946503859 0 0.25359002948659382 -0.1686457834652231 0 0.24031126033631481 -0.1492057693513387 0 0.23294671157744129 -0.17473674946503859 0 0.25237487993077268 -0.1854134165861285 0 0.25359002948659382 -0.1686457834652231 0 0.23294671157744129 -0.17473674946503859 0 0.25237487993077268 -0.1854134165861285 0 0.23294671157744129 -0.17473674946503859 0 0.24030206773615961 -0.20334160873751869 0 0.25734944507526192 -0.2244181072738636 0 0.24030206773615961 -0.20334160873751869 0 0.23417041466179919 -0.22712763089960011 0 0.24030206773615961 -0.20334160873751869 0 0.23417041466179919 -0.22712763089960011 0 0.21646640021039801 -0.2143892980231959 0 0.24030206773615961 -0.20334160873751869 0 0.21975957460529871 -0.191063243340726 0 0.21646640021039801 -0.2143892980231959 0 0.23294671157744129 -0.17473674946503859 0 0.24030206773615961 -0.20334160873751869 0 0.21975957460529871 -0.191063243340726 0 0.24941326827896371 -0.25204479198237911 0 0.22697737633526319 -0.25038491081365638 0 0.24777135244263701 -0.23671177136949731 0 0.22697737633526319 -0.25038491081365638 0 0.24777135244263701 -0.23671177136949731 0 0.23417041466179919 -0.22712763089960011 0 0.25734944507526192 -0.2244181072738636 0 0.24777135244263701 -0.23671177136949731 0 0.23417041466179919 -0.22712763089960011 0 0.23417041466179919 -0.22712763089960011 0 0.21587488271220831 -0.232759393003174 0 0.21646640021039801 -0.2143892980231959 0 0.22697737633526319 -0.25038491081365638 0 0.23417041466179919 -0.22712763089960011 0 0.21587488271220831 -0.232759393003174 0 0.22697737633526319 -0.25038491081365638 0 0.20454148439156261 -0.24872502964493379 0 0.21587488271220831 -0.232759393003174 0 0.22697737633526319 -0.25038491081365638 0 0.20454148439156261 -0.24872502964493379 0 0.20454148439156261 -0.24872502964493379 0 0.21587488271220831 -0.232759393003174 0 0.1972187379620188 -0.2231700956344837 0 0.21587488271220831 -0.232759393003174 0 0.1972187379620188 -0.2231700956344837 0 0.21646640021039801 -0.2143892980231959 0 0.20454148439156261 -0.24872502964493379 0 0.1972187379620188 -0.2231700956344837 0 0.18307796178796171 -0.24223340020790701 0 0.21975957460529871 -0.191063243340726 0 0.21646640021039801 -0.2143892980231959 0 0.19957986758443899 -0.19579517450300199 0 0.21646640021039801 -0.2143892980231959 0 0.19957986758443899 -0.19579517450300199 0 0.1972187379620188 -0.2231700956344837 0 0.21646640021039801 -0.2143892980231959 0 0.19957986758443899 -0.19579517450300199 0 0.1972187379620188 -0.2231700956344837 0 0.17879101828352659 -0.20515599995205619 0 0.1972187379620188 -0.2231700956344837 0 0.19957986758443899 -0.19579517450300199 0 0.17879101828352659 -0.20515599995205619 0 0.17879101828352659 -0.20515599995205619 0 0.18269333495847989 -0.17720105098280789 0 0.1603632986050344 -0.18714190426962871 0 0.19957986758443899 -0.19579517450300199 0 0.17879101828352659 -0.20515599995205619 0 0.18269333495847989 -0.17720105098280789 0 0.17879101828352659 -0.20515599995205619 0 0.160275112392675 -0.215474658360754 0 0.17728639564172979 -0.2244129508702572 0 0.1972187379620188 -0.2231700956344837 0 0.17879101828352659 -0.20515599995205619 0 0.17728639564172979 -0.2244129508702572 0 0.17879101828352659 -0.20515599995205619 0 0.1603632986050344 -0.18714190426962871 0 0.17879101828352659 -0.20515599995205619 0 0.160275112392675 -0.215474658360754 0 0.1603632986050344 -0.18714190426962871 0 0.18307796178796171 -0.24223340020790701 0 0.17728639564172979 -0.2244129508702572 0 0.15911073340868501 -0.24074124695522001 0 0.1972187379620188 -0.2231700956344837 0 0.18307796178796171 -0.24223340020790701 0 0.17728639564172979 -0.2244129508702572 0 0.160275112392675 -0.215474658360754 0 0.17728639564172979 -0.2244129508702572 0 0.15911073340868501 -0.24074124695522001 0 0.17231961729408829 -0.25765912609673708 0 0.18307796178796171 -0.24223340020790701 0 0.15911073340868501 -0.24074124695522001 0 0.15911073340868501 -0.24074124695522001 0 0.13888180090699739 -0.22555938074764231 0 0.1344601159872095 -0.24988065735314571 0 0.160275112392675 -0.215474658360754 0 0.15911073340868501 -0.24074124695522001 0 0.13888180090699739 -0.22555938074764231 0 0.1206944459261682 -0.22158199379826299 0 0.13888180090699739 -0.22555938074764231 0 0.12616712520463391 -0.23654057206254361 0 0.13888180090699739 -0.22555938074764231 0 0.1344601159872095 -0.24988065735314571 0 0.12616712520463391 -0.23654057206254361 0 0.14194055410313419 -0.19374269522901019 0 0.14544183589748491 -0.2086752581430982 0 0.1603632986050344 -0.18714190426962871 0 0.14194055410313419 -0.19374269522901019 0 0.1438570797624901 -0.1820743137207613 0 0.1603632986050344 -0.18714190426962871 0 0.160275112392675 -0.215474658360754 0 0.14544183589748491 -0.2086752581430982 0 0.1603632986050344 -0.18714190426962871 0 0.160275112392675 -0.215474658360754 0 0.13888180090699739 -0.22555938074764231 0 0.14544183589748491 -0.2086752581430982 0 0.1247230407301535 -0.20277423270655601 0 0.13888180090699739 -0.22555938074764231 0 0.14544183589748491 -0.2086752581430982 0 0.1247230407301535 -0.20277423270655601 0 0.1206944459261682 -0.22158199379826299 0 0.13888180090699739 -0.22555938074764231 0 0.1247230407301535 -0.20277423270655601 0 0.14194055410313419 -0.19374269522901019 0 0.14544183589748491 -0.2086752581430982 0 0.1247230407301535 -0.20277423270655601 0 0.14194055410313419 -0.19374269522901019 0 0.13118888741524959 -0.17828484679720519 0 0.1247230407301535 -0.20277423270655601 0 0.13118888741524959 -0.17828484679720519 0 0.13118888741524959 -0.17828484679720519 0 0.1438570797624901 -0.1820743137207613 0 0.14193557892654229 -0.16912780858720131 0 0.14194055410313419 -0.19374269522901019 0 0.13118888741524959 -0.17828484679720519 0 0.1438570797624901 -0.1820743137207613 0 0.14193557892654229 -0.16912780858720131 0 0.1603632986050344 -0.18714190426962871 0 0.1438570797624901 -0.1820743137207613 0 0.14193557892654229 -0.16912780858720131 0 0.1603632986050344 -0.18714190426962871 0 0.15138474633873489 -0.1582257809326045 0 0.14193557892654229 -0.16912780858720131 0 0.1603632986050344 -0.18714190426962871 0 0.15138474633873489 -0.1582257809326045 0 0.14193557892654229 -0.16912780858720131 0 0.13765473410034559 -0.15379546088785431 0 0.13118888741524959 -0.17828484679720519 0 0.14193557892654229 -0.16912780858720131 0 0.13765473410034559 -0.15379546088785431 0 0.1203433207253979 -0.16419310509890711 0 0.13118888741524959 -0.17828484679720519 0 0.13765473410034559 -0.15379546088785431 0 0.13118888741524959 -0.17828484679720519 0 0.13765473410034559 -0.15379546088785431 0 0.1218457728544511 -0.14634428416477779 0 0.13765473410034559 -0.15379546088785431 0 0.14412058078543941 -0.1293060749785028 0 0.1218457728544511 -0.14634428416477779 0 0.1203433207253979 -0.16419310509890711 0 0.13765473410034559 -0.15379546088785431 0 0.1218457728544511 -0.14634428416477779 0 0.14412058078543941 -0.1293060749785028 0 0.1218457728544511 -0.14634428416477779 0 0.12903096964394609 -0.12821889392704361 0 0.14412058078543941 -0.1293060749785028 0 0.13728103571384309 -0.11878450841089561 0 0.12903096964394609 -0.12821889392704361 0 0.14412058078543941 -0.1293060749785028 0 0.14892026970656189 -0.14001280394242011 0 0.14412058078543941 -0.1293060749785028 0 0.15979813855800859 -0.12870721131531479 0 0.13765473410034559 -0.15379546088785431 0 0.14412058078543941 -0.1293060749785028 0 0.13765473410034559 -0.15379546088785431 0 0.14892026970656189 -0.14001280394242011 0 0.14412058078543941 -0.1293060749785028 0 0.15138474633873489 -0.1582257809326045 0 0.13765473410034559 -0.15379546088785431 0 0.14892026970656189 -0.14001280394242011 0 0.15138474633873489 -0.1582257809326045 0 0.14892026970656189 -0.14001280394242011 0 0.1658068023325209 -0.15860692746261401 0 0.14892026970656189 -0.14001280394242011 0 0.1658068023325209 -0.15860692746261401 0 0.14892026970656189 -0.14001280394242011 0 0.16770506432736701 -0.14107241727839201 0 0.1658068023325209 -0.15860692746261401 0 0.14892026970656189 -0.14001280394242011 0 0.16770506432736701 -0.14107241727839201 0 0.15979813855800859 -0.12870721131531479 0 0.16770506432736701 -0.14107241727839201 0 0.15979813855800859 -0.12870721131531479 0 0.17193112639388489 -0.12579093126961119 0 0.18301470947231921 -0.1168696029716651 0 0.17193112639388489 -0.12579093126961119 0 0.18330626953203119 -0.1353941858929508 0 0.16770506432736701 -0.14107241727839201 0 0.17193112639388489 -0.12579093126961119 0 0.18330626953203119 -0.1353941858929508 0 0.16770506432736701 -0.14107241727839201 0 0.18330626953203119 -0.1353941858929508 0 0.1855315872487015 -0.15362698255741469 0 0.16770506432736701 -0.14107241727839201 0 0.1855315872487015 -0.15362698255741469 0 0.1658068023325209 -0.15860692746261401 0 0.18269333495847989 -0.17720105098280789 0 0.1658068023325209 -0.15860692746261401 0 0.1855315872487015 -0.15362698255741469 0 0.18269333495847989 -0.17720105098280789 0 0.1658068023325209 -0.15860692746261401 0 0.18269333495847989 -0.17720105098280789 0 0.1603632986050344 -0.18714190426962871 0 0.1658068023325209 -0.15860692746261401 0 0.15138474633873489 -0.1582257809326045 0 0.1603632986050344 -0.18714190426962871 0 0.1658068023325209 -0.15860692746261401 0 
</DataArray>
</Points>
<Cells>
<DataArray type="UInt32" Name="connectivity" format="ascii">
0 1 2 3 4 5 6 7 8 9 10 11 12 13 14 15 16 17 18 19 20 21 22 23 24 25 26 27 28 29 30 31 32 33 34 35 36 37 38 39 40 41 42 43 44 45 46 47 48 49 50 51 52 53 54 55 56 57 58 59 60 61 62 63 64 65 66 67 68 69 70 71 72 73 74 75 76 77 78 79 80 81 82 83 84 85 86 87 88 89 90 91 92 93 94 95 96 97 98 99 100 101 102 103 104 105 106 107 108 109 110 111 112 113 114 115 116 117 118 119 120 121 122 123 124 125 126 127 128 129 130 131 132 133 134 135 136 137 138 139 140 141 142 143 144 145 146 147 148 149 150 151 152 153 154 155 156 157 158 159 160 161 162 163 164 165 166 167 168 169 170 171 172 173 174 175 176 177 178 179 180 181 182 183 184 185 186 187 188 189 190 191 192 193 194 195 196 197 198 199 200 201 202 203 204 205 206 207 208 209 210 211 212 213 214 215 216 217 218 219 220 221 222 223 224 225 226 227 228 229 230 231 232 233 234 235 236 237 238 239 240 241 242 243 244 245 246 247 248 249 250 251 252 253 254 255 256 257 258 259 260 261 262 263 264 265 266 267 268 269 270 271 272 273 274 275 276 277 278 279 280 281 282 283 284 285 286 287 288 289 290 291 292 293 294 295 296 297 298 299 300 301 302 303 304 305 306 307 308 309 310 311 312 313 314 315 316 317 318 319 320 321 322 323 324 325 326 327 328 329 330 331 332 333 334 335 336 337 338 339 340 341 342 343 344 345 346 347 348 349 350 351 352 353 354 355 356 357 358 359 360 361 362 363 364 365 366 367 368 369 370 371 372 373 374 375 376 377 378 379 380 381 382 383 384 385 386 387 388 389 390 391 392 393 394 395 396 397 398 399 400 401 402 403 404 405 406 407 408 409 410 411 412 413 414 415 416 417 418 419 420 421 422 423 424 425 426 427 428 429 430 431 432 433 434 435 436 437 438 439 440 441 442 443 444 445 446 447 448 449 450 451 452 453 454 455 456 457 458 459 460 461 462 463 464 465 466 467 468 469 470 471 472 473 474 475 476 477 478 479 480 481 482 483 484 485 486 487 488 489 490 491 492 493 494 495 496 497 498 499 500 501 502 503 504 505 506 507 508 509 510 511 512 513 514 515 516 517 518 519 520 521 522 523 524 525 526 527 528 529 530 531 532 533 534 535 536 537 538 539 540 541 542 543 544 545 546 547 548 549 550 551 552 553 554 555 556 557 558 559 560 561 562 563 564 565 566 567 568 569 570 571 572 573 574 575 576 577 578 579 580 581 582 583 584 585 586 587 588 589 590 591 592 593 594 595 596 597 598 599 600 601 602 603 604 605 606 607 608 609 610 611 612 613 614 615 616 617 618 619 620 621 622 623 624 625 626 627 628 629 630 631 632 633 634 635 636 637 638 639 640 641 642 643 644 645 646 647 648 649 650 651 652 653 654 655 656 657 658 659 660 661 662 663 664 665 666 667 668 669 670 671 672 673 674 675 676 677 678 679 680 681 682 683 684 685 686 687 688 689 690 691 692 693 694 695 696 697 698 699 700 701 702 703 704 705 706 707 708 709 710 711 712 713 714 715 716 717 718 719 720 721 722 723 724 725 726 727 728 729 730 731 732 733 734 735 736 737 738 739 740 741 742 743 744 745 746 747 748 749 750 751 752 753 754 755 756 757 758 759 760 761 762 763 764 765 766 767 768 769 770 771 772 773 774 775 776 777 778 779 780 781 782 783 784 785 786 787 788 789 790 791 792 793 794 795 796 797 798 799 800 801 802 803 804 805 806 807 808 809 810 811 812 813 814 815 816 817 818 819 820 821 822 823 824 825 826 827 828 829 830 831 832 833 834 835 836 837 838 839 840 841 842 843 844 845 846 847 848 849 850 851 852 853 854 855 856 857 858 859 860 861 862 863 864 865 866 867 868 869 870 871 872 873 874 875 876 877 878 879 880 881 882 883 884 885 886 887 888 889 890 891 892 893 894 895 896 897 898 899 900 901 902 903 904 905 906 907 908 909 910 911 912 913 914 915 916 917 918 919 920 921 922 923 924 925 926 927 928 929 930 931 932 933 934 935 936 937 938 939 940 941 942 943 944 945 946 947 948 949 950 951 952 953 954 955 956 957 958 959 960 961 962 963 964 965 966 967 968 969 970 971 972 973 974 975 976 977 978 979 980 981 982 983 984 985 986 987 988 989 990 991 992 993 994 995 996 997 998 999 1000 1001 1002 1003 1004 1005 1006 1007 1008 1009 1010 1011 1012 1013 1014 1015 1016 1017 1018 1019 1020 1021 1022 1023 1024 1025 1026 1027 1028 1029 1030 1031 1032 1033 1034 1035 1036 1037 1038 1039 1040 1041 1042 1043 1044 1045 1046 1047 1048 1049 1050 1051 1052 1053 1054 1055 1056 1057 1058 1059 1060 1061 1062 1063 1064 1065 1066 1067 1068 1069 1070 1071 1072 1073 1074 1075 1076 1077 1078 1079 1080 1081 1082 1083 1084 1085 1086 1087 1088 1089 1090 1091 1092 1093 1094 1095 1096 1097 1098 1099 1100 1101 1102 1103 1104 1105 1106 1107 1108 1109 1110 1111 1112 1113 1114 1115 1116 1117 1118 1119 1120 1121 1122 1123 1124 1125 1126 1127 1128 1129 1130 1131 1132 1133 1134 1135 1136 1137 1138 1139 1140 1141 1142 1143 1144 1145 1146 1147 1148 1149 1150 1151 1152 1153 1154 1155 1156 1157 1158 1159 1160 1161 1162 1163 1164 1165 1166 1167 1168 1169 1170 1171 1172 1173 1174 1175 1176 1177 1178 1179 1180 1181 1182 1183 1184 1185 1186 1187 1188 1189 1190 1191 1192 1193 1194 1195 1196 1197 1198 1199 1200 1201 1202 1203 1204 1205 1206 1207 1208 1209 1210 1211 1212 1213 1214 1215 1216 1217 1218 1219 1220 1221 1222 1223 1224 1225 1226 1227 1228 1229 1230 1231 1232 1233 1234 1235 1236 1237 1238 1239 1240 1241 1242 1243 1244 1245 1246 1247 1248 1249 1250 1251 1252 1253 1254 1255 1256 1257 1258 1259 1260 1261 1262 1263 1264 1265 1266 1267 1268 1269 1270 1271 1272 1273 1274 1275 1276 1277 1278 1279 1280 1281 1282 1283 1284 1285 1286 1287 1288 1289 1290 1291 1292 1293 1294 1295 1296 1297 1298 1299 1300 1301 1302 1303 1304 1305 1306 1307 1308 1309 1310 1311 1312 1313 1314 1315 1316 1317 1318 1319 1320 1321 1322 1323 1324 1325 1326 1327 1328 1329 1330 1331 1332 1333 1334 1335 1336 1337 1338 1339 1340 1341 1342 1343 1344 1345 1346 1347 1348 1349 1350 1351 1352 1353 1354 1355 1356 1357 1358 1359 1360 1361 1362 1363 1364 1365 1366 1367 1368 1369 1370 1371 1372 1373 1374 1375 1376 1377 1378 1379 1380 1381 1382 1383 1384 1385 1386 1387 1388 1389 1390 1391 1392 1393 1394 1395 1396 1397 1398 1399 1400 1401 1402 1403 1404 1405 1406 1407 1408 1409 1410 1411 1412 1413 1414 1415 1416 1417 1418 1419 1420 1421 1422 1423 1424 1425 1426 1427 1428 1429 1430 1431 1432 1433 1434 1435 1436 1437 1438 1439 1440 1441 1442 1443 1444 1445 1446 1447 1448 1449 1450 1451 1452 1453 1454 1455 1456 1457 1458 1459 1460 1461 1462 1463 1464 1465 1466 1467 1468 1469 1470 1471 1472 1473 1474 1475 1476 1477 1478 1479 1480 1481 1482 1483 1484 1485 1486 1487 1488 1489 1490 1491 1492 1493 1494 1495 1496 1497 1498 1499 1500 1501 1502 1503 1504 1505 1506 1507 1508 1509 1510 1511 1512 1513 1514 1515 1516 1517 1518 1519 1520 1521 1522 1523 1524 1525 1526 1527 1528 1529 1530 1531 1532 1533 1534 1535 1536 1537 1538 1539 1540 1541 1542 1543 1544 1545 1546 1547 1548 1549 1550 1551 1552 1553 1554 1555 1556 1557 1558 1559 1560 1561 1562 1563 1564 1565 1566 1567 1568 1569 1570 1571 1572 1573 1574 1575 1576 1577 1578 1579 1580 1581 1582 1583 1584 1585 1586 1587 1588 1589 1590 1591 1592 1593 1594 1595 1596 1597 1598 1599 1600 1601 1602 1603 1604 1605 1606 1607 1608 1609 1610 1611 1612 1613 1614 1615 1616 1617 1618 1619 1620 1621 1622 1623 1624 1625 1626 1627 1628 1629 1630 1631 1632 1633 1634 1635 1636 1637 1638 1639 1640 1641 1642 1643 1644 1645 1646 1647 1648 1649 1650 1651 1652 1653 1654 1655 1656 1657 1658 1659 1660 1661 1662 1663 1664 1665 1666 1667 1668 1669 1670 1671 1672 1673 1674 1675 1676 1677 1678 1679 1680 1681 1682 1683 1684 1685 1686 1687 1688 1689 1690 1691 1692 1693 1694 1695 1696 1697 1698 1699 1700 1701 1702 1703 1704 1705 1706 1707 1708 1709 1710 1711 1712 1713 1714 1715 1716 1717 1718 1719 1720 1721 1722 1723 1724 1725 1726 1727 1728 1729 1730 1731 1732 1733 1734 1735 1736 1737 1738 1739 1740 1741 1742 1743 1744 1745 1746 1747 1748 1749 1750 1751 1752 1753 1754 1755 1756 1757 1758 1759 1760 1761 1762 1763 1764 1765 1766 1767 1768 1769 1770 1771 1772 1773 1774 1775 1776 1777 1778 1779 1780 1781 1782 1783 1784 1785 1786 1787 1788 1789 1790 1791 1792 1793 1794 1795 1796 1797 1798 1799 1800 1801 1802 1803 1804 1805 1806 1807 1808 1809 1810 1811 1812 1813 1814 1815 1816 1817 1818 1819 1820 1821 1822 1823 1824 1825 1826 1827 1828 1829 1830 1831 1832 1833 1834 1835 1836 1837 1838 1839 1840 1841 1842 1843 1844 1845 1846 1847 1848 1849 1850 1851 1852 1853 1854 1855 1856 1857 1858 1859 1860 1861 1862 1863 1864 1865 1866 1867 1868 1869 1870 1871 1872 1873 1874 1875 1876 1877 1878 1879 1880 1881 1882 1883 1884 1885 1886 1887 1888 1889 1890 1891 1892 1893 1894 1895 1896 1897 1898 1899 1900 1901 1902 1903 1904 1905 1906 1907 1908 1909 1910 1911 1912 1913 1914 1915 1916 1917 1918 1919 1920 1921 1922 1923 1924 1925 1926 1927 1928 1929 1930 1931 1932 1933 1934 1935 1936 1937 1938 1939 1940 1941 1942 1943 1944 1945 1946 1947 1948 1949 1950 1951 1952 1953 1954 1955 1956 1957 1958 1959 1960 1961 1962 1963 1964 1965 1966 1967 1968 1969 1970 1971 1972 1973 1974 1975 1976 1977 1978 1979 1980 1981 1982 1983 1984 1985 1986 1987 1988 1989 1990 1991 1992 1993 1994 1995 1996 1997 1998 1999 2000 2001 2002 2003 2004 2005 2006 2007 2008 2009 2010 2011 2012 2013 2014 2015 2016 2017 2018 2019 2020 2021 2022 2023 2024 2025 2026 2027 2028 2029 2030 2031 2032 2033 2034 2035 2036 2037 2038 2039 2040 2041 2042 2043 2044 2045 2046 2047 2048 2049 2050 2051 2052 2053 2054 2055 2056 2057 2058 2059 2060 2061 2062 2063 2064 2065 2066 2067 2068 2069 2070 2071 2072 2073 2074 2075 2076 2077 2078 2079 2080 2081 2082 2083 2084 2085 2086 2087 2088 2089 2090 2091 2092 2093 2094 2095 2096 2097 2098 2099 2100 2101 2102 2103 2104 2105 2106 2107 2108 2109 2110 2111 2112 2113 2114 2115 2116 2117 2118 2119 2120 2121 2122 2123 2124 2125 2126 2127 2128 2129 2130 2131 2132 2133 2134 2135 2136 2137 2138 2139 2140 2141 2142 2143 2144 2145 2146 2147 2148 2149 2150 2151 2152 2153 2154 2155 2156 2157 2158 2159 2160 2161 2162 2163 2164 2165 2166 2167 2168 2169 2170 2171 2172 2173 2174 2175 2176 2177 2178 2179 2180 2181 2182 2183 2184 2185 2186 2187 2188 2189 2190 2191 2192 2193 2194 2195 2196 2197 2198 2199 2200 2201 2202 2203 2204 2205 2206 2207 2208 2209 2210 2211 2212 2213 2214 2215 2216 2217 2218 2219 2220 2221 2222 2223 2224 2225 2226 2227 2228 2229 2230 2231 2232 2233 2234 2235 2236 2237 2238 2239 2240 2241 2242 2243 2244 2245 2246 2247 2248 2249 2250 2251 2252 2253 2254 2255 2256 2257 2258 2259 2260 2261 2262 2263 2264 2265 2266 2267 2268 2269 2270 2271 2272 2273 2274 2275 2276 2277 2278 2279 2280 2281 2282 2283 2284 2285 2286 2287 2288 2289 2290 2291 2292 2293 2294 2295 2296 2297 2298 2299 2300 2301 2302 2303 2304 2305 2306 2307 2308 2309 2310 2311 2312 2313 2314 2315 2316 2317 2318 2319 2320 2321 2322 2323 2324 2325 2326 2327 2328 2329 2330 2331 2332 2333 2334 2335 2336 2337 2338 2339 2340 2341 2342 2343 2344 2345 2346 2347 2348 2349 2350 2351 2352 2353 2354 2355 2356 2357 2358 2359 2360 2361 2362 2363 2364 2365 2366 2367 2368 2369 2370 2371 2372 2373 2374 2375 2376 2377 2378 2379 2380 2381 2382 2383 2384 2385 2386 2387 2388 2389 2390 2391 2392 2393 2394 2395 2396 2397 2398 2399 2400 2401 2402 2403 2404 2405 2406 2407 2408 2409 2410 2411 2412 2413 2414 2415 2416 2417 2418 2419 2420 2421 2422 2423 2424 2425 2426 2427 2428 2429 2430 2431 2432 2433 2434 2435 2436 2437 2438 2439 2440 2441 2442 2443 2444 2445 2446 2447 2448 2449 2450 2451 2452 2453 2454 2455 2456 2457 2458 2459 2460 2461 2462 2463 2464 2465 2466 2467 2468 2469 2470 2471 2472 2473 2474 2475 2476 2477 2478 2479 2480 2481 2482 2483 2484 2485 2486 2487 2488 2489 2490 2491 2492 2493 2494 2495 2496 2497 2498 2499 2500 2501 2502 2503 2504 2505 2506 2507 2508 2509 2510 2511 2512 2513 2514 2515 2516 2517 2518 2519 2520 2521 2522 2523 2524 2525 2526 2527 2528 2529 2530 2531 2532 2533 2534 2535 2536 2537 2538 2539 2540 2541 2542 2543 2544 2545 2546 2547 2548 2549 2550 2551 2552 2553 2554 2555 2556 2557 2558 2559 2560 2561 2562 2563 2564 2565 2566 2567 2568 2569 2570 2571 2572 2573 2574 2575 2576 2577 2578 2579 2580 2581 2582 2583 2584 2585 2586 2587 2588 2589 2590 2591 2592 2593 2594 2595 2596 2597 2598 2599 2600 2601 2602 2603 2604 2605 2606 2607 2608 2609 2610 2611 2612 2613 2614 2615 2616 2617 2618 2619 2620 2621 2622 2623 2624 2625 2626 2627 2628 2629 2630 2631 2632 2633 2634 2635 2636 2637 2638 2639 2640 2641 2642 2643 2644 2645 2646 2647 2648 2649 2650 2651 2652 2653 2654 2655 2656 2657 2658 2659 2660 2661 2662 2663 2664 2665 2666 2667 2668 2669 2670 2671 2672 2673 2674 2675 2676 2677 2678 2679 2680 2681 2682 2683 2684 2685 2686 2687 2688 2689 2690 2691 2692 2693 2694 2695 2696 2697 2698 2699 2700 2701 2702 2703 2704 2705 2706 2707 2708 2709 2710 2711 2712 2713 2714 2715 2716 2717 2718 2719 2720 2721 2722 2723 2724 2725 2726 2727 2728 2729 2730 2731 2732 2733 2734 2735 2736 2737 2738 2739 2740 2741 2742 2743 2744 2745 2746 2747 2748 2749 2750 2751 2752 2753 2754 2755 2756 2757 2758 2759 2760 2761 2762 2763 2764 2765 2766 2767 2768 2769 2770 2771 2772 2773 2774 2775 2776 2777 2778 2779 2780 2781 2782 2783 2784 2785 2786 2787 2788 2789 2790 2791 2792 2793 2794 2795 2796 2797 2798 2799 2800 2801 2802 2803 2804 2805 2806 2807 2808 2809 2810 2811 2812 2813 2814 2815 2816 2817 2818 2819 2820 2821 2822 2823 2824 2825 2826 2827 2828 2829 2830 2831 2832 2833 2834 2835 2836 2837 2838 2839 2840 2841 2842 2843 2844 2845 2846 2847 2848 2849 2850 2851 2852 2853 2854 2855 2856 2857 2858 2859 2860 2861 2862 2863 2864 2865 2866 2867 2868 2869 2870 2871 2872 2873 2874 2875 2876 2877 2878 2879 2880 2881 2882 2883 2884 2885 2886 2887 2888 2889 2890 2891 2892 2893 2894 2895 2896 2897 2898 2899 2900 2901 2902 2903 2904 2905 2906 2907 2908 2909 2910 2911 2912 2913 2914 2915 2916 2917 2918 2919 2920 2921 2922 2923 2924 2925 2926 2927 2928 2929 2930 2931 2932 2933 2934 2935 2936 2937 2938 2939 2940 2941 2942 2943 2944 2945 2946 2947 2948 2949 2950 2951 2952 2953 2954 2955 2956 2957 2958 2959 2960 2961 2962 2963 2964 2965 2966 2967 2968 2969 2970 2971 2972 2973 2974 2975 2976 2977 2978 2979 2980 2981 2982 2983 2984 2985 2986 2987 2988 2989 2990 2991 2992 2993 2994 2995 2996 2997 2998 2999 3000 3001 3002 3003 3004 3005 3006 3007 3008 3009 3010 3011 3012 3013 3014 3015 3016 3017 3018 3019 3020 3021 3022 3023 3024 3025 3026 3027 3028 3029 3030 3031 3032 3033 3034 3035 3036 3037 3038 3039 3040 3041 3042 3043 3044 3045 3046 3047 3048 3049 3050 3051 3052 3053 3054 3055 3056 3057 3058 3059 3060 3061 3062 3063 3064 3065 3066 3067 3068 3069 3070 3071 3072 3073 3074 3075 3076 3077 3078 3079 3080 3081 3082 3083 3084 3085 3086 3087 3088 3089 3090 3091 3092 3093 3094 3095 3096 3097 3098 3099 3100 3101 3102 3103 3104 3105 3106 3107 3108 3109 3110 3111 3112 3113 3114 3115 3116 3117 3118 3119 3120 3121 3122 3123 3124 3125 3126 3127 3128 3129 3130 3131 3132 3133 3134 3135 3136 3137 3138 3139 3140 3141 3142 3143 3144 3145 3146 3147 3148 3149 3150 3151 3152 3153 3154 3155 3156 3157 3158 3159 3160 3161 3162 3163 3164 3165 3166 3167 3168 3169 3170 3171 3172 3173 3174 3175 3176 3177 3178 3179 3180 3181 3182 3183 3184 3185 3186 3187 3188 3189 3190 3191 3192 3193 3194 3195 3196 3197 3198 3199 3200 3201 3202 3203 3204 3205 3206 3207 3208 3209 3210 3211 3212 3213 3214 3215 3216 3217 3218 3219 3220 3221 3222 3223 3224 3225 3226 3227 3228 3229 3230 3231 3232 3233 3234 3235 3236 3237 3238 3239 3240 3241 3242 3243 3244 3245 3246 3247 3248 3249 3250 3251 3252 3253 3254 3255 3256 3257 3258 3259 3260 3261 3262 3263 3264 3265 3266 3267 3268 3269 3270 3271 3272 3273 3274 3275 3276 3277 3278 3279 3280 3281 3282 3283 3284 3285 3286 3287 3288 3289 3290 3291 3292 3293 3294 3295 3296 3297 3298 3299 3300 3301 3302 3303 3304 3305 3306 3307 3308 3309 3310 3311 3312 3313 3314 3315 3316 3317 3318 3319 3320 3321 3322 3323 3324 3325 3326 3327 3328 3329 3330 3331 3332 3333 3334 3335 3336 3337 3338 3339 3340 3341 3342 3343 3344 3345 3346 3347 3348 3349 3350 3351 3352 3353 3354 3355 3356 3357 3358 3359 3360 3361 3362 3363 3364 3365 3366 3367 3368 3369 3370 3371 3372 3373 3374 3375 3376 3377 3378 3379 3380 3381 3382 3383 3384 3385 3386 3387 3388 3389 3390 3391 3392 3393 3394 3395 3396 3397 3398 3399 3400 3401 3402 3403 3404 3405 3406 3407 3408 3409 3410 3411 3412 3413 3414 3415 3416 3417 3418 3419 3420 3421 3422 3423 3424 3425 3426 3427 3428 3429 3430 3431 3432 3433 3434 3435 3436 3437 3438 3439 3440 3441 3442 3443 3444 3445 3446 3447 3448 3449 3450 3451 3452 3453 3454 3455 3456 3457 3458 3459 3460 3461 3462 3463 3464 3465 3466 3467 3468 3469 3470 3471 3472 3473 3474 3475 3476 3477 3478 3479 3480 3481 3482 3483 3484 3485 3486 3487 3488 3489 3490 3491 3492 3493 3494 3495 3496 3497 3498 3499 3500 3501 3502 3503 3504 3505 3506 3507 3508 3509 3510 3511 3512 3513 3514 3515 3516 3517 3518 3519 3520 3521 3522 3523 3524 3525 3526 3527 3528 3529 3530 3531 3532 3533 3534 3535 3536 3537 3538 3539 3540 3541 3542 3543 3544 3545 3546 3547 3548 3549 3550 3551 3552 3553 3554 3555 3556 3557 3558 3559 3560 3561 3562 3563 3564 3565 3566 3567 3568 3569 3570 3571 3572 3573 3574 3575 3576 3577 3578 3579 3580 3581 3582 3583 3584 3585 3586 3587 3588 3589 3590 3591 3592 3593 3594 3595 3596 3597 3598 3599 3600 3601 3602 3603 3604 3605 3606 3607 3608 3609 3610 3611 3612 3613 3614 3615 3616 3617 3618 3619 3620 3621 3622 3623 3624 3625 3626 3627 3628 3629 3630 3631 3632 3633 3634 3635 3636 3637 3638 3639 3640 3641 3642 3643 3644 3645 3646 3647 3648 3649 3650 3651 3652 3653 3654 3655 3656 3657 3658 3659 3660 3661 3662 3663 3664 3665 3666 3667 3668 3669 3670 3671 3672 3673 3674 3675 3676 3677 3678 3679 3680 3681 3682 3683 3684 3685 3686 3687 3688 3689 3690 3691 3692 3693 3694 3695 3696 3697 3698 3699 3700 3701 3702 3703 3704 3705 3706 3707 3708 3709 3710 3711 3712 3713 3714 3715 3716 3717 3718 3719 3720 3721 3722 3723 3724 3725 3726 3727 3728 3729 3730 3731 3732 3733 3734 3735 3736 3737 3738 3739 3740 3741 3742 3743 3744 3745 3746 3747 3748 3749 3750 3751 3752 3753 3754 3755 3756 3757 3758 3759 3760 3761 3762 3763 3764 3765 3766 3767 3768 3769 3770 3771 3772 3773 3774 3775 3776 3777 3778 3779 3780 3781 3782 3783 3784 3785 3786 3787 3788 3789 3790 3791 3792 3793 3794 3795 3796 3797 3798 3799 3800 3801 3802 3803 3804 3805 3806 3807 3808 3809 3810 3811 3812 3813 3814 3815 3816 3817 3818 3819 3820 3821 3822 3823 3824 3825 3826 3827 3828 3829 3830 3831 3832 3833 3834 3835 3836 3837 3838 3839 3840 3841 3842 3843 3844 3845 3846 3847 3848 3849 3850 3851 3852 3853 3854 3855 3856 3857 3858 3859 3860 3861 3862 3863 3864 3865 3866 3867 3868 3869 3870 3871 3872 3873 3874 3875 3876 3877 3878 3879 3880 3881 3882 3883 3884 3885 3886 3887 3888 3889 3890 3891 3892 3893 3894 3895 3896 3897 3898 3899 3900 3901 3902 3903 3904 3905 3906 3907 3908 3909 3910 3911 3912 3913 3914 3915 3916 3917 3918 3919 3920 3921 3922 3923 3924 3925 3926 3927 3928 3929 3930 3931 3932 3933 3934 3935 3936 3937 3938 3939 3940 3941 3942 3943 3944 3945 3946 3947 3948 3949 3950 3951 3952 3953 3954 3955 3956 3957 3958 3959 3960 3961 3962 3963 3964 3965 3966 3967 3968 3969 3970 3971 3972 3973 3974 3975 3976 3977 3978 3979 3980 3981 3982 3983 3984 3985 3986 3987 3988 3989 3990 3991 3992 3993 3994 3995 3996 3997 3998 3999 4000 4001 4002 4003 4004 4005 4006 4007 4008 4009 4010 4011 4012 4013 4014 4015 4016 4017 4018 4019 4020 4021 4022 4023 4024 4025 4026 4027 4028 4029 4030 4031 4032 4033 4034 4035 4036 4037 4038 4039 4040 4041 4042 4043 4044 4045 4046 4047 4048 4049 4050 4051 4052 4053 4054 4055 4056 4057 4058 4059 4060 4061 4062 4063 4064 4065 4066 4067 4068 4069 4070 4071 4072 4073 4074 4075 4076 4077 4078 4079 4080 4081 4082 4083 4084 4085 4086 4087 4088 4089 4090 4091 4092 4093 4094 4095 4096 4097 4098 4099 4100 4101 4102 4103 4104 4105 4106 4107 4108 4109 4110 4111 4112 4113 4114 4115 4116 4117 4118 4119 4120 4121 4122 4123 4124 4125 4126 4127 4128 4129 4130 4131 4132 4133 4134 4135 4136 4137 4138 4139 4140 4141 4142 4143 4144 4145 4146 4147 4148 4149 4150 4151 4152 4153 4154 4155 4156 4157 4158 4159 4160 4161 4162 4163 4164 4165 4166 4167 4168 4169 4170 4171 4172 4173 4174 4175 4176 4177 4178 4179 4180 4181 4182 4183 4184 4185 4186 4187 4188 4189 4190 4191 4192 4193 4194 4195 4196 4197 4198 4199 4200 4201 4202 4203 4204 4205 4206 4207 4208 4209 4210 4211 4212 4213 4214 4215 4216 4217 4218 4219 4220 4221 4222 4223 4224 4225 4226 4227 4228 4229 4230 4231 4232 4233 4234 4235 4236 4237 4238 4239 4240 4241 4242 4243 4244 4245 4246 4247 4248 4249 4250 4251 4252 4253 4254 4255 4256 4257 4258 4259 4260 4261 4262 4263 4264 4265 4266 4267 4268 4269 4270 4271 4272 4273 4274 4275 4276 4277 4278 4279 4280 4281 4282 4283 4284 4285 4286 4287 4288 4289 4290 4291 4292 4293 4294 4295 4296 4297 4298 4299 4300 4301 4302 4303 4304 4305 4306 4307 4308 4309 4310 4311 4312 4313 4314 4315 4316 4317 4318 4319 4320 4321 4322 4323 4324 4325 4326 4327 4328 4329 4330 4331 4332 4333 4334 4335 4336 4337 4338 4339 4340 4341 4342 4343 4344 4345 4346 4347 4348 4349 4350 4351 4352 4353 4354 4355 4356 4357 4358 4359 4360 4361 4362 4363 4364 4365 4366 4367 4368 4369 4370 4371 4372 4373 4374 4375 4376 4377 4378 4379 4380 4381 4382 4383 4384 4385 4386 4387 4388 4389 4390 4391 4392 4393 4394 4395 4396 4397 4398 4399 4400 4401 4402 4403 4404 4405 4406 4407 4408 4409 4410 4411 4412 4413 4414 4415 4416 4417 4418 4419 4420 4421 4422 4423 4424 4425 4426 4427 4428 4429 4430 4431 4432 4433 4434 4435 4436 4437 4438 4439 4440 4441 4442 4443 4444 4445 4446 4447 4448 4449 4450 4451 4452 4453 4454 4455 4456 4457 4458 4459 4460 4461 4462 4463 4464 4465 4466 4467 4468 4469 4470 4471 4472 4473 4474 4475 4476 4477 4478 4479 4480 4481 4482 4483 4484 4485 4486 4487 4488 4489 4490 4491 4492 4493 4494 4495 4496 4497 4498 4499 4500 4501 4502 4503 4504 4505 4506 4507 4508 4509 4510 4511 4512 4513 4514 4515 4516 4517 4518 4519 4520 4521 4522 4523 4524 4525 4526 4527 4528 4529 4530 4531 4532 4533 4534 4535 4536 4537 4538 4539 4540 4541 4542 4543 4544 4545 4546 4547 4548 4549 4550 4551 4552 4553 4554 4555 4556 4557 4558 4559 4560 4561 4562 4563 4564 4565 4566 4567 4568 4569 4570 4571 4572 4573 4574 4575 4576 4577 4578 4579 4580 4581 4582 4583 4584 4585 4586 4587 4588 4589 4590 4591 4592 4593 4594 4595 4596 4597 4598 4599 4600 4601 4602 4603 4604 4605 4606 4607 4608 4609 4610 4611 4612 4613 4614 4615 4616 4617 4618 4619 4620 4621 4622 4623 4624 4625 4626 4627 4628 4629 4630 4631 4632 4633 4634 4635 4636 4637 4638 4639 4640 4641 4642 4643 4644 4645 4646 4647 4648 4649 4650 4651 4652 4653 4654 4655 4656 4657 4658 4659 4660 4661 4662 4663 4664 4665 4666 4667 4668 4669 4670 4671 4672 4673 4674 4675 4676 4677 4678 4679 4680 4681 4682 4683 4684 4685 4686 4687 4688 4689 4690 4691 4692 4693 4694 4695 4696 4697 4698 4699 4700 4701 4702 4703 4704 4705 4706 4707 4708 4709 4710 4711 4712 4713 4714 4715 4716 4717 4718 4719 4720 4721 4722 4723 4724 4725 4726 4727 4728 4729 4730 4731 4732 4733 4734 4735 4736 4737 4738 4739 4740 4741 4742 4743 4744 4745 4746 4747 4748 4749 4750 4751 4752 4753 4754 4755 4756 4757 4758 4759 4760 4761 4762 4763 4764 4765 4766 4767 4768 4769 4770 4771 4772 4773 4774 4775 4776 4777 4778 4779 4780 4781 4782 4783 4784 4785 4786 4787 4788 4789 4790 4791 4792 4793 4794 4795 4796 4797 4798 4799 4800 4801 4802 4803 4804 4805 4806 4807 4808 4809 4810 4811 4812 4813 4814 4815 4816 4817 4818 4819 4820 4821 4822 4823 4824 4825 4826 4827 4828 4829 4830 4831 4832 4833 4834 4835 4836 4837 4838 4839 4840 4841 4842 4843 4844 4845 4846 4847 4848 4849 4850 4851 4852 4853 4854 4855 4856 4857 4858 4859 4860 4861 4862 4863 4864 4865 4866 4867 4868 4869 4870 4871 4872 4873 4874 4875 4876 4877 4878 4879 4880 4881 4882 4883 4884 4885 4886 4887 4888 4889 4890 4891 4892 4893 4894 4895 4896 4897 4898 4899 4900 4901 4902 4903 4904 4905 4906 4907 4908 4909 4910 4911 4912 4913 4914 4915 4916 4917 4918 4919 4920 4921 4922 4923 4924 4925 4926 4927 4928 4929 4930 4931 4932 4933 4934 4935 4936 4937 4938 4939 4940 4941 4942 4943 4944 4945 4946 4947 4948 4949 4950 4951 4952 4953 4954 4955 4956 4957 4958 4959 4960 4961 4962 4963 4964 4965 4966 4967 4968 4969 4970 4971 4972 4973 4974 4975 4976 4977 4978 4979 4980 4981 4982 4983 4984 4985 4986 4987 4988 4989 4990 4991 4992 4993 4994 4995 4996 4997 4998 4999 5000 5001 5002 5003 5004 5005 5006 5007 5008 5009 5010 5011 5012 5013 5014 5015 5016 5017 5018 5019 5020 5021 5022 5023 5024 5025 5026 5027 5028 5029 5030 5031 5032 5033 5034 5035 5036 5037 5038 5039 5040 5041 5042 5043 5044 5045 5046 5047 5048 5049 5050 5051 5052 5053 5054 5055 5056 5057 5058 5059 5060 5061 5062 5063 5064 5065 5066 5067 5068 5069 5070 5071 5072 5073 5074 5075 5076 5077 5078 5079 5080 5081 5082 5083 5084 5085 5086 5087 5088 5089 5090 5091 5092 5093 5094 5095 5096 5097 5098 5099 5100 5101 5102 5103 5104 5105 5106 5107 5108 5109 5110 5111 5112 5113 5114 5115 5116 5117 5118 5119 5120 5121 5122 5123 5124 5125 5126 5127 5128 5129 5130 5131 5132 5133 5134 5135 5136 5137 5138 5139 5140 5141 5142 5143 5144 5145 5146 5147 5148 5149 5150 5151 5152 5153 5154 5155 5156 5157 5158 5159 5160 5161 5162 5163 5164 5165 5166 5167 5168 5169 5170 5171 5172 5173 5174 5175 5176 5177 5178 5179 5180 5181 5182 5183 5184 5185 5186 5187 5188 5189 5190 5191 5192 5193 5194 5195 5196 5197 5198 5199 5200 5201 5202 5203 5204 5205 5206 5207 5208 5209 5210 5211 5212 5213 5214 5215 5216 5217 5218 5219 5220 5221 5222 5223 5224 5225 5226 5227 5228 5229 5230 5231 5232 5233 5234 5235 5236 5237 5238 5239 5240 5241 5242 5243 5244 5245 5246 5247 5248 5249 5250 5251 5252 5253 5254 5255 5256 5257 5258 5259 5260 5261 5262 5263 5264 5265 5266 5267 5268 5269 5270 5271 5272 5273 5274 5275 5276 5277 5278 5279 5280 5281 5282 5283 5284 5285 5286 5287 5288 5289 5290 5291 5292 5293 5294 5295 5296 5297 5298 5299 5300 5301 5302 5303 5304 5305 5306 5307 5308 5309 5310 5311 5312 5313 5314 5315 5316 5317 5318 5319 5320 5321 5322 5323 5324 5325 5326 5327 5328 5329 5330 5331 5332 5333 5334 5335 5336 5337 5338 5339 5340 5341 5342 5343 5344 5345 5346 5347 5348 5349 5350 5351 5352 5353 5354 5355 5356 5357 5358 5359 5360 5361 5362 5363 5364 5365 5366 5367 5368 5369 5370 5371 5372 5373 5374 5375 5376 5377 5378 5379 5380 5381 5382 5383 5384 5385 5386 5387 5388 5389 5390 5391 5392 5393 5394 5395 5396 5397 5398 5399 5400 5401 5402 5403 5404 5405 5406 5407 5408 5409 5410 5411 5412 5413 5414 5415 5416 5417 5418 5419 5420 5421 5422 5423 5424 5425 5426 5427 5428 5429 5430 5431 5432 5433 5434 5435 5436 5437 5438 5439 5440 5441 5442 5443 5444 5445 5446 5447 5448 5449 5450 5451 5452 5453 5454 5455 5456 5457 5458 5459 5460 5461 5462 5463 5464 5465 5466 5467 5468 5469 5470 5471 5472 5473 5474 5475 5476 5477 5478 5479 5480 5481 5482 5483 5484 5485 5486 5487 5488 5489 5490 5491 5492 5493 5494 5495 5496 5497 5498 5499 5500 5501 5502 5503 5504 5505 5506 5507 5508 5509 5510 5511 5512 5513 5514 5515 5516 5517 5518 5519 5520 5521 5522 5523 5524 5525 5526 5527 5528 5529 5530 5531 5532 5533 5534 5535 5536 5537 5538 5539 5540 5541 5542 5543 5544 5545 5546 5547 5548 5549 5550 5551 5552 5553 5554 5555 5556 5557 5558 5559 5560 5561 5562 5563 5564 5565 5566 5567 5568 5569 5570 5571 5572 5573 5574 5575 5576 5577 5578 5579 5580 5581 5582 5583 5584 5585 5586 5587 5588 5589 5590 5591 5592 5593 5594 5595 5596 5597 5598 5599 5600 5601 5602 5603 5604 5605 5606 5607 5608 5609 5610 5611 5612 5613 5614 5615 5616 5617 5618 5619 5620 5621 5622 5623 5624 5625 5626 5627 5628 5629 5630 5631 5632 5633 5634 5635 5636 5637 5638 5639 5640 5641 5642 5643 5644 5645 5646 5647 5648 5649 5650 5651 5652 5653 5654 5655 5656 5657 5658 5659 5660 5661 5662 5663 5664 5665 5666 5667 5668 5669 5670 5671 5672 5673 5674 5675 5676 5677 5678 5679 5680 5681 5682 5683 5684 5685 5686 5687 5688 5689 5690 5691 5692 5693 5694 5695 5696 5697 5698 5699 5700 5701 5702 5703 5704 5705 5706 5707 5708 5709 5710 5711 5712 5713 5714 5715 5716 5717 5718 5719 5720 5721 5722 5723 5724 5725 5726 5727 5728 5729 5730 5731 5732 5733 5734 5735 5736 5737 5738 5739 5740 5741 5742 5743 5744 5745 5746 5747 5748 5749 5750 5751 5752 5753 5754 5755 5756 5757 5758 5759 5760 5761 5762 5763 5764 5765 5766 5767 5768 5769 5770 5771 5772 5773 5774 5775 5776 5777 5778 5779 5780 5781 5782 5783 5784 5785 5786 5787 5788 5789 5790 5791 5792 5793 5794 5795 5796 5797 5798 5799 5800 5801 5802 5803 5804 5805 5806 5807 5808 5809 5810 5811 5812 5813 5814 5815 5816 5817 5818 5819 5820 5821 5822 5823 5824 5825 5826 5827 5828 5829 5830 5831 5832 5833 5834 5835 5836 5837 5838 5839 5840 5841 5842 5843 5844 5845 5846 5847 5848 5849 5850 5851 5852 5853 5854 5855 5856 5857 5858 5859 5860 5861 5862 5863 5864 5865 5866 5867 5868 5869 5870 5871 5872 5873 5874 5875 5876 5877 5878 5879 5880 5881 5882 5883 5884 5885 5886 5887 5888 5889 5890 5891 5892 5893 5894 5895 5896 5897 5898 5899 5900 5901 5902 5903 5904 5905 5906 5907 5908 5909 5910 5911 5912 5913 5914 5915 5916 5917 5918 5919 5920 5921 5922 5923 5924 5925 5926 5927 5928 5929 5930 5931 5932 5933 5934 5935 5936 5937 5938 5939 5940 5941 5942 5943 5944 5945 5946 5947 5948 5949 5950 5951 5952 5953 5954 5955 5956 5957 5958 5959 5960 5961 5962 5963 5964 5965 5966 5967 5968 5969 5970 5971 5972 5973 5974 5975 5976 5977 5978 5979 5980 5981 5982 5983 5984 5985 5986 5987 5988 5989 5990 5991 5992 5993 5994 5995 5996 5997 5998 5999 6000 6001 6002 6003 6004 6005 6006 6007 6008 6009 6010 6011 6012 6013 6014 6015 6016 6017 6018 6019 6020 6021 6022 6023 6024 6025 6026 6027 6028 6029 6030 6031 6032 6033 6034 6035 6036 6037 6038 6039 6040 6041 6042 6043 6044 6045 6046 6047 6048 6049 6050 6051 6052 6053 6054 6055 6056 6057 6058 6059 6060 6061 6062 6063 6064 6065 6066 6067 6068 6069 6070 6071 6072 6073 6074 6075 6076 6077 6078 6079 6080 6081 6082 6083 6084 6085 6086 6087 6088 6089 6090 6091 6092 6093 6094 6095 6096 6097 6098 6099 6100 6101 6102 6103 6104 6105 6106 6107 6108 6109 6110 6111 6112 6113 6114 6115 6116 6117 6118 6119 6120 6121 6122 6123 6124 6125 6126 6127 6128 6129 6130 6131 6132 6133 6134 6135 6136 6137 6138 6139 6140 6141 6142 6143 6144 6145 6146 6147 6148 6149 6150 6151 6152 6153 6154 6155 6156 6157 6158 6159 6160 6161 6162 6163 6164 6165 6166 6167 6168 6169 6170 6171 6172 6173 6174 6175 6176 6177 6178 6179 6180 6181 6182 6183 6184 6185 6186 6187 6188 6189 6190 6191 6192 6193 6194 6195 6196 6197 6198 6199 6200 6201 6202 6203 6204 6205 6206 6207 6208 6209 6210 6211 6212 6213 6214 6215 6216 6217 6218 6219 6220 6221 6222 6223 6224 6225 6226 6227 6228 6229 6230 6231 6232 6233 6234 6235 6236 6237 6238 6239 6240 6241 6242 6243 6244 6245 6246 6247 6248 6249 6250 6251 6252 6253 6254 6255 6256 6257 6258 6259 6260 6261 6262 6263 6264 6265 6266 6267 6268 6269 6270 6271 6272 6273 6274 6275 6276 6277 6278 6279 6280 6281 6282 6283 6284 6285 6286 6287 6288 6289 6290 6291 6292 6293 6294 6295 6296 6297 6298 6299 6300 6301 6302 6303 6304 6305 6306 6307 6308 6309 6310 6311 6312 6313 6314 6315 6316 6317 6318 6319 6320 6321 6322 6323 6324 6325 6326 6327 6328 6329 6330 6331 6332 6333 6334 6335 6336 6337 6338 6339 6340 6341 6342 6343 6344 6345 6346 6347 6348 6349 6350 6351 6352 6353 6354 6355 6356 6357 6358 6359 6360 6361 6362 6363 6364 6365 6366 6367 6368 6369 6370 6371 6372 6373 6374 6375 6376 6377 6378 6379 6380 6381 6382 6383 6384 6385 6386 6387 6388 6389 6390 6391 6392 6393 6394 6395 6396 6397 6398 6399 6400 6401 6402 6403 6404 6405 6406 6407 6408 6409 6410 6411 6412 6413 6414 6415 6416 6417 6418 6419 6420 6421 6422 6423 6424 6425 6426 6427 6428 6429 6430 6431 6432 6433 6434 6435 6436 6437 6438 6439 6440 6441 6442 6443 6444 6445 6446 6447 6448 6449 6450 6451 6452 6453 6454 6455 6456 6457 6458 6459 6460 6461 6462 6463 6464 6465 6466 6467 6468 6469 6470 6471 6472 6473 6474 6475 6476 6477 6478 6479 6480 6481 6482 6483 6484 6485 6486 6487 6488 6489 6490 6491 6492 6493 6494 6495 6496 6497 6498 6499 6500 6501 6502 6503 6504 6505 6506 6507 6508 6509 6510 6511 6512 6513 6514 6515 6516 6517 6518 6519 6520 6521 6522 6523 6524 6525 6526 6527 6528 6529 6530 6531 6532 6533 6534 6535 6536 6537 6538 6539 6540 6541 6542 6543 6544 6545 6546 6547 6548 6549 6550 6551 6552 6553 6554 6555 6556 6557 6558 6559 6560 6561 6562 6563 6564 6565 6566 6567 6568 6569 6570 6571 6572 6573 6574 6575 6576 6577 6578 6579 6580 6581 6582 6583 6584 6585 6586 6587 6588 6589 6590 6591 6592 6593 6594 6595 6596 6597 6598 6599 6600 6601 6602 6603 6604 6605 6606 6607 6608 6609 6610 6611 6612 6613 6614 6615 6616 6617 6618 6619 6620 6621 6622 6623 6624 6625 6626 6627 6628 6629 6630 6631 6632 6633 6634 6635 6636 6637 6638 6639 6640 6641 6642 6643 6644 6645 6646 6647 6648 6649 6650 6651 6652 6653 6654 6655 6656 6657 6658 6659 6660 6661 6662 6663 6664 6665 6666 6667 6668 6669 6670 6671 6672 6673 6674 6675 6676 6677 6678 6679 6680 6681 6682 6683 6684 6685 6686 6687 6688 6689 6690 6691 6692 6693 6694 6695 6696 6697 6698 6699 6700 6701 6702 6703 6704 6705 6706 6707 6708 6709 6710 6711 6712 6713 6714 6715 6716 6717 6718 6719 6720 6721 6722 6723 6724 6725 6726 6727 6728 6729 6730 6731 6732 6733 6734 6735 6736 6737 6738 6739 6740 6741 6742 6743 6744 6745 6746 6747 6748 6749 6750 6751 6752 6753 6754 6755 6756 6757 6758 6759 6760 6761 6762 6763 6764 6765 6766 6767 6768 6769 6770 6771 6772 6773 6774 6775 6776 6777 6778 6779 6780 6781 6782 6783 6784 6785 6786 6787 6788 6789 6790 6791 6792 6793 6794 6795 6796 6797 6798 6799 6800 6801 6802 6803 6804 6805 6806 6807 6808 6809 6810 6811 6812 6813 6814 6815 6816 6817 6818 6819 6820 6821 6822 6823 6824 6825 6826 6827 6828 6829 6830 6831 6832 6833 6834 6835 6836 6837 6838 6839 6840 6841 6842 6843 6844 6845 6846 6847 6848 6849 6850 6851 6852 6853 6854 6855 6856 6857 6858 6859 6860 6861 6862 6863 6864 6865 6866 6867 6868 6869 6870 6871 6872 6873 6874 6875 6876 6877 6878 6879 6880 6881 6882 6883 6884 6885 6886 6887 6888 6889 6890 6891 6892 6893 6894 6895 6896 6897 6898 6899 6900 6901 6902 6903 6904 6905 6906 6907 6908 6909 6910 6911 6912 6913 6914 6915 6916 6917 6918 6919 6920 6921 6922 6923 6924 6925 6926 6927 6928 6929 6930 6931 6932 6933 6934 6935 6936 6937 6938 6939 6940 6941 6942 6943 6944 6945 6946 6947 6948 6949 6950 6951 6952 6953 6954 6955 6956 6957 6958 6959 6960 6961 6962 6963 6964 6965 6966 6967 6968 6969 6970 6971 6972 6973 6974 6975 6976 6977 6978 6979 6980 6981 6982 6983 6984 6985 6986 6987 6988 6989 6990 6991 6992 6993 6994 6995 6996 6997 6998 6999 7000 7001 7002 7003 7004 7005 7006 7007 7008 7009 7010 7011 7012 7013 7014 7015 7016 7017 7018 7019 7020 7021 7022 7023 7024 7025 7026 7027 7028 7029 7030 7031 7032 7033 7034 7035 7036 7037 7038 7039 7040 7041 7042 7043 7044 7045 7046 7047 7048 7049 7050 7051 7052 7053 7054 7055 7056 7057 7058 7059 7060 7061 7062 7063 7064 7065 7066 7067 7068 7069 7070 7071 7072 7073 7074 7075 7076 7077 7078 7079 7080 7081 7082 7083 7084 7085 7086 7087 7088 7089 7090 7091 7092 7093 7094 7095 7096 7097 7098 7099 7100 7101 7102 7103 7104 7105 7106 7107 7108 7109 7110 7111 7112 7113 7114 7115 7116 7117 7118 7119 7120 7121 7122 7123 7124 7125 7126 7127 7128 7129 7130 7131 7132 7133 7134 7135 7136 7137 7138 7139 7140 7141 7142 7143 7144 7145 7146 7147 7148 7149 7150 7151 7152 7153 7154 7155 7156 7157 7158 7159 7160 7161 7162 7163 7164 7165 7166 7167 7168 7169 7170 7171 7172 7173 7174 7175 7176 7177 7178 7179 7180 7181 7182 7183 7184 7185 7186 7187 7188 7189 7190 7191 7192 7193 7194 7195 7196 7197 7198 7199 7200 7201 7202 7203 7204 7205 7206 7207 7208 7209 7210 7211 7212 7213 7214 7215 7216 7217 7218 7219 7220 7221 7222 7223 7224 7225 7226 7227 7228 7229 7230 7231 7232 7233 7234 7235 7236 7237 7238 7239 7240 7241 7242 7243 7244 7245 7246 7247 7248 7249 7250 7251 7252 7253 7254 7255 7256 7257 7258 7259 7260 7261 7262 7263 7264 7265 7266 7267 7268 7269 7270 7271 7272 7273 7274 7275 7276 7277 7278 7279 7280 7281 7282 7283 7284 7285 7286 7287 7288 7289 7290 7291 7292 7293 7294 7295 7296 7297 7298 7299 7300 7301 7302 7303 7304 7305 7306 7307 7308 7309 7310 7311 7312 7313 7314 7315 7316 7317 7318 7319 7320 7321 7322 7323 7324 7325 7326 7327 7328 7329 7330 7331 7332 7333 7334 7335 7336 7337 7338 7339 7340 7341 7342 7343 7344 7345 7346 7347 7348 7349 7350 7351 7352 7353 7354 7355 7356 7357 7358 7359 7360 7361 7362 7363 7364 7365 7366 7367 7368 7369 7370 7371 7372 7373 7374 7375 7376 7377 7378 7379 7380 7381 7382 7383 7384 7385 7386 7387 7388 7389 7390 7391 7392 7393 7394 7395 7396 7397 7398 7399 7400 7401 7402 7403 7404 7405 7406 7407 7408 7409 7410 7411 7412 7413 7414 7415 7416 7417 7418 7419 7420 7421 7422 7423 7424 7425 7426 7427 7428 7429 7430 7431 7432 7433 7434 7435 7436 7437 7438 7439 7440 7441 7442 7443 7444 7445 7446 7447 7448 7449 7450 7451 7452 7453 7454 7455 7456 7457 7458 7459 7460 7461 7462 7463 7464 7465 7466 7467 7468 7469 7470 7471 7472 7473 7474 7475 7476 7477 7478 7479 7480 7481 7482 7483 7484 7485 7486 7487 7488 7489 7490 7491 7492 7493 7494 7495 7496 7497 7498 7499 7500 7501 7502 7503 7504 7505 7506 7507 7508 7509 7510 7511 7512 7513 7514 7515 7516 7517 7518 7519 7520 7521 7522 7523 7524 7525 7526 7527 7528 7529 7530 7531 7532 7533 7534 7535 7536 7537 7538 7539 7540 7541 7542 7543 7544 7545 7546 7547 7548 7549 7550 7551 7552 7553 7554 7555 7556 7557 7558 7559 7560 7561 7562 7563 7564 7565 7566 7567 7568 7569 7570 7571 7572 7573 7574 7575 7576 7577 7578 7579 7580 7581 7582 7583 7584 7585 7586 7587 7588 7589 7590 7591 7592 7593 7594 7595 7596 7597 7598 7599 7600 7601 7602 7603 7604 7605 7606 7607 7608 7609 7610 7611 7612 7613 7614 7615 7616 7617 7618 7619 7620 7621 7622 7623 7624 7625 7626 7627 7628 7629 7630 7631 7632 7633 7634 7635 7636 7637 7638 7639 7640 7641 7642 7643 7644 7645 7646 7647 7648 7649 7650 7651 7652 7653 7654 7655 7656 7657 7658 7659 7660 7661 7662 7663 7664 7665 7666 7667 7668 7669 7670 7671 7672 7673 7674 7675 7676 7677 7678 7679 7680 7681 7682 7683 7684 7685 7686 7687 7688 7689 7690 7691 7692 7693 7694 7695 7696 7697 7698 7699 7700 7701 7702 7703 7704 7705 7706 7707 7708 7709 7710 7711 7712 7713 7714 7715 7716 7717 7718 7719 7720 7721 7722 7723 7724 7725 7726 7727 7728 7729 7730 7731 7732 7733 7734 7735 7736 7737 7738 7739 7740 7741 7742 7743 7744 7745 7746 7747 7748 7749 7750 7751 7752 7753 7754 7755 7756 7757 7758 7759 7760 7761 7762 7763 7764 7765 7766 7767 7768 7769 7770 7771 7772 7773 7774 7775 7776 7777 7778 7779 7780 7781 7782 7783 7784 7785 7786 7787 7788 7789 7790 7791 7792 7793 7794 7795 7796 7797 7798 7799 7800 7801 7802 7803 7804 7805 7806 7807 7808 7809 7810 7811 7812 7813 7814 7815 7816 7817 7818 7819 7820 7821 7822 7823 7824 7825 7826 7827 7828 7829 7830 7831 7832 7833 7834 7835 7836 7837 7838 7839 7840 7841 7842 7843 7844 7845 7846 7847 7848 7849 7850 7851 7852 7853 7854 7855 7856 7857 7858 7859 7860 7861 7862 7863 7864 7865 7866 7867 7868 7869 7870 7871 7872 7873 7874 7875 7876 7877 7878 7879 7880 7881 7882 7883 7884 7885 7886 7887 7888 7889 7890 7891 7892 7893 7894 7895 7896 7897 7898 7899 7900 7901 7902 7903 7904 7905 7906 7907 7908 7909 7910 7911 7912 7913 7914 7915 7916 7917 7918 7919 7920 7921 7922 7923 7924 7925 7926 7927 7928 7929 7930 7931 7932 7933 7934 7935 7936 7937 7938 7939 7940 7941 7942 7943 7944 7945 7946 7947 7948 7949 7950 7951 7952 7953 7954 7955 7956 7957 7958 7959 7960 7961 7962 7963 7964 7965 7966 7967 7968 7969 7970 7971 7972 7973 7974 7975 7976 7977 7978 7979 7980 7981 7982 7983 7984 7985 7986 7987 7988 7989 7990 7991 7992 7993 7994 7995 7996 7997 7998 7999 8000 8001 8002 8003 8004 8005 8006 8007 8008 8009 8010 8011 8012 8013 8014 8015 8016 8017 8018 8019 8020 8021 8022 8023 8024 8025 8026 8027 8028 8029 8030 8031 8032 8033 8034 8035 8036 8037 8038 8039 8040 8041 8042 8043 8044 8045 8046 8047 8048 8049 8050 8051 8052 8053 8054 8055 8056 8057 8058 8059 8060 8061 8062 8063 8064 8065 8066 8067 8068 8069 8070 8071 8072 8073 8074 8075 8076 8077 8078 8079 8080 8081 8082 8083 8084 8085 8086 8087 8088 8089 8090 8091 8092 8093 8094 8095 8096 8097 8098 8099 8100 8101 8102 8103 8104 8105 8106 8107 8108 8109 8110 8111 8112 8113 8114 8115 8116 8117 8118 8119 8120 8121 8122 8123 8124 8125 8126 8127 8128 8129 8130 8131 8132 8133 8134 8135 8136 8137 8138 8139 8140 8141 8142 8143 8144 8145 8146 8147 8148 8149 8150 8151 8152 8153 8154 8155 8156 8157 8158 8159 8160 8161 8162 8163 8164 8165 8166 8167 8168 8169 8170 8171 8172 8173 8174 8175 8176 8177 8178 8179 8180 8181 8182 8183 8184 8185 8186 8187 8188 8189 8190 8191 8192 8193 8194 8195 8196 8197 8198 8199 8200 8201 8202 8203 8204 8205 8206 8207 8208 8209 8210 8211 8212 8213 8214 8215 8216 8217 8218 8219 8220 8221 8222 8223 8224 8225 8226 8227 8228 8229 8230 8231 8232 8233 8234 8235 8236 8237 8238 8239 8240 8241 8242 8243 8244 8245 8246 8247 8248 8249 8250 8251 8252 8253 8254 8255 8256 8257 8258 8259 8260 8261 8262 8263 8264 8265 8266 8267 8268 8269 8270 8271 8272 8273 8274 8275 8276 8277 8278 8279 8280 8281 8282 8283 8284 8285 8286 8287 8288 8289 8290 8291 8292 8293 8294 8295 8296 8297 8298 8299 8300 8301 8302 8303 8304 8305 8306 8307 8308 8309 8310 8311 8312 8313 8314 8315 8316 8317 8318 8319 8320 8321 8322 8323 8324 8325 8326 8327 8328 8329 8330 8331 8332 8333 8334 8335 8336 8337 8338 8339 8340 8341 8342 8343 8344 8345 8346 8347 8348 8349 8350 8351 8352 8353 8354 8355 8356 8357 8358 8359 8360 8361 8362 8363 8364 8365 8366 8367 8368 8369 8370 8371 8372 8373 8374 8375 8376 8377 8378 8379 8380 8381 8382 8383 8384 8385 8386 8387 8388 8389 8390 8391 8392 8393 8394 8395 8396 8397 8398 8399 8400 8401 8402 8403 8404 8405 8406 8407 8408 8409 8410 8411 8412 8413 8414 8415 8416 8417 8418 8419 8420 8421 8422 8423 8424 8425 8426 8427 8428 8429 8430 8431 8432 8433 8434 8435 8436 8437 8438 8439 8440 8441 8442 8443 8444 8445 8446 8447 8448 8449 8450 8451 8452 8453 8454 8455 8456 8457 8458 8459 8460 8461 8462 8463 8464 8465 8466 8467 8468 8469 8470 8471 8472 8473 8474 8475 8476 8477 8478 8479 8480 8481 8482 8483 8484 8485 8486 8487 8488 8489 8490 8491 8492 8493 8494 8495 8496 8497 8498 8499 8500 8501 8502 8503 8504 8505 8506 8507 8508 8509 8510 8511 8512 8513 8514 8515 8516 8517 8518 8519 8520 8521 8522 8523 8524 8525 8526 8527 8528 8529 8530 8531 8532 8533 8534 8535 8536 8537 8538 8539 8540 8541 8542 8543 8544 8545 8546 8547 8548 8549 8550 8551 8552 8553 8554 8555 8556 8557 8558 8559 8560 8561 8562 8563 8564 8565 8566 8567 8568 8569 8570 8571 8572 8573 8574 8575 8576 8577 8578 8579 8580 8581 8582 8583 8584 8585 8586 8587 8588 8589 8590 8591 8592 8593 8594 8595 8596 8597 8598 8599 8600 8601 8602 8603 8604 8605 8606 8607 8608 8609 8610 8611 8612 8613 8614 8615 8616 8617 8618 8619 8620 8621 8622 8623 8624 8625 8626 8627 8628 8629 8630 8631 8632 8633 8634 8635 8636 8637 8638 8639 8640 8641 8642 8643 8644 8645 8646 8647 8648 8649 8650 8651 8652 8653 8654 8655 8656 8657 8658 8659 8660 8661 8662 8663 8664 8665 8666 8667 8668 8669 8670 8671 8672 8673 8674 8675 8676 8677 8678 8679 8680 8681 8682 8683 8684 8685 8686 8687 8688 8689 8690 8691 8692 8693 8694 8695 8696 8697 8698 8699 8700 8701 8702 8703 8704 8705 8706 8707 8708 8709 8710 8711 8712 8713 8714 8715 8716 8717 8718 8719 8720 8721 8722 8723 8724 8725 8726 8727 8728 8729 8730 8731 8732 8733 8734 8735 8736 8737 8738 8739 8740 8741 8742 8743 8744 8745 8746 8747 8748 8749 8750 8751 8752 8753 8754 8755 8756 8757 8758 8759 8760 8761 8762 8763 8764 8765 8766 8767 8768 8769 8770 8771 8772 8773 8774 8775 8776 8777 8778 8779 8780 8781 8782 8783 8784 8785 8786 8787 8788 8789 8790 8791 8792 8793 8794 8795 8796 8797 8798 8799 8800 8801 8802 8803 8804 8805 8806 8807 8808 8809 8810 8811 8812 8813 8814 8815 8816 8817 8818 8819 8820 8821 8822 8823 8824 8825 8826 8827 8828 8829 8830 8831 8832 8833 8834 8835 8836 8837 8838 8839 8840 8841 8842 8843 8844 8845 8846 8847 8848 8849 8850 8851 8852 8853 8854 8855 8856 8857 8858 8859 8860 8861 8862 8863 8864 8865 8866 8867 8868 8869 8870 8871 8872 8873 8874 8875 8876 8877 8878 8879 8880 8881 8882 8883 8884 8885 8886 8887 8888 8889 8890 8891 8892 8893 8894 8895 8896 8897 8898 8899 8900 8901 8902 8903 8904 8905 8906 8907 8908 8909 8910 8911 8912 8913 8914 8915 8916 8917 8918 8919 8920 8921 8922 8923 8924 8925 8926 8927 8928 8929 8930 8931 8932 8933 8934 8935 8936 8937 8938 8939 8940 8941 8942 8943 8944 8945 8946 8947 8948 8949 8950 8951 8952 8953 8954 8955 8956 8957 8958 8959 8960 8961 8962 8963 8964 8965 8966 8967 8968 8969 8970 8971 8972 8973 8974 8975 8976 8977 8978 8979 8980 8981 8982 8983 8984 8985 8986 8987 8988 8989 8990 8991 8992 8993 8994 8995 8996 8997 8998 8999 9000 9001 9002 9003 9004 9005 9006 9007 9008 9009 9010 9011 9012 9013 9014 9015 9016 9017 9018 9019 9020 9021 9022 9023 9024 9025 9026 9027 9028 9029 9030 9031 9032 9033 9034 9035 9036 9037 9038 9039 9040 9041 9042 9043 9044 9045 9046 9047 9048 9049 9050 9051 9052 9053 9054 9055 9056 9057 9058 9059 9060 9061 9062 9063 9064 9065 9066 9067 9068 9069 9070 9071 9072 9073 9074 9075 9076 9077 9078 9079 9080 9081 9082 9083 9084 9085 9086 9087 9088 9089 9090 9091 9092 9093 9094 9095 9096 9097 9098 9099 9100 9101 9102 9103 9104 9105 9106 9107 9108 9109 9110 9111 9112 9113 9114 9115 9116 9117 9118 9119 9120 9121 9122 9123 9124 9125 9126 9127 9128 9129 9130 9131 9132 9133 9134 9135 9136 9137 9138 9139 9140 9141 9142 9143 9144 9145 9146 9147 9148 9149 9150 9151 9152 9153 9154 9155 9156 9157 9158 9159 9160 9161 9162 9163 9164 9165 9166 9167 9168 9169 9170 9171 9172 9173 9174 9175 9176 9177 9178 9179 9180 9181 9182 9183 9184 9185 9186 9187 9188 9189 9190 9191 9192 9193 9194 9195 9196 9197 9198 9199 9200 9201 9202 9203 9204 9205 9206 9207 9208 9209 9210 9211 9212 9213 9214 9215 9216 9217 9218 9219 9220 9221 9222 9223 9224 9225 9226 9227 9228 9229 9230 9231 9232 9233 9234 9235 9236 9237 9238 9239 9240 9241 9242 9243 9244 9245 9246 9247 9248 9249 9250 9251 9252 9253 9254 9255 9256 9257 9258 9259 9260 9261 9262 9263 9264 9265 9266 9267 9268 9269 9270 9271 9272 9273 9274 9275 9276 9277 9278 9279 9280 9281 9282 9283 9284 9285 9286 9287 9288 9289 9290 9291 9292 9293 9294 9295 9296 9297 9298 9299 9300 9301 9302 9303 9304 9305 9306 9307 9308 9309 9310 9311 9312 9313 9314 9315 9316 9317 9318 9319 9320 9321 9322 9323 9324 9325 9326 9327 9328 9329 9330 9331 9332 9333 9334 9335 9336 9337 9338 9339 9340 9341 9342 9343 9344 9345 9346 9347 9348 9349 9350 9351 9352 9353 9354 9355 9356 9357 9358 9359 9360 9361 9362 9363 9364 9365 9366 9367 9368 9369 9370 9371 9372 9373 9374 9375 9376 9377 9378 9379 9380 9381 9382 9383 9384 9385 9386 9387 9388 9389 9390 9391 9392 9393 9394 9395 9396 9397 9398 9399 9400 9401 9402 9403 9404 9405 9406 9407 9408 9409 9410 9411 9412 9413 9414 9415 9416 9417 9418 9419 9420 9421 9422 9423 9424 9425 9426 9427 9428 9429 9430 9431 9432 9433 9434 9435 9436 9437 9438 9439 9440 9441 9442 9443 9444 9445 9446 9447 9448 9449 9450 9451 9452 9453 9454 9455 9456 9457 9458 9459 9460 9461 9462 9463 9464 9465 9466 9467 9468 9469 9470 9471 9472 9473 9474 9475 9476 9477 9478 9479 9480 9481 9482 9483 9484 9485 9486 9487 9488 9489 9490 9491 9492 9493 9494 9495 9496 9497 9498 9499 9500 9501 9502 9503 9504 9505 9506 9507 9508 9509 9510 9511 9512 9513 9514 9515 9516 9517 9518 9519 9520 9521 9522 9523 9524 9525 9526 9527 9528 9529 9530 9531 9532 9533 9534 9535 9536 9537 9538 9539 9540 9541 9542 9543 9544 9545 9546 9547 9548 9549 9550 9551 9552 9553 9554 9555 9556 9557 9558 9559 9560 9561 9562 9563 9564 9565 9566 9567 9568 9569 9570 9571 9572 9573 9574 9575 9576 9577 9578 9579 9580 9581 9582 9583 9584 9585 9586 9587 9588 9589 9590 9591 9592 9593 9594 9595 9596 9597 9598 9599 9600 9601 9602 9603 9604 9605 9606 9607 9608 9609 9610 9611 9612 9613 9614 9615 9616 9617 9618 9619 9620 9621 9622 9623 9624 9625 9626 9627 9628 9629 9630 9631 9632 9633 9634 9635 9636 9637 9638 9639 9640 9641 9642 9643 9644 9645 9646 9647 9648 9649 9650 9651 9652 9653 9654 9655 9656 9657 9658 9659 9660 9661 9662 9663 9664 9665 9666 9667 9668 9669 9670 9671 9672 9673 9674 9675 9676 9677 9678 9679 9680 9681 9682 9683 9684 9685 9686 9687 9688 9689 9690 9691 9692 9693 9694 9695 9696 9697 9698 9699 9700 9701 9702 9703 9704 9705 9706 9707 9708 9709 9710 9711 9712 9713 9714 9715 9716 9717 9718 9719 9720 9721 9722 9723 9724 9725 9726 9727 9728 9729 9730 9731 9732 9733 9734 9735 9736 9737 9738 9739 9740 9741 9742 9743 9744 9745 9746 9747 9748 9749 9750 9751 9752 9753 9754 9755 9756 9757 9758 9759 9760 9761 9762 9763 9764 9765 9766 9767 9768 9769 9770 9771 9772 9773 9774 9775 9776 9777 9778 9779 9780 9781 9782 9783 9784 9785 9786 9787 9788 9789 9790 9791 9792 9793 9794 9795 9796 9797 9798 9799 9800 9801 9802 9803 9804 9805 9806 9807 9808 9809 9810 9811 9812 9813 9814 9815 9816 9817 9818 9819 9820 9821 9822 9823 9824 9825 9826 9827 9828 9829 9830 9831 9832 9833 9834 9835 9836 9837 9838 9839 9840 9841 9842 9843 9844 9845 9846 9847 9848 9849 9850 9851 9852 9853 9854 9855 9856 9857 9858 9859 9860 9861 9862 9863 9864 9865 9866 9867 9868 9869 9870 9871 9872 9873 9874 9875 9876 9877 9878 9879 9880 9881 9882 9883 9884 9885 9886 9887 9888 9889 9890 9891 9892 9893 9894 9895 9896 9897 9898 9899 9900 9901 9902 9903 9904 9905 9906 9907 9908 9909 9910 9911 9912 9913 9914 9915 9916 9917 9918 9919 9920 9921 9922 9923 9924 9925 9926 9927 9928 9929 9930 9931 9932 9933 9934 9935 9936 9937 9938 9939 9940 9941 9942 9943 9944 9945 9946 9947 9948 9949 9950 9951 9952 9953 9954 9955 9956 9957 9958 9959 9960 9961 9962 9963 9964 9965 9966 9967 9968 9969 9970 9971 9972 9973 9974 9975 9976 9977 9978 9979 9980 9981 9982 9983 9984 9985 9986 9987 9988 9989 9990 9991 9992 9993 9994 9995 9996 9997 9998 9999 10000 10001 10002 10003 10004 10005 10006 10007 10008 10009 10010 10011 10012 10013 10014 10015 10016 10017 10018 10019 10020 10021 10022 10023 10024 10025 10026 10027 10028 10029 10030 10031 10032 10033 10034 10035 10036 10037 10038 10039 10040 10041 10042 10043 10044 10045 10046 10047 10048 10049 10050 10051 10052 10053 10054 10055 10056 10057 10058 10059 10060 10061 10062 10063 10064 10065 10066 10067 10068 10069 10070 10071 10072 10073 10074 10075 10076 10077 10078 10079 10080 10081 10082 10083 10084 10085 10086 10087 10088 10089 10090 10091 10092 10093 10094 10095 10096 10097 10098 10099 10100 10101 10102 10103 10104 10105 10106 10107 10108 10109 10110 10111 10112 10113 10114 10115 10116 10117 10118 10119 10120 10121 10122 10123 10124 10125 10126 10127 10128 10129 10130 10131 10132 10133 10134 10135 10136 10137 10138 10139 10140 10141 10142 10143 10144 10145 10146 10147 10148 10149 10150 10151 10152 10153 10154 10155 10156 10157 10158 10159 10160 10161 10162 10163 10164 10165 10166 10167 10168 10169 10170 10171 10172 10173 10174 10175 10176 10177 10178 10179 10180 10181 10182 10183 10184 10185 10186 10187 10188 10189 10190 10191 10192 10193 10194 10195 10196 10197 10198 10199 10200 10201 10202 10203 10204 10205 10206 10207 10208 10209 10210 10211 10212 10213 10214 10215 10216 10217 10218 10219 10220 10221 10222 10223 10224 10225 10226 10227 10228 10229 10230 10231 10232 10233 10234 10235 10236 10237 10238 10239 10240 10241 10242 10243 10244 10245 10246 10247 10248 10249 10250 10251 10252 10253 10254 10255 10256 10257 10258 10259 10260 10261 10262 10263 10264 10265 10266 10267 10268 10269 10270 10271 10272 10273 10274 10275 10276 10277 10278 10279 10280 10281 10282 10283 10284 10285 10286 10287 10288 10289 10290 10291 10292 10293 10294 10295 10296 10297 10298 10299 10300 10301 10302 10303 10304 10305 10306 10307 10308 10309 10310 10311 10312 10313 10314 10315 10316 10317 10318 10319 10320 10321 10322 10323 10324 10325 10326 10327 10328 10329 10330 10331 10332 10333 10334 10335 10336 10337 10338 10339 10340 10341 10342 10343 10344 10345 10346 10347 10348 10349 10350 10351 10352 10353 10354 10355 10356 10357 10358 10359 10360 10361 10362 10363 10364 10365 10366 10367 10368 10369 10370 10371 10372 10373 10374 10375 10376 10377 10378 10379 10380 10381 10382 10383 10384 10385 10386 10387 10388 10389 10390 10391 10392 10393 10394 10395 10396 10397 10398 10399 10400 10401 10402 10403 10404 10405 10406 10407 10408 10409 10410 10411 10412 10413 10414 10415 10416 10417 10418 10419 10420 10421 10422 10423 10424 10425 10426 10427 10428 10429 10430 10431 10432 10433 10434 10435 10436 10437 10438 10439 10440 10441 10442 10443 10444 10445 10446 10447 10448 10449 10450 10451 10452 10453 10454 10455 10456 10457 10458 10459 10460 10461 10462 10463 10464 10465 10466 10467 10468 10469 10470 10471 10472 10473 10474 10475 10476 10477 10478 10479 10480 10481 10482 10483 10484 10485 10486 10487 10488 10489 10490 10491 10492 10493 10494 10495 10496 10497 10498 10499 10500 10501 10502 10503 10504 10505 10506 10507 10508 10509 10510 10511 10512 10513 10514 10515 10516 10517 10518 10519 10520 10521 10522 10523 10524 10525 10526 10527 10528 10529 10530 10531 10532 10533 10534 10535 10536 10537 10538 10539 10540 10541 10542 10543 10544 10545 10546 10547 10548 10549 10550 10551 10552 10553 10554 10555 10556 10557 10558 10559 10560 10561 10562 10563 10564 10565 10566 10567 10568 10569 10570 10571 10572 10573 10574 10575 10576 10577 10578 10579 10580 10581 10582 10583 10584 10585 10586 10587 10588 10589 10590 10591 10592 10593 10594 10595 10596 10597 10598 10599 10600 10601 10602 10603 10604 10605 10606 10607 10608 10609 10610 10611 10612 10613 10614 10615 10616 10617 10618 10619 10620 10621 10622 10623 10624 10625 10626 10627 10628 10629 10630 10631 10632 10633 10634 10635 10636 10637 10638 10639 10640 10641 10642 10643 10644 10645 10646 10647 10648 10649 10650 10651 10652 10653 10654 10655 10656 10657 10658 10659 10660 10661 10662 10663 10664 10665 10666 10667 10668 10669 10670 10671 10672 10673 10674 10675 10676 10677 10678 10679 10680 10681 10682 10683 10684 10685 10686 10687 10688 10689 10690 10691 10692 10693 10694 10695 10696 10697 10698 10699 10700 10701 10702 10703 10704 10705 10706 10707 10708 10709 10710 10711 10712 10713 10714 10715 10716 10717 10718 10719 10720 10721 10722 10723 10724 10725 10726 10727 10728 10729 10730 10731 10732 10733 10734 10735 10736 10737 10738 10739 10740 10741 10742 10743 10744 10745 10746 10747 10748 10749 10750 10751 10752 10753 10754 10755 10756 10757 10758 10759 10760 10761 10762 10763 10764 10765 10766 10767 10768 10769 10770 10771 10772 10773 10774 10775 10776 10777 10778 10779 10780 10781 10782 10783 10784 10785 10786 10787 10788 10789 10790 10791 10792 10793 10794 10795 10796 10797 10798 10799 10800 10801 10802 10803 10804 10805 10806 10807 10808 10809 10810 10811 10812 10813 10814 10815 10816 10817 10818 10819 10820 10821 10822 10823 10824 10825 10826 10827 10828 10829 10830 10831 10832 10833 10834 10835 10836 10837 10838 10839 10840 10841 10842 10843 10844 10845 10846 10847 10848 10849 10850 10851 10852 10853 10854 10855 10856 10857 10858 10859 10860 10861 10862 10863 10864 10865 10866 10867 10868 10869 10870 10871 10872 10873 10874 10875 10876 10877 10878 10879 10880 10881 10882 10883 10884 10885 10886 10887 10888 10889 10890 10891 10892 10893 10894 10895 10896 10897 10898 10899 10900 10901 10902 10903 10904 10905 10906 10907 10908 10909 10910 10911 10912 10913 10914 10915 10916 10917 10918 10919 10920 10921 10922 10923 10924 10925 10926 10927 10928 10929 10930 10931 10932 10933 10934 10935 10936 10937 10938 10939 10940 10941 10942 10943 10944 10945 10946 10947 10948 10949 10950 10951 10952 10953 10954 10955 10956 10957 10958 10959 10960 10961 10962 10963 10964 10965 10966 10967 10968 10969 10970 10971 10972 10973 10974 10975 10976 10977 10978 10979 10980 10981 10982 10983 10984 10985 10986 10987 10988 10989 10990 10991 10992 10993 10994 10995 10996 10997 10998 10999 11000 11001 11002 11003 11004 11005 11006 11007 11008 11009 11010 11011 11012 11013 11014 11015 11016 11017 11018 11019 11020 11021 11022 11023 11024 11025 11026 11027 11028 11029 11030 11031 11032 11033 11034 11035 11036 11037 11038 11039 11040 11041 11042 11043 11044 11045 11046 11047 11048 11049 11050 11051 11052 11053 11054 11055 11056 11057 11058 11059 11060 11061 11062 11063 11064 11065 11066 11067 11068 11069 11070 11071 11072 11073 11074 11075 11076 11077 11078 11079 11080 11081 11082 11083 11084 11085 11086 11087 11088 11089 11090 11091 11092 11093 11094 11095 11096 11097 11098 11099 11100 11101 11102 11103 11104 11105 11106 11107 11108 11109 11110 11111 11112 11113 11114 11115 11116 11117 11118 11119 11120 11121 11122 11123 11124 11125 11126 11127 11128 11129 11130 11131 11132 11133 11134 11135 11136 11137 11138 11139 11140 11141 11142 11143 11144 11145 11146 11147 11148 11149 11150 11151 11152 11153 11154 11155 11156 11157 11158 11159 11160 11161 11162 11163 11164 11165 11166 11167 11168 11169 11170 11171 11172 11173 11174 11175 11176 11177 11178 11179 11180 11181 11182 11183 11184 11185 11186 11187 11188 11189 11190 11191 11192 11193 11194 11195 11196 11197 11198 11199 11200 11201 11202 11203 11204 11205 11206 11207 11208 11209 11210 11211 11212 11213 11214 11215 11216 11217 11218 11219 11220 11221 11222 11223 11224 11225 11226 11227 11228 11229 11230 11231 11232 11233 11234 11235 11236 11237 11238 11239 11240 11241 11242 11243 11244 11245 11246 11247 11248 11249 11250 11251 11252 11253 11254 11255 11256 11257 11258 11259 11260 11261 11262 11263 11264 11265 11266 11267 11268 11269 11270 11271 11272 11273 11274 11275 11276 11277 11278 11279 11280 11281 11282 11283 11284 11285 11286 11287 11288 11289 11290 11291 11292 11293 11294 11295 11296 11297 11298 11299 11300 11301 11302 11303 11304 11305 11306 11307 11308 11309 11310 11311 11312 11313 11314 11315 11316 11317 11318 11319 11320 11321 11322 11323 11324 11325 11326 11327 11328 11329 11330 11331 11332 11333 11334 11335 11336 11337 11338 11339 11340 11341 11342 11343 11344 11345 11346 11347 11348 11349 11350 11351 11352 11353 11354 11355 11356 11357 11358 11359 11360 11361 11362 11363 11364 11365 11366 11367 11368 11369 11370 11371 11372 11373 11374 11375 11376 11377 11378 11379 11380 11381 11382 11383 11384 11385 11386 11387 11388 11389 11390 11391 11392 11393 11394 11395 11396 11397 11398 11399 11400 11401 11402 11403 11404 11405 11406 11407 11408 11409 11410 11411 11412 11413 11414 11415 11416 11417 11418 11419 11420 11421 11422 11423 11424 11425 11426 11427 11428 11429 11430 11431 11432 11433 11434 11435 11436 11437 11438 11439 11440 11441 11442 11443 11444 11445 11446 11447 11448 11449 11450 11451 11452 11453 11454 11455 11456 11457 11458 11459 11460 11461 11462 11463 11464 11465 11466 11467 11468 11469 11470 11471 11472 11473 11474 11475 11476 11477 11478 11479 11480 11481 11482 11483 11484 11485 11486 11487 11488 11489 11490 11491 11492 11493 11494 11495 11496 11497 11498 11499 11500 11501 11502 11503 11504 11505 11506 11507 11508 11509 11510 11511 11512 11513 11514 11515 11516 11517 11518 11519 11520 11521 11522 11523 11524 11525 11526 11527 11528 11529 11530 11531 11532 11533 11534 11535 11536 11537 11538 11539 11540 11541 11542 11543 11544 11545 11546 11547 11548 11549 11550 11551 11552 11553 11554 11555 11556 11557 11558 11559 11560 11561 11562 11563 11564 11565 11566 11567 11568 11569 11570 11571 11572 11573 11574 11575 11576 11577 11578 11579 11580 11581 11582 11583 11584 11585 11586 11587 11588 11589 11590 11591 11592 11593 11594 11595 11596 11597 11598 11599 11600 11601 11602 11603 11604 11605 11606 11607 11608 11609 11610 11611 11612 11613 11614 11615 11616 11617 11618 11619 11620 11621 11622 11623 11624 11625 11626 11627 11628 11629 11630 11631 11632 11633 11634 11635 11636 11637 11638 11639 11640 11641 11642 11643 11644 11645 11646 11647 11648 11649 11650 11651 11652 11653 11654 11655 11656 11657 11658 11659 11660 11661 11662 11663 11664 11665 11666 11667 11668 11669 11670 11671 11672 11673 11674 11675 11676 11677 11678 11679 11680 11681 11682 11683 11684 11685 11686 11687 11688 11689 11690 11691 11692 11693 11694 11695 11696 11697 11698 11699 11700 11701 11702 11703 11704 11705 11706 11707 11708 11709 11710 11711 11712 11713 11714 11715 11716 11717 11718 11719 11720 11721 11722 11723 11724 11725 11726 11727 11728 11729 11730 11731 11732 11733 11734 11735 11736 11737 11738 11739 11740 11741 11742 11743 11744 11745 11746 11747 11748 11749 11750 11751 11752 11753 11754 11755 11756 11757 11758 11759 11760 11761 11762 11763 11764 11765 11766 11767 11768 11769 11770 11771 11772 11773 11774 11775 11776 11777 11778 11779 11780 11781 11782 11783 11784 11785 11786 11787 11788 11789 11790 11791 11792 11793 11794 11795 11796 11797 11798 11799 11800 11801 11802 11803 11804 11805 11806 11807 11808 11809 11810 11811 11812 11813 11814 11815 11816 11817 11818 11819 11820 11821 11822 11823 11824 11825 11826 11827 11828 11829 11830 11831 11832 11833 11834 11835 11836 11837 11838 11839 11840 11841 11842 11843 11844 11845 11846 11847 11848 11849 11850 11851 11852 11853 11854 11855 11856 11857 11858 11859 11860 11861 11862 11863 11864 11865 11866 11867 11868 11869 11870 11871 11872 11873 11874 11875 11876 11877 11878 11879 11880 11881 11882 11883 11884 11885 11886 11887 11888 11889 11890 11891 11892 11893 11894 11895 11896 11897 11898 11899 11900 11901 11902 11903 11904 11905 11906 11907 11908 11909 11910 11911 11912 11913 11914 11915 11916 11917 11918 11919 11920 11921 11922 11923 11924 11925 11926 11927 11928 11929 11930 11931 11932 11933 11934 11935 11936 11937 11938 11939 11940 11941 11942 11943 11944 11945 11946 11947 11948 11949 11950 11951 11952 11953 11954 11955 11956 11957 11958 11959 11960 11961 11962 11963 11964 11965 11966 11967 11968 11969 11970 11971 11972 11973 11974 11975 11976 11977 11978 11979 11980 11981 11982 11983 11984 11985 11986 11987 11988 11989 11990 11991 11992 11993 11994 11995 11996 11997 11998 11999 12000 12001 12002 12003 12004 12005 12006 12007 12008 12009 12010 12011 12012 12013 12014 12015 12016 12017 12018 12019 12020 12021 12022 12023 12024 12025 12026 12027 12028 12029 12030 12031 12032 12033 12034 12035 12036 12037 12038 12039 12040 12041 12042 12043 12044 12045 12046 12047 12048 12049 12050 12051 12052 12053 12054 12055 12056 12057 12058 12059 12060 12061 12062 12063 12064 12065 12066 12067 12068 12069 12070 12071 12072 12073 12074 12075 12076 12077 12078 12079 12080 12081 12082 12083 12084 12085 12086 12087 12088 12089 12090 12091 12092 12093 12094 12095 12096 12097 12098 12099 12100 12101 12102 12103 12104 12105 12106 12107 12108 12109 12110 12111 12112 12113 12114 12115 12116 12117 12118 12119 12120 12121 12122 12123 12124 12125 12126 12127 12128 12129 12130 12131 12132 12133 12134 12135 12136 12137 12138 12139 12140 12141 12142 12143 12144 12145 12146 12147 12148 12149 12150 12151 12152 12153 12154 12155 12156 12157 12158 12159 12160 12161 12162 12163 12164 12165 12166 12167 12168 12169 12170 12171 12172 12173 12174 12175 12176 12177 12178 12179 12180 12181 12182 12183 12184 12185 12186 12187 12188 12189 12190 12191 12192 12193 12194 12195 12196 12197 12198 12199 12200 12201 12202 12203 12204 12205 12206 12207 12208 12209 12210 12211 12212 12213 12214 12215 12216 12217 12218 12219 12220 12221 12222 12223 12224 12225 12226 12227 12228 12229 12230 12231 12232 12233 12234 12235 12236 12237 12238 12239 12240 12241 12242 12243 12244 12245 12246 12247 12248 12249 12250 12251 12252 12253 12254 12255 12256 12257 12258 12259 12260 12261 12262 12263 12264 12265 12266 12267 12268 12269 12270 12271 12272 12273 12274 12275 12276 12277 12278 12279 12280 12281 12282 12283 12284 12285 12286 12287 12288 12289 12290 12291 12292 12293 12294 12295 12296 12297 12298 12299 12300 12301 12302 12303 12304 12305 12306 12307 12308 12309 12310 12311 12312 12313 12314 12315 12316 12317 12318 12319 12320 12321 12322 12323 12324 12325 12326 12327 12328 12329 12330 12331 12332 12333 12334 12335 12336 12337 12338 12339 12340 12341 12342 12343 12344 12345 12346 12347 12348 12349 12350 12351 12352 12353 12354 12355 12356 12357 12358 12359 12360 12361 12362 12363 12364 12365 12366 12367 12368 12369 12370 12371 12372 12373 12374 12375 12376 12377 12378 12379 12380 12381 12382 12383 12384 12385 12386 12387 12388 12389 12390 12391 12392 12393 12394 12395 12396 12397 12398 12399 12400 12401 12402 12403 12404 12405 12406 12407 12408 12409 12410 12411 12412 12413 12414 12415 12416 12417 12418 12419 12420 12421 12422 12423 12424 12425 12426 12427 12428 12429 12430 12431 12432 12433 12434 12435 12436 12437 12438 12439 12440 12441 12442 12443 12444 12445 12446 12447 12448 12449 12450 12451 12452 12453 12454 12455 12456 12457 12458 12459 12460 12461 12462 12463 12464 12465 12466 12467 12468 12469 12470 12471 12472 12473 12474 12475 12476 12477 12478 12479 12480 12481 12482 12483 12484 12485 12486 12487 12488 12489 12490 12491 12492 12493 12494 12495 12496 12497 12498 12499 12500 12501 12502 12503 12504 12505 12506 12507 12508 12509 12510 12511 12512 12513 12514 12515 12516 12517 12518 12519 12520 12521 12522 12523 12524 12525 12526 12527 12528 12529 12530 12531 12532 12533 12534 12535 12536 12537 12538 12539 12540 12541 12542 12543 12544 12545 12546 12547 12548 12549 12550 12551 12552 12553 12554 12555 12556 12557 12558 12559 12560 12561 12562 12563 12564 12565 12566 12567 12568 12569 12570 12571 12572 12573 12574 12575 12576 12577 12578 12579 12580 12581 12582 12583 12584 12585 12586 12587 12588 12589 12590 12591 12592 12593 12594 12595 12596 12597 12598 12599 12600 12601 12602 12603 12604 12605 12606 12607 12608 12609 12610 12611 12612 12613 12614 12615 12616 12617 12618 12619 12620 12621 12622 12623 12624 12625 12626 12627 12628 12629 12630 12631 12632 12633 12634 12635 12636 12637 12638 12639 12640 12641 12642 12643 12644 12645 12646 12647 12648 12649 12650 12651 12652 12653 12654 12655 12656 12657 12658 12659 12660 12661 12662 12663 12664 12665 12666 12667 12668 12669 12670 12671 12672 12673 12674 12675 12676 12677 12678 12679 12680 12681 12682 12683 12684 12685 12686 12687 12688 12689 12690 12691 12692 12693 12694 12695 12696 12697 12698 12699 12700 12701 12702 12703 12704 12705 12706 12707 12708 12709 12710 12711 12712 12713 12714 12715 12716 12717 12718 12719 12720 12721 12722 12723 12724 12725 12726 12727 12728 12729 12730 12731 12732 12733 12734 12735 12736 12737 12738 12739 12740 12741 12742 12743 12744 12745 12746 12747 12748 12749 12750 12751 12752 12753 12754 12755 12756 12757 12758 12759 12760 12761 12762 12763 12764 12765 12766 12767 12768 12769 12770 12771 12772 12773 12774 12775 12776 12777 12778 12779 12780 12781 12782 12783 12784 12785 12786 12787 12788 12789 12790 12791 12792 12793 12794 12795 12796 12797 12798 12799 12800 12801 12802 12803 12804 12805 12806 12807 12808 12809 12810 12811 12812 12813 12814 12815 12816 12817 12818 12819 12820 12821 12822 12823 12824 12825 12826 12827 12828 12829 12830 12831 12832 12833 12834 12835 12836 12837 12838 12839 12840 12841 12842 12843 12844 12845 12846 12847 12848 12849 12850 12851 12852 12853 12854 12855 12856 12857 12858 12859 12860 12861 12862 12863 12864 12865 12866 12867 12868 12869 12870 12871 12872 12873 12874 12875 12876 12877 12878 12879 12880 12881 12882 12883 12884 12885 12886 12887 12888 12889 12890 12891 12892 12893 12894 12895 12896 12897 12898 12899 12900 12901 12902 12903 12904 12905 12906 12907 12908 12909 12910 12911 12912 12913 12914 12915 12916 12917 12918 12919 12920 12921 12922 12923 12924 12925 12926 12927 12928 12929 12930 12931 12932 12933 12934 12935 12936 12937 12938 12939 12940 12941 12942 12943 12944 12945 12946 12947 12948 12949 12950 12951 12952 12953 12954 12955 12956 12957 12958 12959 12960 12961 12962 12963 12964 12965 12966 12967 12968 12969 12970 12971 12972 12973 12974 12975 12976 12977 12978 12979 12980 12981 12982 12983 12984 12985 12986 12987 12988 12989 12990 12991 12992 12993 12994 12995 12996 12997 12998 12999 13000 13001 13002 13003 13004 13005 13006 13007 13008 13009 13010 13011 13012 13013 13014 13015 13016 13017 13018 13019 13020 13021 13022 13023 13024 13025 13026 13027 13028 13029 13030 13031 13032 13033 13034 13035 13036 13037 13038 13039 13040 13041 13042 13043 13044 13045 13046 13047 13048 13049 13050 13051 13052 13053 13054 13055 13056 13057 13058 13059 13060 13061 13062 13063 13064 13065 13066 13067 13068 13069 13070 13071 13072 13073 13074 13075 13076 13077 13078 13079 13080 13081 13082 13083 13084 13085 13086 13087 13088 13089 13090 13091 13092 13093 13094 13095 13096 13097 13098 13099 13100 13101 13102 13103 13104 13105 13106 13107 13108 13109 13110 13111 13112 13113 13114 13115 13116 13117 13118 13119 13120 13121 13122 13123 13124 13125 13126 13127 13128 13129 13130 13131 13132 13133 13134 13135 13136 13137 13138 13139 13140 13141 13142 13143 13144 13145 13146 13147 13148 13149 13150 13151 13152 13153 13154 13155 13156 13157 13158 13159 13160 13161 13162 13163 13164 13165 13166 13167 13168 13169 13170 13171 13172 13173 13174 13175 13176 13177 13178 13179 13180 13181 13182 13183 13184 13185 13186 13187 13188 13189 13190 13191 13192 13193 13194 13195 13196 13197 13198 13199 13200 13201 13202 13203 13204 13205 13206 13207 13208 13209 13210 13211 13212 13213 13214 13215 13216 13217 13218 13219 13220 13221 13222 13223 13224 13225 13226 13227 13228 13229 13230 13231 13232 13233 13234 13235 13236 13237 13238 13239 13240 13241 13242 13243 13244 13245 13246 13247 13248 13249 13250 13251 13252 13253 13254 13255 13256 13257 13258 13259 13260 13261 13262 13263 13264 13265 13266 13267 13268 13269 13270 13271 13272 13273 13274 13275 13276 13277 13278 13279 13280 13281 13282 13283 13284 13285 13286 13287 13288 13289 13290 13291 13292 13293 13294 13295 13296 13297 13298 13299 13300 13301 13302 13303 13304 13305 13306 13307 13308 13309 13310 13311 13312 13313 13314 13315 13316 13317 13318 13319 13320 13321 13322 13323 13324 13325 13326 13327 13328 13329 13330 13331 13332 13333 13334 13335 13336 13337 13338 13339 13340 13341 13342 13343 13344 13345 13346 13347 13348 13349 13350 13351 13352 13353 13354 13355 13356 13357 13358 13359 13360 13361 13362 13363 13364 13365 13366 13367 13368 13369 13370 13371 13372 13373 13374 13375 13376 13377 13378 13379 13380 13381 13382 13383 13384 13385 13386 13387 13388 13389 13390 13391 13392 13393 13394 13395 13396 13397 13398 13399 13400 13401 13402 13403 13404 13405 13406 13407 13408 13409 13410 13411 13412 13413 13414 13415 13416 13417 13418 13419 13420 13421 13422 13423 13424 13425 13426 13427 13428 13429 13430 13431 13432 13433 13434 13435 13436 13437 13438 13439 13440 13441 13442 13443 13444 13445 13446 13447 13448 13449 13450 13451 13452 13453 13454 13455 13456 13457 13458 13459 13460 13461 13462 13463 13464 13465 13466 13467 13468 13469 13470 13471 13472 13473 13474 13475 13476 13477 13478 13479 13480 13481 13482 13483 13484 13485 13486 13487 13488 13489 13490 13491 13492 13493 13494 13495 13496 13497 13498 13499 13500 13501 13502 13503 13504 13505 13506 13507 13508 13509 13510 13511 13512 13513 13514 13515 13516 13517 13518 13519 13520 13521 13522 13523 13524 13525 13526 13527 13528 13529 13530 13531 13532 13533 13534 13535 13536 13537 13538 13539 13540 13541 13542 13543 13544 13545 13546 13547 13548 13549 13550 13551 13552 13553 13554 13555 13556 13557 13558 13559 13560 13561 13562 13563 13564 13565 13566 13567 13568 13569 13570 13571 13572 13573 13574 13575 13576 13577 13578 13579 13580 13581 13582 13583 13584 13585 13586 13587 13588 13589 13590 13591 13592 13593 13594 13595 13596 13597 13598 13599 13600 13601 13602 13603 13604 13605 13606 13607 13608 13609 13610 13611 13612 13613 13614 13615 13616 13617 13618 13619 13620 13621 13622 13623 13624 13625 13626 13627 13628 13629 13630 13631 13632 13633 13634 13635 13636 13637 13638 13639 13640 13641 13642 13643 13644 13645 13646 13647 13648 13649 13650 13651 13652 13653 13654 13655 13656 13657 13658 13659 13660 13661 13662 13663 13664 13665 13666 13667 13668 13669 13670 13671 13672 13673 13674 13675 13676 13677 13678 13679 13680 13681 13682 13683 13684 13685 13686 13687 13688 13689 13690 13691 13692 13693 13694 13695 13696 13697 13698 13699 13700 13701 13702 13703 13704 13705 13706 13707 13708 13709 13710 13711 13712 13713 13714 13715 13716 13717 13718 13719 13720 13721 13722 13723 13724 13725 13726 13727 13728 13729 13730 13731 13732 13733 13734 13735 13736 13737 13738 13739 13740 13741 13742 13743 13744 13745 13746 13747 13748 13749 13750 13751 13752 13753 13754 13755 13756 13757 13758 13759 13760 13761 13762 13763 13764 13765 13766 13767 13768 13769 13770 13771 13772 13773 13774 13775 13776 13777 13778 13779 13780 13781 13782 13783 13784 13785 13786 13787 13788 13789 13790 13791 13792 13793 13794 13795 13796 13797 13798 13799 13800 13801 13802 13803 13804 13805 13806 13807 13808 13809 13810 13811 13812 13813 13814 13815 13816 13817 13818 13819 13820 13821 13822 13823 13824 13825 13826 13827 13828 13829 13830 13831 13832 13833 13834 13835 13836 13837 13838 13839 13840 13841 13842 13843 13844 13845 13846 13847 13848 13849 13850 13851 13852 13853 13854 13855 13856 13857 13858 13859 13860 13861 13862 13863 13864 13865 13866 13867 13868 13869 13870 13871 13872 13873 13874 13875 13876 13877 13878 13879 13880 13881 13882 13883 13884 13885 13886 13887 13888 13889 13890 13891 13892 13893 13894 13895 13896 13897 13898 13899 13900 13901 13902 13903 13904 13905 13906 13907 13908 13909 13910 13911 13912 13913 13914 13915 13916 13917 13918 13919 13920 13921 13922 13923 13924 13925 13926 13927 13928 13929 13930 13931 13932 13933 13934 13935 13936 13937 13938 13939 13940 13941 13942 13943 13944 13945 13946 13947 13948 13949 13950 13951 13952 13953 13954 13955 13956 13957 13958 13959 13960 13961 13962 13963 13964 13965 13966 13967 13968 13969 13970 13971 13972 13973 13974 13975 13976 13977 13978 13979 13980 13981 13982 13983 13984 13985 13986 13987 13988 13989 13990 13991 13992 13993 13994 13995 13996 13997 13998 13999 14000 14001 14002 14003 14004 14005 14006 14007 14008 14009 14010 14011 14012 14013 14014 14015 14016 14017 14018 14019 14020 14021 14022 14023 14024 14025 14026 14027 14028 14029 14030 14031 14032 14033 14034 14035 14036 14037 14038 14039 14040 14041 14042 14043 14044 14045 14046 14047 14048 14049 14050 14051 14052 14053 14054 14055 14056 14057 14058 14059 14060 14061 14062 14063 14064 14065 14066 14067 14068 14069 14070 14071 14072 14073 14074 14075 14076 14077 14078 14079 14080 14081 14082 14083 14084 14085 14086 14087 14088 14089 14090 14091 14092 14093 14094 14095 14096 14097 14098 14099 14100 14101 14102 14103 14104 14105 14106 14107 14108 14109 14110 14111 14112 14113 14114 14115 14116 14117 14118 14119 14120 14121 14122 14123 14124 14125 14126 14127 14128 14129 14130 14131 14132 14133 14134 14135 14136 14137 14138 14139 14140 14141 14142 14143 14144 14145 14146 14147 14148 14149 14150 14151 14152 14153 14154 14155 14156 14157 14158 14159 14160 14161 14162 14163 14164 14165 14166 14167 14168 14169 14170 14171 14172 14173 14174 14175 14176 14177 14178 14179 14180 14181 14182 14183 14184 14185 14186 14187 14188 14189 14190 14191 14192 14193 14194 14195 14196 14197 14198 14199 14200 14201 14202 14203 14204 14205 14206 14207 14208 14209 14210 14211 14212 14213 14214 14215 14216 14217 14218 14219 14220 14221 14222 14223 14224 14225 14226 14227 14228 14229 14230 14231 14232 14233 14234 14235 14236 14237 14238 14239 14240 14241 14242 14243 14244 14245 14246 14247 14248 14249 14250 14251 14252 14253 14254 14255 14256 14257 14258 14259 14260 14261 14262 14263 14264 14265 14266 14267 14268 14269 14270 14271 14272 14273 14274 14275 14276 14277 14278 14279 14280 14281 14282 14283 14284 14285 14286 14287 14288 14289 14290 14291 14292 14293 14294 14295 14296 14297 14298 14299 14300 14301 14302 14303 14304 14305 14306 14307 14308 14309 14310 14311 14312 14313 14314 14315 14316 14317 14318 14319 14320 14321 14322 14323 14324 14325 14326 14327 14328 14329 14330 14331 14332 14333 14334 14335 14336 14337 14338 14339 14340 14341 14342 14343 14344 14345 14346 14347 14348 14349 14350 14351 14352 14353 14354 14355 14356 14357 14358 14359 14360 14361 14362 14363 14364 14365 14366 14367 14368 14369 14370 14371 14372 14373 14374 14375 14376 14377 14378 14379 14380 14381 14382 14383 14384 14385 14386 14387 14388 14389 14390 14391 14392 14393 14394 14395 14396 14397 14398 14399 14400 14401 14402 14403 14404 14405 14406 14407 14408 14409 14410 14411 14412 14413 14414 14415 14416 14417 14418 14419 14420 14421 14422 14423 14424 14425 14426 14427 14428 14429 14430 14431 14432 14433 14434 14435 14436 14437 14438 14439 14440 14441 14442 14443 14444 14445 14446 14447 14448 14449 14450 14451 14452 14453 14454 14455 14456 14457 14458 14459 14460 14461 14462 14463 14464 14465 14466 14467 14468 14469 14470 14471 14472 14473 14474 14475 14476 14477 14478 14479 14480 14481 14482 14483 14484 14485 14486 14487 14488 14489 14490 14491 14492 14493 14494 14495 14496 14497 14498 14499 14500 14501 14502 14503 14504 14505 14506 14507 14508 14509 14510 14511 14512 14513 14514 14515 14516 14517 14518 14519 14520 14521 14522 14523 14524 14525 14526 14527 14528 14529 14530 14531 14532 14533 14534 14535 14536 14537 14538 14539 14540 14541 14542 14543 14544 14545 14546 14547 14548 14549 14550 14551 14552 14553 14554 14555 14556 14557 14558 14559 14560 14561 14562 14563 14564 14565 14566 14567 14568 14569 14570 14571 14572 14573 14574 14575 14576 14577 14578 14579 14580 14581 14582 14583 14584 14585 14586 14587 14588 14589 14590 14591 14592 14593 14594 14595 14596 14597 14598 14599 14600 14601 14602 14603 14604 14605 14606 14607 14608 14609 14610 14611 14612 14613 14614 14615 14616 14617 14618 14619 14620 14621 14622 14623 14624 14625 14626 14627 14628 14629 14630 14631 14632 14633 14634 14635 14636 14637 14638 14639 14640 14641 14642 14643 14644 14645 14646 14647 14648 14649 14650 14651 14652 14653 14654 14655 14656 14657 14658 14659 14660 14661 14662 14663 14664 14665 14666 14667 14668 14669 14670 14671 14672 14673 14674 14675 14676 14677 14678 14679 14680 14681 14682 14683 14684 14685 14686 14687 14688 14689 14690 14691 14692 14693 14694 14695 14696 14697 14698 14699 14700 14701 14702 14703 14704 14705 14706 14707 14708 14709 14710 14711 14712 14713 14714 14715 14716 14717 14718 14719 14720 14721 14722 14723 14724 14725 14726 14727 14728 14729 14730 14731 14732 14733 14734 14735 14736 14737 14738 14739 14740 14741 14742 14743 14744 14745 14746 14747 14748 14749 14750 14751 14752 14753 14754 14755 14756 14757 14758 14759 14760 14761 14762 14763 14764 14765 14766 14767 14768 14769 14770 14771 14772 14773 14774 14775 14776 14777 14778 14779 14780 14781 14782 14783 14784 14785 14786 14787 14788 14789 14790 14791 14792 14793 14794 14795 14796 14797 14798 14799 14800 14801 14802 14803 14804 14805 14806 14807 14808 14809 14810 14811 14812 14813 14814 14815 14816 14817 14818 14819 14820 14821 14822 14823 14824 14825 14826 14827 14828 14829 14830 14831 14832 14833 14834 14835 14836 14837 14838 14839 14840 14841 14842 14843 14844 14845 14846 14847 14848 14849 14850 14851 14852 14853 14854 14855 14856 14857 14858 14859 14860 14861 14862 14863 14864 14865 14866 14867 14868 14869 14870 14871 14872 14873 14874 14875 14876 14877 14878 14879 14880 14881 14882 14883 14884 14885 14886 14887 14888 14889 14890 14891 14892 14893 14894 14895 14896 14897 14898 14899 14900 14901 14902 14903 14904 14905 14906 14907 14908 14909 14910 14911 14912 14913 14914 14915 14916 14917 14918 14919 14920 14921 14922 14923 14924 14925 14926 14927 14928 14929 14930 14931 14932 14933 14934 14935 14936 14937 14938 14939 14940 14941 14942 14943 14944 14945 14946 14947 14948 14949 14950 14951 14952 14953 14954 14955 14956 14957 14958 14959 14960 14961 14962 14963 14964 14965 14966 14967 14968 14969 14970 14971 14972 14973 14974 14975 14976 14977 14978 14979 14980 14981 14982 14983 14984 14985 14986 14987 14988 14989 14990 14991 14992 14993 14994 14995 14996 14997 14998 14999 15000 15001 15002 15003 15004 15005 15006 15007 15008 15009 15010 15011 15012 15013 15014 15015 15016 15017 15018 15019 15020 15021 15022 15023 15024 15025 15026 15027 15028 15029 15030 15031 15032 15033 15034 15035 15036 15037 15038 15039 15040 15041 15042 15043 15044 15045 15046 15047 15048 15049 15050 15051 15052 15053 15054 15055 15056 15057 15058 15059 15060 15061 15062 15063 15064 15065 15066 15067 15068 15069 15070 15071 15072 15073 15074 15075 15076 15077 15078 15079 15080 15081 15082 15083 15084 15085 15086 15087 15088 15089 15090 15091 15092 15093 15094 15095 15096 15097 15098 15099 15100 15101 15102 15103 15104 15105 15106 15107 15108 15109 15110 15111 15112 15113 15114 15115 15116 15117 15118 15119 15120 15121 15122 15123 15124 15125 15126 15127 15128 15129 15130 15131 15132 15133 15134 15135 15136 15137 15138 15139 15140 15141 15142 15143 15144 15145 15146 15147 15148 15149 15150 15151 15152 15153 15154 15155 15156 15157 15158 15159 15160 15161 15162 15163 15164 15165 15166 15167 15168 15169 15170 15171 15172 15173 15174 15175 15176 15177 15178 15179 15180 15181 15182 15183 15184 15185 15186 15187 15188 15189 15190 15191 15192 15193 15194 15195 15196 15197 15198 15199 15200 15201 15202 15203 15204 15205 15206 15207 15208 15209 15210 15211 15212 15213 15214 15215 15216 15217 15218 15219 15220 15221 15222 15223 15224 15225 15226 15227 15228 15229 15230 15231 15232 15233 15234 15235 15236 15237 15238 15239 15240 15241 15242 15243 15244 15245 15246 15247 15248 15249 15250 15251 15252 15253 15254 15255 15256 15257 15258 15259 15260 15261 15262 15263 15264 15265 15266 15267 15268 15269 15270 15271 15272 15273 15274 15275 15276 15277 15278 15279 15280 15281 15282 15283 15284 15285 15286 15287 15288 15289 15290 15291 15292 15293 15294 15295 15296 15297 15298 15299 15300 15301 15302 15303 15304 15305 15306 15307 15308 15309 15310 15311 15312 15313 15314 15315 15316 15317 15318 15319 15320 15321 15322 15323 15324 15325 15326 15327 15328 15329 15330 15331 15332 15333 15334 15335 15336 15337 15338 15339 15340 15341 15342 15343 15344 15345 15346 15347 15348 15349 15350 15351 15352 15353 15354 15355 15356 15357 15358 15359 15360 15361 15362 15363 15364 15365 15366 15367 15368 15369 15370 15371 15372 15373 15374 15375 15376 15377 15378 15379 15380 15381 15382 15383 15384 15385 15386 15387 15388 15389 15390 15391 15392 15393 15394 15395 15396 15397 15398 15399 15400 15401 15402 15403 15404 15405 15406 15407 15408 15409 15410 15411 15412 15413 15414 15415 15416 15417 15418 15419 15420 15421 15422 15423 15424 15425 15426 15427 15428 15429 15430 15431 15432 15433 15434 15435 15436 15437 15438 15439 15440 15441 15442 15443 15444 15445 15446 15447 15448 15449 15450 15451 15452 15453 15454 15455 15456 15457 15458 15459 15460 15461 15462 15463 15464 15465 15466 15467 15468 15469 15470 15471 15472 15473 15474 15475 15476 15477 15478 15479 15480 15481 15482 15483 15484 15485 15486 15487 15488 15489 15490 15491 15492 15493 15494 15495 15496 15497 15498 15499 15500 15501 15502 15503 15504 15505 15506 15507 15508 15509 15510 15511 15512 15513 15514 15515 15516 15517 15518 15519 15520 15521 15522 15523 15524 15525 15526 15527 15528 15529 15530 15531 15532 15533 15534 15535 15536 15537 15538 15539 15540 15541 15542 15543 15544 15545 15546 15547 15548 15549 15550 15551 15552 15553 15554 15555 15556 15557 15558 15559 15560 15561 15562 15563 15564 15565 15566 15567 15568 15569 15570 15571 15572 15573 15574 15575 15576 15577 15578 15579 15580 15581 15582 15583 15584 15585 15586 15587 15588 15589 15590 15591 15592 15593 15594 15595 15596 15597 15598 15599 15600 15601 15602 15603 15604 15605 15606 15607 15608 15609 15610 15611 15612 15613 15614 15615 15616 15617 15618 15619 15620 15621 15622 15623 15624 15625 15626 15627 15628 15629 15630 15631 15632 15633 15634 15635 15636 15637 15638 15639 15640 15641 15642 15643 15644 15645 15646 15647 15648 15649 15650 15651 15652 15653 15654 15655 15656 15657 15658 15659 15660 15661 15662 15663 15664 15665 15666 15667 15668 15669 15670 15671 15672 15673 15674 15675 15676 15677 15678 15679 15680 15681 15682 15683 15684 15685 15686 15687 15688 15689 15690 15691 15692 15693 15694 15695 15696 15697 15698 15699 15700 15701 15702 15703 15704 15705 15706 15707 15708 15709 15710 15711 15712 15713 15714 15715 15716 15717 15718 15719 15720 15721 15722 15723 15724 15725 15726 15727 15728 15729 15730 15731 15732 15733 15734 15735 15736 15737 15738 15739 15740 15741 15742 15743 15744 15745 15746 15747 15748 15749 15750 15751 15752 15753 15754 15755 15756 15757 15758 15759 15760 15761 15762 15763 15764 15765 15766 15767 15768 15769 15770 15771 15772 15773 15774 15775 15776 15777 15778 15779 15780 15781 15782 15783 15784 15785 15786 15787 15788 15789 15790 15791 15792 15793 15794 15795 15796 15797 15798 15799 15800 15801 15802 15803 15804 15805 15806 15807 15808 15809 15810 15811 15812 15813 15814 15815 15816 15817 15818 15819 15820 15821 15822 15823 15824 15825 15826 15827 15828 15829 15830 15831 15832 15833 15834 15835 15836 15837 15838 15839 15840 15841 15842 15843 15844 15845 15846 15847 15848 15849 15850 15851 15852 15853 15854 15855 15856 15857 15858 15859 15860 15861 15862 15863 15864 15865 15866 15867 15868 15869 15870 15871 15872 15873 15874 15875 15876 15877 15878 15879 15880 15881 15882 15883 15884 15885 15886 15887 15888 15889 15890 15891 15892 15893 15894 15895 15896 15897 15898 15899 15900 15901 15902 15903 15904 15905 15906 15907 15908 15909 15910 15911 15912 15913 15914 15915 15916 15917 15918 15919 15920 15921 15922 15923 15924 15925 15926 15927 15928 15929 15930 15931 15932 15933 15934 15935 15936 15937 15938 15939 15940 15941 15942 15943 15944 15945 15946 15947 15948 15949 15950 15951 15952 15953 15954 15955 15956 15957 15958 15959 15960 15961 15962 15963 15964 15965 15966 15967 15968 15969 15970 15971 15972 15973 15974 15975 15976 15977 15978 15979 15980 15981 15982 15983 15984 15985 15986 15987 15988 15989 15990 15991 15992 15993 15994 15995 15996 15997 15998 15999 16000 16001 16002 16003 16004 16005 16006 16007 16008 16009 16010 16011 16012 16013 16014 16015 16016 16017 16018 16019 16020 16021 16022 16023 16024 16025 16026 16027 16028 16029 16030 16031 16032 16033 16034 16035 16036 16037 16038 16039 16040 16041 16042 16043 16044 16045 16046 16047 16048 16049 16050 16051 16052 16053 16054 16055 16056 16057 16058 16059 16060 16061 16062 16063 16064 16065 16066 16067 16068 16069 16070 16071 16072 16073 16074 16075 16076 16077 16078 16079 16080 16081 16082 16083 16084 16085 16086 16087 16088 16089 16090 16091 16092 16093 16094 16095 16096 16097 16098 16099 16100 16101 16102 16103 16104 16105 16106 16107 16108 16109 16110 16111 16112 16113 16114 16115 16116 16117 16118 16119 16120 16121 16122 16123 16124 16125 16126 16127 16128 16129 16130 16131 16132 16133 16134 16135 16136 16137 16138 16139 16140 16141 16142 16143 16144 16145 16146 16147 16148 16149 16150 16151 16152 16153 16154 16155 16156 16157 16158 16159 16160 16161 16162 16163 16164 16165 16166 16167 16168 16169 16170 16171 16172 16173 16174 16175 16176 16177 16178 16179 16180 16181 16182 16183 16184 16185 16186 16187 16188 16189 16190 16191 16192 16193 16194 16195 16196 16197 16198 16199 16200 16201 16202 16203 16204 16205 16206 16207 16208 16209 16210 16211 16212 16213 16214 16215 16216 16217 16218 16219 16220 16221 16222 16223 16224 16225 16226 16227 16228 16229 16230 16231 16232 16233 16234 16235 16236 16237 16238 16239 16240 16241 16242 16243 16244 16245 16246 16247 16248 16249 16250 16251 16252 16253 16254 16255 16256 16257 16258 16259 16260 16261 16262 16263 16264 16265 16266 16267 16268 16269 16270 16271 16272 16273 16274 16275 16276 16277 16278 16279 16280 16281 16282 16283 16284 16285 16286 16287 16288 16289 16290 16291 16292 16293 16294 16295 16296 16297 16298 16299 16300 16301 16302 16303 16304 16305 16306 16307 16308 16309 16310 16311 16312 16313 16314 16315 16316 16317 16318 16319 16320 16321 16322 16323 16324 16325 16326 16327 16328 16329 16330 16331 16332 16333 16334 16335 16336 16337 16338 16339 16340 16341 16342 16343 16344 16345 16346 16347 16348 16349 16350 16351 16352 16353 16354 16355 16356 16357 16358 16359 16360 16361 16362 16363 16364 16365 16366 16367 16368 16369 16370 16371 16372 16373 16374 16375 16376 16377 16378 16379 16380 16381 16382 16383 16384 16385 16386 16387 16388 16389 16390 16391 16392 16393 16394 16395 16396 16397 16398 16399 16400 16401 16402 16403 16404 16405 16406 16407 16408 16409 16410 16411 16412 16413 16414 16415 16416 16417 16418 16419 16420 16421 16422 16423 16424 16425 16426 16427 16428 16429 16430 16431 16432 16433 16434 16435 16436 16437 16438 16439 16440 16441 16442 16443 16444 16445 16446 16447 16448 16449 16450 16451 16452 16453 16454 16455 16456 16457 16458 16459 16460 16461 16462 16463 16464 16465 16466 16467 16468 16469 16470 16471 16472 16473 16474 16475 16476 16477 16478 16479 16480 16481 16482 16483 16484 16485 16486 16487 16488 16489 16490 16491 16492 16493 16494 16495 16496 16497 16498 16499 16500 16501 16502 16503 16504 16505 16506 16507 16508 16509 16510 16511 16512 16513 16514 16515 16516 16517 16518 16519 16520 16521 16522 16523 16524 16525 16526 16527 16528 16529 16530 16531 16532 16533 16534 16535 16536 16537 16538 16539 16540 16541 16542 16543 16544 16545 16546 16547 16548 16549 16550 16551 16552 16553 16554 16555 16556 16557 16558 16559 16560 16561 16562 16563 16564 16565 16566 16567 16568 16569 16570 16571 16572 16573 16574 16575 16576 16577 16578 16579 16580 16581 16582 16583 16584 16585 16586 16587 16588 16589 16590 16591 16592 16593 16594 16595 16596 16597 16598 16599 16600 16601 16602 16603 16604 16605 16606 16607 16608 16609 16610 16611 16612 16613 16614 16615 16616 16617 16618 16619 16620 16621 16622 16623 16624 16625 16626 16627 16628 16629 16630 16631 16632 16633 16634 16635 16636 16637 16638 16639 16640 16641 16642 16643 16644 16645 16646 16647 16648 16649 16650 16651 16652 16653 16654 16655 16656 16657 16658 16659 16660 16661 16662 16663 16664 16665 16666 16667 16668 16669 16670 16671 16672 16673 16674 16675 16676 16677 16678 16679 16680 16681 16682 16683 16684 16685 16686 16687 16688 16689 16690 16691 16692 16693 16694 16695 16696 16697 16698 16699 16700 16701 16702 16703 16704 16705 16706 16707 16708 16709 16710 16711 16712 16713 16714 16715 16716 16717 16718 16719 16720 16721 16722 16723 16724 16725 16726 16727 16728 16729 16730 16731 16732 16733 16734 16735 16736 16737 16738 16739 16740 16741 16742 16743 16744 16745 16746 16747 16748 16749 16750 16751 16752 16753 16754 16755 16756 16757 16758 16759 16760 16761 16762 16763 16764 16765 16766 16767 16768 16769 16770 16771 16772 16773 16774 16775 16776 16777 16778 16779 16780 16781 16782 16783 16784 16785 16786 16787 16788 16789 16790 16791 16792 16793 16794 16795 16796 16797 16798 16799 16800 16801 16802 16803 16804 16805 16806 16807 16808 16809 16810 16811 16812 16813 16814 16815 16816 16817 16818 16819 16820 16821 16822 16823 16824 16825 16826 16827 16828 16829 16830 16831 16832 16833 16834 16835 16836 16837 16838 16839 16840 16841 16842 16843 16844 16845 16846 16847 16848 16849 16850 16851 16852 16853 16854 16855 16856 16857 16858 16859 16860 16861 16862 16863 16864 16865 16866 16867 16868 16869 16870 16871 16872 16873 16874 16875 16876 16877 16878 16879 16880 16881 16882 16883 16884 16885 16886 16887 16888 16889 16890 16891 16892 16893 16894 16895 16896 16897 16898 16899 16900 16901 16902 16903 16904 16905 16906 16907 16908 16909 16910 16911 16912 16913 16914 16915 16916 16917 16918 16919 16920 16921 16922 16923 16924 16925 16926 16927 16928 16929 16930 16931 16932 16933 16934 16935 16936 16937 16938 16939 16940 16941 16942 16943 16944 16945 16946 16947 16948 16949 16950 16951 16952 16953 16954 16955 16956 16957 16958 16959 16960 16961 16962 16963 16964 16965 16966 16967 16968 16969 16970 16971 16972 16973 16974 16975 16976 16977 16978 16979 16980 16981 16982 16983 16984 16985 16986 16987 16988 16989 16990 16991 16992 16993 16994 16995 16996 16997 16998 16999 17000 17001 17002 17003 17004 17005 17006 17007 17008 17009 17010 17011 17012 17013 17014 17015 17016 17017 17018 17019 17020 17021 17022 17023 17024 17025 17026 17027 17028 17029 17030 17031 17032 17033 17034 17035 17036 17037 17038 17039 17040 17041 17042 17043 17044 17045 17046 17047 17048 17049 17050 17051 17052 17053 17054 17055 17056 17057 17058 17059 17060 17061 17062 17063 17064 17065 17066 17067 17068 17069 17070 17071 17072 17073 17074 17075 17076 17077 17078 17079 17080 17081 17082 17083 17084 17085 17086 17087 17088 17089 17090 17091 17092 17093 17094 17095 17096 17097 17098 17099 17100 17101 17102 17103 17104 17105 17106 17107 17108 17109 17110 17111 17112 17113 17114 17115 17116 17117 17118 17119 17120 17121 17122 17123 17124 17125 17126 17127 17128 17129 17130 17131 17132 17133 17134 17135 17136 17137 17138 17139 17140 17141 17142 17143 17144 17145 17146 17147 17148 17149 17150 17151 17152 17153 17154 17155 17156 17157 17158 17159 17160 17161 17162 17163 17164 17165 17166 17167 17168 17169 17170 17171 17172 17173 17174 17175 17176 17177 17178 17179 17180 17181 17182 17183 17184 17185 17186 17187 17188 17189 17190 17191 17192 17193 17194 17195 17196 17197 17198 17199 17200 17201 17202 17203 17204 17205 17206 17207 17208 17209 17210 17211 17212 17213 17214 17215 17216 17217 17218 17219 17220 17221 17222 17223 17224 17225 17226 17227 17228 17229 17230 17231 17232 17233 17234 17235 17236 17237 17238 17239 17240 17241 17242 17243 17244 17245 17246 17247 17248 17249 17250 17251 17252 17253 17254 17255 17256 17257 17258 17259 17260 17261 17262 17263 17264 17265 17266 17267 17268 17269 17270 17271 17272 17273 17274 17275 17276 17277 17278 17279 17280 17281 17282 17283 17284 17285 17286 17287 17288 17289 17290 17291 17292 17293 17294 17295 17296 17297 17298 17299 17300 17301 17302 17303 17304 17305 17306 17307 17308 17309 17310 17311 17312 17313 17314 17315 17316 17317 17318 17319 17320 17321 17322 17323 17324 17325 17326 17327 17328 17329 17330 17331 17332 17333 17334 17335 17336 17337 17338 17339 17340 17341 17342 17343 17344 17345 17346 17347 17348 17349 17350 17351 17352 17353 17354 17355 17356 17357 17358 17359 17360 17361 17362 17363 17364 17365 17366 17367 17368 17369 17370 17371 17372 17373 17374 17375 17376 17377 17378 17379 17380 17381 17382 17383 17384 17385 17386 17387 17388 17389 17390 17391 17392 17393 17394 17395 17396 17397 17398 17399 17400 17401 17402 17403 17404 17405 17406 17407 17408 17409 17410 17411 17412 17413 17414 17415 17416 17417 17418 17419 17420 17421 17422 17423 17424 17425 17426 17427 17428 17429 17430 17431 17432 17433 17434 17435 17436 17437 17438 17439 17440 17441 17442 17443 17444 17445 17446 17447 17448 17449 17450 17451 17452 17453 17454 17455 17456 17457 17458 17459 17460 17461 17462 17463 17464 17465 17466 17467 17468 17469 17470 17471 17472 17473 17474 17475 17476 17477 17478 17479 17480 17481 17482 17483 17484 17485 17486 17487 17488 17489 17490 17491 17492 17493 17494 17495 17496 17497 17498 17499 17500 17501 17502 17503 17504 17505 17506 17507 17508 17509 17510 17511 17512 17513 17514 17515 17516 17517 17518 17519 17520 17521 17522 17523 17524 17525 17526 17527 17528 17529 17530 17531 17532 17533 17534 17535 17536 17537 17538 17539 17540 17541 17542 17543 17544 17545 17546 17547 17548 17549 17550 17551 17552 17553 17554 17555 17556 17557 17558 17559 17560 17561 17562 17563 17564 17565 17566 17567 17568 17569 17570 17571 17572 17573 17574 17575 17576 17577 17578 17579 17580 17581 17582 17583 17584 17585 17586 17587 17588 17589 17590 17591 17592 17593 17594 17595 17596 17597 17598 17599 17600 17601 17602 17603 17604 17605 17606 17607 17608 17609 17610 17611 17612 17613 17614 17615 17616 17617 17618 17619 17620 17621 17622 17623 17624 17625 17626 17627 17628 17629 17630 17631 17632 17633 17634 17635 17636 17637 17638 17639 17640 17641 17642 17643 17644 17645 17646 17647 17648 17649 17650 17651 17652 17653 17654 17655 17656 17657 17658 17659 17660 17661 17662 17663 17664 17665 17666 17667 17668 17669 17670 17671 17672 17673 17674 17675 17676 17677 17678 17679 17680 17681 17682 17683 17684 17685 17686 17687 17688 17689 17690 17691 17692 17693 17694 17695 17696 17697 17698 17699 17700 17701 17702 17703 17704 17705 17706 17707 17708 17709 17710 17711 17712 17713 17714 17715 17716 17717 17718 17719 17720 17721 17722 17723 17724 17725 17726 17727 17728 17729 17730 17731 17732 17733 17734 17735 17736 17737 17738 17739 17740 17741 17742 17743 17744 17745 17746 17747 17748 17749 17750 17751 17752 17753 17754 17755 17756 17757 17758 17759 17760 17761 17762 17763 17764 17765 17766 17767 17768 17769 17770 17771 17772 17773 17774 17775 17776 17777 17778 17779 17780 17781 17782 17783 17784 17785 17786 17787 17788 17789 17790 17791 17792 17793 17794 17795 17796 17797 17798 17799 17800 17801 17802 17803 17804 17805 17806 17807 17808 17809 17810 17811 17812 17813 17814 17815 17816 17817 17818 17819 17820 17821 17822 17823 17824 17825 17826 17827 17828 17829 17830 17831 17832 17833 17834 17835 17836 17837 17838 17839 17840 17841 17842 17843 17844 17845 17846 17847 17848 17849 17850 17851 17852 17853 17854 17855 17856 17857 17858 17859 17860 17861 17862 17863 17864 17865 17866 17867 17868 17869 17870 17871 17872 17873 17874 17875 17876 17877 17878 17879 17880 17881 17882 17883 17884 17885 17886 17887 17888 17889 17890 17891 17892 17893 17894 17895 17896 17897 17898 17899 17900 17901 17902 17903 17904 17905 17906 17907 17908 17909 17910 17911 17912 17913 17914 17915 17916 17917 17918 17919 17920 17921 17922 17923 17924 17925 17926 17927 17928 17929 17930 17931 17932 17933 17934 17935 17936 17937 17938 17939 17940 17941 17942 17943 17944 17945 17946 17947 17948 17949 17950 17951 17952 17953 17954 17955 17956 17957 17958 17959 17960 17961 17962 17963 17964 17965 17966 17967 17968 17969 17970 17971 17972 17973 17974 17975 17976 17977 17978 17979 17980 17981 17982 17983 17984 17985 17986 17987 17988 17989 17990 17991 17992 17993 17994 17995 17996 17997 17998 17999 18000 18001 18002 18003 18004 18005 18006 18007 18008 18009 18010 18011 18012 18013 18014 18015 18016 18017 18018 18019 18020 18021 18022 18023 18024 18025 18026 18027 18028 18029 18030 18031 18032 18033 18034 18035 18036 18037 18038 18039 18040 18041 18042 18043 18044 18045 18046 18047 18048 18049 18050 18051 18052 18053 18054 18055 18056 18057 18058 18059 18060 18061 18062 18063 18064 18065 18066 18067 18068 18069 18070 18071 18072 18073 18074 18075 18076 18077 18078 18079 18080 18081 18082 18083 18084 18085 18086 18087 18088 18089 18090 18091 18092 18093 18094 18095 18096 18097 18098 18099 18100 18101 18102 18103 18104 18105 18106 18107 18108 18109 18110 18111 18112 18113 18114 18115 18116 18117 18118 18119 18120 18121 18122 18123 18124 18125 18126 18127 18128 18129 18130 18131 18132 18133 18134 18135 18136 18137 18138 18139 18140 18141 18142 18143 18144 18145 18146 18147 18148 18149 18150 18151 18152 18153 18154 18155 18156 18157 18158 18159 18160 18161 18162 18163 18164 18165 18166 18167 18168 18169 18170 18171 18172 18173 18174 18175 18176 18177 18178 18179 18180 18181 18182 18183 18184 18185 18186 18187 18188 18189 18190 18191 18192 18193 18194 18195 18196 18197 18198 18199 18200 18201 18202 18203 18204 18205 18206 18207 18208 18209 18210 18211 18212 18213 18214 18215 18216 18217 18218 18219 18220 18221 18222 18223 18224 18225 18226 18227 18228 18229 18230 18231 18232 18233 18234 18235 18236 18237 18238 18239 18240 18241 18242 18243 18244 18245 18246 18247 18248 18249 18250 18251 18252 18253 18254 18255 18256 18257 18258 18259 18260 18261 18262 18263 18264 18265 18266 18267 18268 18269 18270 18271 18272 18273 18274 18275 18276 18277 18278 18279 18280 18281 18282 18283 18284 18285 18286 18287 18288 18289 18290 18291 18292 18293 18294 18295 18296 18297 18298 18299 18300 18301 18302 18303 18304 18305 18306 18307 18308 18309 18310 18311 18312 18313 18314 18315 18316 18317 18318 18319 18320 18321 18322 18323 18324 18325 18326 18327 18328 18329 18330 18331 18332 18333 18334 18335 18336 18337 18338 18339 18340 18341 18342 18343 18344 18345 18346 18347 18348 18349 18350 18351 18352 18353 18354 18355 18356 18357 18358 18359 18360 18361 18362 18363 18364 18365 18366 18367 18368 18369 18370 18371 18372 18373 18374 18375 18376 18377 18378 18379 18380 18381 18382 18383 18384 18385 18386 18387 18388 18389 18390 18391 18392 18393 18394 18395 18396 18397 18398 18399 18400 18401 18402 18403 18404 18405 18406 18407 18408 18409 18410 18411 18412 18413 18414 18415 18416 18417 18418 18419 18420 18421 18422 18423 18424 18425 18426 18427 18428 18429 18430 18431 18432 18433 18434 18435 18436 18437 18438 18439 18440 18441 18442 18443 18444 18445 18446 18447 18448 18449 18450 18451 18452 18453 18454 18455 18456 18457 18458 18459 18460 18461 18462 18463 18464 18465 18466 18467 18468 18469 18470 18471 18472 18473 18474 18475 18476 18477 18478 18479 18480 18481 18482 18483 18484 18485 18486 18487 18488 18489 18490 18491 18492 18493 18494 18495 18496 18497 18498 18499 18500 18501 18502 18503 18504 18505 18506 18507 18508 18509 18510 18511 18512 18513 18514 18515 18516 18517 18518 18519 18520 18521 18522 18523 18524 18525 18526 18527 18528 18529 18530 18531 18532 18533 18534 18535 18536 18537 18538 18539 18540 18541 18542 18543 18544 18545 18546 18547 18548 18549 18550 18551 18552 18553 18554 18555 18556 18557 18558 18559 18560 18561 18562 18563 18564 18565 18566 18567 18568 18569 18570 18571 18572 18573 18574 18575 18576 18577 18578 18579 18580 18581 18582 18583 18584 18585 18586 18587 18588 18589 18590 18591 18592 18593 18594 18595 18596 18597 18598 18599 18600 18601 18602 18603 18604 18605 18606 18607 18608 18609 18610 18611 18612 18613 18614 18615 18616 18617 18618 18619 18620 18621 18622 18623 18624 18625 18626 18627 18628 18629 18630 18631 18632 18633 18634 18635 18636 18637 18638 18639 18640 18641 18642 18643 18644 18645 18646 18647 18648 18649 18650 18651 18652 18653 18654 18655 18656 18657 18658 18659 18660 18661 18662 18663 18664 18665 18666 18667 18668 18669 18670 18671 18672 18673 18674 18675 18676 18677 18678 18679 18680 18681 18682 18683 18684 18685 18686 18687 18688 18689 18690 18691 18692 18693 18694 18695 18696 18697 18698 18699 18700 18701 18702 18703 18704 18705 18706 18707 18708 18709 18710 18711 18712 18713 18714 18715 18716 18717 18718 18719 18720 18721 18722 18723 18724 18725 18726 18727 18728 18729 18730 18731 18732 18733 18734 18735 18736 18737 18738 18739 18740 18741 18742 18743 18744 18745 18746 18747 18748 18749 18750 18751 18752 18753 18754 18755 18756 18757 18758 18759 18760 18761 18762 18763 18764 18765 18766 18767 18768 18769 18770 18771 18772 18773 18774 18775 18776 18777 18778 18779 18780 18781 18782 18783 18784 18785 18786 18787 18788 18789 18790 18791 18792 18793 18794 18795 18796 18797 18798 18799 18800 18801 18802 18803 18804 18805 18806 18807 18808 18809 18810 18811 18812 18813 18814 18815 18816 18817 18818 18819 18820 18821 18822 18823 18824 18825 18826 18827 18828 18829 18830 18831 18832 18833 18834 18835 18836 18837 18838 18839 18840 18841 18842 18843 18844 18845 18846 18847 18848 18849 18850 18851 18852 18853 18854 18855 18856 18857 18858 18859 18860 18861 18862 18863 18864 18865 18866 18867 18868 18869 18870 18871 18872 18873 18874 18875 18876 18877 18878 18879 18880 18881 18882 18883 18884 18885 18886 18887 18888 18889 18890 18891 18892 18893 18894 18895 18896 18897 18898 18899 18900 18901 18902 18903 18904 18905 18906 18907 18908 18909 18910 18911 18912 18913 18914 18915 18916 18917 18918 18919 18920 18921 18922 18923 18924 18925 18926 18927 18928 18929 18930 18931 18932 18933 18934 18935 18936 18937 18938 18939 18940 18941 18942 18943 18944 18945 18946 18947 18948 18949 18950 18951 18952 18953 18954 18955 18956 18957 18958 18959 18960 18961 18962 18963 18964 18965 18966 18967 18968 18969 18970 18971 18972 18973 18974 18975 18976 18977 18978 18979 18980 18981 18982 18983 18984 18985 18986 18987 18988 18989 18990 18991 18992 18993 18994 18995 18996 18997 18998 18999 19000 19001 19002 19003 19004 19005 19006 19007 19008 19009 19010 19011 19012 19013 19014 19015 19016 19017 19018 19019 19020 19021 19022 19023 19024 19025 19026 19027 19028 19029 19030 19031 19032 19033 19034 19035 19036 19037 19038 19039 19040 19041 19042 19043 19044 19045 19046 19047 19048 19049 19050 19051 19052 19053 19054 19055 19056 19057 19058 19059 19060 19061 19062 19063 19064 19065 19066 19067 19068 19069 19070 19071 19072 19073 19074 19075 19076 19077 19078 19079 19080 19081 19082 19083 19084 19085 19086 19087 19088 19089 19090 19091 19092 19093 19094 19095 19096 19097 19098 19099 19100 19101 19102 19103 19104 19105 19106 19107 19108 19109 19110 19111 19112 19113 19114 19115 19116 19117 19118 19119 19120 19121 19122 19123 19124 19125 19126 19127 19128 19129 19130 19131 19132 19133 19134 19135 19136 19137 19138 19139 19140 19141 19142 19143 19144 19145 19146 19147 19148 19149 19150 19151 19152 19153 19154 19155 19156 19157 19158 19159 19160 19161 19162 19163 19164 19165 19166 19167 19168 19169 19170 19171 19172 19173 19174 19175 19176 19177 19178 19179 19180 19181 19182 19183 19184 19185 19186 19187 19188 19189 19190 19191 19192 19193 19194 19195 19196 19197 19198 19199 19200 19201 19202 19203 19204 19205 19206 19207 19208 19209 19210 19211 19212 19213 19214 19215 19216 19217 19218 19219 19220 19221 19222 19223 19224 19225 19226 19227 19228 19229 19230 19231 19232 19233 19234 19235 19236 19237 19238 19239 19240 19241 19242 19243 19244 19245 19246 19247 19248 19249 19250 19251 19252 19253 19254 19255 19256 19257 19258 19259 19260 19261 19262 19263 19264 19265 19266 19267 19268 19269 19270 19271 19272 19273 19274 19275 19276 19277 19278 19279 19280 19281 19282 19283 19284 19285 19286 19287 19288 19289 19290 19291 19292 19293 19294 19295 19296 19297 19298 19299 19300 19301 19302 19303 19304 19305 19306 19307 19308 19309 19310 19311 19312 19313 19314 19315 19316 19317 19318 19319 19320 19321 19322 19323 19324 19325 19326 19327 19328 19329 19330 19331 19332 19333 19334 19335 19336 19337 19338 19339 19340 19341 19342 19343 19344 19345 19346 19347 19348 19349 19350 19351 19352 19353 19354 19355 19356 19357 19358 19359 19360 19361 19362 19363 19364 19365 19366 19367 19368 19369 19370 19371 19372 19373 19374 19375 19376 19377 19378 19379 19380 19381 19382 19383 19384 19385 19386 19387 19388 19389 19390 19391 19392 19393 19394 19395 19396 19397 19398 19399 19400 19401 19402 19403 19404 19405 19406 19407 19408 19409 19410 19411 19412 19413 19414 19415 19416 19417 19418 19419 19420 19421 19422 19423 19424 19425 19426 19427 19428 19429 19430 19431 19432 19433 19434 19435 19436 19437 19438 19439 19440 19441 19442 19443 19444 19445 19446 19447 19448 19449 19450 19451 19452 19453 19454 19455 19456 19457 19458 19459 19460 19461 19462 19463 19464 19465 19466 19467 19468 19469 19470 19471 19472 19473 19474 19475 19476 19477 19478 19479 19480 19481 19482 19483 19484 19485 19486 19487 19488 19489 19490 19491 19492 19493 19494 19495 19496 19497 19498 19499 19500 19501 19502 19503 19504 19505 19506 19507 19508 19509 19510 19511 19512 19513 19514 19515 19516 19517 19518 19519 19520 19521 19522 19523 19524 19525 19526 19527 19528 19529 19530 19531 19532 19533 19534 19535 19536 19537 19538 19539 19540 19541 19542 19543 19544 19545 19546 19547 19548 19549 19550 19551 19552 19553 19554 19555 19556 19557 19558 19559 19560 19561 19562 19563 19564 19565 19566 19567 19568 19569 19570 19571 19572 19573 19574 19575 19576 19577 19578 19579 19580 19581 19582 19583 19584 19585 19586 19587 19588 19589 19590 19591 19592 19593 19594 19595 19596 19597 19598 19599 19600 19601 19602 19603 19604 19605 19606 19607 19608 19609 19610 19611 19612 19613 19614 19615 19616 19617 19618 19619 19620 19621 19622 19623 19624 19625 19626 19627 19628 19629 19630 19631 19632 19633 19634 19635 19636 19637 19638 19639 19640 19641 19642 19643 19644 19645 19646 19647 19648 19649 19650 19651 19652 19653 19654 19655 19656 19657 19658 19659 19660 19661 19662 19663 19664 19665 19666 19667 19668 19669 19670 19671 19672 19673 19674 19675 19676 19677 19678 19679 19680 19681 19682 19683 19684 19685 19686 19687 19688 19689 19690 19691 19692 19693 19694 19695 19696 19697 19698 19699 19700 19701 19702 19703 19704 19705 19706 19707 19708 19709 19710 19711 19712 19713 19714 19715 19716 19717 19718 19719 19720 19721 19722 19723 19724 19725 19726 19727 19728 19729 19730 19731 19732 19733 19734 19735 19736 19737 19738 19739 19740 19741 19742 19743 19744 19745 19746 19747 19748 19749 19750 19751 19752 19753 19754 19755 19756 19757 19758 19759 19760 19761 19762 19763 19764 19765 19766 19767 19768 19769 19770 19771 19772 19773 19774 19775 19776 19777 19778 19779 19780 19781 19782 19783 19784 19785 19786 19787 19788 19789 19790 19791 19792 19793 19794 19795 19796 19797 19798 19799 19800 19801 19802 19803 19804 19805 19806 19807 19808 19809 19810 19811 19812 19813 19814 19815 19816 19817 19818 19819 19820 19821 19822 19823 19824 19825 19826 19827 19828 19829 19830 19831 19832 19833 19834 19835 19836 19837 19838 19839 19840 19841 19842 19843 19844 19845 19846 19847 19848 19849 19850 19851 19852 19853 19854 19855 19856 19857 19858 19859 19860 19861 19862 19863 19864 19865 19866 19867 19868 19869 19870 19871 19872 19873 19874 19875 19876 19877 19878 19879 19880 19881 19882 19883 19884 19885 19886 19887 19888 19889 19890 19891 19892 19893 19894 19895 19896 19897 19898 19899 19900 19901 19902 19903 19904 19905 19906 19907 19908 19909 19910 19911 19912 19913 19914 19915 19916 19917 19918 19919 19920 19921 19922 19923 19924 19925 19926 19927 19928 19929 19930 19931 19932 19933 19934 19935 19936 19937 19938 19939 19940 19941 19942 19943 19944 19945 19946 19947 19948 19949 19950 19951 19952 19953 19954 19955 19956 19957 19958 19959 19960 19961 19962 19963 19964 19965 19966 19967 19968 19969 19970 19971 19972 19973 19974 19975 19976 19977 19978 19979 19980 19981 19982 19983 19984 19985 19986 19987 19988 19989 19990 19991 19992 19993 19994 19995 19996 19997 19998 19999 20000 20001 20002 20003 20004 20005 20006 20007 20008 20009 20010 20011 20012 20013 20014 20015 20016 20017 20018 20019 20020 20021 20022 20023 20024 20025 20026 20027 20028 20029 20030 20031 20032 20033 20034 20035 20036 20037 20038 20039 20040 20041 20042 20043 20044 20045 20046 20047 20048 20049 20050 20051 20052 20053 20054 20055 20056 20057 20058 20059 20060 20061 20062 20063 20064 20065 20066 20067 20068 20069 20070 20071 20072 20073 20074 20075 20076 20077 20078 20079 20080 20081 20082 20083 20084 20085 20086 20087 20088 20089 20090 20091 20092 20093 20094 20095 20096 20097 20098 20099 20100 20101 20102 20103 20104 20105 20106 20107 20108 20109 20110 20111 20112 20113 20114 20115 20116 20117 20118 20119 20120 20121 20122 20123 20124 20125 20126 20127 20128 20129 20130 20131 20132 20133 20134 20135 20136 20137 20138 20139 20140 20141 20142 20143 20144 20145 20146 20147 20148 20149 20150 20151 20152 20153 20154 20155 20156 20157 20158 20159 20160 20161 20162 20163 20164 20165 20166 20167 20168 20169 20170 20171 20172 20173 20174 20175 20176 20177 20178 20179 20180 20181 20182 20183 20184 20185 20186 20187 20188 20189 20190 20191 20192 20193 20194 20195 20196 20197 20198 20199 20200 20201 20202 20203 20204 20205 20206 20207 20208 20209 20210 20211 20212 20213 20214 20215 20216 20217 20218 20219 20220 20221 20222 20223 20224 20225 20226 20227 20228 20229 20230 20231 20232 20233 20234 20235 20236 20237 20238 20239 20240 20241 20242 20243 20244 20245 20246 20247 20248 20249 20250 20251 20252 20253 20254 20255 20256 20257 20258 20259 20260 20261 20262 20263 20264 20265 20266 20267 20268 20269 20270 20271 20272 20273 20274 20275 20276 20277 20278 20279 20280 20281 20282 20283 20284 20285 20286 20287 20288 20289 20290 20291 20292 20293 20294 20295 20296 20297 20298 20299 20300 20301 20302 20303 20304 20305 20306 20307 20308 20309 20310 20311 20312 20313 20314 20315 20316 20317 20318 20319 20320 20321 20322 20323 20324 20325 20326 20327 20328 20329 20330 20331 20332 20333 20334 20335 20336 20337 20338 20339 20340 20341 20342 20343 20344 20345 20346 20347 20348 20349 20350 20351 20352 20353 20354 20355 20356 20357 20358 20359 20360 20361 20362 20363 20364 20365 20366 20367 20368 20369 20370 20371 20372 20373 20374 20375 20376 20377 20378 20379 20380 20381 20382 20383 20384 20385 20386 20387 20388 20389 20390 20391 20392 20393 20394 20395 20396 20397 20398 20399 20400 20401 20402 20403 20404 20405 20406 20407 20408 20409 20410 20411 20412 20413 20414 20415 20416 20417 20418 20419 20420 20421 20422 20423 20424 20425 20426 20427 20428 20429 20430 20431 20432 20433 20434 20435 20436 20437 20438 20439 20440 20441 20442 20443 20444 20445 20446 20447 20448 20449 20450 20451 20452 20453 20454 20455 20456 20457 20458 20459 20460 20461 20462 20463 20464 20465 20466 20467 20468 20469 20470 20471 20472 20473 20474 20475 20476 20477 20478 20479 20480 20481 20482 20483 20484 20485 20486 20487 20488 20489 20490 20491 20492 20493 20494 20495 20496 20497 20498 20499 20500 20501 20502 20503 20504 20505 20506 20507 20508 20509 20510 20511 20512 20513 20514 20515 20516 20517 20518 20519 20520 20521 20522 20523 20524 20525 20526 20527 20528 20529 20530 20531 20532 20533 20534 20535 20536 20537 20538 20539 20540 20541 20542 20543 20544 20545 20546 20547 20548 20549 20550 20551 20552 20553 20554 20555 20556 20557 20558 20559 20560 20561 20562 20563 20564 20565 20566 20567 20568 20569 20570 20571 20572 20573 20574 20575 20576 20577 20578 20579 20580 20581 20582 20583 20584 20585 20586 20587 20588 20589 20590 20591 20592 20593 20594 20595 20596 20597 20598 20599 20600 20601 20602 20603 20604 20605 20606 20607 20608 20609 20610 20611 20612 20613 20614 20615 20616 20617 20618 20619 20620 20621 20622 20623 20624 20625 20626 20627 20628 20629 20630 20631 20632 20633 20634 20635 20636 20637 20638 20639 20640 20641 20642 20643 20644 20645 20646 20647 20648 20649 20650 20651 20652 20653 20654 20655 20656 20657 20658 20659 20660 20661 20662 20663 20664 20665 20666 20667 20668 20669 20670 20671 20672 20673 20674 20675 20676 20677 20678 20679 20680 20681 20682 20683 20684 20685 20686 20687 20688 20689 20690 20691 20692 20693 20694 20695 20696 20697 20698 20699 20700 20701 20702 20703 20704 20705 20706 20707 20708 20709 20710 20711 20712 20713 20714 20715 20716 20717 20718 20719 20720 20721 20722 20723 20724 20725 20726 20727 20728 20729 20730 20731 20732 20733 20734 20735 20736 20737 20738 20739 20740 20741 20742 20743 20744 20745 20746 20747 20748 20749 20750 20751 20752 20753 20754 20755 20756 20757 20758 20759 20760 20761 20762 20763 20764 20765 20766 20767 20768 20769 20770 20771 20772 20773 20774 20775 20776 20777 20778 20779 20780 20781 20782 20783 20784 20785 20786 20787 20788 20789 20790 20791 20792 20793 20794 20795 20796 20797 20798 20799 20800 20801 20802 20803 20804 20805 20806 20807 20808 20809 20810 20811 20812 20813 20814 20815 20816 20817 20818 20819 20820 20821 20822 20823 20824 20825 20826 20827 20828 20829 20830 20831 20832 20833 20834 20835 20836 20837 20838 20839 20840 20841 20842 20843 20844 20845 20846 20847 20848 20849 20850 20851 20852 20853 20854 20855 20856 20857 20858 20859 20860 20861 20862 20863 20864 20865 20866 20867 20868 20869 20870 20871 20872 20873 20874 20875 20876 20877 20878 20879 20880 20881 20882 20883 20884 20885 20886 20887 20888 20889 20890 20891 20892 20893 20894 20895 20896 20897 20898 20899 20900 20901 20902 20903 20904 20905 20906 20907 20908 20909 20910 20911 20912 20913 20914 20915 20916 20917 20918 20919 20920 20921 20922 20923 20924 20925 20926 20927 20928 20929 20930 20931 20932 20933 20934 20935 20936 20937 20938 20939 20940 20941 20942 20943 20944 20945 20946 20947 20948 20949 20950 20951 20952 20953 20954 20955 20956 20957 20958 20959 20960 20961 20962 20963 20964 20965 20966 20967 20968 20969 20970 20971 20972 20973 20974 20975 20976 20977 20978 20979 20980 20981 20982 20983 20984 20985 20986 20987 20988 20989 20990 20991 20992 20993 20994 20995 20996 20997 20998 20999 21000 21001 21002 21003 21004 21005 21006 21007 21008 21009 21010 21011 21012 21013 21014 21015 21016 21017 21018 21019 21020 21021 21022 21023 21024 21025 21026 21027 21028 21029 21030 21031 21032 21033 21034 21035 21036 21037 21038 21039 21040 21041 21042 21043 21044 21045 21046 21047 21048 21049 21050 21051 21052 21053 21054 21055 21056 21057 21058 21059 21060 21061 21062 21063 21064 21065 21066 21067 21068 21069 21070 21071 21072 21073 21074 21075 21076 21077 21078 21079 21080 21081 21082 21083 21084 21085 21086 21087 21088 21089 21090 21091 21092 21093 21094 21095 21096 21097 21098 21099 21100 21101 21102 21103 21104 21105 21106 21107 21108 21109 21110 21111 21112 21113 21114 21115 21116 21117 21118 21119 21120 21121 21122 21123 21124 21125 21126 21127 21128 21129 21130 21131 21132 21133 21134 21135 21136 21137 21138 21139 21140 21141 21142 21143 21144 21145 21146 21147 21148 21149 21150 21151 21152 21153 21154 21155 21156 21157 21158 21159 21160 21161 21162 21163 21164 21165 21166 21167 21168 21169 21170 21171 21172 21173 21174 21175 21176 21177 21178 21179 21180 21181 21182 21183 21184 21185 21186 21187 21188 21189 21190 21191 21192 21193 21194 21195 21196 21197 21198 21199 21200 21201 21202 21203 21204 21205 21206 21207 21208 21209 21210 21211 21212 21213 21214 21215 21216 21217 21218 21219 21220 21221 21222 21223 21224 21225 21226 21227 21228 21229 21230 21231 21232 21233 21234 21235 21236 21237 21238 21239 21240 21241 21242 21243 21244 21245 21246 21247 21248 21249 21250 21251 21252 21253 21254 21255 21256 21257 21258 21259 21260 21261 21262 21263 21264 21265 21266 21267 21268 21269 21270 21271 21272 21273 21274 21275 21276 21277 21278 21279 21280 21281 21282 21283 21284 21285 21286 21287 21288 21289 21290 21291 21292 21293 21294 21295 21296 21297 21298 21299 21300 21301 21302 21303 21304 21305 21306 21307 21308 21309 21310 21311 21312 21313 21314 21315 21316 21317 21318 21319 21320 21321 21322 21323 21324 21325 21326 21327 21328 21329 21330 21331 21332 21333 21334 21335 21336 21337 21338 21339 21340 21341 21342 21343 21344 21345 21346 21347 21348 21349 21350 21351 21352 21353 21354 21355 21356 21357 21358 21359 21360 21361 21362 21363 21364 21365 21366 21367 21368 21369 21370 21371 21372 21373 21374 21375 21376 21377 21378 21379 21380 21381 21382 21383 21384 21385 21386 21387 21388 21389 21390 21391 21392 21393 21394 21395 21396 21397 21398 21399 21400 21401 21402 21403 21404 21405 21406 21407 21408 21409 21410 21411 21412 21413 21414 21415 21416 21417 21418 21419 21420 21421 21422 21423 21424 21425 21426 21427 21428 21429 21430 21431 21432 21433 21434 21435 21436 21437 21438 21439 21440 21441 21442 21443 21444 21445 21446 21447 21448 21449 21450 21451 21452 21453 21454 21455 21456 21457 21458 21459 21460 21461 21462 21463 21464 21465 21466 21467 21468 21469 21470 21471 21472 21473 21474 21475 21476 21477 21478 21479 21480 21481 21482 21483 21484 21485 21486 21487 21488 21489 21490 21491 21492 21493 21494 21495 21496 21497 21498 21499 21500 21501 21502 21503 21504 21505 21506 21507 21508 21509 21510 21511 21512 21513 21514 21515 21516 21517 21518 21519 21520 21521 21522 21523 21524 21525 21526 21527 21528 21529 21530 21531 21532 21533 21534 21535 21536 21537 21538 21539 21540 21541 21542 21543 21544 21545 21546 21547 21548 21549 21550 21551 21552 21553 21554 21555 21556 21557 21558 21559 21560 21561 21562 21563 21564 21565 21566 21567 21568 21569 21570 21571 21572 21573 21574 21575 21576 21577 21578 21579 21580 21581 21582 21583 21584 21585 21586 21587 21588 21589 21590 21591 21592 21593 21594 21595 21596 21597 21598 21599 21600 21601 21602 21603 21604 21605 21606 21607 21608 21609 21610 21611 21612 21613 21614 21615 21616 21617 21618 21619 21620 21621 21622 21623 21624 21625 21626 21627 21628 21629 21630 21631 21632 21633 21634 21635 21636 21637 21638 21639 21640 21641 21642 21643 21644 21645 21646 21647 21648 21649 21650 21651 21652 21653 21654 21655 21656 21657 21658 21659 21660 21661 21662 21663 21664 21665 21666 21667 21668 21669 21670 21671 21672 21673 21674 21675 21676 21677 21678 21679 21680 21681 21682 21683 21684 21685 21686 21687 21688 21689 21690 21691 21692 21693 21694 21695 21696 21697 21698 21699 21700 21701 21702 21703 21704 21705 21706 21707 21708 21709 21710 21711 21712 21713 21714 21715 21716 21717 21718 21719 21720 21721 21722 21723 21724 21725 21726 21727 21728 21729 21730 21731 21732 21733 21734 21735 21736 21737 21738 21739 21740 21741 21742 21743 21744 21745 21746 21747 21748 21749 21750 21751 21752 21753 21754 21755 21756 21757 21758 21759 21760 21761 21762 21763 21764 21765 21766 21767 21768 21769 21770 21771 21772 21773 21774 21775 21776 21777 21778 21779 21780 21781 21782 21783 21784 21785 21786 21787 21788 21789 21790 21791 21792 21793 21794 21795 21796 21797 21798 21799 21800 21801 21802 21803 21804 21805 21806 21807 21808 21809 21810 21811 21812 21813 21814 21815 21816 21817 21818 21819 21820 21821 21822 21823 21824 21825 21826 21827 21828 21829 21830 21831 21832 21833 21834 21835 21836 21837 21838 21839 21840 21841 21842 21843 21844 21845 21846 21847 21848 21849 21850 21851 21852 21853 21854 21855 21856 21857 21858 21859 21860 21861 21862 21863 21864 21865 21866 21867 21868 21869 21870 21871 21872 21873 21874 21875 21876 21877 21878 21879 21880 21881 21882 21883 21884 21885 21886 21887 21888 21889 21890 21891 21892 21893 21894 21895 21896 21897 21898 21899 21900 21901 21902 21903 21904 21905 21906 21907 21908 21909 21910 21911 21912 21913 21914 21915 21916 21917 21918 21919 21920 21921 21922 21923 21924 21925 21926 21927 21928 21929 21930 21931 21932 21933 21934 21935 21936 21937 21938 21939 21940 21941 21942 21943 21944 21945 21946 21947 21948 21949 21950 21951 21952 21953 21954 21955 21956 21957 21958 21959 21960 21961 21962 21963 21964 21965 21966 21967 21968 21969 21970 21971 21972 21973 21974 21975 21976 21977 21978 21979 21980 21981 21982 21983 21984 21985 21986 21987 21988 21989 21990 21991 21992 21993 21994 21995 21996 21997 21998 21999 22000 22001 22002 22003 22004 22005 22006 22007 22008 22009 22010 22011 22012 22013 22014 22015 22016 22017 22018 22019 22020 22021 22022 22023 22024 22025 22026 22027 22028 22029 22030 22031 22032 22033 22034 22035 22036 22037 22038 22039 22040 22041 22042 22043 22044 22045 22046 22047 22048 22049 22050 22051 22052 22053 22054 22055 22056 22057 22058 22059 22060 22061 22062 22063 22064 22065 22066 22067 22068 22069 22070 22071 22072 22073 22074 22075 22076 22077 22078 22079 22080 22081 22082 22083 22084 22085 22086 22087 22088 22089 22090 22091 22092 22093 22094 22095 22096 22097 22098 22099 22100 22101 22102 22103 22104 22105 22106 22107 22108 22109 22110 22111 22112 22113 22114 22115 22116 22117 22118 22119 22120 22121 22122 22123 22124 22125 22126 22127 22128 22129 22130 22131 22132 22133 22134 22135 22136 22137 22138 22139 22140 22141 22142 22143 22144 22145 22146 22147 22148 22149 22150 22151 22152 22153 22154 22155 22156 22157 22158 22159 22160 22161 22162 22163 22164 22165 22166 22167 22168 22169 22170 22171 22172 22173 22174 22175 22176 22177 22178 22179 22180 22181 22182 22183 22184 22185 22186 22187 22188 22189 22190 22191 22192 22193 22194 22195 22196 22197 22198 22199 22200 22201 22202 22203 22204 22205 22206 22207 22208 22209 22210 22211 22212 22213 22214 22215 22216 22217 22218 22219 22220 22221 22222 22223 22224 22225 22226 22227 22228 22229 22230 22231 22232 22233 22234 22235 22236 22237 22238 22239 22240 22241 22242 22243 22244 22245 22246 22247 22248 22249 22250 22251 22252 22253 22254 22255 22256 22257 22258 22259 22260 22261 22262 22263 22264 22265 22266 22267 22268 22269 22270 22271 22272 22273 22274 22275 22276 22277 22278 22279 22280 22281 22282 22283 22284 22285 22286 22287 22288 22289 22290 22291 22292 22293 22294 22295 22296 22297 22298 22299 22300 22301 22302 22303 22304 22305 22306 22307 22308 22309 22310 22311 22312 22313 22314 22315 22316 22317 22318 22319 22320 22321 22322 22323 22324 22325 22326 22327 22328 22329 22330 22331 22332 22333 22334 22335 22336 22337 22338 22339 22340 22341 22342 22343 22344 22345 22346 22347 22348 22349 22350 22351 22352 22353 22354 22355 22356 22357 22358 22359 22360 22361 22362 22363 22364 22365 22366 22367 22368 22369 22370 22371 22372 22373 22374 22375 22376 22377 22378 22379 22380 22381 22382 22383 22384 22385 22386 22387 22388 22389 22390 22391 22392 22393 22394 22395 22396 22397 22398 22399 22400 22401 22402 22403 22404 22405 22406 22407 22408 22409 22410 22411 22412 22413 22414 22415 22416 22417 22418 22419 22420 22421 22422 22423 22424 22425 22426 22427 22428 22429 22430 22431 22432 22433 22434 22435 22436 22437 22438 22439 22440 22441 22442 22443 22444 22445 22446 22447 22448 22449 22450 22451 22452 22453 22454 22455 22456 22457 22458 22459 22460 22461 22462 22463 22464 22465 22466 22467 22468 22469 22470 22471 22472 22473 22474 22475 22476 22477 22478 22479 22480 22481 22482 22483 22484 22485 22486 22487 22488 22489 22490 22491 22492 22493 22494 22495 22496 22497 22498 22499 22500 22501 22502 22503 22504 22505 22506 22507 22508 22509 22510 22511 22512 22513 22514 22515 22516 22517 22518 22519 22520 22521 22522 22523 22524 22525 22526 22527 22528 22529 22530 22531 22532 22533 22534 22535 22536 22537 22538 22539 22540 22541 22542 22543 22544 22545 22546 22547 22548 22549 22550 22551 22552 22553 22554 22555 22556 22557 22558 22559 22560 22561 22562 22563 22564 22565 22566 22567 22568 22569 22570 22571 22572 22573 22574 22575 22576 22577 22578 22579 22580 22581 22582 22583 22584 22585 22586 22587 22588 22589 22590 22591 22592 22593 22594 22595 22596 22597 22598 22599 22600 22601 22602 22603 22604 22605 22606 22607 22608 22609 22610 22611 22612 22613 22614 22615 22616 22617 22618 22619 22620 22621 22622 22623 22624 22625 22626 22627 22628 22629 22630 22631 22632 22633 22634 22635 22636 22637 22638 22639 22640 22641 22642 22643 22644 22645 22646 22647 22648 22649 22650 22651 22652 22653 22654 22655 22656 22657 22658 22659 22660 22661 22662 22663 22664 22665 22666 22667 22668 22669 22670 22671 22672 22673 22674 22675 22676 22677 22678 22679 22680 22681 22682 22683 22684 22685 22686 22687 22688 22689 22690 22691 22692 22693 22694 22695 22696 22697 22698 22699 22700 22701 22702 22703 22704 22705 22706 22707 22708 22709 22710 22711 22712 22713 22714 22715 22716 22717 22718 22719 22720 22721 22722 22723 22724 22725 22726 22727 22728 22729 22730 22731 22732 22733 22734 22735 22736 22737 22738 22739 22740 22741 22742 22743 22744 22745 22746 22747 22748 22749 22750 22751 22752 22753 22754 22755 22756 22757 22758 22759 22760 22761 22762 22763 22764 22765 22766 22767 22768 22769 22770 22771 22772 22773 22774 22775 22776 22777 22778 22779 22780 22781 22782 22783 22784 22785 22786 22787 22788 22789 22790 22791 22792 22793 22794 22795 22796 22797 22798 22799 22800 22801 22802 22803 22804 22805 22806 22807 22808 22809 22810 22811 22812 22813 22814 22815 22816 22817 22818 22819 22820 22821 22822 22823 22824 22825 22826 22827 22828 22829 22830 22831 22832 22833 22834 22835 22836 22837 22838 22839 22840 22841 22842 22843 22844 22845 22846 22847 22848 22849 22850 22851 22852 22853 22854 22855 22856 22857 22858 22859 22860 22861 22862 22863 22864 22865 22866 22867 22868 22869 22870 22871 22872 22873 22874 22875 22876 22877 22878 22879 22880 22881 22882 22883 22884 22885 22886 22887 22888 22889 22890 22891 22892 22893 22894 22895 22896 22897 22898 22899 22900 22901 22902 22903 22904 22905 22906 22907 22908 22909 22910 22911 22912 22913 22914 22915 22916 22917 22918 22919 22920 22921 22922 22923 22924 22925 22926 22927 22928 22929 22930 22931 22932 22933 22934 22935 22936 22937 22938 22939 22940 22941 22942 22943 22944 22945 22946 22947 22948 22949 22950 22951 22952 22953 22954 22955 22956 22957 22958 22959 22960 22961 22962 22963 22964 22965 22966 22967 22968 22969 22970 22971 22972 22973 22974 22975 22976 22977 22978 22979 22980 22981 22982 22983 22984 22985 22986 22987 22988 22989 22990 22991 22992 22993 22994 22995 22996 22997 22998 22999 23000 23001 23002 23003 23004 23005 23006 23007 23008 23009 23010 23011 23012 23013 23014 23015 23016 23017 23018 23019 23020 23021 23022 23023 23024 23025 23026 23027 23028 23029 23030 23031 23032 23033 23034 23035 23036 23037 23038 23039 23040 23041 23042 23043 23044 23045 23046 23047 23048 23049 23050 23051 23052 23053 23054 23055 23056 23057 23058 23059 23060 23061 23062 23063 23064 23065 23066 23067 23068 23069 23070 23071 23072 23073 23074 23075 23076 23077 23078 23079 23080 23081 23082 23083 23084 23085 23086 23087 23088 23089 23090 23091 23092 23093 23094 23095 23096 23097 23098 23099 23100 23101 23102 23103 23104 23105 23106 23107 23108 23109 23110 23111 23112 23113 23114 23115 23116 23117 23118 23119 23120 23121 23122 23123 23124 23125 23126 23127 23128 23129 23130 23131 23132 23133 23134 23135 23136 23137 23138 23139 23140 23141 23142 23143 23144 23145 23146 23147 23148 23149 23150 23151 23152 23153 23154 23155 23156 23157 23158 23159 23160 23161 23162 23163 23164 23165 23166 23167 23168 23169 23170 23171 23172 23173 23174 23175 23176 23177 23178 23179 23180 23181 23182 23183 23184 23185 23186 23187 23188 23189 23190 23191 23192 23193 23194 23195 23196 23197 23198 23199 23200 23201 23202 23203 23204 23205 23206 23207 23208 23209 23210 23211 23212 23213 23214 23215 23216 23217 23218 23219 23220 23221 23222 23223 23224 23225 23226 23227 23228 23229 23230 23231 23232 23233 23234 23235 23236 23237 23238 23239 23240 23241 23242 23243 23244 23245 23246 23247 23248 23249 23250 23251 23252 23253 23254 23255 23256 23257 23258 23259 23260 23261 23262 23263 23264 23265 23266 23267 23268 23269 23270 23271 23272 23273 23274 23275 23276 23277 23278 23279 23280 23281 23282 23283 23284 23285 23286 23287 23288 23289 23290 23291 23292 23293 23294 23295 23296 23297 23298 23299 23300 23301 23302 23303 23304 23305 23306 23307 23308 23309 23310 23311 23312 23313 23314 23315 23316 23317 23318 23319 23320 23321 23322 23323 23324 23325 23326 23327 23328 23329 23330 23331 23332 23333 23334 23335 23336 23337 23338 23339 23340 23341 23342 23343 23344 23345 23346 23347 23348 23349 23350 23351 23352 23353 23354 23355 23356 23357 23358 23359 23360 23361 23362 23363 23364 23365 23366 23367 23368 23369 23370 23371 23372 23373 23374 23375 23376 23377 23378 23379 23380 23381 23382 23383 23384 23385 23386 23387 23388 23389 23390 23391 23392 23393 23394 23395 23396 23397 23398 23399 23400 23401 23402 23403 23404 23405 23406 23407 23408 23409 23410 23411 23412 23413 23414 23415 23416 23417 23418 23419 23420 23421 23422 23423 23424 23425 23426 23427 23428 23429 23430 23431 23432 23433 23434 23435 23436 23437 23438 23439 23440 23441 23442 23443 23444 23445 23446 23447 23448 23449 23450 23451 23452 23453 23454 23455 23456 23457 23458 23459 23460 23461 23462 23463 23464 23465 23466 23467 23468 23469 23470 23471 23472 23473 23474 23475 23476 23477 23478 23479 23480 23481 23482 23483 23484 23485 23486 23487 23488 23489 23490 23491 23492 23493 23494 23495 23496 23497 23498 23499 23500 23501 23502 23503 23504 23505 23506 23507 23508 23509 23510 23511 23512 23513 23514 23515 23516 23517 23518 23519 23520 23521 23522 23523 23524 23525 23526 23527 23528 23529 23530 23531 23532 23533 23534 23535 23536 23537 23538 23539 23540 23541 23542 23543 23544 23545 23546 23547 23548 23549 23550 23551 23552 23553 23554 23555 23556 23557 23558 23559 23560 23561 23562 23563 23564 23565 23566 23567 23568 23569 23570 23571 23572 23573 23574 23575 23576 23577 23578 23579 23580 23581 23582 23583 23584 23585 23586 23587 23588 23589 23590 23591 23592 23593 23594 23595 23596 23597 23598 23599 23600 23601 23602 23603 23604 23605 23606 23607 23608 23609 23610 23611 23612 23613 23614 23615 23616 23617 23618 23619 23620 23621 23622 23623 23624 23625 23626 23627 23628 23629 23630 23631 23632 23633 23634 23635 23636 23637 23638 23639 23640 23641 23642 23643 23644 23645 23646 23647 23648 23649 23650 23651 23652 23653 23654 23655 23656 23657 23658 23659 23660 23661 23662 23663 23664 23665 23666 23667 23668 23669 23670 23671 23672 23673 23674 23675 23676 23677 23678 23679 23680 23681 23682 23683 23684 23685 23686 23687 23688 23689 23690 23691 23692 23693 23694 23695 23696 23697 23698 23699 23700 23701 23702 23703 23704 23705 23706 23707 23708 23709 23710 23711 23712 23713 23714 23715 23716 23717 23718 23719 23720 23721 23722 23723 23724 23725 23726 23727 23728 23729 23730 23731 23732 23733 23734 23735 23736 23737 23738 23739 23740 23741 23742 23743 23744 23745 23746 23747 23748 23749 23750 23751 23752 23753 23754 23755 23756 23757 23758 23759 23760 23761 23762 23763 23764 23765 23766 23767 23768 23769 23770 23771 23772 23773 23774 23775 23776 23777 23778 23779 23780 23781 23782 23783 23784 23785 23786 23787 23788 23789 23790 23791 23792 23793 23794 23795 23796 23797 23798 23799 23800 23801 23802 23803 23804 23805 23806 23807 23808 23809 23810 23811 23812 23813 23814 23815 23816 23817 23818 23819 23820 23821 23822 23823 23824 23825 23826 23827 23828 23829 23830 23831 23832 23833 23834 23835 23836 23837 23838 23839 23840 23841 23842 23843 23844 23845 23846 23847 23848 23849 23850 23851 23852 23853 23854 23855 23856 23857 23858 23859 23860 23861 23862 23863 23864 23865 23866 23867 23868 23869 23870 23871 23872 23873 23874 23875 23876 23877 23878 23879 23880 23881 23882 23883 23884 23885 23886 23887 23888 23889 23890 23891 23892 23893 23894 23895 23896 23897 23898 23899 23900 23901 23902 23903 23904 23905 23906 23907 23908 23909 23910 23911 23912 23913 23914 23915 23916 23917 23918 23919 23920 23921 23922 23923 23924 23925 23926 23927 23928 23929 23930 23931 23932 23933 23934 23935 23936 23937 23938 23939 23940 23941 23942 23943 23944 23945 23946 23947 23948 23949 23950 23951 23952 23953 23954 23955 23956 23957 23958 23959 23960 23961 23962 23963 23964 23965 23966 23967 23968 23969 23970 23971 23972 23973 23974 23975 23976 23977 23978 23979 23980 23981 23982 23983 23984 23985 23986 23987 23988 23989 23990 23991 23992 23993 23994 23995 23996 23997 23998 23999 24000 24001 24002 24003 24004 24005 24006 24007 24008 24009 24010 24011 24012 24013 24014 24015 24016 24017 24018 24019 24020 24021 24022 24023 24024 24025 24026 24027 24028 24029 24030 24031 24032 24033 24034 24035 24036 24037 24038 24039 24040 24041 24042 24043 24044 24045 24046 24047 24048 24049 24050 24051 24052 24053 24054 24055 24056 24057 24058 24059 24060 24061 24062 24063 24064 24065 24066 24067 24068 24069 24070 24071 24072 24073 24074 24075 24076 24077 24078 24079 24080 24081 24082 24083 24084 24085 24086 24087 24088 24089 24090 24091 24092 24093 24094 24095 24096 24097 24098 24099 24100 24101 24102 24103 24104 24105 24106 24107 24108 24109 24110 24111 24112 24113 24114 24115 24116 24117 24118 24119 24120 24121 24122 24123 24124 24125 24126 24127 24128 24129 24130 24131 24132 24133 24134 24135 24136 24137 24138 24139 24140 24141 24142 24143 24144 24145 24146 24147 24148 24149 24150 24151 24152 24153 24154 24155 24156 24157 24158 24159 24160 24161 24162 24163 24164 24165 24166 24167 24168 24169 24170 24171 24172 24173 24174 24175 24176 24177 24178 24179 24180 24181 24182 24183 24184 24185 24186 24187 24188 24189 24190 24191 24192 24193 24194 24195 24196 24197 24198 24199 24200 24201 24202 24203 24204 24205 24206 24207 24208 24209 24210 24211 24212 24213 24214 24215 24216 24217 24218 24219 24220 24221 24222 24223 24224 24225 24226 24227 24228 24229 24230 24231 24232 24233 24234 24235 24236 24237 24238 24239 24240 24241 24242 24243 24244 24245 24246 24247 24248 24249 24250 24251 24252 24253 24254 24255 24256 24257 24258 24259 24260 24261 24262 24263 24264 24265 24266 24267 24268 24269 24270 24271 24272 24273 24274 24275 24276 24277 24278 24279 24280 24281 24282 24283 24284 24285 24286 24287 24288 24289 24290 24291 24292 24293 24294 24295 24296 24297 24298 24299 24300 24301 24302 24303 24304 24305 24306 24307 24308 24309 24310 24311 24312 24313 24314 24315 24316 24317 24318 24319 24320 24321 24322 24323 24324 24325 24326 24327 24328 24329 24330 24331 24332 24333 24334 24335 24336 24337 24338 24339 24340 24341 24342 24343 24344 24345 24346 24347 24348 24349 24350 24351 24352 24353 24354 24355 24356 24357 24358 24359 24360 24361 24362 24363 24364 24365 24366 24367 24368 24369 24370 24371 24372 24373 24374 24375 24376 24377 24378 24379 24380 24381 24382 24383 24384 24385 24386 24387 24388 24389 24390 24391 24392 24393 24394 24395 24396 24397 24398 24399 24400 24401 24402 24403 24404 24405 24406 24407 24408 24409 24410 24411 24412 24413 24414 24415 24416 24417 24418 24419 24420 24421 24422 24423 24424 24425 24426 24427 24428 24429 24430 24431 24432 24433 24434 24435 24436 24437 24438 24439 24440 24441 24442 24443 24444 24445 24446 24447 24448 24449 24450 24451 24452 24453 24454 24455 24456 24457 24458 24459 24460 24461 24462 24463 24464 24465 24466 24467 24468 24469 24470 24471 24472 24473 24474 24475 24476 24477 24478 24479 24480 24481 24482 24483 24484 24485 24486 24487 24488 24489 24490 24491 24492 24493 24494 24495 24496 24497 24498 24499 24500 24501 24502 24503 24504 24505 24506 24507 24508 24509 24510 24511 24512 24513 24514 24515 24516 24517 24518 24519 24520 24521 24522 24523 24524 24525 24526 24527 24528 24529 24530 24531 24532 24533 24534 24535 24536 24537 24538 24539 24540 24541 24542 24543 24544 24545 24546 24547 24548 24549 24550 24551 24552 24553 24554 24555 24556 24557 24558 24559 24560 24561 24562 24563 24564 24565 24566 24567 24568 24569 24570 24571 24572 24573 24574 24575 24576 24577 24578 24579 24580 24581 24582 24583 24584 24585 24586 24587 24588 24589 24590 24591 24592 24593 24594 24595 24596 24597 24598 24599 24600 24601 24602 24603 24604 24605 24606 24607 24608 24609 24610 24611 24612 24613 24614 24615 24616 24617 24618 24619 24620 24621 24622 24623 24624 24625 24626 24627 24628 24629 24630 24631 24632 24633 24634 24635 24636 24637 24638 24639 24640 24641 24642 24643 24644 24645 24646 24647 24648 24649 24650 24651 24652 24653 24654 24655 24656 24657 24658 24659 24660 24661 24662 24663 24664 24665 24666 24667 24668 24669 24670 24671 24672 24673 24674 24675 24676 24677 24678 24679 24680 24681 24682 24683 24684 24685 24686 24687 24688 24689 24690 24691 24692 24693 24694 24695 24696 24697 24698 24699 24700 24701 24702 24703 24704 24705 24706 24707 24708 24709 24710 24711 24712 24713 24714 24715 24716 24717 24718 24719 24720 24721 24722 24723 24724 24725 24726 24727 24728 24729 24730 24731 24732 24733 24734 24735 24736 24737 24738 24739 24740 24741 24742 24743 24744 24745 24746 24747 24748 24749 24750 24751 24752 24753 24754 24755 24756 24757 24758 24759 24760 24761 24762 24763 24764 24765 24766 24767 24768 24769 24770 24771 24772 24773 24774 24775 24776 24777 24778 24779 24780 24781 24782 24783 24784 24785 24786 24787 24788 24789 24790 24791 24792 24793 24794 24795 24796 24797 24798 24799 24800 24801 24802 24803 24804 24805 24806 24807 24808 24809 24810 24811 24812 24813 24814 24815 24816 24817 24818 24819 24820 24821 24822 24823 24824 24825 24826 24827 24828 24829 24830 24831 24832 24833 24834 24835 24836 24837 24838 24839 24840 24841 24842 24843 24844 24845 24846 24847 24848 24849 24850 24851 24852 24853 24854 24855 24856 24857 24858 24859 24860 24861 24862 24863 24864 24865 24866 24867 24868 24869 24870 24871 24872 24873 24874 24875 24876 24877 24878 24879 24880 24881 24882 24883 24884 24885 24886 24887 24888 24889 24890 24891 24892 24893 24894 24895 24896 24897 24898 24899 24900 24901 24902 24903 24904 24905 24906 24907 24908 24909 24910 24911 24912 24913 24914 24915 24916 24917 24918 24919 24920 24921 24922 24923 24924 24925 24926 24927 24928 24929 24930 24931 24932 24933 24934 24935 24936 24937 24938 24939 24940 24941 24942 24943 24944 24945 24946 24947 24948 24949 24950 24951 24952 24953 24954 24955 24956 24957 24958 24959 24960 24961 24962 24963 24964 24965 24966 24967 24968 24969 24970 24971 24972 24973 24974 24975 24976 24977 24978 24979 24980 24981 24982 24983 24984 24985 24986 24987 24988 24989 24990 24991 24992 24993 24994 24995 24996 24997 24998 24999 25000 25001 25002 25003 25004 25005 25006 25007 25008 25009 25010 25011 25012 25013 25014 25015 25016 25017 25018 25019 25020 25021 25022 25023 25024 25025 25026 25027 25028 25029 25030 25031 25032 25033 25034 25035 25036 25037 25038 25039 25040 25041 25042 25043 25044 25045 25046 25047 25048 25049 25050 25051 25052 25053 25054 25055 25056 25057 25058 25059 25060 25061 25062 25063 25064 25065 25066 25067 25068 25069 25070 25071 25072 25073 25074 25075 25076 25077 25078 25079 25080 25081 25082 25083 25084 25085 25086 25087 25088 25089 25090 25091 25092 25093 25094 25095 25096 25097 25098 25099 25100 25101 25102 25103 25104 25105 25106 25107 25108 25109 25110 25111 25112 25113 25114 25115 25116 25117 25118 25119 25120 25121 25122 25123 25124 25125 25126 25127 25128 25129 25130 25131 25132 25133 25134 25135 25136 25137 25138 25139 25140 25141 25142 25143 25144 25145 25146 25147 25148 25149 25150 25151 25152 25153 25154 25155 25156 25157 25158 25159 25160 25161 25162 25163 25164 25165 25166 25167 25168 25169 25170 25171 25172 25173 25174 25175 25176 25177 25178 25179 25180 25181 25182 25183 25184 25185 25186 25187 25188 25189 25190 25191 25192 25193 25194 25195 25196 25197 25198 25199 25200 25201 25202 25203 25204 25205 25206 25207 25208 25209 25210 25211 25212 25213 25214 25215 25216 25217 25218 25219 25220 25221 25222 25223 25224 25225 25226 25227 25228 25229 25230 25231 25232 25233 25234 25235 25236 25237 25238 25239 25240 25241 25242 25243 25244 25245 25246 25247 25248 25249 25250 25251 25252 25253 25254 25255 25256 25257 25258 25259 25260 25261 25262 25263 25264 25265 25266 25267 25268 25269 25270 25271 25272 25273 25274 25275 25276 25277 25278 25279 25280 25281 25282 25283 25284 25285 25286 25287 25288 25289 25290 25291 25292 25293 25294 25295 25296 25297 25298 25299 25300 25301 25302 25303 25304 25305 25306 25307 25308 25309 25310 25311 25312 25313 25314 25315 25316 25317 25318 25319 25320 25321 25322 25323 25324 25325 25326 25327 25328 25329 25330 25331 25332 25333 25334 25335 25336 25337 25338 25339 25340 25341 25342 25343 25344 25345 25346 25347 25348 25349 25350 25351 25352 25353 25354 25355 25356 25357 25358 25359 25360 25361 25362 25363 25364 25365 25366 25367 25368 25369 25370 25371 25372 25373 25374 25375 25376 25377 25378 25379 25380 25381 25382 25383 25384 25385 25386 25387 25388 25389 25390 25391 25392 25393 25394 25395 25396 25397 25398 25399 25400 25401 25402 25403 25404 25405 25406 25407 25408 25409 25410 25411 25412 25413 25414 25415 25416 25417 25418 25419 25420 25421 25422 25423 25424 25425 25426 25427 25428 25429 25430 25431 25432 25433 25434 25435 25436 25437 25438 25439 25440 25441 25442 25443 25444 25445 25446 25447 25448 25449 25450 25451 25452 25453 25454 25455 25456 25457 25458 25459 25460 25461 25462 25463 25464 25465 25466 25467 25468 25469 25470 25471 25472 25473 25474 25475 25476 25477 25478 25479 25480 25481 25482 25483 25484 25485 25486 25487 25488 25489 25490 25491 25492 25493 25494 25495 25496 25497 25498 25499 25500 25501 25502 25503 25504 25505 25506 25507 25508 25509 25510 25511 25512 25513 25514 25515 25516 25517 25518 25519 25520 25521 25522 25523 25524 25525 25526 25527 25528 25529 25530 25531 25532 25533 25534 25535 25536 25537 25538 25539 25540 25541 25542 25543 25544 25545 25546 25547 25548 25549 25550 25551 25552 25553 25554 25555 25556 25557 25558 25559 25560 25561 25562 25563 25564 25565 25566 25567 25568 25569 25570 25571 25572 25573 25574 25575 25576 25577 25578 25579 25580 25581 25582 25583 25584 25585 25586 25587 25588 25589 25590 25591 25592 25593 25594 25595 25596 25597 25598 25599 25600 25601 25602 25603 25604 25605 25606 25607 25608 25609 25610 25611 25612 25613 25614 25615 25616 25617 25618 25619 25620 25621 25622 25623 25624 25625 25626 25627 25628 25629 25630 25631 25632 25633 25634 25635 25636 25637 25638 25639 25640 25641 25642 25643 25644 25645 25646 25647 25648 25649 25650 25651 25652 25653 25654 25655 25656 25657 25658 25659 25660 25661 25662 25663 25664 25665 25666 25667 25668 25669 25670 25671 25672 25673 25674 25675 25676 25677 25678 25679 25680 25681 25682 25683 25684 25685 25686 25687 25688 25689 25690 25691 25692 25693 25694 25695 25696 25697 25698 25699 25700 25701 25702 25703 25704 25705 25706 25707 25708 25709 25710 25711 25712 25713 25714 25715 25716 25717 25718 25719 25720 25721 25722 25723 25724 25725 25726 25727 25728 25729 25730 25731 25732 25733 25734 25735 25736 25737 25738 25739 25740 25741 25742 25743 25744 25745 25746 25747 25748 25749 25750 25751 25752 25753 25754 25755 25756 25757 25758 25759 25760 25761 25762 25763 25764 25765 25766 25767 25768 25769 25770 25771 25772 25773 25774 25775 25776 25777 25778 25779 25780 25781 25782 25783 25784 25785 25786 25787 25788 25789 25790 25791 25792 25793 25794 25795 25796 25797 25798 25799 25800 25801 25802 25803 25804 25805 25806 25807 25808 25809 25810 25811 25812 25813 25814 25815 25816 25817 25818 25819 25820 25821 25822 25823 25824 25825 25826 25827 25828 25829 25830 25831 25832 25833 25834 25835 25836 25837 25838 25839 25840 25841 25842 25843 25844 25845 25846 25847 25848 25849 25850 25851 25852 25853 25854 25855 25856 25857 25858 25859 25860 25861 25862 25863 25864 25865 25866 25867 25868 25869 25870 25871 25872 25873 25874 25875 25876 25877 25878 25879 25880 25881 25882 25883 25884 25885 25886 25887 25888 25889 25890 25891 25892 25893 25894 25895 25896 25897 25898 25899 25900 25901 25902 25903 25904 25905 25906 25907 25908 25909 25910 25911 25912 25913 25914 25915 25916 25917 25918 25919 25920 25921 25922 25923 25924 25925 25926 25927 25928 25929 25930 25931 25932 25933 25934 25935 25936 25937 25938 25939 25940 25941 25942 25943 25944 25945 25946 25947 25948 25949 25950 25951 25952 25953 25954 25955 25956 25957 25958 25959 25960 25961 25962 25963 25964 25965 25966 25967 25968 25969 25970 25971 25972 25973 25974 25975 25976 25977 25978 25979 25980 25981 25982 25983 25984 25985 25986 25987 25988 25989 25990 25991 25992 25993 25994 25995 25996 25997 25998 25999 26000 26001 26002 26003 26004 26005 26006 26007 26008 26009 26010 26011 26012 26013 26014 26015 26016 26017 26018 26019 26020 26021 26022 26023 26024 26025 26026 26027 26028 26029 26030 26031 26032 26033 26034 26035 26036 26037 26038 26039 26040 26041 26042 26043 26044 26045 26046 26047 26048 26049 26050 26051 26052 26053 26054 26055 26056 26057 26058 26059 26060 26061 26062 26063 26064 26065 26066 26067 26068 26069 26070 26071 26072 26073 26074 26075 26076 26077 26078 26079 26080 26081 26082 26083 26084 26085 26086 26087 26088 26089 26090 26091 26092 26093 26094 26095 26096 26097 26098 26099 26100 26101 26102 26103 26104 26105 26106 26107 26108 26109 26110 26111 26112 26113 26114 26115 26116 26117 26118 26119 26120 26121 26122 26123 26124 26125 26126 26127 26128 26129 26130 26131 26132 26133 26134 26135 26136 26137 26138 26139 26140 26141 26142 26143 26144 26145 26146 26147 26148 26149 26150 26151 26152 26153 26154 26155 26156 26157 26158 26159 26160 26161 26162 26163 26164 26165 26166 26167 26168 26169 26170 26171 26172 26173 26174 26175 26176 26177 26178 26179 26180 26181 26182 26183 26184 26185 26186 26187 26188 26189 26190 26191 26192 26193 26194 26195 26196 26197 26198 26199 26200 26201 26202 26203 26204 26205 26206 26207 26208 26209 26210 26211 26212 26213 26214 26215 26216 26217 26218 26219 26220 26221 26222 26223 26224 26225 26226 26227 26228 26229 26230 26231 26232 26233 26234 26235 26236 26237 26238 26239 26240 26241 26242 26243 26244 26245 26246 26247 26248 26249 26250 26251 26252 26253 26254 26255 26256 26257 26258 26259 26260 26261 26262 26263 26264 26265 26266 26267 26268 26269 26270 26271 26272 26273 26274 26275 26276 26277 26278 26279 26280 26281 26282 26283 26284 26285 26286 26287 26288 26289 26290 26291 26292 26293 26294 26295 26296 26297 26298 26299 26300 26301 26302 26303 26304 26305 26306 26307 26308 26309 26310 26311 26312 26313 26314 26315 26316 26317 26318 26319 26320 26321 26322 26323 26324 26325 26326 26327 26328 26329 26330 26331 26332 26333 26334 26335 26336 26337 26338 26339 26340 26341 26342 26343 26344 26345 26346 26347 26348 26349 26350 26351 26352 26353 26354 26355 26356 26357 26358 26359 26360 26361 26362 26363 26364 26365 26366 26367 26368 26369 26370 26371 26372 26373 26374 26375 26376 26377 26378 26379 26380 26381 26382 26383 26384 26385 26386 26387 26388 26389 26390 26391 26392 26393 26394 26395 26396 26397 26398 26399 26400 26401 26402 26403 26404 26405 26406 26407 26408 26409 26410 26411 26412 26413 26414 26415 26416 26417 26418 26419 26420 26421 26422 26423 26424 26425 26426 26427 26428 26429 26430 26431 26432 26433 26434 26435 26436 26437 26438 26439 26440 26441 26442 26443 26444 26445 26446 26447 26448 26449 26450 26451 26452 26453 26454 26455 26456 26457 26458 26459 26460 26461 26462 26463 26464 26465 26466 26467 26468 26469 26470 26471 26472 26473 26474 26475 26476 26477 26478 26479 26480 26481 26482 26483 26484 26485 26486 26487 26488 26489 26490 26491 26492 26493 26494 26495 26496 26497 26498 26499 26500 26501 26502 26503 26504 26505 26506 26507 26508 26509 26510 26511 26512 26513 26514 26515 26516 26517 26518 26519 26520 26521 26522 26523 26524 26525 26526 26527 26528 26529 26530 26531 26532 26533 26534 26535 26536 26537 26538 26539 26540 26541 26542 26543 26544 26545 26546 26547 26548 26549 26550 26551 26552 26553 26554 26555 26556 26557 26558 26559 26560 26561 26562 26563 26564 26565 26566 26567 26568 26569 26570 26571 26572 26573 26574 26575 26576 26577 26578 26579 26580 26581 26582 26583 26584 26585 26586 26587 26588 26589 26590 26591 26592 26593 26594 26595 26596 26597 26598 26599 26600 26601 26602 26603 26604 26605 26606 26607 26608 26609 26610 26611 26612 26613 26614 26615 26616 26617 26618 26619 26620 26621 26622 26623 26624 26625 26626 26627 26628 26629 26630 26631 26632 26633 26634 26635 26636 26637 26638 26639 26640 26641 26642 26643 26644 26645 26646 26647 26648 26649 26650 26651 26652 26653 26654 26655 26656 26657 26658 26659 26660 26661 26662 26663 26664 26665 26666 26667 26668 26669 26670 26671 26672 26673 26674 26675 26676 26677 26678 26679 26680 26681 26682 26683 26684 26685 26686 26687 26688 26689 26690 26691 26692 26693 26694 26695 26696 26697 26698 26699 26700 26701 26702 26703 26704 26705 26706 26707 26708 26709 26710 26711 26712 26713 26714 26715 26716 26717 26718 26719 26720 26721 26722 26723 26724 26725 26726 26727 26728 26729 26730 26731 26732 26733 26734 26735 26736 26737 26738 26739 26740 26741 26742 26743 26744 26745 26746 26747 26748 26749 26750 26751 26752 26753 26754 26755 26756 26757 26758 26759 26760 26761 26762 26763 26764 26765 26766 26767 26768 26769 26770 26771 26772 26773 26774 26775 26776 26777 26778 26779 26780 26781 26782 26783 26784 26785 26786 26787 26788 26789 26790 26791 26792 26793 26794 26795 26796 26797 26798 26799 26800 26801 26802 26803 26804 26805 26806 26807 26808 26809 26810 26811 26812 26813 26814 26815 26816 26817 26818 26819 26820 26821 26822 26823 26824 26825 26826 26827 26828 26829 26830 26831 26832 26833 26834 26835 26836 26837 26838 26839 26840 26841 26842 26843 26844 26845 26846 26847 26848 26849 26850 26851 26852 26853 26854 26855 26856 26857 26858 26859 26860 26861 26862 26863 26864 26865 26866 26867 26868 26869 26870 26871 26872 26873 26874 26875 26876 26877 26878 26879 26880 26881 26882 26883 26884 26885 26886 26887 26888 26889 26890 26891 26892 26893 26894 26895 26896 26897 26898 26899 26900 26901 26902 26903 26904 26905 26906 26907 26908 26909 26910 26911 26912 26913 26914 26915 26916 26917 26918 26919 26920 26921 26922 26923 26924 26925 26926 26927 26928 26929 26930 26931 26932 26933 26934 26935 26936 26937 26938 26939 26940 26941 26942 26943 26944 26945 26946 26947 26948 26949 26950 26951 26952 26953 26954 26955 26956 26957 26958 26959 26960 26961 26962 26963 26964 26965 26966 26967 26968 26969 26970 26971 26972 26973 26974 26975 26976 26977 26978 26979 26980 26981 26982 26983 26984 26985 26986 26987 26988 26989 26990 26991 26992 26993 26994 26995 26996 26997 26998 26999 27000 27001 27002 27003 27004 27005 27006 27007 27008 27009 27010 27011 27012 27013 27014 27015 27016 27017 27018 27019 27020 27021 27022 27023 27024 27025 27026 27027 27028 27029 27030 27031 27032 27033 27034 27035 27036 27037 27038 27039 27040 27041 27042 27043 27044 27045 27046 27047 27048 27049 27050 27051 27052 27053 27054 27055 27056 27057 27058 27059 27060 27061 27062 27063 27064 27065 27066 27067 27068 27069 27070 27071 27072 27073 27074 27075 27076 27077 27078 27079 27080 27081 27082 27083 27084 27085 27086 27087 27088 27089 27090 27091 27092 27093 27094 27095 27096 27097 27098 27099 27100 27101 27102 27103 27104 27105 27106 27107 27108 27109 27110 27111 27112 27113 27114 27115 27116 27117 27118 27119 27120 27121 27122 27123 27124 27125 27126 27127 27128 27129 27130 27131 27132 27133 27134 27135 27136 27137 27138 27139 27140 27141 27142 27143 27144 27145 27146 27147 27148 27149 27150 27151 27152 27153 27154 27155 27156 27157 27158 27159 27160 27161 27162 27163 27164 27165 27166 27167 27168 27169 27170 27171 27172 27173 27174 27175 27176 27177 27178 27179 27180 27181 27182 27183 27184 27185 27186 27187 27188 27189 27190 27191 27192 27193 27194 27195 27196 27197 27198 27199 27200 27201 27202 27203 27204 27205 27206 27207 27208 27209 27210 27211 27212 27213 27214 27215 27216 27217 27218 27219 27220 27221 27222 27223 27224 27225 27226 27227 27228 27229 27230 27231 27232 27233 27234 27235 27236 27237 27238 27239 27240 27241 27242 27243 27244 27245 27246 27247 27248 27249 27250 27251 27252 27253 27254 27255 27256 27257 27258 27259 27260 27261 27262 27263 27264 27265 27266 27267 27268 27269 27270 27271 27272 27273 27274 27275 27276 27277 27278 27279 27280 27281 27282 27283 27284 27285 27286 27287 27288 27289 27290 27291 27292 27293 27294 27295 27296 27297 27298 27299 27300 27301 27302 27303 27304 27305 27306 27307 27308 27309 27310 27311 27312 27313 27314 27315 27316 27317 27318 27319 27320 27321 27322 27323 27324 27325 27326 27327 27328 27329 27330 27331 27332 27333 27334 27335 27336 27337 27338 27339 27340 27341 27342 27343 27344 27345 27346 27347 27348 27349 27350 27351 27352 27353 27354 27355 27356 27357 27358 27359 27360 27361 27362 27363 27364 27365 27366 27367 27368 27369 27370 27371 27372 27373 27374 27375 27376 27377 27378 27379 27380 27381 27382 27383 27384 27385 27386 27387 27388 27389 27390 27391 27392 27393 27394 27395 27396 27397 27398 27399 27400 27401 27402 27403 27404 27405 27406 27407 27408 27409 27410 27411 27412 27413 27414 27415 27416 27417 27418 27419 27420 27421 27422 27423 27424 27425 27426 27427 27428 27429 27430 27431 27432 27433 27434 27435 27436 27437 27438 27439 27440 27441 27442 27443 27444 27445 27446 27447 27448 27449 27450 27451 27452 27453 27454 27455 27456 27457 27458 27459 27460 27461 27462 27463 27464 27465 27466 27467 27468 27469 27470 27471 27472 27473 27474 27475 27476 27477 27478 27479 27480 27481 27482 27483 
</DataArray>
<DataArray type="UInt32" Name="offsets" format="ascii">
3 6 9 12 14 17 20 23 25 28 30 33 35 38 41 44 46 48 51 54 57 60 63 66 69 72 75 78 81 84 87 90 92 95 98 101 104 107 110 113 115 118 121 124 127 130 133 136 139 141 144 147 149 152 155 158 161 164 167 170 173 176 179 182 185 188 191 193 196 199 202 205 208 210 213 216 219 221 224 227 230 232 234 237 240 242 244 246 248 251 253 256 258 261 264 267 269 272 275 278 280 282 285 288 291 293 296 299 302 305 307 310 313 316 318 321 324 327 330 333 336 339 342 345 348 351 354 357 360 363 365 368 371 374 377 380 383 386 388 391 394 397 400 403 406 409 412 415 418 421 424 427 430 433 436 438 441 443 446 449 452 455 458 461 464 467 470 473 475 477 480 483 486 489 492 495 498 501 504 507 510 513 515 518 521 523 526 528 531 534 537 539 542 544 547 550 553 556 558 561 564 567 570 573 576 579 582 584 587 590 593 596 599 602 605 608 611 614 617 620 623 626 628 631 634 637 640 643 646 649 652 655 657 660 663 666 669 672 675 678 681 684 687 690 693 695 698 701 704 707 710 712 715 718 721 724 727 730 733 736 739 742 745 748 750 753 755 758 761 764 766 769 772 775 777 780 783 786 789 792 795 798 801 804 807 810 813 816 819 822 824 827 829 832 835 838 840 843 846 848 851 854 857 860 862 865 868 870 873 875 878 881 884 887 890 893 896 899 902 905 908 911 914 917 920 922 925 928 931 934 936 939 942 945 948 951 954 957 960 962 965 968 971 974 977 980 983 986 988 991 994 996 999 1002 1005 1007 1010 1013 1015 1018 1021 1023 1026 1029 1032 1035 1038 1041 1044 1047 1050 1052 1055 1058 1061 1064 1067 1070 1073 1076 1079 1082 1085 1088 1091 1094 1097 1100 1103 1106 1108 1111 1114 1117 1120 1123 1126 1129 1132 1135 1137 1140 1143 1146 1149 1152 1155 1158 1161 1164 1167 1170 1173 1176 1179 1182 1185 1188 1191 1194 1197 1200 1203 1206 1209 1211 1214 1217 1219 1222 1225 1228 1231 1234 1237 1240 1243 1246 1249 1252 1255 1257 1260 1263 1266 1268 1271 1274 1277 1280 1283 1285 1288 1291 1294 1297 1300 1303 1306 1309 1312 1315 1318 1321 1324 1327 1330 1333 1336 1339 1342 1345 1348 1351 1354 1357 1360 1363 1366 1369 1372 1375 1378 1381 1383 1386 1388 1391 1394 1397 1400 1403 1406 1409 1412 1415 1418 1421 1424 1427 1430 1433 1436 1439 1442 1445 1448 1451 1454 1456 1459 1462 1464 1467 1470 1473 1476 1479 1482 1484 1487 1490 1493 1496 1498 1501 1504 1507 1510 1513 1516 1519 1522 1525 1528 1531 1534 1537 1540 1543 1546 1549 1552 1555 1558 1561 1563 1566 1569 1572 1575 1578 1580 1583 1586 1589 1592 1595 1598 1600 1603 1605 1608 1611 1614 1617 1620 1623 1626 1629 1632 1635 1638 1641 1644 1647 1650 1653 1656 1659 1662 1665 1668 1671 1674 1677 1680 1683 1686 1689 1692 1695 1698 1701 1704 1707 1710 1713 1716 1719 1722 1725 1728 1731 1734 1737 1740 1743 1746 1749 1752 1755 1758 1761 1764 1767 1770 1773 1776 1779 1782 1785 1788 1791 1794 1797 1800 1803 1806 1809 1812 1815 1818 1821 1824 1827 1830 1833 1835 1837 1840 1843 1846 1849 1852 1855 1858 1861 1864 1867 1870 1873 1876 1879 1882 1885 1888 1891 1893 1896 1898 1901 1904 1907 1910 1913 1916 1919 1921 1924 1927 1930 1933 1936 1939 1942 1945 1947 1950 1953 1956 1959 1962 1965 1967 1970 1973 1976 1979 1982 1985 1988 1991 1993 1996 1999 2001 2004 2007 2010 2013 2015 2018 2021 2024 2027 2030 2032 2035 2038 2041 2044 2047 2050 2053 2056 2059 2062 2064 2067 2070 2073 2076 2078 2081 2084 2087 2090 2093 2096 2099 2102 2105 2108 2111 2114 2117 2120 2123 2126 2129 2132 2135 2138 2141 2144 2147 2150 2153 2156 2159 2162 2165 2168 2171 2174 2177 2180 2183 2186 2189 2191 2194 2197 2200 2203 2206 2209 2212 2215 2218 2221 2224 2227 2230 2233 2236 2239 2242 2245 2248 2251 2254 2257 2260 2263 2266 2269 2272 2275 2277 2280 2283 2286 2289 2292 2295 2298 2301 2304 2307 2310 2313 2316 2319 2322 2325 2328 2331 2334 2337 2339 2342 2345 2348 2351 2353 2356 2359 2362 2365 2368 2370 2373 2376 2379 2382 2385 2387 2390 2393 2396 2399 2402 2405 2408 2411 2414 2417 2420 2423 2426 2429 2432 2435 2438 2440 2443 2446 2449 2452 2455 2457 2460 2463 2466 2468 2471 2474 2477 2480 2483 2486 2489 2492 2495 2498 2501 2504 2507 2510 2513 2516 2519 2522 2525 2528 2531 2534 2537 2540 2543 2546 2549 2551 2554 2557 2560 2563 2566 2569 2572 2575 2578 2581 2584 2587 2590 2593 2596 2599 2602 2605 2608 2611 2614 2617 2620 2623 2626 2629 2632 2635 2637 2639 2642 2645 2647 2650 2653 2656 2659 2662 2664 2667 2669 2672 2675 2677 2679 2682 2685 2688 2691 2694 2697 2699 2702 2705 2708 2711 2714 2717 2720 2723 2726 2729 2732 2735 2738 2741 2744 2747 2750 2753 2756 2759 2762 2765 2768 2771 2774 2777 2780 2783 2786 2789 2792 2795 2798 2801 2804 2807 2809 2812 2815 2818 2821 2824 2827 2830 2833 2836 2839 2842 2845 2848 2851 2854 2857 2860 2863 2866 2868 2871 2874 2877 2880 2883 2886 2889 2892 2895 2898 2901 2904 2907 2910 2913 2916 2919 2921 2924 2927 2929 2932 2935 2938 2940 2942 2945 2948 2950 2953 2956 2958 2961 2964 2967 2970 2973 2976 2979 2981 2984 2986 2989 2992 2994 2997 3000 3003 3006 3009 3012 3015 3017 3020 3023 3026 3029 3032 3035 3038 3041 3044 3047 3050 3053 3056 3059 3062 3065 3068 3071 3074 3076 3079 3082 3085 3088 3091 3093 3096 3099 3102 3105 3108 3111 3114 3117 3120 3123 3126 3128 3131 3134 3137 3140 3142 3145 3148 3151 3153 3156 3159 3162 3165 3168 3171 3174 3176 3179 3182 3185 3187 3190 3193 3196 3199 3201 3204 3207 3210 3213 3216 3219 3222 3225 3227 3229 3231 3233 3235 3237 3240 3243 3246 3249 3252 3254 3257 3260 3263 3266 3269 3272 3274 3277 3280 3283 3286 3289 3292 3295 3298 3300 3303 3306 3309 3311 3314 3316 3318 3321 3324 3327 3330 3333 3336 3339 3342 3345 3347 3350 3352 3355 3358 3361 3364 3366 3369 3372 3374 3377 3380 3383 3386 3389 3392 3395 3398 3401 3404 3407 3410 3413 3416 3419 3422 3425 3428 3431 3433 3436 3439 3441 3444 3447 3450 3453 3456 3458 3461 3464 3466 3469 3472 3475 3477 3480 3483 3486 3489 3492 3494 3497 3499 3502 3505 3508 3511 3514 3517 3520 3522 3525 3528 3531 3533 3536 3539 3541 3544 3547 3549 3552 3555 3557 3560 3562 3565 3568 3571 3574 3577 3579 3582 3584 3587 3590 3593 3596 3599 3601 3603 3605 3608 3611 3614 3617 3620 3622 3625 3628 3631 3634 3637 3640 3643 3646 3648 3651 3653 3656 3659 3662 3665 3668 3671 3674 3677 3680 3683 3686 3688 3691 3694 3697 3700 3703 3706 3709 3711 3714 3716 3719 3722 3725 3728 3731 3734 3737 3740 3743 3746 3749 3752 3755 3758 3761 3764 3766 3769 3772 3775 3777 3780 3783 3786 3789 3792 3795 3798 3801 3804 3807 3810 3813 3816 3819 3822 3825 3828 3831 3834 3836 3839 3842 3845 3848 3851 3854 3857 3860 3863 3866 3869 3872 3874 3877 3880 3883 3886 3889 3892 3895 3898 3901 3904 3907 3910 3913 3916 3918 3921 3924 3927 3929 3932 3935 3938 3940 3943 3946 3948 3951 3954 3957 3959 3962 3965 3968 3971 3974 3977 3980 3983 3986 3989 3991 3994 3997 4000 4003 4006 4009 4012 4014 4017 4020 4023 4026 4029 4032 4035 4038 4041 4043 4046 4049 4052 4055 4058 4061 4064 4066 4069 4072 4075 4078 4081 4084 4087 4090 4093 4096 4099 4102 4105 4108 4111 4114 4117 4120 4123 4126 4129 4132 4135 4138 4141 4144 4146 4149 4152 4155 4158 4161 4164 4166 4169 4172 4175 4178 4181 4184 4187 4190 4193 4196 4198 4201 4203 4206 4209 4212 4215 4218 4220 4223 4226 4229 4232 4234 4237 4240 4243 4246 4249 4251 4254 4257 4260 4263 4266 4269 4271 4274 4277 4280 4283 4286 4289 4292 4295 4298 4301 4304 4307 4310 4312 4315 4318 4321 4324 4327 4329 4332 4335 4338 4340 4342 4345 4348 4351 4354 4357 4360 4362 4365 4367 4370 4372 4374 4377 4380 4383 4385 4388 4391 4393 4396 4399 4401 4404 4407 4410 4412 4415 4418 4421 4423 4426 4429 4432 4434 4437 4440 4443 4446 4449 4452 4455 4458 4461 4464 4467 4470 4473 4476 4479 4482 4485 4488 4491 4494 4497 4500 4502 4505 4508 4511 4514 4517 4519 4522 4525 4528 4531 4533 4536 4539 4542 4545 4548 4551 4554 4557 4560 4563 4565 4568 4571 4574 4577 4579 4582 4585 4588 4590 4593 4596 4599 4601 4603 4606 4609 4612 4615 4618 4621 4624 4626 4629 4632 4635 4638 4641 4644 4646 4649 4652 4655 4657 4660 4663 4666 4668 4671 4674 4677 4680 4682 4685 4688 4691 4694 4697 4700 4703 4706 4709 4712 4715 4718 4721 4724 4726 4729 4732 4735 4738 4740 4743 4746 4749 4752 4755 4758 4761 4764 4767 4770 4773 4776 4779 4782 4785 4788 4790 4793 4796 4798 4801 4804 4807 4810 4812 4815 4818 4821 4824 4827 4830 4833 4836 4839 4841 4844 4847 4850 4853 4856 4859 4862 4865 4868 4871 4874 4876 4879 4882 4885 4888 4891 4894 4896 4899 4902 4905 4907 4910 4912 4915 4918 4920 4923 4926 4929 4932 4935 4938 4941 4944 4947 4950 4953 4956 4959 4962 4965 4968 4971 4974 4977 4980 4983 4985 4987 4990 4993 4996 4999 5001 5004 5007 5010 5013 5016 5018 5021 5024 5027 5030 5033 5035 5038 5041 5044 5047 5050 5052 5055 5058 5061 5063 5066 5069 5072 5075 5078 5081 5083 5086 5088 5091 5094 5097 5100 5103 5106 5108 5111 5114 5117 5120 5123 5125 5128 5131 5134 5137 5140 5143 5146 5148 5151 5154 5156 5159 5162 5165 5168 5171 5173 5176 5179 5182 5184 5187 5190 5193 5196 5199 5202 5205 5208 5211 5213 5216 5219 5222 5225 5228 5231 5234 5237 5240 5243 5246 5249 5252 5255 5258 5261 5264 5267 5270 5273 5276 5279 5282 5285 5288 5291 5294 5297 5300 5303 5306 5309 5312 5315 5318 5321 5324 5327 5329 5332 5335 5338 5340 5343 5345 5348 5351 5354 5357 5359 5362 5365 5367 5370 5373 5375 5378 5381 5384 5387 5390 5393 5396 5399 5401 5404 5407 5410 5413 5416 5419 5422 5425 5428 5430 5433 5436 5439 5441 5444 5447 5449 5452 5455 5458 5461 5464 5467 5469 5472 5475 5478 5480 5483 5486 5488 5491 5493 5496 5499 5502 5505 5508 5510 5513 5516 5519 5522 5525 5527 5529 5532 5535 5538 5541 5544 5547 5550 5553 5556 5558 5561 5564 5566 5569 5572 5574 5577 5580 5583 5586 5589 5592 5595 5598 5600 5603 5606 5609 5612 5615 5618 5621 5624 5627 5630 5633 5636 5639 5641 5644 5647 5650 5653 5655 5657 5660 5663 5666 5669 5671 5674 5677 5679 5682 5685 5688 5691 5694 5697 5700 5703 5706 5709 5712 5715 5718 5721 5724 5727 5730 5733 5736 5739 5741 5744 5747 5750 5753 5756 5759 5762 5765 5768 5771 5774 5777 5780 5783 5786 5789 5792 5794 5797 5800 5803 5806 5809 5812 5815 5818 5821 5824 5827 5830 5833 5836 5839 5842 5845 5848 5851 5854 5857 5860 5863 5866 5869 5872 5875 5878 5881 5884 5887 5889 5892 5895 5898 5900 5903 5906 5909 5912 5915 5918 5921 5924 5927 5930 5933 5936 5939 5942 5945 5948 5951 5954 5957 5960 5963 5966 5969 5972 5975 5978 5981 5984 5987 5990 5993 5996 5999 6002 6005 6008 6011 6014 6017 6020 6023 6025 6028 6031 6034 6037 6040 6043 6046 6049 6052 6055 6057 6060 6062 6064 6067 6070 6073 6076 6079 6082 6085 6087 6090 6093 6096 6099 6102 6105 6108 6111 6113 6116 6119 6122 6125 6128 6131 6134 6137 6140 6143 6146 6149 6152 6155 6158 6161 6164 6167 6170 6173 6176 6179 6182 6185 6188 6191 6194 6197 6200 6203 6205 6208 6211 6214 6217 6220 6223 6226 6228 6231 6233 6236 6239 6242 6245 6248 6250 6253 6255 6258 6261 6264 6267 6270 6272 6275 6278 6281 6284 6287 6290 6293 6295 6298 6301 6304 6307 6310 6313 6316 6319 6322 6324 6327 6330 6333 6336 6339 6342 6345 6348 6351 6354 6357 6360 6362 6365 6368 6371 6374 6377 6380 6383 6386 6389 6392 6395 6398 6401 6404 6407 6409 6412 6415 6418 6421 6424 6427 6430 6433 6436 6439 6442 6445 6447 6450 6453 6456 6459 6462 6465 6468 6471 6474 6477 6480 6483 6486 6489 6492 6494 6496 6499 6501 6504 6507 6509 6512 6514 6516 6519 6522 6525 6528 6531 6534 6537 6540 6543 6546 6549 6552 6555 6558 6561 6564 6567 6570 6573 6575 6578 6581 6584 6587 6589 6592 6595 6598 6601 6604 6606 6609 6611 6614 6617 6620 6623 6626 6629 6632 6635 6638 6641 6644 6647 6649 6652 6655 6658 6661 6663 6665 6668 6671 6674 6676 6679 6681 6684 6687 6689 6691 6694 6697 6700 6703 6705 6708 6711 6714 6717 6720 6723 6725 6728 6731 6734 6737 6740 6743 6746 6749 6752 6755 6758 6760 6763 6766 6769 6772 6774 6777 6779 6782 6785 6788 6791 6794 6797 6800 6803 6806 6809 6812 6815 6818 6821 6824 6827 6830 6833 6836 6838 6841 6843 6846 6849 6852 6854 6857 6860 6863 6866 6869 6872 6875 6878 6881 6884 6887 6890 6893 6896 6899 6902 6905 6907 6910 6913 6916 6919 6922 6925 6928 6931 6934 6937 6940 6943 6946 6949 6952 6955 6958 6961 6964 6967 6970 6973 6976 6978 6981 6984 6987 6989 6991 6994 6997 7000 7002 7004 7007 7010 7013 7016 7018 7021 7024 7027 7030 7033 7036 7038 7041 7044 7047 7050 7053 7056 7059 7062 7065 7068 7071 7074 7076 7079 7082 7085 7088 7091 7094 7097 7100 7103 7105 7108 7111 7114 7117 7120 7123 7126 7129 7132 7134 7136 7139 7142 7145 7148 7151 7154 7157 7160 7163 7166 7169 7172 7175 7178 7181 7183 7186 7189 7192 7195 7198 7201 7204 7207 7210 7213 7216 7219 7222 7225 7228 7231 7234 7237 7240 7243 7246 7249 7252 7255 7258 7261 7264 7267 7270 7273 7276 7278 7281 7284 7287 7290 7293 7296 7299 7302 7305 7308 7311 7314 7317 7320 7323 7326 7329 7331 7334 7337 7340 7343 7346 7349 7352 7355 7358 7361 7364 7367 7370 7373 7376 7379 7382 7385 7388 7390 7393 7396 7399 7402 7405 7408 7411 7414 7417 7420 7423 7426 7429 7432 7435 7438 7441 7444 7447 7449 7452 7455 7458 7461 7464 7467 7470 7473 7476 7479 7482 7485 7488 7491 7494 7497 7500 7503 7506 7509 7512 7515 7518 7521 7524 7527 7530 7533 7536 7539 7542 7545 7548 7551 7554 7557 7560 7562 7565 7568 7570 7573 7575 7578 7580 7583 7586 7589 7592 7594 7597 7600 7603 7606 7609 7612 7614 7617 7620 7623 7625 7628 7631 7634 7636 7639 7641 7644 7646 7649 7652 7654 7657 7660 7663 7666 7668 7671 7674 7676 7679 7682 7685 7687 7690 7693 7696 7699 7702 7705 7708 7711 7714 7717 7720 7723 7726 7729 7732 7734 7737 7740 7743 7745 7748 7751 7754 7756 7759 7762 7764 7767 7770 7772 7774 7777 7780 7782 7785 7788 7791 7794 7797 7799 7802 7805 7808 7811 7814 7817 7819 7822 7825 7828 7830 7833 7835 7838 7841 7844 7847 7850 7852 7855 7857 7860 7863 7866 7869 7871 7874 7877 7879 7882 7885 7888 7891 7894 7897 7900 7903 7906 7909 7912 7915 7918 7921 7924 7927 7930 7933 7935 7938 7941 7944 7947 7949 7952 7955 7958 7961 7964 7967 7970 7973 7976 7979 7982 7985 7988 7991 7994 7997 7999 8002 8004 8007 8010 8013 8016 8019 8022 8025 8028 8031 8033 8036 8039 8042 8045 8048 8051 8054 8056 8059 8062 8065 8068 8071 8074 8077 8080 8083 8086 8089 8092 8095 8098 8101 8104 8107 8110 8113 8116 8119 8122 8125 8128 8131 8134 8137 8140 8142 8144 8147 8150 8153 8156 8159 8161 8164 8167 8170 8173 8176 8179 8182 8185 8188 8191 8194 8197 8199 8202 8205 8208 8211 8214 8216 8219 8222 8225 8228 8231 8234 8237 8240 8243 8246 8249 8251 8254 8257 8260 8263 8265 8268 8271 8274 8276 8279 8282 8285 8288 8290 8293 8296 8299 8302 8305 8308 8311 8314 8317 8320 8322 8325 8328 8331 8334 8337 8339 8342 8345 8348 8351 8354 8357 8360 8362 8365 8367 8370 8373 8376 8379 8382 8385 8388 8391 8394 8397 8400 8403 8406 8408 8411 8414 8417 8420 8423 8426 8428 8431 8434 8437 8440 8443 8446 8449 8452 8455 8458 8461 8464 8467 8470 8473 8476 8479 8482 8485 8488 8491 8494 8497 8500 8503 8506 8509 8512 8515 8518 8521 8524 8527 8530 8533 8536 8539 8542 8545 8548 8551 8554 8557 8560 8563 8566 8569 8572 8575 8578 8581 8584 8586 8589 8592 8595 8598 8601 8604 8606 8609 8612 8615 8618 8621 8623 8626 8629 8632 8635 8638 8641 8644 8647 8650 8653 8655 8657 8660 8663 8666 8669 8672 8675 8678 8681 8684 8686 8689 8692 8695 8698 8700 8703 8706 8709 8712 8715 8718 8721 8724 8727 8730 8733 8736 8738 8741 8744 8747 8750 8752 8755 8758 8760 8762 8765 8768 8771 8774 8777 8780 8783 8786 8789 8791 8793 8796 8799 8801 8803 8806 8809 8812 8815 8818 8821 8824 8827 8830 8832 8835 8838 8841 8844 8846 8849 8852 8854 8857 8860 8863 8866 8869 8871 8874 8877 8880 8883 8885 8888 8891 8894 8896 8898 8901 8904 8906 8909 8911 8914 8917 8920 8923 8926 8928 8931 8934 8937 8940 8942 8944 8947 8950 8953 8956 8959 8962 8965 8967 8970 8973 8976 8979 8982 8985 8987 8989 8992 8995 8998 9000 9003 9006 9008 9011 9014 9017 9020 9022 9025 9027 9030 9033 9036 9038 9041 9044 9047 9050 9052 9054 9056 9059 9062 9064 9067 9070 9073 9076 9078 9081 9084 9087 9089 9092 9095 9098 9101 9104 9107 9110 9113 9116 9119 9122 9125 9128 9131 9134 9137 9140 9143 9146 9149 9152 9155 9157 9160 9163 9166 9169 9172 9175 9178 9180 9183 9186 9189 9192 9195 9198 9200 9203 9206 9209 9211 9213 9216 9219 9221 9224 9227 9229 9232 9235 9238 9240 9243 9246 9249 9251 9254 9256 9259 9262 9264 9267 9269 9272 9275 9278 9280 9283 9286 9289 9292 9295 9298 9301 9304 9306 9309 9312 9314 9317 9320 9322 9325 9328 9330 9333 9336 9338 9341 9344 9347 9350 9352 9355 9358 9361 9364 9367 9370 9373 9376 9379 9382 9385 9388 9391 9394 9397 9400 9403 9406 9409 9412 9415 9418 9420 9423 9426 9429 9431 9434 9437 9440 9442 9445 9448 9450 9453 9456 9459 9462 9464 9467 9470 9473 9476 9479 9482 9485 9488 9490 9493 9496 9499 9501 9504 9507 9510 9513 9516 9519 9522 9524 9527 9530 9533 9536 9538 9541 9544 9547 9550 9553 9556 9559 9562 9565 9568 9571 9573 9576 9579 9582 9585 9588 9591 9594 9597 9600 9603 9606 9609 9612 9615 9618 9621 9624 9626 9629 9632 9635 9638 9641 9644 9647 9650 9653 9656 9659 9662 9665 9668 9671 9674 9677 9680 9683 9686 9689 9692 9695 9698 9701 9704 9707 9710 9713 9716 9719 9722 9725 9728 9731 9734 9737 9740 9743 9746 9749 9752 9755 9758 9761 9764 9767 9770 9773 9776 9779 9782 9785 9788 9791 9794 9797 9800 9803 9805 9808 9811 9814 9817 9820 9823 9826 9829 9832 9835 9838 9841 9844 9847 9850 9853 9856 9859 9862 9865 9868 9871 9874 9877 9880 9883 9886 9889 9892 9895 9898 9901 9904 9907 9910 9912 9915 9917 9920 9923 9926 9929 9932 9934 9937 9940 9943 9945 9948 9951 9954 9957 9960 9963 9966 9969 9972 9975 9978 9981 9984 9987 9990 9993 9996 9999 10002 10005 10007 10010 10013 10016 10019 10022 10025 10028 10031 10034 10037 10040 10043 10046 10049 10052 10055 10058 10061 10064 10067 10070 10073 10076 10078 10080 10083 10086 10088 10091 10094 10097 10100 10103 10106 10109 10112 10115 10118 10121 10124 10127 10130 10133 10136 10139 10142 10145 10148 10151 10154 10157 10160 10163 10166 10169 10172 10175 10178 10181 10184 10187 10190 10193 10196 10199 10202 10205 10207 10210 10213 10216 10218 10221 10224 10226 10229 10232 10234 10237 10239 10241 10244 10247 10250 10252 10255 10258 10261 10264 10267 10269 10272 10275 10277 10280 10283 10286 10289 10292 10295 10297 10300 10303 10306 10309 10312 10315 10318 10321 10324 10326 10329 10332 10335 10338 10341 10344 10347 10349 10352 10354 10357 10360 10362 10365 10367 10370 10373 10376 10378 10381 10384 10386 10389 10392 10395 10398 10400 10403 10406 10409 10412 10415 10418 10421 10424 10426 10429 10432 10435 10438 10441 10443 10446 10448 10451 10453 10456 10458 10461 10464 10466 10468 10471 10474 10477 10479 10482 10485 10488 10491 10494 10497 10500 10502 10505 10508 10511 10514 10517 10520 10522 10525 10528 10531 10534 10537 10540 10543 10546 10549 10552 10555 10558 10561 10564 10566 10569 10572 10575 10578 10581 10584 10586 10589 10592 10594 10597 10600 10603 10605 10608 10611 10614 10617 10619 10622 10625 10628 10631 10634 10637 10639 10642 10645 10648 10650 10653 10656 10659 10662 10665 10668 10671 10674 10677 10680 10683 10686 10689 10691 10693 10696 10699 10702 10704 10707 10709 10712 10715 10718 10721 10724 10727 10730 10733 10736 10739 10742 10745 10747 10750 10753 10756 10759 10761 10764 10767 10769 10772 10775 10778 10781 10784 10786 10789 10792 10795 10798 10801 10804 10807 10810 10813 10816 10819 10822 10825 10828 10831 10834 10837 10840 10843 10845 10848 10851 10854 10856 10859 10862 10864 10866 10869 10872 10875 10878 10881 10883 10886 10889 10892 10895 10898 10900 10903 10906 10909 10912 10914 10917 10920 10923 10926 10929 10932 10934 10937 10940 10942 10945 10948 10951 10954 10956 10959 10962 10964 10967 10970 10972 10975 10978 10981 10983 10985 10988 10991 10994 10996 10999 11002 11005 11008 11011 11014 11017 11020 11023 11026 11029 11032 11035 11038 11041 11044 11047 11050 11053 11056 11059 11061 11064 11067 11070 11073 11076 11079 11081 11084 11087 11090 11093 11096 11098 11101 11104 11107 11110 11113 11116 11119 11122 11124 11127 11130 11133 11136 11139 11142 11145 11148 11151 11154 11157 11160 11162 11165 11168 11171 11173 11176 11179 11182 11185 11188 11191 11194 11196 11199 11202 11205 11208 11210 11213 11215 11218 11221 11224 11227 11230 11233 11235 11238 11240 11243 11246 11249 11252 11255 11258 11261 11264 11267 11270 11273 11275 11278 11281 11283 11286 11289 11291 11294 11296 11298 11301 11304 11307 11310 11313 11316 11318 11321 11323 11326 11329 11332 11334 11337 11340 11343 11346 11349 11352 11355 11358 11361 11364 11367 11370 11373 11376 11379 11382 11385 11388 11391 11394 11396 11399 11401 11404 11407 11410 11413 11416 11418 11421 11424 11427 11430 11433 11436 11439 11442 11445 11448 11451 11454 11457 11460 11463 11466 11469 11472 11475 11478 11481 11484 11487 11490 11493 11496 11499 11502 11505 11508 11510 11513 11516 11519 11522 11525 11528 11531 11534 11537 11540 11543 11546 11549 11552 11555 11558 11561 11564 11566 11569 11572 11575 11578 11580 11583 11586 11589 11592 11595 11598 11601 11604 11607 11610 11613 11616 11619 11622 11625 11628 11631 11634 11637 11640 11643 11646 11649 11652 11655 11658 11661 11664 11667 11670 11673 11676 11679 11682 11685 11688 11691 11694 11697 11700 11703 11706 11709 11712 11715 11718 11721 11724 11727 11730 11733 11736 11739 11742 11745 11748 11751 11754 11757 11760 11763 11766 11769 11772 11775 11778 11781 11784 11787 11790 11793 11796 11799 11802 11805 11808 11811 11814 11817 11819 11822 11825 11828 11831 11834 11836 11839 11842 11845 11848 11851 11854 11857 11860 11863 11866 11869 11872 11875 11878 11881 11884 11887 11890 11893 11895 11898 11901 11904 11907 11910 11913 11916 11918 11921 11924 11926 11929 11932 11934 11937 11940 11943 11945 11948 11951 11953 11956 11958 11961 11964 11967 11970 11973 11976 11979 11982 11985 11988 11991 11994 11997 12000 12003 12006 12008 12011 12014 12017 12020 12023 12026 12029 12032 12035 12038 12040 12043 12046 12049 12052 12055 12057 12060 12063 12066 12069 12072 12075 12078 12081 12084 12087 12090 12092 12095 12098 12101 12104 12106 12109 12112 12115 12117 12120 12123 12126 12128 12131 12133 12136 12139 12142 12145 12148 12151 12154 12157 12160 12162 12164 12167 12170 12173 12176 12179 12182 12185 12188 12191 12194 12197 12200 12203 12206 12209 12212 12215 12218 12221 12224 12227 12230 12233 12236 12239 12242 12245 12248 12251 12254 12257 12260 12263 12266 12269 12272 12275 12278 12281 12284 12287 12290 12293 12296 12299 12302 12304 12307 12310 12313 12315 12318 12321 12324 12326 12329 12332 12335 12338 12340 12343 12345 12348 12351 12353 12356 12359 12362 12364 12366 12368 12370 12373 12376 12379 12382 12385 12388 12391 12394 12397 12400 12403 12406 12409 12411 12414 12417 12420 12423 12426 12429 12431 12434 12437 12440 12443 12446 12449 12452 12455 12458 12461 12463 12466 12469 12472 12475 12478 12481 12483 12486 12489 12492 12495 12498 12501 12504 12507 12510 12513 12516 12519 12522 12525 12528 12531 12534 12537 12539 12542 12545 12548 12551 12553 12556 12559 12562 12565 12568 12570 12573 12576 12579 12582 12585 12588 12591 12594 12597 12600 12603 12606 12609 12612 12615 12618 12621 12624 12626 12629 12632 12635 12638 12641 12644 12647 12650 12653 12656 12659 12662 12664 12667 12669 12672 12675 12678 12681 12684 12687 12690 12693 12696 12699 12702 12705 12708 12710 12713 12716 12719 12722 12725 12728 12731 12733 12736 12739 12742 12745 12748 12751 12754 12757 12760 12763 12765 12768 12771 12774 12777 12780 12783 12786 12789 12792 12795 12798 12801 12804 12807 12810 12813 12816 12819 12822 12825 12828 12831 12834 12837 12840 12843 12846 12849 12852 12855 12858 12861 12864 12867 12870 12873 12876 12879 12882 12885 12888 12891 12894 12897 12900 12903 12906 12909 12912 12915 12918 12921 12924 12926 12929 12932 12934 12937 12940 12943 12946 12949 12952 12955 12958 12961 12964 12967 12970 12973 12976 12978 12981 12984 12986 12989 12992 12995 12998 13001 13003 13006 13009 13012 13015 13018 13021 13024 13027 13030 13033 13036 13038 13041 13044 13046 13049 13052 13055 13058 13060 13062 13065 13068 13070 13073 13076 13079 13082 13084 13087 13090 13092 13095 13098 13101 13104 13107 13110 13113 13116 13119 13122 13125 13128 13131 13134 13136 13139 13142 13145 13148 13151 13154 13157 13160 13163 13166 13169 13172 13175 13178 13180 13183 13186 13189 13192 13195 13198 13201 13204 13207 13210 13213 13216 13219 13222 13225 13228 13231 13234 13237 13240 13243 13246 13249 13252 13255 13257 13260 13263 13266 13269 13272 13275 13277 13280 13283 13286 13289 13292 13295 13298 13301 13304 13307 13310 13313 13316 13319 13322 13325 13328 13331 13334 13337 13340 13343 13346 13349 13352 13355 13358 13361 13364 13367 13370 13373 13376 13378 13381 13384 13386 13389 13392 13395 13398 13401 13404 13407 13410 13413 13416 13419 13422 13425 13428 13431 13434 13437 13440 13442 13445 13448 13451 13454 13457 13459 13462 13465 13468 13471 13474 13477 13480 13483 13486 13489 13491 13494 13497 13500 13503 13506 13509 13512 13515 13518 13521 13524 13526 13529 13532 13535 13538 13541 13544 13547 13550 13553 13556 13559 13562 13565 13568 13571 13574 13576 13579 13582 13585 13588 13591 13594 13597 13600 13603 13605 13608 13611 13614 13617 13620 13623 13626 13629 13632 13635 13638 13641 13644 13647 13650 13652 13655 13658 13661 13664 13666 13669 13672 13675 13678 13681 13684 13687 13690 13693 13695 13698 13701 13704 13706 13709 13712 13715 13718 13721 13724 13727 13730 13733 13736 13739 13742 13745 13748 13750 13753 13756 13758 13761 13764 13766 13769 13772 13775 13778 13781 13784 13787 13790 13793 13796 13799 13802 13805 13808 13811 13814 13817 13820 13822 13825 13827 13830 13833 13836 13839 13841 13844 13847 13850 13853 13856 13859 13862 13865 13868 13871 13874 13877 13880 13883 13886 13889 13892 13895 13898 13901 13904 13907 13910 13913 13916 13919 13922 13925 13928 13931 13934 13937 13939 13942 13945 13948 13951 13953 13956 13959 13962 13965 13968 13971 13973 13976 13979 13982 13985 13988 13991 13994 13996 13999 14001 14004 14007 14010 14013 14016 14019 14022 14024 14027 14030 14033 14036 14039 14041 14044 14047 14050 14053 14056 14059 14062 14064 14067 14070 14073 14076 14079 14082 14085 14088 14091 14094 14097 14100 14103 14106 14109 14112 14114 14117 14119 14122 14125 14128 14130 14133 14136 14138 14141 14144 14147 14150 14153 14156 14159 14161 14164 14167 14170 14173 14176 14179 14182 14184 14187 14190 14192 14195 14198 14201 14204 14207 14210 14213 14216 14219 14222 14225 14228 14231 14234 14236 14239 14242 14244 14247 14249 14252 14255 14257 14260 14263 14266 14269 14272 14275 14278 14281 14284 14287 14290 14293 14296 14299 14302 14305 14308 14311 14313 14316 14319 14321 14324 14327 14330 14333 14336 14339 14342 14345 14348 14351 14354 14357 14360 14363 14365 14368 14370 14372 14375 14378 14381 14384 14387 14389 14392 14395 14398 14400 14403 14406 14409 14412 14415 14418 14421 14424 14427 14430 14433 14436 14439 14442 14445 14448 14451 14453 14455 14458 14461 14464 14466 14469 14472 14475 14478 14480 14483 14486 14489 14492 14495 14498 14501 14504 14507 14510 14513 14516 14519 14522 14525 14528 14531 14534 14537 14540 14543 14546 14549 14552 14555 14558 14561 14564 14567 14570 14573 14576 14579 14582 14585 14588 14591 14594 14597 14600 14603 14606 14609 14612 14615 14618 14621 14624 14627 14630 14633 14636 14639 14642 14645 14648 14651 14654 14657 14659 14662 14665 14668 14671 14674 14677 14680 14683 14686 14689 14692 14694 14697 14700 14703 14706 14709 14712 14715 14717 14720 14723 14725 14728 14730 14733 14735 14738 14741 14744 14747 14750 14753 14756 14759 14762 14765 14767 14770 14772 14775 14778 14781 14784 14787 14790 14793 14796 14799 14802 14805 14808 14811 14814 14817 14820 14823 14826 14829 14832 14835 14838 14840 14842 14845 14848 14851 14854 14856 14859 14862 14864 14867 14870 14873 14876 14879 14881 14884 14887 14890 14893 14896 14899 14902 14905 14908 14911 14914 14917 14920 14923 14926 14929 14932 14935 14938 14941 14944 14947 14950 14953 14956 14959 14962 14965 14968 14971 14974 14977 14980 14982 14985 14988 14991 14994 14996 14999 15002 15005 15008 15011 15014 15016 15019 15022 15025 15027 15030 15033 15036 15039 15042 15045 15048 15051 15054 15057 15060 15063 15065 15068 15071 15073 15076 15079 15082 15085 15088 15091 15094 15097 15099 15102 15105 15108 15111 15114 15116 15119 15122 15125 15128 15131 15134 15136 15139 15142 15144 15147 15149 15152 15155 15158 15161 15164 15166 15169 15171 15174 15177 15180 15183 15186 15189 15191 15194 15196 15199 15202 15205 15208 15211 15214 15216 15219 15222 15225 15228 15230 15233 15235 15238 15241 15244 15247 15250 15252 15255 15257 15260 15263 15265 15267 15270 15273 15275 15278 15281 15284 15287 15290 15293 15296 15299 15302 15305 15307 15310 15313 15316 15319 15321 15324 15327 15330 15333 15336 15339 15342 15345 15348 15351 15353 15356 15359 15362 15365 15367 15370 15373 15376 15379 15382 15384 15387 15390 15393 15396 15398 15401 15404 15406 15409 15412 15415 15418 15421 15424 15427 15430 15433 15435 15438 15441 15444 15447 15450 15453 15456 15459 15462 15465 15468 15470 15473 15476 15479 15482 15485 15488 15491 15494 15497 15500 15503 15506 15509 15512 15515 15518 15521 15524 15527 15530 15533 15536 15539 15542 15545 15548 15551 15554 15557 15560 15563 15566 15569 15572 15575 15578 15581 15583 15586 15588 15591 15594 15597 15600 15603 15606 15609 15612 15615 15618 15621 15623 15626 15629 15632 15635 15637 15640 15643 15646 15649 15652 15655 15658 15661 15664 15667 15669 15672 15675 15678 15681 15684 15687 15690 15693 15696 15699 15702 15705 15707 15710 15713 15716 15719 15721 15724 15727 15729 15732 15735 15738 15741 15744 15746 15749 15751 15754 15757 15760 15763 15766 15769 15772 15774 15777 15780 15783 15786 15789 15791 15794 15797 15799 15802 15804 15806 15809 15812 15815 15818 15821 15824 15827 15830 15833 15836 15839 15842 15845 15848 15851 15854 15857 15859 15862 15865 15868 15871 15874 15877 15880 15883 15886 15889 15892 15895 15898 15901 15904 15907 15910 15913 15916 15919 15921 15924 15926 15929 15932 15935 15937 15940 15943 15945 15948 15950 15953 15956 15958 15960 15963 15965 15967 15970 15973 15975 15977 15979 15982 15985 15987 15990 15993 15996 15998 16001 16004 16007 16010 16013 16016 16018 16021 16024 16027 16030 16032 16035 16038 16041 16044 16046 16049 16052 16055 16058 16061 16064 16067 16070 16073 16076 16079 16082 16085 16088 16091 16094 16096 16099 16101 16104 16107 16110 16113 16116 16119 16122 16125 16128 16131 16133 16135 16138 16141 16144 16147 16150 16153 16155 16158 16160 16162 16165 16168 16170 16172 16175 16178 16181 16184 16187 16189 16192 16195 16197 16199 16202 16204 16206 16209 16212 16214 16217 16220 16222 16225 16228 16230 16233 16236 16239 16242 16245 16248 16250 16253 16256 16259 16262 16265 16268 16271 16273 16276 16279 16282 16285 16288 16291 16293 16296 16299 16302 16305 16308 16311 16314 16317 16320 16323 16326 16329 16332 16335 16338 16341 16344 16347 16350 16353 16356 16359 16362 16365 16368 16371 16374 16377 16380 16383 16386 16389 16392 16395 16397 16400 16403 16406 16409 16412 16415 16418 16421 16424 16427 16430 16433 16436 16439 16442 16445 16448 16451 16454 16456 16459 16462 16465 16468 16471 16473 16476 16479 16482 16485 16488 16491 16494 16497 16500 16502 16505 16508 16511 16514 16517 16520 16523 16525 16528 16531 16534 16536 16539 16542 16545 16547 16550 16553 16555 16558 16561 16564 16567 16570 16573 16576 16579 16582 16585 16588 16591 16594 16597 16600 16603 16606 16609 16612 16614 16617 16619 16622 16625 16627 16630 16633 16635 16638 16641 16644 16647 16650 16653 16656 16659 16662 16665 16668 16671 16674 16677 16680 16683 16686 16689 16692 16695 16698 16701 16704 16707 16710 16713 16716 16719 16722 16725 16728 16731 16734 16737 16740 16743 16746 16749 16752 16755 16758 16761 16764 16767 16770 16773 16776 16779 16782 16785 16787 16790 16792 16795 16797 16799 16802 16805 16808 16811 16814 16817 16820 16822 16825 16828 16831 16834 16837 16840 16843 16846 16849 16851 16853 16856 16859 16862 16865 16868 16871 16874 16877 16880 16883 16886 16889 16892 16895 16898 16901 16904 16907 16910 16913 16915 16918 16921 16923 16926 16929 16932 16935 16938 16941 16944 16947 16950 16952 16955 16958 16961 16964 16966 16969 16972 16975 16978 16981 16984 16987 16990 16992 16994 16997 17000 17002 17005 17008 17011 17013 17016 17019 17022 17025 17027 17029 17032 17035 17037 17040 17043 17046 17048 17050 17053 17056 17059 17062 17065 17068 17071 17074 17077 17080 17082 17085 17088 17091 17094 17096 17099 17102 17105 17108 17111 17114 17117 17119 17122 17125 17128 17131 17133 17135 17138 17141 17144 17147 17149 17152 17155 17157 17160 17162 17165 17167 17170 17172 17174 17177 17179 17182 17185 17188 17190 17193 17196 17199 17202 17205 17208 17211 17214 17216 17219 17222 17225 17228 17231 17233 17236 17239 17242 17245 17248 17251 17254 17257 17259 17262 17265 17268 17271 17274 17277 17280 17282 17285 17288 17291 17294 17297 17300 17303 17306 17309 17312 17315 17318 17320 17323 17325 17328 17331 17334 17337 17340 17343 17346 17349 17352 17355 17358 17361 17363 17366 17369 17371 17374 17377 17379 17382 17384 17387 17390 17393 17396 17399 17402 17405 17408 17411 17414 17417 17420 17423 17426 17429 17432 17435 17437 17439 17442 17445 17448 17451 17454 17457 17460 17463 17466 17469 17472 17475 17478 17481 17484 17487 17489 17492 17495 17498 17501 17504 17507 17510 17513 17516 17519 17521 17524 17527 17530 17533 17535 17538 17541 17544 17547 17549 17552 17555 17558 17561 17564 17566 17569 17572 17574 17577 17580 17583 17586 17589 17592 17595 17598 17601 17604 17607 17610 17613 17616 17619 17622 17625 17628 17631 17634 17637 17640 17643 17646 17649 17652 17655 17658 17660 17663 17666 17669 17672 17675 17678 17680 17683 17686 17689 17691 17694 17697 17700 17703 17706 17709 17711 17714 17717 17720 17723 17725 17728 17730 17733 17735 17738 17740 17742 17745 17748 17750 17753 17756 17759 17762 17765 17768 17771 17774 17777 17780 17783 17785 17788 17791 17794 17797 17800 17803 17806 17809 17812 17815 17818 17821 17824 17826 17829 17832 17835 17838 17841 17844 17847 17850 17853 17856 17859 17862 17865 17868 17871 17874 17877 17880 17883 17886 17888 17891 17894 17897 17900 17903 17906 17909 17912 17915 17918 17921 17924 17926 17929 17932 17935 17938 17941 17944 17947 17950 17953 17956 17959 17962 17965 17968 17971 17974 17977 17980 17983 17985 17988 17991 17993 17996 17999 18002 18005 18008 18010 18013 18016 18019 18022 18025 18028 18031 18034 18036 18039 18042 18045 18048 18051 18054 18057 18060 18063 18066 18069 18072 18075 18078 18081 18084 18087 18090 18093 18096 18099 18102 18105 18108 18111 18114 18117 18120 18123 18126 18128 18130 18133 18135 18138 18141 18144 18147 18150 18152 18155 18157 18160 18163 18166 18169 18172 18175 18178 18180 18183 18186 18188 18190 18193 18196 18199 18202 18205 18208 18211 18214 18216 18219 18222 18225 18228 18230 18233 18236 18239 18242 18244 18246 18249 18252 18255 18258 18261 18263 18266 18268 18271 18274 18277 18279 18282 18284 18287 18289 18292 18295 18297 18300 18303 18306 18309 18312 18315 18317 18320 18323 18326 18329 18332 18335 18338 18341 18344 18347 18350 18353 18356 18359 18362 18365 18367 18370 18372 18374 18377 18380 18383 18386 18389 18392 18395 18398 18401 18403 18406 18409 18412 18415 18418 18421 18424 18427 18430 18432 18435 18438 18441 18444 18446 18448 18451 18454 18457 18460 18463 18466 18469 18472 18475 18478 18481 18484 18487 18490 18493 18496 18499 18502 18504 18507 18510 18513 18516 18518 18521 18524 18527 18530 18533 18536 18538 18541 18544 18547 18550 18553 18555 18558 18560 18563 18565 18568 18571 18574 18576 18579 18582 18584 18587 18589 18592 18594 18597 18600 18603 18606 18609 18612 18614 18617 18620 18623 18626 18628 18630 18633 18636 18639 18641 18644 18646 18648 18651 18653 18656 18659 18662 18665 18668 18671 18674 18676 18679 18682 18684 18687 18689 18692 18695 18698 18701 18704 18706 18709 18712 18715 18718 18720 18723 18726 18729 18732 18735 18738 18741 18744 18747 18750 18753 18756 18759 18762 18765 18768 18771 18774 18777 18780 18783 18786 18789 18792 18795 18798 18800 18803 18806 18809 18811 18814 18817 18819 18821 18824 18827 18830 18833 18836 18839 18842 18845 18848 18850 18853 18856 18858 18861 18863 18866 18869 18872 18875 18878 18881 18883 18886 18889 18892 18895 18898 18900 18903 18906 18909 18912 18915 18918 18920 18922 18924 18927 18930 18933 18936 18939 18941 18944 18947 18950 18952 18955 18958 18961 18964 18967 18970 18973 18976 18979 18982 18985 18988 18991 18993 18996 18999 19002 19005 19008 19011 19014 19017 19020 19023 19026 19029 19032 19034 19036 19039 19042 19045 19048 19051 19054 19057 19060 19063 19066 19069 19072 19075 19078 19081 19084 19087 19090 19093 19096 19099 19102 19104 19107 19110 19113 19115 19118 19121 19124 19127 19130 19133 19136 19139 19142 19145 19148 19151 19154 19157 19160 19162 19164 19167 19170 19173 19175 19178 19181 19184 19186 19189 19192 19194 19197 19200 19203 19206 19208 19211 19214 19217 19220 19223 19226 19229 19232 19235 19238 19241 19244 19247 19250 19253 19256 19259 19262 19265 19268 19271 19273 19276 19278 19281 19284 19286 19289 19292 19295 19297 19300 19303 19305 19308 19310 19313 19316 19319 19322 19325 19328 19331 19333 19335 19338 19341 19344 19347 19350 19352 19355 19358 19361 19364 19366 19369 19372 19375 19377 19380 19383 19385 19388 19391 19394 19397 19400 19403 19405 19408 19411 19414 19417 19420 19423 19426 19428 19431 19434 19437 19440 19443 19446 19449 19452 19455 19458 19461 19464 19467 19470 19472 19475 19478 19481 19484 19486 19489 19492 19495 19497 19499 19502 19505 19508 19511 19514 19517 19519 19522 19525 19528 19531 19534 19537 19540 19542 19545 19548 19550 19553 19556 19559 19562 19564 19566 19569 19572 19574 19577 19580 19582 19585 19588 19591 19594 19597 19600 19603 19606 19608 19611 19614 19617 19619 19622 19625 19628 19631 19634 19637 19640 19643 19646 19649 19652 19655 19658 19661 19664 19667 19670 19673 19676 19679 19682 19684 19687 19690 19692 19695 19698 19701 19704 19707 19709 19712 19715 19718 19720 19723 19726 19729 19731 19734 19737 19740 19743 19746 19749 19752 19755 19758 19761 19764 19766 19769 19772 19775 19778 19781 19784 19787 19789 19792 19794 19797 19800 19803 19806 19808 19811 19814 19817 19820 19823 19826 19829 19832 19835 19838 19841 19844 19847 19849 19852 19855 19858 19861 19864 19867 19870 19873 19876 19879 19882 19884 19887 19889 19892 19895 19898 19901 19903 19906 19909 19912 19914 19917 19920 19923 19925 19928 19931 19934 19936 19939 19942 19945 19948 19950 19953 19955 19958 19961 19964 19966 19969 19972 19975 19978 19980 19983 19986 19989 19992 19994 19997 20000 20003 20006 20009 20012 20015 20018 20021 20024 20027 20029 20032 20035 20038 20041 20044 20047 20050 20053 20056 20059 20062 20065 20068 20071 20074 20076 20079 20082 20085 20088 20090 20093 20095 20098 20100 20103 20106 20109 20112 20115 20118 20121 20124 20127 20130 20132 20135 20137 20139 20141 20143 20146 20149 20151 20154 20157 20160 20162 20165 20168 20170 20173 20175 20178 20181 20184 20187 20190 20192 20195 20198 20201 20204 20207 20210 20213 20216 20219 20222 20224 20227 20230 20232 20235 20238 20241 20243 20246 20249 20252 20255 20258 20261 20264 20267 20270 20273 20276 20279 20282 20285 20288 20291 20294 20297 20299 20302 20304 20306 20309 20312 20314 20317 20320 20323 20325 20328 20331 20333 20336 20338 20340 20343 20345 20347 20350 20353 20356 20359 20361 20363 20365 20368 20370 20373 20376 20379 20382 20385 20388 20391 20394 20397 20400 20403 20406 20409 20412 20415 20418 20420 20423 20426 20429 20432 20434 20437 20439 20442 20445 20448 20451 20454 20457 20459 20462 20464 20467 20469 20472 20474 20477 20480 20483 20486 20489 20492 20494 20497 20500 20503 20505 20508 20510 20512 20515 20518 20521 20524 20527 20529 20532 20535 20537 20540 20543 20546 20549 20552 20555 20558 20560 20563 20566 20569 20572 20575 20578 20581 20584 20587 20590 20593 20596 20599 20602 20605 20608 20611 20614 20616 20619 20622 20625 20628 20631 20634 20636 20639 20642 20645 20647 20650 20653 20656 20659 20661 20664 20667 20669 20672 20674 20677 20680 20682 20685 20688 20691 20694 20697 20700 20703 20706 20709 20712 20715 20717 20720 20723 20726 20729 20731 20734 20736 20739 20742 20745 20748 20751 20754 20757 20760 20763 20766 20769 20772 20775 20778 20781 20784 20787 20790 20793 20795 20798 20800 20803 20805 20808 20811 20814 20817 20820 20823 20825 20828 20831 20833 20836 20839 20842 20845 20848 20850 20853 20856 20859 20862 20865 20868 20871 20874 20877 20880 20883 20886 20889 20892 20895 20898 20901 20904 20907 20910 20913 20916 20919 20921 20924 20927 20929 20932 20935 20938 20941 20944 20947 20950 20953 20956 20959 20962 20965 20968 20971 20974 20977 20980 20983 20986 20989 20992 20995 20998 21001 21004 21007 21010 21013 21016 21019 21022 21025 21028 21031 21034 21037 21040 21043 21046 21049 21052 21055 21057 21060 21063 21066 21069 21072 21074 21077 21080 21083 21085 21088 21091 21094 21097 21100 21103 21106 21109 21112 21115 21117 21120 21122 21125 21127 21129 21132 21135 21138 21141 21144 21147 21150 21153 21156 21159 21162 21165 21168 21171 21174 21177 21179 21182 21185 21188 21190 21193 21196 21199 21202 21204 21207 21210 21213 21216 21219 21222 21225 21228 21231 21234 21237 21240 21243 21246 21249 21252 21255 21258 21261 21264 21267 21270 21273 21276 21279 21282 21285 21288 21290 21293 21296 21299 21302 21305 21308 21311 21314 21317 21319 21322 21325 21328 21330 21333 21336 21339 21342 21344 21347 21349 21352 21355 21358 21361 21363 21366 21368 21371 21374 21377 21380 21382 21385 21387 21390 21393 21396 21398 21401 21403 21406 21409 21412 21415 21417 21420 21423 21426 21429 21432 21435 21438 21441 21444 21447 21450 21452 21455 21458 21460 21463 21466 21468 21471 21474 21477 21480 21483 21486 21488 21491 21494 21497 21499 21502 21505 21508 21511 21514 21517 21520 21523 21526 21528 21531 21533 21536 21539 21541 21543 21546 21549 21552 21554 21557 21560 21563 21566 21569 21572 21575 21578 21580 21583 21586 21589 21592 21595 21598 21601 21604 21607 21610 21613 21616 21619 21621 21624 21627 21630 21633 21636 21639 21642 21645 21648 21651 21654 21657 21660 21663 21666 21668 21671 21674 21676 21679 21682 21685 21687 21690 21693 21696 21699 21702 21705 21708 21711 21714 21717 21720 21722 21725 21727 21730 21733 21736 21738 21741 21744 21747 21750 21753 21755 21758 21761 21764 21766 21769 21772 21774 21777 21780 21783 21786 21789 21792 21795 21798 21801 21804 21806 21809 21812 21815 21818 21821 21824 21827 21830 21833 21836 21839 21842 21845 21847 21850 21853 21856 21859 21862 21864 21867 21870 21873 21876 21878 21881 21884 21887 21890 21893 21896 21899 21902 21905 21908 21910 21913 21915 21918 21921 21924 21926 21928 21931 21934 21936 21939 21942 21945 21948 21950 21953 21955 21958 21960 21963 21966 21969 21972 21975 21977 21980 21983 21986 21989 21992 21995 21998 22000 22003 22006 22008 22011 22014 22017 22020 22023 22026 22029 22032 22035 22038 22041 22044 22046 22048 22051 22054 22057 22060 22063 22066 22069 22072 22074 22077 22080 22083 22085 22087 22090 22093 22096 22099 22101 22104 22107 22110 22112 22114 22117 22120 22123 22126 22129 22132 22135 22138 22141 22144 22147 22150 22153 22155 22158 22161 22164 22167 22170 22173 22176 22179 22182 22185 22187 22190 22193 22196 22198 22201 22203 22206 22209 22212 22215 22218 22221 22223 22225 22227 22230 22233 22236 22239 22241 22244 22247 22250 22253 22255 22258 22261 22264 22267 22270 22273 22276 22279 22282 22285 22288 22291 22294 22296 22299 22302 22305 22307 22310 22313 22316 22318 22321 22324 22326 22329 22332 22335 22337 22340 22343 22346 22349 22352 22355 22358 22361 22363 22366 22368 22371 22374 22377 22379 22382 22385 22388 22391 22394 22397 22400 22403 22406 22409 22412 22415 22418 22421 22424 22427 22430 22433 22436 22439 22442 22445 22447 22450 22453 22456 22459 22462 22465 22468 22471 22474 22477 22479 22482 22485 22488 22490 22493 22496 22499 22502 22505 22508 22511 22514 22517 22519 22522 22525 22528 22531 22534 22537 22540 22543 22546 22549 22552 22555 22558 22561 22564 22567 22570 22573 22576 22579 22582 22585 22588 22591 22594 22597 22600 22603 22606 22609 22611 22614 22617 22620 22622 22625 22628 22631 22634 22637 22640 22642 22644 22647 22650 22652 22655 22657 22660 22663 22665 22668 22671 22674 22676 22679 22682 22685 22688 22691 22694 22697 22700 22703 22706 22708 22711 22714 22717 22720 22723 22726 22728 22731 22734 22737 22739 22742 22745 22748 22751 22754 22757 22760 22762 22765 22768 22770 22773 22776 22779 22782 22785 22788 22790 22793 22796 22799 22802 22805 22808 22810 22812 22815 22818 22821 22824 22826 22829 22832 22835 22837 22840 22843 22846 22848 22851 22854 22857 22860 22863 22866 22869 22872 22875 22878 22881 22884 22887 22890 22893 22896 22899 22902 22905 22907 22910 22913 22916 22919 22921 22924 22927 22930 22933 22935 22938 22941 22944 22947 22950 22953 22955 22958 22961 22964 22967 22970 22972 22975 22978 22980 22983 22986 22989 22992 22995 22998 23000 23003 23006 23009 23012 23014 23017 23020 23023 23026 23029 23032 23035 23038 23041 23044 23047 23050 23053 23056 23059 23062 23065 23068 23071 23074 23076 23079 23082 23085 23088 23090 23093 23096 23099 23101 23104 23106 23109 23112 23115 23117 23120 23123 23126 23129 23132 23134 23137 23140 23143 23146 23149 23152 23155 23158 23161 23164 23167 23170 23173 23176 23179 23182 23185 23188 23191 23194 23197 23200 23203 23206 23209 23212 23214 23217 23220 23222 23224 23227 23229 23232 23235 23237 23240 23243 23246 23249 23252 23255 23257 23260 23262 23265 23268 23270 23272 23275 23278 23281 23284 23286 23289 23291 23293 23296 23299 23302 23305 23308 23311 23314 23317 23320 23323 23326 23329 23332 23335 23338 23340 23343 23345 23348 23351 23354 23357 23360 23363 23366 23369 23372 23375 23378 23380 23383 23386 23389 23392 23395 23397 23400 23403 23406 23409 23412 23414 23417 23420 23423 23426 23429 23432 23434 23437 23440 23442 23445 23448 23451 23453 23456 23459 23462 23465 23468 23471 23474 23477 23480 23483 23485 23488 23491 23494 23497 23500 23503 23506 23509 23512 23515 23518 23520 23523 23526 23528 23531 23533 23536 23539 23542 23545 23547 23550 23552 23555 23558 23561 23563 23566 23568 23571 23574 23576 23579 23582 23584 23586 23589 23592 23595 23598 23601 23604 23607 23610 23613 23615 23618 23620 23623 23626 23629 23632 23635 23637 23640 23643 23646 23649 23652 23654 23657 23660 23663 23665 23668 23671 23674 23677 23680 23683 23686 23689 23692 23695 23698 23701 23704 23707 23709 23712 23715 23718 23721 23724 23727 23729 23732 23735 23738 23740 23743 23746 23749 23752 23755 23758 23760 23763 23766 23769 23772 23775 23778 23780 23783 23786 23789 23791 23794 23796 23799 23802 23804 23807 23810 23813 23815 23818 23821 23823 23826 23829 23832 23835 23838 23841 23844 23846 23849 23852 23855 23858 23861 23864 23867 23870 23873 23875 23878 23881 23883 23886 23889 23892 23895 23898 23901 23904 23907 23910 23913 23916 23919 23922 23925 23927 23930 23933 23936 23939 23942 23945 23948 23951 23953 23956 23959 23961 23964 23967 23970 23973 23976 23979 23982 23985 23988 23991 23994 23997 24000 24003 24006 24009 24012 24015 24018 24021 24024 24027 24030 24033 24036 24039 24042 24045 24048 24051 24054 24057 24060 24063 24066 24069 24072 24075 24078 24081 24084 24087 24089 24092 24095 24098 24101 24103 24106 24109 24111 24114 24117 24120 24122 24125 24127 24130 24133 24135 24138 24140 24143 24146 24149 24152 24154 24157 24160 24163 24165 24168 24171 24174 24177 24180 24183 24186 24188 24191 24193 24196 24199 24202 24204 24207 24210 24213 24215 24218 24220 24223 24226 24229 24232 24235 24238 24241 24244 24247 24250 24252 24255 24258 24261 24264 24267 24270 24272 24275 24277 24280 24283 24285 24287 24290 24293 24296 24299 24302 24305 24308 24311 24314 24317 24320 24323 24326 24329 24332 24334 24337 24340 24343 24346 24349 24352 24355 24358 24361 24364 24366 24369 24372 24375 24377 24380 24383 24386 24389 24392 24395 24397 24400 24403 24406 24408 24411 24414 24417 24420 24423 24426 24429 24432 24435 24438 24441 24444 24447 24450 24453 24456 24459 24461 24464 24466 24469 24472 24475 24478 24481 24484 24487 24490 24493 24496 24499 24502 24505 24508 24510 24513 24516 24519 24522 24525 24528 24531 24534 24537 24540 24543 24546 24549 24551 24554 24556 24559 24562 24564 24567 24570 24573 24576 24579 24582 24585 24587 24589 24592 24595 24598 24601 24604 24607 24610 24613 24616 24619 24622 24625 24628 24631 24634 24637 24639 24642 24644 24646 24649 24652 24655 24658 24661 24664 24667 24670 24673 24676 24679 24682 24685 24688 24691 24694 24697 24700 24703 24706 24709 24712 24715 24717 24720 24723 24726 24729 24732 24735 24738 24741 24744 24747 24750 24753 24756 24758 24761 24764 24767 24769 24772 24774 24777 24780 24782 24785 24788 24790 24793 24796 24798 24800 24803 24806 24809 24812 24815 24818 24821 24824 24827 24829 24832 24835 24838 24841 24844 24847 24850 24853 24856 24859 24862 24865 24868 24871 24874 24877 24880 24883 24885 24888 24891 24894 24897 24900 24903 24906 24909 24912 24915 24918 24921 24924 24927 24930 24933 24936 24939 24942 24945 24948 24951 24954 24957 24960 24963 24966 24969 24972 24975 24978 24981 24984 24987 24990 24993 24996 24999 25002 25005 25008 25011 25014 25017 25020 25022 25025 25028 25031 25033 25036 25039 25042 25045 25047 25050 25053 25056 25058 25061 25064 25067 25070 25073 25076 25079 25082 25085 25088 25091 25094 25097 25100 25103 25106 25108 25111 25114 25117 25120 25123 25126 25129 25132 25135 25138 25141 25144 25147 25150 25153 25156 25159 25162 25165 25167 25170 25173 25175 25178 25181 25184 25186 25189 25192 25194 25196 25199 25202 25204 25207 25209 25212 25214 25217 25220 25222 25225 25228 25231 25234 25237 25239 25242 25245 25248 25250 25253 25256 25259 25262 25265 25268 25271 25274 25277 25280 25283 25286 25289 25292 25295 25298 25301 25304 25307 25310 25313 25316 25319 25322 25325 25328 25331 25334 25337 25340 25343 25346 25349 25351 25354 25357 25359 25362 25365 25368 25371 25374 25377 25380 25383 25386 25389 25392 25395 25398 25401 25404 25406 25409 25411 25414 25417 25420 25423 25425 25428 25431 25434 25437 25440 25443 25446 25449 25452 25455 25458 25461 25464 25467 25470 25473 25476 25479 25482 25485 25487 25490 25493 25496 25499 25502 25505 25508 25511 25514 25517 25520 25522 25524 25527 25530 25533 25536 25539 25542 25545 25548 25551 25554 25556 25559 25562 25565 25567 25569 25572 25575 25578 25580 25583 25586 25589 25592 25595 25598 25600 25603 25606 25609 25612 25615 25618 25621 25624 25627 25630 25633 25636 25639 25642 25645 25648 25651 25654 25657 25660 25663 25666 25669 25672 25675 25678 25681 25684 25687 25690 25693 25696 25699 25702 25705 25708 25711 25714 25717 25720 25723 25726 25729 25732 25735 25738 25741 25744 25747 25750 25752 25755 25758 25761 25764 25767 25770 25773 25776 25779 25782 25785 25788 25791 25794 25797 25800 25803 25806 25809 25812 25814 25817 25820 25822 25825 25828 25831 25834 25837 25840 25843 25846 25849 25852 25855 25858 25861 25864 25867 25870 25873 25876 25879 25882 25885 25887 25890 25893 25896 25899 25902 25905 25908 25910 25913 25916 25919 25922 25925 25928 25931 25934 25937 25940 25943 25946 25949 25952 25955 25958 25961 25964 25967 25970 25973 25976 25979 25981 25984 25987 25990 25993 25996 25999 26002 26004 26007 26010 26013 26016 26019 26022 26025 26028 26030 26033 26036 26039 26042 26045 26048 26051 26054 26057 26060 26063 26066 26069 26072 26075 26077 26080 26083 26086 26089 26092 26095 26097 26100 26103 26106 26108 26111 26114 26117 26120 26123 26126 26129 26132 26135 26138 26141 26144 26147 26150 26153 26156 26159 26162 26165 26167 26170 26173 26176 26179 26181 26184 26187 26190 26193 26196 26199 26202 26205 26208 26211 26213 26216 26219 26221 26224 26227 26230 26233 26236 26239 26242 26245 26248 26250 26253 26256 26259 26262 26265 26268 26271 26274 26277 26279 26281 26284 26287 26289 26292 26294 26297 26300 26302 26305 26308 26311 26314 26317 26320 26323 26326 26329 26332 26335 26338 26341 26343 26346 26349 26352 26355 26357 26360 26363 26366 26369 26372 26375 26378 26380 26383 26385 26388 26391 26394 26396 26399 26402 26405 26408 26411 26413 26416 26418 26421 26424 26426 26429 26432 26435 26437 26440 26443 26446 26449 26452 26455 26458 26461 26464 26467 26469 26472 26475 26477 26480 26483 26486 26489 26492 26495 26498 26501 26503 26506 26509 26512 26515 26517 26520 26522 26525 26528 26531 26533 26536 26539 26542 26545 26548 26551 26554 26556 26559 26562 26565 26568 26571 26574 26577 26579 26582 26585 26588 26590 26592 26595 26598 26601 26604 26607 26610 26613 26616 26619 26622 26625 26627 26630 26633 26636 26639 26642 26645 26648 26651 26653 26656 26659 26662 26665 26668 26671 26674 26677 26680 26683 26686 26689 26692 26694 26697 26700 26702 26705 26708 26711 26714 26716 26718 26721 26724 26727 26730 26732 26735 26738 26741 26744 26747 26750 26753 26756 26759 26762 26765 26768 26771 26774 26777 26780 26783 26786 26789 26792 26795 26798 26801 26804 26807 26810 26813 26816 26819 26822 26824 26827 26830 26833 26835 26838 26840 26843 26846 26849 26852 26855 26858 26861 26864 26867 26870 26873 26876 26879 26882 26885 26888 26891 26894 26897 26900 26903 26905 26908 26911 26914 26917 26920 26923 26926 26929 26932 26935 26938 26941 26944 26947 26950 26953 26956 26959 26962 26965 26968 26971 26974 26977 26980 26983 26986 26989 26992 26995 26998 27001 27004 27007 27010 27013 27016 27019 27022 27025 27028 27031 27034 27037 27040 27043 27046 27049 27052 27055 27058 27061 27064 27067 27070 27073 27076 27079 27082 27085 27088 27091 27094 27097 27100 27103 27106 27109 27112 27115 27117 27120 27123 27125 27128 27131 27134 27136 27139 27142 27145 27148 27151 27154 27157 27160 27163 27166 27169 27172 27175 27178 27181 27184 27186 27189 27192 27194 27197 27200 27203 27205 27208 27211 27214 27217 27220 27223 27226 27229 27232 27235 27238 27241 27244 27247 27250 27252 27255 27258 27261 27264 27267 27270 27273 27276 27279 27282 27285 27288 27291 27294 27297 27300 27303 27306 27308 27311 27314 27317 27320 27322 27325 27327 27330 27333 27336 27339 27342 27344 27347 27350 27353 27356 27359 27362 27365 27368 27371 27374 27377 27380 27383 27386 27389 27392 27395 27397 27400 27403 27405 27408 27411 27414 27417 27420 27422 27425 27428 27430 27433 27436 27439 27441 27444 27447 27450 27452 27455 27458 27461 27464 27467 27470 27473 27475 27478 27481 27484 
</DataArray>
<DataArray type="UInt32" Name="types" format="ascii">
5 5 5 5 3 5 5 5 3 5 3 5 3 5 5 5 3 3 5 5 5 5 5 5 5 5 5 5 5 5 5 5 3 5 5 5 5 5 5 5 3 5 5 5 5 5 5 5 5 3 5 5 3 5 5 5 5 5 5 5 5 5 5 5 5 5 5 3 5 5 5 5 5 3 5 5 5 3 5 5 5 3 3 5 5 3 3 3 3 5 3 5 3 5 5 5 3 5 5 5 3 3 5 5 5 3 5 5 5 5 3 5 5 5 3 5 5 5 5 5 5 5 5 5 5 5 5 5 5 5 3 5 5 5 5 5 5 5 3 5 5 5 5 5 5 5 5 5 5 5 5 5 5 5 5 3 5 3 5 5 5 5 5 5 5 5 5 5 3 3 5 5 5 5 5 5 5 5 5 5 5 5 3 5 5 3 5 3 5 5 5 3 5 3 5 5 5 5 3 5 5 5 5 5 5 5 5 3 5 5 5 5 5 5 5 5 5 5 5 5 5 5 3 5 5 5 5 5 5 5 5 5 3 5 5 5 5 5 5 5 5 5 5 5 5 3 5 5 5 5 5 3 5 5 5 5 5 5 5 5 5 5 5 5 3 5 3 5 5 5 3 5 5 5 3 5 5 5 5 5 5 5 5 5 5 5 5 5 5 5 3 5 3 5 5 5 3 5 5 3 5 5 5 5 3 5 5 3 5 3 5 5 5 5 5 5 5 5 5 5 5 5 5 5 5 3 5 5 5 5 3 5 5 5 5 5 5 5 5 3 5 5 5 5 5 5 5 5 3 5 5 3 5 5 5 3 5 5 3 5 5 3 5 5 5 5 5 5 5 5 5 3 5 5 5 5 5 5 5 5 5 5 5 5 5 5 5 5 5 5 3 5 5 5 5 5 5 5 5 5 3 5 5 5 5 5 5 5 5 5 5 5 5 5 5 5 5 5 5 5 5 5 5 5 5 3 5 5 3 5 5 5 5 5 5 5 5 5 5 5 5 3 5 5 5 3 5 5 5 5 5 3 5 5 5 5 5 5 5 5 5 5 5 5 5 5 5 5 5 5 5 5 5 5 5 5 5 5 5 5 5 5 5 5 3 5 3 5 5 5 5 5 5 5 5 5 5 5 5 5 5 5 5 5 5 5 5 5 5 3 5 5 3 5 5 5 5 5 5 3 5 5 5 5 3 5 5 5 5 5 5 5 5 5 5 5 5 5 5 5 5 5 5 5 5 5 3 5 5 5 5 5 3 5 5 5 5 5 5 3 5 3 5 5 5 5 5 5 5 5 5 5 5 5 5 5 5 5 5 5 5 5 5 5 5 5 5 5 5 5 5 5 5 5 5 5 5 5 5 5 5 5 5 5 5 5 5 5 5 5 5 5 5 5 5 5 5 5 5 5 5 5 5 5 5 5 5 5 5 5 5 5 5 5 5 5 5 5 3 3 5 5 5 5 5 5 5 5 5 5 5 5 5 5 5 5 5 5 3 5 3 5 5 5 5 5 5 5 3 5 5 5 5 5 5 5 5 3 5 5 5 5 5 5 3 5 5 5 5 5 5 5 5 3 5 5 3 5 5 5 5 3 5 5 5 5 5 3 5 5 5 5 5 5 5 5 5 5 3 5 5 5 5 3 5 5 5 5 5 5 5 5 5 5 5 5 5 5 5 5 5 5 5 5 5 5 5 5 5 5 5 5 5 5 5 5 5 5 5 5 5 3 5 5 5 5 5 5 5 5 5 5 5 5 5 5 5 5 5 5 5 5 5 5 5 5 5 5 5 5 3 5 5 5 5 5 5 5 5 5 5 5 5 5 5 5 5 5 5 5 5 3 5 5 5 5 3 5 5 5 5 5 3 5 5 5 5 5 3 5 5 5 5 5 5 5 5 5 5 5 5 5 5 5 5 5 3 5 5 5 5 5 3 5 5 5 3 5 5 5 5 5 5 5 5 5 5 5 5 5 5 5 5 5 5 5 5 5 5 5 5 5 5 5 3 5 5 5 5 5 5 5 5 5 5 5 5 5 5 5 5 5 5 5 5 5 5 5 5 5 5 5 5 3 3 5 5 3 5 5 5 5 5 3 5 3 5 5 3 3 5 5 5 5 5 5 3 5 5 5 5 5 5 5 5 5 5 5 5 5 5 5 5 5 5 5 5 5 5 5 5 5 5 5 5 5 5 5 5 5 5 5 5 3 5 5 5 5 5 5 5 5 5 5 5 5 5 5 5 5 5 5 5 3 5 5 5 5 5 5 5 5 5 5 5 5 5 5 5 5 5 3 5 5 3 5 5 5 3 3 5 5 3 5 5 3 5 5 5 5 5 5 5 3 5 3 5 5 3 5 5 5 5 5 5 5 3 5 5 5 5 5 5 5 5 5 5 5 5 5 5 5 5 5 5 5 3 5 5 5 5 5 3 5 5 5 5 5 5 5 5 5 5 5 3 5 5 5 5 3 5 5 5 3 5 5 5 5 5 5 5 3 5 5 5 3 5 5 5 5 3 5 5 5 5 5 5 5 5 3 3 3 3 3 3 5 5 5 5 5 3 5 5 5 5 5 5 3 5 5 5 5 5 5 5 5 3 5 5 5 3 5 3 3 5 5 5 5 5 5 5 5 5 3 5 3 5 5 5 5 3 5 5 3 5 5 5 5 5 5 5 5 5 5 5 5 5 5 5 5 5 5 5 3 5 5 3 5 5 5 5 5 3 5 5 3 5 5 5 3 5 5 5 5 5 3 5 3 5 5 5 5 5 5 5 3 5 5 5 3 5 5 3 5 5 3 5 5 3 5 3 5 5 5 5 5 3 5 3 5 5 5 5 5 3 3 3 5 5 5 5 5 3 5 5 5 5 5 5 5 5 3 5 3 5 5 5 5 5 5 5 5 5 5 5 3 5 5 5 5 5 5 5 3 5 3 5 5 5 5 5 5 5 5 5 5 5 5 5 5 5 5 3 5 5 5 3 5 5 5 5 5 5 5 5 5 5 5 5 5 5 5 5 5 5 5 3 5 5 5 5 5 5 5 5 5 5 5 5 3 5 5 5 5 5 5 5 5 5 5 5 5 5 5 3 5 5 5 3 5 5 5 3 5 5 3 5 5 5 3 5 5 5 5 5 5 5 5 5 5 3 5 5 5 5 5 5 5 3 5 5 5 5 5 5 5 5 5 3 5 5 5 5 5 5 5 3 5 5 5 5 5 5 5 5 5 5 5 5 5 5 5 5 5 5 5 5 5 5 5 5 5 5 3 5 5 5 5 5 5 3 5 5 5 5 5 5 5 5 5 5 3 5 3 5 5 5 5 5 3 5 5 5 5 3 5 5 5 5 5 3 5 5 5 5 5 5 3 5 5 5 5 5 5 5 5 5 5 5 5 5 3 5 5 5 5 5 3 5 5 5 3 3 5 5 5 5 5 5 3 5 3 5 3 3 5 5 5 3 5 5 3 5 5 3 5 5 5 3 5 5 5 3 5 5 5 3 5 5 5 5 5 5 5 5 5 5 5 5 5 5 5 5 5 5 5 5 5 5 3 5 5 5 5 5 3 5 5 5 5 3 5 5 5 5 5 5 5 5 5 5 3 5 5 5 5 3 5 5 5 3 5 5 5 3 3 5 5 5 5 5 5 5 3 5 5 5 5 5 5 3 5 5 5 3 5 5 5 3 5 5 5 5 3 5 5 5 5 5 5 5 5 5 5 5 5 5 5 3 5 5 5 5 3 5 5 5 5 5 5 5 5 5 5 5 5 5 5 5 5 3 5 5 3 5 5 5 5 3 5 5 5 5 5 5 5 5 5 3 5 5 5 5 5 5 5 5 5 5 5 3 5 5 5 5 5 5 3 5 5 5 3 5 3 5 5 3 5 5 5 5 5 5 5 5 5 5 5 5 5 5 5 5 5 5 5 5 5 3 3 5 5 5 5 3 5 5 5 5 5 3 5 5 5 5 5 3 5 5 5 5 5 3 5 5 5 3 5 5 5 5 5 5 3 5 3 5 5 5 5 5 5 3 5 5 5 5 5 3 5 5 5 5 5 5 5 3 5 5 3 5 5 5 5 5 3 5 5 5 3 5 5 5 5 5 5 5 5 5 3 5 5 5 5 5 5 5 5 5 5 5 5 5 5 5 5 5 5 5 5 5 5 5 5 5 5 5 5 5 5 5 5 5 5 5 5 5 5 3 5 5 5 3 5 3 5 5 5 5 3 5 5 3 5 5 3 5 5 5 5 5 5 5 5 3 5 5 5 5 5 5 5 5 5 3 5 5 5 3 5 5 3 5 5 5 5 5 5 3 5 5 5 3 5 5 3 5 3 5 5 5 5 5 3 5 5 5 5 5 3 3 5 5 5 5 5 5 5 5 5 3 5 5 3 5 5 3 5 5 5 5 5 5 5 5 3 5 5 5 5 5 5 5 5 5 5 5 5 5 3 5 5 5 5 3 3 5 5 5 5 3 5 5 3 5 5 5 5 5 5 5 5 5 5 5 5 5 5 5 5 5 5 5 5 3 5 5 5 5 5 5 5 5 5 5 5 5 5 5 5 5 5 3 5 5 5 5 5 5 5 5 5 5 5 5 5 5 5 5 5 5 5 5 5 5 5 5 5 5 5 5 5 5 5 3 5 5 5 3 5 5 5 5 5 5 5 5 5 5 5 5 5 5 5 5 5 5 5 5 5 5 5 5 5 5 5 5 5 5 5 5 5 5 5 5 5 5 5 5 5 3 5 5 5 5 5 5 5 5 5 5 3 5 3 3 5 5 5 5 5 5 5 3 5 5 5 5 5 5 5 5 3 5 5 5 5 5 5 5 5 5 5 5 5 5 5 5 5 5 5 5 5 5 5 5 5 5 5 5 5 5 5 3 5 5 5 5 5 5 5 3 5 3 5 5 5 5 5 3 5 3 5 5 5 5 5 3 5 5 5 5 5 5 5 3 5 5 5 5 5 5 5 5 5 3 5 5 5 5 5 5 5 5 5 5 5 5 3 5 5 5 5 5 5 5 5 5 5 5 5 5 5 5 3 5 5 5 5 5 5 5 5 5 5 5 5 3 5 5 5 5 5 5 5 5 5 5 5 5 5 5 5 3 3 5 3 5 5 3 5 3 3 5 5 5 5 5 5 5 5 5 5 5 5 5 5 5 5 5 5 5 3 5 5 5 5 3 5 5 5 5 5 3 5 3 5 5 5 5 5 5 5 5 5 5 5 5 3 5 5 5 5 3 3 5 5 5 3 5 3 5 5 3 3 5 5 5 5 3 5 5 5 5 5 5 3 5 5 5 5 5 5 5 5 5 5 5 3 5 5 5 5 3 5 3 5 5 5 5 5 5 5 5 5 5 5 5 5 5 5 5 5 5 5 3 5 3 5 5 5 3 5 5 5 5 5 5 5 5 5 5 5 5 5 5 5 5 5 3 5 5 5 5 5 5 5 5 5 5 5 5 5 5 5 5 5 5 5 5 5 5 5 3 5 5 5 3 3 5 5 5 3 3 5 5 5 5 3 5 5 5 5 5 5 3 5 5 5 5 5 5 5 5 5 5 5 5 3 5 5 5 5 5 5 5 5 5 3 5 5 5 5 5 5 5 5 5 3 3 5 5 5 5 5 5 5 5 5 5 5 5 5 5 5 3 5 5 5 5 5 5 5 5 5 5 5 5 5 5 5 5 5 5 5 5 5 5 5 5 5 5 5 5 5 5 5 3 5 5 5 5 5 5 5 5 5 5 5 5 5 5 5 5 5 3 5 5 5 5 5 5 5 5 5 5 5 5 5 5 5 5 5 5 5 3 5 5 5 5 5 5 5 5 5 5 5 5 5 5 5 5 5 5 5 3 5 5 5 5 5 5 5 5 5 5 5 5 5 5 5 5 5 5 5 5 5 5 5 5 5 5 5 5 5 5 5 5 5 5 5 5 5 3 5 5 3 5 3 5 3 5 5 5 5 3 5 5 5 5 5 5 3 5 5 5 3 5 5 5 3 5 3 5 3 5 5 3 5 5 5 5 3 5 5 3 5 5 5 3 5 5 5 5 5 5 5 5 5 5 5 5 5 5 5 3 5 5 5 3 5 5 5 3 5 5 3 5 5 3 3 5 5 3 5 5 5 5 5 3 5 5 5 5 5 5 3 5 5 5 3 5 3 5 5 5 5 5 3 5 3 5 5 5 5 3 5 5 3 5 5 5 5 5 5 5 5 5 5 5 5 5 5 5 5 5 5 3 5 5 5 5 3 5 5 5 5 5 5 5 5 5 5 5 5 5 5 5 5 3 5 3 5 5 5 5 5 5 5 5 5 3 5 5 5 5 5 5 5 3 5 5 5 5 5 5 5 5 5 5 5 5 5 5 5 5 5 5 5 5 5 5 5 5 5 5 5 5 3 3 5 5 5 5 5 3 5 5 5 5 5 5 5 5 5 5 5 5 3 5 5 5 5 5 3 5 5 5 5 5 5 5 5 5 5 5 3 5 5 5 5 3 5 5 5 3 5 5 5 5 3 5 5 5 5 5 5 5 5 5 5 3 5 5 5 5 5 3 5 5 5 5 5 5 5 3 5 3 5 5 5 5 5 5 5 5 5 5 5 5 5 3 5 5 5 5 5 5 3 5 5 5 5 5 5 5 5 5 5 5 5 5 5 5 5 5 5 5 5 5 5 5 5 5 5 5 5 5 5 5 5 5 5 5 5 5 5 5 5 5 5 5 5 5 5 5 5 5 5 5 5 3 5 5 5 5 5 5 3 5 5 5 5 5 3 5 5 5 5 5 5 5 5 5 5 3 3 5 5 5 5 5 5 5 5 5 3 5 5 5 5 3 5 5 5 5 5 5 5 5 5 5 5 5 3 5 5 5 5 3 5 5 3 3 5 5 5 5 5 5 5 5 5 3 3 5 5 3 3 5 5 5 5 5 5 5 5 5 3 5 5 5 5 3 5 5 3 5 5 5 5 5 3 5 5 5 5 3 5 5 5 3 3 5 5 3 5 3 5 5 5 5 5 3 5 5 5 5 3 3 5 5 5 5 5 5 5 3 5 5 5 5 5 5 3 3 5 5 5 3 5 5 3 5 5 5 5 3 5 3 5 5 5 3 5 5 5 5 3 3 3 5 5 3 5 5 5 5 3 5 5 5 3 5 5 5 5 5 5 5 5 5 5 5 5 5 5 5 5 5 5 5 5 5 5 3 5 5 5 5 5 5 5 3 5 5 5 5 5 5 3 5 5 5 3 3 5 5 3 5 5 3 5 5 5 3 5 5 5 3 5 3 5 5 3 5 3 5 5 5 3 5 5 5 5 5 5 5 5 3 5 5 3 5 5 3 5 5 3 5 5 3 5 5 5 5 3 5 5 5 5 5 5 5 5 5 5 5 5 5 5 5 5 5 5 5 5 5 5 3 5 5 5 3 5 5 5 3 5 5 3 5 5 5 5 3 5 5 5 5 5 5 5 5 3 5 5 5 3 5 5 5 5 5 5 5 3 5 5 5 5 3 5 5 5 5 5 5 5 5 5 5 5 3 5 5 5 5 5 5 5 5 5 5 5 5 5 5 5 5 5 3 5 5 5 5 5 5 5 5 5 5 5 5 5 5 5 5 5 5 5 5 5 5 5 5 5 5 5 5 5 5 5 5 5 5 5 5 5 5 5 5 5 5 5 5 5 5 5 5 5 5 5 5 5 5 5 5 5 5 5 3 5 5 5 5 5 5 5 5 5 5 5 5 5 5 5 5 5 5 5 5 5 5 5 5 5 5 5 5 5 5 5 5 5 5 5 3 5 3 5 5 5 5 5 3 5 5 5 3 5 5 5 5 5 5 5 5 5 5 5 5 5 5 5 5 5 5 5 5 3 5 5 5 5 5 5 5 5 5 5 5 5 5 5 5 5 5 5 5 5 5 5 5 3 3 5 5 3 5 5 5 5 5 5 5 5 5 5 5 5 5 5 5 5 5 5 5 5 5 5 5 5 5 5 5 5 5 5 5 5 5 5 5 5 5 5 5 3 5 5 5 3 5 5 3 5 5 3 5 3 3 5 5 5 3 5 5 5 5 5 3 5 5 3 5 5 5 5 5 5 3 5 5 5 5 5 5 5 5 5 3 5 5 5 5 5 5 5 3 5 3 5 5 3 5 3 5 5 5 3 5 5 3 5 5 5 5 3 5 5 5 5 5 5 5 5 3 5 5 5 5 5 3 5 3 5 3 5 3 5 5 3 3 5 5 5 3 5 5 5 5 5 5 5 3 5 5 5 5 5 5 3 5 5 5 5 5 5 5 5 5 5 5 5 5 5 3 5 5 5 5 5 5 3 5 5 3 5 5 5 3 5 5 5 5 3 5 5 5 5 5 5 3 5 5 5 3 5 5 5 5 5 5 5 5 5 5 5 5 5 3 3 5 5 5 3 5 3 5 5 5 5 5 5 5 5 5 5 5 5 3 5 5 5 5 3 5 5 3 5 5 5 5 5 3 5 5 5 5 5 5 5 5 5 5 5 5 5 5 5 5 5 5 5 3 5 5 5 3 5 5 3 3 5 5 5 5 5 3 5 5 5 5 5 3 5 5 5 5 3 5 5 5 5 5 5 3 5 5 3 5 5 5 5 3 5 5 3 5 5 3 5 5 5 3 3 5 5 5 3 5 5 5 5 5 5 5 5 5 5 5 5 5 5 5 5 5 5 5 5 5 3 5 5 5 5 5 5 3 5 5 5 5 5 3 5 5 5 5 5 5 5 5 3 5 5 5 5 5 5 5 5 5 5 5 5 3 5 5 5 3 5 5 5 5 5 5 5 3 5 5 5 5 3 5 3 5 5 5 5 5 5 3 5 3 5 5 5 5 5 5 5 5 5 5 5 3 5 5 3 5 5 3 5 3 3 5 5 5 5 5 5 3 5 3 5 5 5 3 5 5 5 5 5 5 5 5 5 5 5 5 5 5 5 5 5 5 5 5 3 5 3 5 5 5 5 5 3 5 5 5 5 5 5 5 5 5 5 5 5 5 5 5 5 5 5 5 5 5 5 5 5 5 5 5 5 5 5 3 5 5 5 5 5 5 5 5 5 5 5 5 5 5 5 5 5 5 3 5 5 5 5 3 5 5 5 5 5 5 5 5 5 5 5 5 5 5 5 5 5 5 5 5 5 5 5 5 5 5 5 5 5 5 5 5 5 5 5 5 5 5 5 5 5 5 5 5 5 5 5 5 5 5 5 5 5 5 5 5 5 5 5 5 5 5 5 5 5 5 5 5 5 5 5 5 5 5 5 5 5 5 5 3 5 5 5 5 5 3 5 5 5 5 5 5 5 5 5 5 5 5 5 5 5 5 5 5 5 3 5 5 5 5 5 5 5 3 5 5 3 5 5 3 5 5 5 3 5 5 3 5 3 5 5 5 5 5 5 5 5 5 5 5 5 5 5 5 5 3 5 5 5 5 5 5 5 5 5 5 3 5 5 5 5 5 3 5 5 5 5 5 5 5 5 5 5 5 3 5 5 5 5 3 5 5 5 3 5 5 5 3 5 3 5 5 5 5 5 5 5 5 5 3 3 5 5 5 5 5 5 5 5 5 5 5 5 5 5 5 5 5 5 5 5 5 5 5 5 5 5 5 5 5 5 5 5 5 5 5 5 5 5 5 5 5 5 5 5 5 5 3 5 5 5 3 5 5 5 3 5 5 5 5 3 5 3 5 5 3 5 5 5 3 3 3 3 5 5 5 5 5 5 5 5 5 5 5 5 5 3 5 5 5 5 5 5 3 5 5 5 5 5 5 5 5 5 5 3 5 5 5 5 5 5 3 5 5 5 5 5 5 5 5 5 5 5 5 5 5 5 5 5 5 3 5 5 5 5 3 5 5 5 5 5 3 5 5 5 5 5 5 5 5 5 5 5 5 5 5 5 5 5 5 3 5 5 5 5 5 5 5 5 5 5 5 5 3 5 3 5 5 5 5 5 5 5 5 5 5 5 5 5 3 5 5 5 5 5 5 5 3 5 5 5 5 5 5 5 5 5 5 3 5 5 5 5 5 5 5 5 5 5 5 5 5 5 5 5 5 5 5 5 5 5 5 5 5 5 5 5 5 5 5 5 5 5 5 5 5 5 5 5 5 5 5 5 5 5 5 5 5 5 5 5 5 3 5 5 3 5 5 5 5 5 5 5 5 5 5 5 5 5 5 3 5 5 3 5 5 5 5 5 3 5 5 5 5 5 5 5 5 5 5 5 3 5 5 3 5 5 5 5 3 3 5 5 3 5 5 5 5 3 5 5 3 5 5 5 5 5 5 5 5 5 5 5 5 5 5 3 5 5 5 5 5 5 5 5 5 5 5 5 5 5 3 5 5 5 5 5 5 5 5 5 5 5 5 5 5 5 5 5 5 5 5 5 5 5 5 5 3 5 5 5 5 5 5 3 5 5 5 5 5 5 5 5 5 5 5 5 5 5 5 5 5 5 5 5 5 5 5 5 5 5 5 5 5 5 5 5 5 3 5 5 3 5 5 5 5 5 5 5 5 5 5 5 5 5 5 5 5 5 5 3 5 5 5 5 5 3 5 5 5 5 5 5 5 5 5 5 3 5 5 5 5 5 5 5 5 5 5 5 3 5 5 5 5 5 5 5 5 5 5 5 5 5 5 5 5 3 5 5 5 5 5 5 5 5 5 3 5 5 5 5 5 5 5 5 5 5 5 5 5 5 5 3 5 5 5 5 3 5 5 5 5 5 5 5 5 5 3 5 5 5 3 5 5 5 5 5 5 5 5 5 5 5 5 5 5 3 5 5 3 5 5 3 5 5 5 5 5 5 5 5 5 5 5 5 5 5 5 5 5 5 3 5 3 5 5 5 5 3 5 5 5 5 5 5 5 5 5 5 5 5 5 5 5 5 5 5 5 5 5 5 5 5 5 5 5 5 5 5 5 5 3 5 5 5 5 3 5 5 5 5 5 5 3 5 5 5 5 5 5 5 3 5 3 5 5 5 5 5 5 5 3 5 5 5 5 5 3 5 5 5 5 5 5 5 3 5 5 5 5 5 5 5 5 5 5 5 5 5 5 5 5 3 5 3 5 5 5 3 5 5 3 5 5 5 5 5 5 5 3 5 5 5 5 5 5 5 3 5 5 3 5 5 5 5 5 5 5 5 5 5 5 5 5 5 3 5 5 3 5 3 5 5 3 5 5 5 5 5 5 5 5 5 5 5 5 5 5 5 5 5 5 3 5 5 3 5 5 5 5 5 5 5 5 5 5 5 5 5 5 3 5 3 3 5 5 5 5 5 3 5 5 5 3 5 5 5 5 5 5 5 5 5 5 5 5 5 5 5 5 5 3 3 5 5 5 3 5 5 5 5 3 5 5 5 5 5 5 5 5 5 5 5 5 5 5 5 5 5 5 5 5 5 5 5 5 5 5 5 5 5 5 5 5 5 5 5 5 5 5 5 5 5 5 5 5 5 5 5 5 5 5 5 5 5 5 5 5 5 5 5 3 5 5 5 5 5 5 5 5 5 5 5 3 5 5 5 5 5 5 5 3 5 5 3 5 3 5 3 5 5 5 5 5 5 5 5 5 5 3 5 3 5 5 5 5 5 5 5 5 5 5 5 5 5 5 5 5 5 5 5 5 5 5 3 3 5 5 5 5 3 5 5 3 5 5 5 5 5 3 5 5 5 5 5 5 5 5 5 5 5 5 5 5 5 5 5 5 5 5 5 5 5 5 5 5 5 5 5 5 5 5 5 3 5 5 5 5 3 5 5 5 5 5 5 3 5 5 5 3 5 5 5 5 5 5 5 5 5 5 5 5 3 5 5 3 5 5 5 5 5 5 5 5 3 5 5 5 5 5 3 5 5 5 5 5 5 3 5 5 3 5 3 5 5 5 5 5 3 5 3 5 5 5 5 5 5 3 5 3 5 5 5 5 5 5 3 5 5 5 5 3 5 3 5 5 5 5 5 3 5 3 5 5 3 3 5 5 3 5 5 5 5 5 5 5 5 5 5 3 5 5 5 5 3 5 5 5 5 5 5 5 5 5 5 3 5 5 5 5 3 5 5 5 5 5 3 5 5 5 5 3 5 5 3 5 5 5 5 5 5 5 5 5 3 5 5 5 5 5 5 5 5 5 5 5 3 5 5 5 5 5 5 5 5 5 5 5 5 5 5 5 5 5 5 5 5 5 5 5 5 5 5 5 5 5 5 5 5 5 5 5 5 5 3 5 3 5 5 5 5 5 5 5 5 5 5 5 3 5 5 5 5 3 5 5 5 5 5 5 5 5 5 5 3 5 5 5 5 5 5 5 5 5 5 5 5 3 5 5 5 5 3 5 5 3 5 5 5 5 5 3 5 3 5 5 5 5 5 5 5 3 5 5 5 5 5 3 5 5 3 5 3 3 5 5 5 5 5 5 5 5 5 5 5 5 5 5 5 5 5 3 5 5 5 5 5 5 5 5 5 5 5 5 5 5 5 5 5 5 5 5 3 5 3 5 5 5 3 5 5 3 5 3 5 5 3 3 5 3 3 5 5 3 3 3 5 5 3 5 5 5 3 5 5 5 5 5 5 3 5 5 5 5 3 5 5 5 5 3 5 5 5 5 5 5 5 5 5 5 5 5 5 5 5 5 3 5 3 5 5 5 5 5 5 5 5 5 5 3 3 5 5 5 5 5 5 3 5 3 3 5 5 3 3 5 5 5 5 5 3 5 5 3 3 5 3 3 5 5 3 5 5 3 5 5 3 5 5 5 5 5 5 3 5 5 5 5 5 5 5 3 5 5 5 5 5 5 3 5 5 5 5 5 5 5 5 5 5 5 5 5 5 5 5 5 5 5 5 5 5 5 5 5 5 5 5 5 5 5 5 5 5 3 5 5 5 5 5 5 5 5 5 5 5 5 5 5 5 5 5 5 5 3 5 5 5 5 5 3 5 5 5 5 5 5 5 5 5 3 5 5 5 5 5 5 5 3 5 5 5 3 5 5 5 3 5 5 3 5 5 5 5 5 5 5 5 5 5 5 5 5 5 5 5 5 5 5 3 5 3 5 5 3 5 5 3 5 5 5 5 5 5 5 5 5 5 5 5 5 5 5 5 5 5 5 5 5 5 5 5 5 5 5 5 5 5 5 5 5 5 5 5 5 5 5 5 5 5 5 5 5 5 5 5 5 5 3 5 3 5 3 3 5 5 5 5 5 5 5 3 5 5 5 5 5 5 5 5 5 3 3 5 5 5 5 5 5 5 5 5 5 5 5 5 5 5 5 5 5 5 5 3 5 5 3 5 5 5 5 5 5 5 5 5 3 5 5 5 5 3 5 5 5 5 5 5 5 5 3 3 5 5 3 5 5 5 3 5 5 5 5 3 3 5 5 3 5 5 5 3 3 5 5 5 5 5 5 5 5 5 5 3 5 5 5 5 3 5 5 5 5 5 5 5 3 5 5 5 5 3 3 5 5 5 5 3 5 5 3 5 3 5 3 5 3 3 5 3 5 5 5 3 5 5 5 5 5 5 5 5 3 5 5 5 5 5 3 5 5 5 5 5 5 5 5 3 5 5 5 5 5 5 5 3 5 5 5 5 5 5 5 5 5 5 5 5 3 5 3 5 5 5 5 5 5 5 5 5 5 5 5 3 5 5 3 5 5 3 5 3 5 5 5 5 5 5 5 5 5 5 5 5 5 5 5 5 5 3 3 5 5 5 5 5 5 5 5 5 5 5 5 5 5 5 5 3 5 5 5 5 5 5 5 5 5 5 3 5 5 5 5 3 5 5 5 5 3 5 5 5 5 5 3 5 5 3 5 5 5 5 5 5 5 5 5 5 5 5 5 5 5 5 5 5 5 5 5 5 5 5 5 5 5 5 3 5 5 5 5 5 5 3 5 5 5 3 5 5 5 5 5 5 3 5 5 5 5 3 5 3 5 3 5 3 3 5 5 3 5 5 5 5 5 5 5 5 5 5 5 3 5 5 5 5 5 5 5 5 5 5 5 5 5 3 5 5 5 5 5 5 5 5 5 5 5 5 5 5 5 5 5 5 5 5 3 5 5 5 5 5 5 5 5 5 5 5 5 3 5 5 5 5 5 5 5 5 5 5 5 5 5 5 5 5 5 5 5 3 5 5 3 5 5 5 5 5 3 5 5 5 5 5 5 5 5 3 5 5 5 5 5 5 5 5 5 5 5 5 5 5 5 5 5 5 5 5 5 5 5 5 5 5 5 5 5 5 3 3 5 3 5 5 5 5 5 3 5 3 5 5 5 5 5 5 5 3 5 5 3 3 5 5 5 5 5 5 5 5 3 5 5 5 5 3 5 5 5 5 3 3 5 5 5 5 5 3 5 3 5 5 5 3 5 3 5 3 5 5 3 5 5 5 5 5 5 3 5 5 5 5 5 5 5 5 5 5 5 5 5 5 5 5 3 5 3 3 5 5 5 5 5 5 5 5 5 3 5 5 5 5 5 5 5 5 5 3 5 5 5 5 3 3 5 5 5 5 5 5 5 5 5 5 5 5 5 5 5 5 5 5 3 5 5 5 5 3 5 5 5 5 5 5 3 5 5 5 5 5 3 5 3 5 3 5 5 5 3 5 5 3 5 3 5 3 5 5 5 5 5 5 3 5 5 5 5 3 3 5 5 5 3 5 3 3 5 3 5 5 5 5 5 5 5 3 5 5 3 5 3 5 5 5 5 5 3 5 5 5 5 3 5 5 5 5 5 5 5 5 5 5 5 5 5 5 5 5 5 5 5 5 5 5 5 5 5 5 3 5 5 5 3 5 5 3 3 5 5 5 5 5 5 5 5 5 3 5 5 3 5 3 5 5 5 5 5 5 3 5 5 5 5 5 3 5 5 5 5 5 5 3 3 3 5 5 5 5 5 3 5 5 5 3 5 5 5 5 5 5 5 5 5 5 5 5 5 3 5 5 5 5 5 5 5 5 5 5 5 5 5 3 3 5 5 5 5 5 5 5 5 5 5 5 5 5 5 5 5 5 5 5 5 5 5 3 5 5 5 3 5 5 5 5 5 5 5 5 5 5 5 5 5 5 5 3 3 5 5 5 3 5 5 5 3 5 5 3 5 5 5 5 3 5 5 5 5 5 5 5 5 5 5 5 5 5 5 5 5 5 5 5 5 5 3 5 3 5 5 3 5 5 5 3 5 5 3 5 3 5 5 5 5 5 5 5 3 3 5 5 5 5 5 3 5 5 5 5 3 5 5 5 3 5 5 3 5 5 5 5 5 5 3 5 5 5 5 5 5 5 3 5 5 5 5 5 5 5 5 5 5 5 5 5 5 3 5 5 5 5 3 5 5 5 3 3 5 5 5 5 5 5 3 5 5 5 5 5 5 5 3 5 5 3 5 5 5 5 3 3 5 5 3 5 5 3 5 5 5 5 5 5 5 5 3 5 5 5 3 5 5 5 5 5 5 5 5 5 5 5 5 5 5 5 5 5 5 5 5 5 3 5 5 3 5 5 5 5 5 3 5 5 5 3 5 5 5 3 5 5 5 5 5 5 5 5 5 5 5 3 5 5 5 5 5 5 5 3 5 3 5 5 5 5 3 5 5 5 5 5 5 5 5 5 5 5 5 5 3 5 5 5 5 5 5 5 5 5 5 5 3 5 3 5 5 5 5 3 5 5 5 3 5 5 5 3 5 5 5 3 5 5 5 5 3 5 3 5 5 5 3 5 5 5 5 3 5 5 5 5 3 5 5 5 5 5 5 5 5 5 5 5 3 5 5 5 5 5 5 5 5 5 5 5 5 5 5 5 3 5 5 5 5 3 5 3 5 3 5 5 5 5 5 5 5 5 5 5 3 5 3 3 3 3 5 5 3 5 5 5 3 5 5 3 5 3 5 5 5 5 5 3 5 5 5 5 5 5 5 5 5 5 3 5 5 3 5 5 5 3 5 5 5 5 5 5 5 5 5 5 5 5 5 5 5 5 5 5 3 5 3 3 5 5 3 5 5 5 3 5 5 3 5 3 3 5 3 3 5 5 5 5 3 3 3 5 3 5 5 5 5 5 5 5 5 5 5 5 5 5 5 5 5 3 5 5 5 5 3 5 3 5 5 5 5 5 5 3 5 3 5 3 5 3 5 5 5 5 5 5 3 5 5 5 3 5 3 3 5 5 5 5 5 3 5 5 3 5 5 5 5 5 5 5 3 5 5 5 5 5 5 5 5 5 5 5 5 5 5 5 5 5 5 3 5 5 5 5 5 5 3 5 5 5 3 5 5 5 5 3 5 5 3 5 3 5 5 3 5 5 5 5 5 5 5 5 5 5 5 3 5 5 5 5 3 5 3 5 5 5 5 5 5 5 5 5 5 5 5 5 5 5 5 5 5 5 3 5 3 5 3 5 5 5 5 5 5 3 5 5 3 5 5 5 5 5 3 5 5 5 5 5 5 5 5 5 5 5 5 5 5 5 5 5 5 5 5 5 5 5 3 5 5 3 5 5 5 5 5 5 5 5 5 5 5 5 5 5 5 5 5 5 5 5 5 5 5 5 5 5 5 5 5 5 5 5 5 5 5 5 5 5 5 5 5 5 3 5 5 5 5 5 3 5 5 5 3 5 5 5 5 5 5 5 5 5 5 3 5 3 5 3 3 5 5 5 5 5 5 5 5 5 5 5 5 5 5 5 5 3 5 5 5 3 5 5 5 5 3 5 5 5 5 5 5 5 5 5 5 5 5 5 5 5 5 5 5 5 5 5 5 5 5 5 5 5 5 3 5 5 5 5 5 5 5 5 5 3 5 5 5 3 5 5 5 5 3 5 3 5 5 5 5 3 5 3 5 5 5 5 3 5 3 5 5 5 3 5 3 5 5 5 5 3 5 5 5 5 5 5 5 5 5 5 5 3 5 5 3 5 5 3 5 5 5 5 5 5 3 5 5 5 3 5 5 5 5 5 5 5 5 5 3 5 3 5 5 3 3 5 5 5 3 5 5 5 5 5 5 5 5 3 5 5 5 5 5 5 5 5 5 5 5 5 5 3 5 5 5 5 5 5 5 5 5 5 5 5 5 5 5 3 5 5 3 5 5 5 3 5 5 5 5 5 5 5 5 5 5 5 3 5 3 5 5 5 3 5 5 5 5 5 3 5 5 5 3 5 5 3 5 5 5 5 5 5 5 5 5 5 3 5 5 5 5 5 5 5 5 5 5 5 5 5 3 5 5 5 5 5 3 5 5 5 5 3 5 5 5 5 5 5 5 5 5 5 3 5 3 5 5 5 3 3 5 5 3 5 5 5 5 3 5 3 5 3 5 5 5 5 5 3 5 5 5 5 5 5 5 3 5 5 3 5 5 5 5 5 5 5 5 5 5 5 5 3 3 5 5 5 5 5 5 5 5 3 5 5 5 3 3 5 5 5 5 3 5 5 5 3 3 5 5 5 5 5 5 5 5 5 5 5 5 5 3 5 5 5 5 5 5 5 5 5 5 3 5 5 5 3 5 3 5 5 5 5 5 5 3 3 3 5 5 5 5 3 5 5 5 5 3 5 5 5 5 5 5 5 5 5 5 5 5 5 3 5 5 5 3 5 5 5 3 5 5 3 5 5 5 3 5 5 5 5 5 5 5 5 3 5 3 5 5 5 3 5 5 5 5 5 5 5 5 5 5 5 5 5 5 5 5 5 5 5 5 5 5 3 5 5 5 5 5 5 5 5 5 5 3 5 5 5 3 5 5 5 5 5 5 5 5 5 3 5 5 5 5 5 5 5 5 5 5 5 5 5 5 5 5 5 5 5 5 5 5 5 5 5 5 5 5 5 5 3 5 5 5 3 5 5 5 5 5 5 3 3 5 5 3 5 3 5 5 3 5 5 5 3 5 5 5 5 5 5 5 5 5 5 3 5 5 5 5 5 5 3 5 5 5 3 5 5 5 5 5 5 5 3 5 5 3 5 5 5 5 5 5 3 5 5 5 5 5 5 3 3 5 5 5 5 3 5 5 5 3 5 5 5 3 5 5 5 5 5 5 5 5 5 5 5 5 5 5 5 5 5 5 5 3 5 5 5 5 3 5 5 5 5 3 5 5 5 5 5 5 3 5 5 5 5 5 3 5 5 3 5 5 5 5 5 5 3 5 5 5 5 3 5 5 5 5 5 5 5 5 5 5 5 5 5 5 5 5 5 5 5 5 3 5 5 5 5 3 5 5 5 3 5 3 5 5 5 3 5 5 5 5 5 3 5 5 5 5 5 5 5 5 5 5 5 5 5 5 5 5 5 5 5 5 5 5 5 5 5 5 3 5 5 3 3 5 3 5 5 3 5 5 5 5 5 5 3 5 3 5 5 3 3 5 5 5 5 3 5 3 3 5 5 5 5 5 5 5 5 5 5 5 5 5 5 5 3 5 3 5 5 5 5 5 5 5 5 5 5 5 3 5 5 5 5 5 3 5 5 5 5 5 3 5 5 5 5 5 5 3 5 5 3 5 5 5 3 5 5 5 5 5 5 5 5 5 5 3 5 5 5 5 5 5 5 5 5 5 5 3 5 5 3 5 3 5 5 5 5 3 5 3 5 5 5 3 5 3 5 5 3 5 5 3 3 5 5 5 5 5 5 5 5 5 3 5 3 5 5 5 5 5 3 5 5 5 5 5 3 5 5 5 3 5 5 5 5 5 5 5 5 5 5 5 5 5 5 3 5 5 5 5 5 5 3 5 5 5 3 5 5 5 5 5 5 3 5 5 5 5 5 5 3 5 5 5 3 5 3 5 5 3 5 5 5 3 5 5 3 5 5 5 5 5 5 5 3 5 5 5 5 5 5 5 5 5 3 5 5 3 5 5 5 5 5 5 5 5 5 5 5 5 5 5 3 5 5 5 5 5 5 5 5 3 5 5 3 5 5 5 5 5 5 5 5 5 5 5 5 5 5 5 5 5 5 5 5 5 5 5 5 5 5 5 5 5 5 5 5 5 5 5 5 5 5 5 5 5 5 3 5 5 5 5 3 5 5 3 5 5 5 3 5 3 5 5 3 5 3 5 5 5 5 3 5 5 5 3 5 5 5 5 5 5 5 3 5 3 5 5 5 3 5 5 5 3 5 3 5 5 5 5 5 5 5 5 5 5 3 5 5 5 5 5 5 3 5 3 5 5 3 3 5 5 5 5 5 5 5 5 5 5 5 5 5 5 5 3 5 5 5 5 5 5 5 5 5 5 3 5 5 5 3 5 5 5 5 5 5 3 5 5 5 3 5 5 5 5 5 5 5 5 5 5 5 5 5 5 5 5 5 3 5 3 5 5 5 5 5 5 5 5 5 5 5 5 5 5 3 5 5 5 5 5 5 5 5 5 5 5 5 5 3 5 3 5 5 3 5 5 5 5 5 5 5 3 3 5 5 5 5 5 5 5 5 5 5 5 5 5 5 5 5 3 5 3 3 5 5 5 5 5 5 5 5 5 5 5 5 5 5 5 5 5 5 5 5 5 5 5 3 5 5 5 5 5 5 5 5 5 5 5 5 5 3 5 5 5 3 5 3 5 5 3 5 5 3 5 5 3 3 5 5 5 5 5 5 5 5 5 3 5 5 5 5 5 5 5 5 5 5 5 5 5 5 5 5 5 5 3 5 5 5 5 5 5 5 5 5 5 5 5 5 5 5 5 5 5 5 5 5 5 5 5 5 5 5 5 5 5 5 5 5 5 5 5 5 5 5 5 5 5 5 5 5 3 5 5 5 3 5 5 5 5 3 5 5 5 3 5 5 5 5 5 5 5 5 5 5 5 5 5 5 5 5 3 5 5 5 5 5 5 5 5 5 5 5 5 5 5 5 5 5 5 5 3 5 5 3 5 5 5 3 5 5 3 3 5 5 3 5 3 5 3 5 5 3 5 5 5 5 5 3 5 5 5 3 5 5 5 5 5 5 5 5 5 5 5 5 5 5 5 5 5 5 5 5 5 5 5 5 5 5 5 5 5 5 5 5 5 3 5 5 3 5 5 5 5 5 5 5 5 5 5 5 5 5 5 5 3 5 3 5 5 5 5 3 5 5 5 5 5 5 5 5 5 5 5 5 5 5 5 5 5 5 5 5 3 5 5 5 5 5 5 5 5 5 5 5 3 3 5 5 5 5 5 5 5 5 5 5 3 5 5 5 3 3 5 5 5 3 5 5 5 5 5 5 3 5 5 5 5 5 5 5 5 5 5 5 5 5 5 5 5 5 5 5 5 5 5 5 5 5 5 5 5 5 5 5 5 5 5 5 5 5 5 5 5 5 5 5 5 5 5 5 5 5 5 3 5 5 5 5 5 5 5 5 5 5 5 5 5 5 5 5 5 5 5 5 3 5 5 3 5 5 5 5 5 5 5 5 5 5 5 5 5 5 5 5 5 5 5 5 5 3 5 5 5 5 5 5 5 3 5 5 5 5 5 5 5 5 5 5 5 5 5 5 5 5 5 5 5 5 5 5 5 3 5 5 5 5 5 5 5 3 5 5 5 5 5 5 5 5 3 5 5 5 5 5 5 5 5 5 5 5 5 5 5 5 3 5 5 5 5 5 5 3 5 5 5 3 5 5 5 5 5 5 5 5 5 5 5 5 5 5 5 5 5 5 5 3 5 5 5 5 3 5 5 5 5 5 5 5 5 5 5 3 5 5 3 5 5 5 5 5 5 5 5 5 3 5 5 5 5 5 5 5 5 5 3 3 5 5 3 5 3 5 5 3 5 5 5 5 5 5 5 5 5 5 5 5 5 3 5 5 5 5 3 5 5 5 5 5 5 5 3 5 3 5 5 5 3 5 5 5 5 5 3 5 3 5 5 3 5 5 5 3 5 5 5 5 5 5 5 5 5 5 3 5 5 3 5 5 5 5 5 5 5 5 3 5 5 5 5 3 5 3 5 5 5 3 5 5 5 5 5 5 5 3 5 5 5 5 5 5 5 3 5 5 5 3 3 5 5 5 5 5 5 5 5 5 5 5 3 5 5 5 5 5 5 5 5 3 5 5 5 5 5 5 5 5 5 5 5 5 5 3 5 5 3 5 5 5 5 3 3 5 5 5 5 3 5 5 5 5 5 5 5 5 5 5 5 5 5 5 5 5 5 5 5 5 5 5 5 5 5 5 5 5 5 5 3 5 5 5 3 5 3 5 5 5 5 5 5 5 5 5 5 5 5 5 5 5 5 5 5 5 5 5 3 5 5 5 5 5 5 5 5 5 5 5 5 5 5 5 5 5 5 5 5 5 5 5 5 5 5 5 5 5 5 5 5 5 5 5 5 5 5 5 5 5 5 5 5 5 5 5 5 5 5 5 5 5 5 5 5 5 5 5 5 5 5 5 5 5 5 5 5 5 5 3 5 5 3 5 5 5 3 5 5 5 5 5 5 5 5 5 5 5 5 5 5 5 5 3 5 5 3 5 5 5 3 5 5 5 5 5 5 5 5 5 5 5 5 5 5 5 3 5 5 5 5 5 5 5 5 5 5 5 5 5 5 5 5 5 5 3 5 5 5 5 3 5 3 5 5 5 5 5 3 5 5 5 5 5 5 5 5 5 5 5 5 5 5 5 5 5 3 5 5 3 5 5 5 5 5 3 5 5 3 5 5 5 3 5 5 5 3 5 5 5 5 5 5 5 3 5 5 5 
</DataArray>
</Cells>
<PointData Scalars="" Vectors="displacement," Tensors="">
<DataArray type="Float64" Name="displacement" NumberOfComponents="3" format="ascii">
-2.5391499263062055e-08 -0.034999343083018532 0 -0.00018405906427629599 -0.034033329579735004 0 -1.1925577694113756e-06 -0.03158535509803799 0 -2.5391499263062055e-08 -0.034999343083018532 0 -0.00018405906427629599 -0.034033329579735004 0 6.7850587624037125e-08 -0.034995975805969526 0 -0.00018405906427629599 -0.034033329579735004 0 -0.00029944196750215587 -0.033342580121249216 0 -0.00026016080790674558 -0.032984264633028788 0 -5.5328397016000378e-09 -0.035000019083199808 0 -1.0323446293641169e-05 -0.034996781498809318 0 -8.0287135007500228e-10 -0.034999966129524558 0 -1.0044747014073873e-07 -0.03499958019025104 0 -0.00017351097613666909 -0.03434897452871867 0 -0.00018405906427629599 -0.034033329579735004 0 6.7850587624037125e-08 -0.034995975805969526 0 -0.00015080821898357351 -0.033695207384869363 0 -0.00018405906427629599 -0.034033329579735004 0 -0.00015080821898357351 -0.033695207384869363 0 -0.00029944196750215587 -0.033342580121249216 0 -0.00015080821898357351 -0.033695207384869363 0 -0.00029944196750215587 -0.033342580121249216 0 -0.00032815537609732771 -0.033140600129385307 0 -0.00017351097613666909 -0.03434897452871867 0 -0.00013452948806110324 -0.034221264580119939 0 -3.1214021310307101e-06 -0.034983849473736825 0 -7.4588376673329518e-10 -0.034999983723437114 0 -1.259171000855534e-06 -0.034985143230090353 0 -0.00013452948806110324 -0.034221264580119939 0 1.9009202417008158e-07 -0.035000441417258776 0 -1.0323446293641169e-05 -0.034996781498809318 0 -2.3411631232964933e-05 -0.03498000727172907 0 -8.0287135007500228e-10 -0.034999966129524558 0 4.6233542646047279e-06 -0.032646178881452437 0 -0.00012459306217022764 -0.032631784668480213 0 -0.00032815537609732771 -0.033140600129385307 0 -0.00022895619033337335 -0.032757559878671391 0 -0.0003205623877004781 -0.032903833905963201 0 -3.1214021310307101e-06 -0.034983849473736825 0 -1.259171000855534e-06 -0.034985143230090353 0 -4.7842074837259665e-06 -0.034974683712016542 0 -1.1936680213274416e-06 -0.033596449224876521 0 1.6452069115295804e-06 -0.033585622162595113 0 4.762973895229294e-07 -0.033592161359507301 0 -0.00013452948806110324 -0.034221264580119939 0 4.6233542646047279e-06 -0.032646178881452437 0 -0.00013452948806110324 -0.034221264580119939 0 7.577880740238271e-05 -0.034348038100965567 0 -0.00029944196750215587 -0.033342580121249216 0 -0.00032815537609732771 -0.033140600129385307 0 -0.0003205623877004781 -0.032903833905963201 0 -0.00029944196750215587 -0.033342580121249216 0 -0.0003205623877004781 -0.032903833905963201 0 -0.00026016080790674558 -0.032984264633028788 0 -0.0003205623877004781 -0.032903833905963201 0 -0.00023592376350045215 -0.032396813883436973 0 -0.00026016080790674558 -0.032984264633028788 0 -0.00022895619033337335 -0.032757559878671391 0 -0.0003205623877004781 -0.032903833905963201 0 -0.00020668782884067404 -0.032565465066844074 0 -0.0003205623877004781 -0.032903833905963201 0 -0.00020668782884067404 -0.032565465066844074 0 -0.00023592376350045215 -0.032396813883436973 0 -0.00029971302917508125 -0.03273944016133782 0 -0.00020668782884067404 -0.032565465066844074 0 2.9847906408710015e-05 -0.032448854475744936 0 -0.00020668782884067404 -0.032565465066844074 0 -0.00023592376350045215 -0.032396813883436973 0 -8.7949764262908054e-05 -0.03214780743023446 0 -0.00023592376350045215 -0.032396813883436973 0 -0.00011465319002041873 -0.031606104536400302 0 -1.1925577694113756e-06 -0.03158535509803799 0 -0.00023592376350045215 -0.032396813883436973 0 -0.00011465319002041873 -0.031606104536400302 0 -8.7949764262908054e-05 -0.03214780743023446 0 -0.00018405906427629599 -0.034033329579735004 0 -0.00026016080790674558 -0.032984264633028788 0 -1.1925577694113756e-06 -0.03158535509803799 0 -0.00023592376350045215 -0.032396813883436973 0 -0.00026016080790674558 -0.032984264633028788 0 -1.1925577694113756e-06 -0.03158535509803799 0 -0.00011465319002041873 -0.031606104536400302 0 -1.1925577694113756e-06 -0.03158535509803799 0 0.00010146341736366948 -0.02898608346005498 0 -1.1925577694113756e-06 -0.03158535509803799 0 0.00010146341736366948 -0.02898608346005498 0 2.3747052564553441e-06 -0.02703753224882265 0 0.00010146341736366948 -0.02898608346005498 0 0.00050957803943203414 -0.03126304138121834 0 6.4946700779146732e-05 -0.031658570897159684 0 0.00024812713531659707 -0.029064093444242538 0 0.00048794932901090863 -0.030327441527093081 0 0.00010146341736366948 -0.02898608346005498 0 0.00096180148187032682 -0.031249614308941159 0 0.00050957803943203414 -0.03126304138121834 0 0.00050957803943203414 -0.03126304138121834 0 6.4946700779146732e-05 -0.031658570897159684 0 0.00038044399510832203 -0.031931059043933896 0 -0.00011465319002041873 -0.031606104536400302 0 0.00010146341736366948 -0.02898608346005498 0 6.4946700779146732e-05 -0.031658570897159684 0 -0.00011465319002041873 -0.031606104536400302 0 6.4946700779146732e-05 -0.031658570897159684 0 -8.7949764262908054e-05 -0.03214780743023446 0 1.3608582372612129e-06 -0.027030013357072422 0 -6.2123499750441091e-05 -0.025344952417077085 0 -0.00027006852826002014 -0.02537697787695915 0 1.3608582372612129e-06 -0.027030013357072422 0 0.00059109933523312889 -0.024951810380787295 0 -6.2123499750441091e-05 -0.025344952417077085 0 0.00010146341736366948 -0.02898608346005498 0 2.3747052564553441e-06 -0.02703753224882265 0 0.00014480046940597806 -0.028859681273770258 0 -1.1405152524917531e-07 -0.027034175555379954 0 0.00029202731319751614 -0.02663826173765315 0 0.00010146341736366948 -0.02898608346005498 0 0.00017494435027161961 -0.028858711960408786 0 0.00014480046940597806 -0.028859681273770258 0 0.00059109933523312889 -0.024951810380787295 0 0.0003915884455710506 -0.024918499707556489 0 0.00027896147606715579 -0.025228407197802782 0 0.00059109933523312889 -0.024951810380787295 0 0.0003915884455710506 -0.024918499707556489 0 -6.2123499750441091e-05 -0.025344952417077085 0 0.0003915884455710506 -0.024918499707556489 0 -8.870110332935205e-05 -0.024689778510697508 0 -6.2123499750441091e-05 -0.025344952417077085 0 -8.870110332935205e-05 -0.024689778510697508 0 -6.2123499750441091e-05 -0.025344952417077085 0 -0.00046965774367904549 -0.024567048210899313 0 0.0003915884455710506 -0.024918499707556489 0 -8.870110332935205e-05 -0.024689778510697508 0 -0.00017400805993419765 -0.024067896725412662 0 -8.870110332935205e-05 -0.024689778510697508 0 -0.00017400805993419765 -0.024067896725412662 0 -0.00046965774367904549 -0.024567048210899313 0 0.0003915884455710506 -0.024918499707556489 0 0.0008643611964162252 -0.025583241569247909 0 0.0003000456011323599 -0.025461887433106838 0 0.00038792643809961802 -0.024906028008153929 0 0.00035561612752031376 -0.024879872095355141 0 0.0008643611964162252 -0.025583241569247909 0 0.0003000456011323599 -0.025461887433106838 0 0.00043509168069246108 -0.025994349490098666 0 0.00017494435027161961 -0.028858711960408786 0 0.00014480046940597806 -0.028859681273770258 0 0.00017645529236699138 -0.028811164662557572 0 0.00029202731319751614 -0.02663826173765315 0 0.00033486730303952493 -0.029059207456411603 0 0.00059109933523312889 -0.024951810380787295 0 0.00027896147606715579 -0.025228407197802782 0 -0.00044758416592399346 -0.025645342166114846 0 0.0003915884455710506 -0.024918499707556489 0 0.0003000456011323599 -0.025461887433106838 0 0.00027896147606715579 -0.025228407197802782 0 0.0003000456011323599 -0.025461887433106838 0 0.00027896147606715579 -0.025228407197802782 0 -0.00044758416592399346 -0.025645342166114846 0 0.0003000456011323599 -0.025461887433106838 0 4.0203893144180875e-05 -0.025820056166592709 0 -0.00044758416592399346 -0.025645342166114846 0 4.0203893144180875e-05 -0.025820056166592709 0 -0.00026748466084839669 -0.025970216221193696 0 -0.00044758416592399346 -0.025645342166114846 0 4.0203893144180875e-05 -0.025820056166592709 0 -0.00026748466084839669 -0.025970216221193696 0 5.864521960767977e-05 -0.026160086201704433 0 -0.00026748466084839669 -0.025970216221193696 0 5.864521960767977e-05 -0.026160086201704433 0 -0.00014392272024766952 -0.026523009866147626 0 -0.00026748466084839669 -0.025970216221193696 0 -0.00068559994098783643 -0.026679894981948258 0 -0.00014392272024766952 -0.026523009866147626 0 5.864521960767977e-05 -0.026160086201704433 0 0.00036162178385342283 -0.026699190145892338 0 -0.00014392272024766952 -0.026523009866147626 0 5.864521960767977e-05 -0.026160086201704433 0 0.00043509168069246108 -0.025994349490098666 0 0.00036162178385342283 -0.026699190145892338 0 4.0203893144180875e-05 -0.025820056166592709 0 5.864521960767977e-05 -0.026160086201704433 0 0.00043509168069246108 -0.025994349490098666 0 0.0003000456011323599 -0.025461887433106838 0 4.0203893144180875e-05 -0.025820056166592709 0 0.00043509168069246108 -0.025994349490098666 0 0.0008643611964162252 -0.025583241569247909 0 0.00043509168069246108 -0.025994349490098666 0 0.0013515103454358344 -0.02644135762729009 0 0.00043509168069246108 -0.025994349490098666 0 0.00036162178385342283 -0.026699190145892338 0 0.0013515103454358344 -0.02644135762729009 0 0.00035561612752031376 -0.024879872095355141 0 0.00042112992909022263 -0.024983552089615686 0 0.00025933411132837171 -0.032205232322752658 0 2.9847906408710015e-05 -0.032448854475744936 0 0.00076374843230288768 -0.032770096610569739 0 -0.00020668782884067404 -0.032565465066844074 0 2.9847906408710015e-05 -0.032448854475744936 0 -8.7949764262908054e-05 -0.03214780743023446 0 0.00025933411132837171 -0.032205232322752658 0 2.9847906408710015e-05 -0.032448854475744936 0 -8.7949764262908054e-05 -0.03214780743023446 0 6.4946700779146732e-05 -0.031658570897159684 0 0.00025933411132837171 -0.032205232322752658 0 -8.7949764262908054e-05 -0.03214780743023446 0 6.4946700779146732e-05 -0.031658570897159684 0 0.00025933411132837171 -0.032205232322752658 0 0.00038044399510832203 -0.031931059043933896 0 0.00068317897214058808 -0.03202855377647023 0 0.0002269367965981294 -0.031038007988012099 0 0.00096180148187032682 -0.031249614308941159 0 0.00050957803943203414 -0.03126304138121834 0 0.00088371046913759456 -0.032378038716889108 0 0.00050957803943203414 -0.03126304138121834 0 0.00038044399510832203 -0.031931059043933896 0 0.00076120950832873457 -0.032693960863902 0 0.00050957803943203414 -0.03126304138121834 0 0.00088371046913759456 -0.032378038716889108 0 0.00073979992970944211 -0.032654545880634683 0 0.00048794932901090863 -0.030327441527093081 0 0.00033486730303952493 -0.029059207456411603 0 0.00025933411132837171 -0.032205232322752658 0 0.00038044399510832203 -0.031931059043933896 0 0.00076120950832873457 -0.032693960863902 0 0.00025933411132837171 -0.032205232322752658 0 0.00076120950832873457 -0.032693960863902 0 0.00076374843230288768 -0.032770096610569739 0 -0.00026748466084839669 -0.025970216221193696 0 -0.00044758416592399346 -0.025645342166114846 0 -0.00048873287654459436 -0.025964563810591049 0 0.00033486730303952493 -0.029059207456411603 0 -0.0001881424615900305 -0.028726159843821559 0 0.00033486730303952493 -0.029059207456411603 0 0.0002269367965981294 -0.031038007988012099 0 0.00045016697658426116 -0.029364243985592516 0 0.00016981623354345851 -0.029883436565566718 0 0.00042580076471724287 -0.030062669381171671 0 0.00016981623354345851 -0.029883436565566718 0 0.00019323069345910247 -0.030067165899946485 0 0.00042580076471724287 -0.030062669381171671 0 0.0002269367965981294 -0.031038007988012099 0 -1.9622055973843625e-05 -0.030188025691842368 0 -1.9622055973843625e-05 -0.030188025691842368 0 -0.0001881424615900305 -0.028726159843821559 0 -0.00028073386611818788 -0.028038504394078807 0 -0.0001881424615900305 -0.028726159843821559 0 -1.9622055973843625e-05 -0.030188025691842368 0 -0.00059243637986310181 -0.028399184213643725 0 -0.00026748466084839669 -0.025970216221193696 0 -0.00058082817437769124 -0.025975044860312813 0 -0.00068559994098783643 -0.026679894981948258 0 -0.0001881424615900305 -0.028726159843821559 0 -0.00059243637986310181 -0.028399184213643725 0 -0.00043266597316046198 -0.029407330695605891 0 -0.00058204459014928403 -0.029409234447190909 0 -0.00055920631500748963 -0.028479477302418937 0 -1.9622055973843625e-05 -0.030188025691842368 0 -0.00031183860022569005 -0.030627990201832857 0 -0.00063398025118826097 -0.029357653018279459 0 -0.0007125726257981922 -0.029464194119005648 0 -0.00062596810205680351 -0.029451726096364601 0 -9.9027280693844645e-05 -0.031623696839275642 0 0.00016258930188899282 -0.031599798859247796 0 -1.3867168339613538e-05 -0.031717176019941264 0 0.00016258930188899282 -0.031599798859247796 0 -1.3867168339613538e-05 -0.031717176019941264 0 8.224368650766539e-05 -0.031739175770641066 0 4.6233542646047279e-06 -0.032646178881452437 0 -1.9622055973843625e-05 -0.030188025691842368 0 -0.00029971302917508125 -0.03273944016133782 0 2.9847906408710015e-05 -0.032448854475744936 0 0.00076374843230288768 -0.032770096610569739 0 -1.3867168339613538e-05 -0.031717176019941264 0 1.1034191609042834e-05 -0.031871983982678771 0 -9.2976110235202638e-05 -0.031808415174360845 0 -1.3867168339613538e-05 -0.031717176019941264 0 8.224368650766539e-05 -0.031739175770641066 0 1.1034191609042834e-05 -0.031871983982678771 0 -0.00029627587154313701 -0.031005236991811326 0 1.2318669577976804e-05 -0.033478261818404915 0 -0.00031183860022569005 -0.030627990201832857 0 -0.00029627587154313701 -0.031005236991811326 0 -0.0007125726257981922 -0.029464194119005648 0 -0.00071141973249719379 -0.029572387811866663 0 -0.00079095946235283217 -0.029584750159452534 0 -0.0007125726257981922 -0.029464194119005648 0 -0.00062596810205680351 -0.029451726096364601 0 -0.00067079461287037365 -0.029549462432245852 0 -0.00068559994098783643 -0.026679894981948258 0 -0.00069702726507533865 -0.027782066025141799 0 -0.00015571781599466324 -0.027162405011836751 0 -0.00059243637986310181 -0.028399184213643725 0 -0.00062969397430681466 -0.028444986798560647 0 -0.0007125726257981922 -0.029464194119005648 0 -0.00067079461287037365 -0.029549462432245852 0 -0.00071141973249719379 -0.029572387811866663 0 -0.00067079461287037365 -0.029549462432245852 0 -0.00071141973249719379 -0.029572387811866663 0 -0.00062508415558249343 -0.029716440227127234 0 -0.00062596810205680351 -0.029451726096364601 0 -0.00067079461287037365 -0.029549462432245852 0 -0.00062508415558249343 -0.029716440227127234 0 -0.00059499706858476059 -0.028897029810812158 0 -0.00053744384018816836 -0.029327791155239376 0 -0.00061036040615308393 -0.029516717267067734 0 -0.00059243637986310181 -0.028399184213643725 0 -0.00061786912617411689 -0.029807854000327927 0 -0.00071141973249719379 -0.029572387811866663 0 -0.00071046583270770387 -0.029648427345345181 0 -0.00062508415558249343 -0.029716440227127234 0 -0.00071046583270770387 -0.029648427345345181 0 -0.0007013218616310382 -0.029707528313011402 0 -0.00062508415558249343 -0.029716440227127234 0 -0.00041086214925543289 -0.032345117412668961 0 -0.0002476342184912688 -0.032034261596601082 0 -0.00022871454715274619 -0.032470386078456565 0 -0.00029627587154313701 -0.031005236991811326 0 -0.00050449518553682428 -0.032231482789101186 0 -0.00077590923617423607 -0.029696924943908756 0 -0.00079095946235283217 -0.029584750159452534 0 -0.00095280910347325871 -0.029764252523776635 0 -0.00071046583270770387 -0.029648427345345181 0 -0.00077590923617423607 -0.029696924943908756 0 -0.0007013218616310382 -0.029707528313011402 0 -0.00071046583270770387 -0.029648427345345181 0 -0.00077590923617423607 -0.029696924943908756 0 -0.00079095946235283217 -0.029584750159452534 0 -0.00071141973249719379 -0.029572387811866663 0 -0.00071046583270770387 -0.029648427345345181 0 -0.00079095946235283217 -0.029584750159452534 0 0.0010537873821011626 -0.027182021588585976 0 0.00036162178385342283 -0.026699190145892338 0 0.0013515103454358344 -0.02644135762729009 0 0.0010537873821011626 -0.027182021588585976 0 0.00036162178385342283 -0.026699190145892338 0 0.00043377253854411438 -0.027404585201436647 0 0.00036162178385342283 -0.026699190145892338 0 -0.00015571781599466324 -0.027162405011836751 0 0.00043377253854411438 -0.027404585201436647 0 0.00036162178385342283 -0.026699190145892338 0 -0.00014392272024766952 -0.026523009866147626 0 -0.00015571781599466324 -0.027162405011836751 0 -0.00068559994098783643 -0.026679894981948258 0 -0.00014392272024766952 -0.026523009866147626 0 -0.00015571781599466324 -0.027162405011836751 0 -0.00069702726507533865 -0.027782066025141799 0 -0.00015571781599466324 -0.027162405011836751 0 -2.8549354982309485e-05 -0.027973741704628706 0 -0.00069702726507533865 -0.027782066025141799 0 -2.8549354982309485e-05 -0.027973741704628706 0 -0.00045855760048260457 -0.028365847542286819 0 -0.00015571781599466324 -0.027162405011836751 0 -2.8549354982309485e-05 -0.027973741704628706 0 0.00043377253854411438 -0.027404585201436647 0 0.0010537873821011626 -0.027182021588585976 0 0.00043377253854411438 -0.027404585201436647 0 0.00086201004820597033 -0.028074368633574463 0 -2.8549354982309485e-05 -0.027973741704628706 0 0.00043377253854411438 -0.027404585201436647 0 0.00086201004820597033 -0.028074368633574463 0 -0.00019660236317550899 -0.028623367016591243 0 -0.00021640939890075318 -0.028834600743367765 0 -0.00039264036219390208 -0.028800620522873466 0 0.00042869702188249773 -0.028463431980650794 0 -0.00035750994103863389 -0.028750605117175733 0 -0.00019660236317550899 -0.028623367016591243 0 -0.00021640939890075318 -0.028834600743367765 0 -0.00026887506485325391 -0.028496260857264099 0 -0.00021640939890075318 -0.028834600743367765 0 -0.00039264036219390208 -0.028800620522873466 0 -0.00034013186531906133 -0.029010787069467237 0 -0.00069702726507533865 -0.027782066025141799 0 -0.00045855760048260457 -0.028365847542286819 0 -0.00068715362760457218 -0.028890662935063916 0 -2.8549354982309485e-05 -0.027973741704628706 0 0.00086201004820597033 -0.028074368633574463 0 -0.00039264036219390208 -0.028800620522873466 0 -2.8549354982309485e-05 -0.027973741704628706 0 -0.00045855760048260457 -0.028365847542286819 0 -0.00039264036219390208 -0.028800620522873466 0 -0.00045855760048260457 -0.028365847542286819 0 -0.00039264036219390208 -0.028800620522873466 0 -0.00068715362760457218 -0.028890662935063916 0 -0.00039264036219390208 -0.028800620522873466 0 -0.00068715362760457218 -0.028890662935063916 0 -0.00034013186531906133 -0.029010787069467237 0 -0.00057840266339434293 -0.029330856744888761 0 -0.00052432866818199456 -0.029821871396202917 0 -0.00068715362760457218 -0.028890662935063916 0 -0.00042876192541019937 -0.029329136624808939 0 -0.00051487444880210672 -0.02988608537866945 0 -0.00068715362760457218 -0.028890662935063916 0 -0.00034013186531906133 -0.029010787069467237 0 -0.00042876192541019937 -0.029329136624808939 0 -0.00033379498707559487 -0.029587094930717785 0 -0.00042876192541019937 -0.029329136624808939 0 -0.00025998394249656206 -0.029272856960476809 0 -0.00033379498707559487 -0.029587094930717785 0 -0.00042876192541019937 -0.029329136624808939 0 -0.00051487444880210672 -0.02988608537866945 0 -0.00034013186531906133 -0.029010787069467237 0 -0.00042876192541019937 -0.029329136624808939 0 -0.00025998394249656206 -0.029272856960476809 0 -0.00021640939890075318 -0.028834600743367765 0 -0.00025998394249656206 -0.029272856960476809 0 -0.00015402325710725645 -0.029300100661266947 0 -0.00021640939890075318 -0.028834600743367765 0 -0.00034013186531906133 -0.029010787069467237 0 -0.00025998394249656206 -0.029272856960476809 0 -0.00025998394249656206 -0.029272856960476809 0 -0.00015402325710725645 -0.029300100661266947 0 -0.00022103584393476754 -0.029581289412905738 0 -0.00033379498707559487 -0.029587094930717785 0 -0.00025998394249656206 -0.029272856960476809 0 -0.00022103584393476754 -0.029581289412905738 0 -0.00077590923617423607 -0.029696924943908756 0 -0.00070089916095088071 -0.029769561865327775 0 -0.00080534843389009562 -0.029875922278929073 0 -0.00077590923617423607 -0.029696924943908756 0 -0.00080534843389009562 -0.029875922278929073 0 -0.00095280910347325871 -0.029764252523776635 0 -0.00070089916095088071 -0.029769561865327775 0 -0.00066638920008958735 -0.029864520944476308 0 -0.00080534843389009562 -0.029875922278929073 0 -0.00077590923617423607 -0.029696924943908756 0 -0.0007013218616310382 -0.029707528313011402 0 -0.00070089916095088071 -0.029769561865327775 0 -0.0007013218616310382 -0.029707528313011402 0 -0.00070089916095088071 -0.029769561865327775 0 -0.00062508415558249343 -0.029716440227127234 0 -0.00053744384018816836 -0.029327791155239376 0 -0.00049538722584282807 -0.029716375248427518 0 -0.00061036040615308393 -0.029516717267067734 0 -0.00049538722584282807 -0.029716375248427518 0 -0.00061036040615308393 -0.029516717267067734 0 -0.00057460579681684 -0.029999783676408726 0 -0.00062969397430681466 -0.028444986798560647 0 -0.00057840266339434293 -0.029330856744888761 0 -0.00070089916095088071 -0.029769561865327775 0 -0.00062508415558249343 -0.029716440227127234 0 -0.00066638920008958735 -0.029864520944476308 0 -0.00061786912617411689 -0.029807854000327927 0 -0.00058111125844118874 -0.029900624036936094 0 -0.00049538722584282807 -0.029716375248427518 0 -0.00057460579681684 -0.029999783676408726 0 -0.00051487444880210672 -0.02988608537866945 0 -0.00062508415558249343 -0.029716440227127234 0 -0.00066638920008958735 -0.029864520944476308 0 -0.00057460579681684 -0.029999783676408726 0 -0.00066638920008958735 -0.029864520944476308 0 -0.00057460579681684 -0.029999783676408726 0 -0.00067838056118579794 -0.029980958194840143 0 -0.00057460579681684 -0.029999783676408726 0 -0.00067838056118579794 -0.029980958194840143 0 -0.00064478754144262952 -0.030223419087393427 0 -0.00078721139776267773 -0.030070511310012468 0 -0.00080534843389009562 -0.029875922278929073 0 -0.0010800246734079561 -0.030213639359913749 0 -0.00080534843389009562 -0.029875922278929073 0 -0.00095280910347325871 -0.029764252523776635 0 -0.0010800246734079561 -0.030213639359913749 0 -0.00067838056118579794 -0.029980958194840143 0 -0.00078721139776267773 -0.030070511310012468 0 -0.00064478754144262952 -0.030223419087393427 0 -0.00067838056118579794 -0.029980958194840143 0 -0.00078721139776267773 -0.030070511310012468 0 -0.00080534843389009562 -0.029875922278929073 0 -0.00066638920008958735 -0.029864520944476308 0 -0.00067838056118579794 -0.029980958194840143 0 -0.00080534843389009562 -0.029875922278929073 0 8.2256711696097784e-07 -0.034965538172372669 0 -3.5943969109663929e-06 -0.034950439369648326 0 -1.3880463765205996e-06 -0.034968341942991941 0 -0.00050449518553682428 -0.032231482789101186 0 -0.00094514273281361182 -0.030596071073068474 0 -0.00038893367886388118 -0.033530122288907775 0 -0.00050449518553682428 -0.032231482789101186 0 -0.00069777025546165499 -0.031663766098424244 0 -0.00074793015733513673 -0.031782398956514489 0 -0.00075538619780302801 -0.031646956570718039 0 -3.5943969109663929e-06 -0.034950439369648326 0 -1.3880463765205996e-06 -0.034968341942991941 0 -2.6440892251194727e-06 -0.03496958526282766 0 -1.3880463765205996e-06 -0.034968341942991941 0 -7.0676700093937446e-07 -0.034983109291853623 0 -2.6440892251194727e-06 -0.03496958526282766 0 8.2256711696097784e-07 -0.034965538172372669 0 -1.3880463765205996e-06 -0.034968341942991941 0 -4.747732250424659e-07 -0.034982690522144221 0 -4.747732250424659e-07 -0.034982690522144221 0 -6.6744052636434466e-10 -0.034999979211046854 0 -4.3810142593324947e-10 -0.034999981005242417 0 -4.747732250424659e-07 -0.034982690522144221 0 -6.6744052636434466e-10 -0.034999979211046854 0 -7.0676700093937446e-07 -0.034983109291853623 0 -1.3880463765205996e-06 -0.034968341942991941 0 -4.747732250424659e-07 -0.034982690522144221 0 -7.0676700093937446e-07 -0.034983109291853623 0 -7.0676700093937446e-07 -0.034983109291853623 0 -1.259171000855534e-06 -0.034985143230090353 0 -2.6440892251194727e-06 -0.03496958526282766 0 -7.0676700093937446e-07 -0.034983109291853623 0 3.9587204160696981e-10 -0.034999981320594196 0 -1.259171000855534e-06 -0.034985143230090353 0 -6.6744052636434466e-10 -0.034999979211046854 0 -7.0676700093937446e-07 -0.034983109291853623 0 3.9587204160696981e-10 -0.034999981320594196 0 -7.4588376673329518e-10 -0.034999983723437114 0 3.9587204160696981e-10 -0.034999981320594196 0 -1.259171000855534e-06 -0.034985143230090353 0 -1.259171000855534e-06 -0.034985143230090353 0 -4.7842074837259665e-06 -0.034974683712016542 0 -2.6440892251194727e-06 -0.03496958526282766 0 4.6233542646047279e-06 -0.032646178881452437 0 1.2318669577976804e-05 -0.033478261818404915 0 -9.9027280693844645e-05 -0.031623696839275642 0 -1.3867168339613538e-05 -0.031717176019941264 0 -9.2976110235202638e-05 -0.031808415174360845 0 1.6452069115295804e-06 -0.033585622162595113 0 4.762973895229294e-07 -0.033592161359507301 0 1.9042168775367129e-06 -0.033590359120014054 0 7.577880740238271e-05 -0.034348038100965567 0 1.2318669577976804e-05 -0.033478261818404915 0 -4.7842074837259665e-06 -0.034974683712016542 0 -8.1306171856079339e-06 -0.034960331114682781 0 -2.6440892251194727e-06 -0.03496958526282766 0 -0.00050449518553682428 -0.032231482789101186 0 1.2318669577976804e-05 -0.033478261818404915 0 -3.5943969109663929e-06 -0.034950439369648326 0 -8.1306171856079339e-06 -0.034960331114682781 0 -2.6440892251194727e-06 -0.03496958526282766 0 0.002273254999745994 -0.023502670025846127 0 0.0012587105301378012 -0.02335846790035281 0 0.0018604119477076302 -0.02299026501517441 0 0.002273254999745994 -0.023502670025846127 0 0.0012587105301378012 -0.02335846790035281 0 0.0017533184884410441 -0.024212679492921708 0 0.0021895653061346641 -0.023466297404530212 0 0.000956088195400869 -0.023515018921646747 0 0.002273254999745994 -0.023502670025846127 0 0.0021555134402940655 -0.023805422415472725 0 0.0023677065460025667 -0.023817411730583965 0 0.0016520497342261482 -0.024033751438638205 0 0.000956088195400869 -0.023515018921646747 0 0.0018239506160979057 -0.024215468490240998 0 0.00099413394590839709 -0.025638799236999851 0 0.0024284077779963839 -0.025325743923184128 0 0.0012587105301378012 -0.02335846790035281 0 0.00082060920899840357 -0.022813628379796787 0 0.0014046229888218065 -0.022680218048483924 0 0.0018239506160979057 -0.024215468490240998 0 0.00082060920899840357 -0.022813628379796787 0 0.0004345565317133442 -0.024366118805805883 0 0.0012587105301378012 -0.02335846790035281 0 0.0014046229888218065 -0.022680218048483924 0 0.0018604119477076302 -0.02299026501517441 0 0.0016520497342261482 -0.024033751438638205 0 0.00088761650266642523 -0.022828320551999234 0 0.0014046229888218065 -0.022680218048483924 0 0.0018604119477076302 -0.02299026501517441 0 0.002041856095365262 -0.022405697048892094 0 0.002273254999745994 -0.023502670025846127 0 0.0018604119477076302 -0.02299026501517441 0 0.0023693998887359216 -0.023044733337501625 0 0.0018604119477076302 -0.02299026501517441 0 0.0023693998887359216 -0.023044733337501625 0 0.002041856095365262 -0.022405697048892094 0 0.0023693998887359216 -0.023044733337501625 0 0.002041856095365262 -0.022405697048892094 0 0.0027309815123219422 -0.0225423592449332 0 0.002041856095365262 -0.022405697048892094 0 0.0013793305156650816 -0.021806189588963729 0 0.0024631730305447797 -0.020949309571937181 0 0.002041856095365262 -0.022405697048892094 0 0.0024631730305447797 -0.020949309571937181 0 0.0027309815123219422 -0.0225423592449332 0 0.0014046229888218065 -0.022680218048483924 0 0.002041856095365262 -0.022405697048892094 0 0.0013793305156650816 -0.021806189588963729 0 0.0013793305156650816 -0.021806189588963729 0 0.0024631730305447797 -0.020949309571937181 0 4.140629017870862e-06 -0.018912825798492384 0 0.0012810132046927949 -0.01900754392574952 0 7.0298665238242643e-08 -0.018908102645855844 0 0.00013684223466882132 -0.016861637830122032 0 8.267646069428796e-07 -0.018906791437090474 0 -2.0640745365964327e-07 -0.017292546218963284 0 0.0013793305156650816 -0.021806189588963729 0 4.140629017870862e-06 -0.018912825798492384 0 0.00036793562550991362 -0.021176415027464097 0 4.140629017870862e-06 -0.018912825798492384 0 0.00036793562550991362 -0.021176415027464097 0 -3.3695971333057242e-05 -0.020482105524202966 0 0.00082060920899840357 -0.022813628379796787 0 0.0013793305156650816 -0.021806189588963729 0 0.00036793562550991362 -0.021176415027464097 0 0.00082060920899840357 -0.022813628379796787 0 0.0014046229888218065 -0.022680218048483924 0 0.0013793305156650816 -0.021806189588963729 0 0.00082060920899840357 -0.022813628379796787 0 0.00036793562550991362 -0.021176415027464097 0 -8.687799294726392e-06 -0.022009954516889748 0 0.00082060920899840357 -0.022813628379796787 0 -8.687799294726392e-06 -0.022009954516889748 0 8.0495084503911458e-05 -0.023220193782299701 0 -8.687799294726392e-06 -0.022009954516889748 0 -0.00039515202759223499 -0.02261834092443904 0 8.0495084503911458e-05 -0.023220193782299701 0 0.00036793562550991362 -0.021176415027464097 0 -8.687799294726392e-06 -0.022009954516889748 0 -3.3695971333057242e-05 -0.020482105524202966 0 -8.687799294726392e-06 -0.022009954516889748 0 -3.3695971333057242e-05 -0.020482105524202966 0 -0.00052175836907979796 -0.022059354059531272 0 4.140629017870862e-06 -0.018912825798492384 0 -3.3695971333057242e-05 -0.020482105524202966 0 -1.5736816392857216e-06 -0.020939612077884119 0 -0.00052175836907979796 -0.022059354059531272 0 -0.00084345082027196205 -0.022919780178898324 0 -0.00097941882194134714 -0.022413802305382417 0 -3.3695971333057242e-05 -0.020482105524202966 0 -0.00052175836907979796 -0.022059354059531272 0 -0.00097941882194134714 -0.022413802305382417 0 -3.3695971333057242e-05 -0.020482105524202966 0 -1.5736816392857216e-06 -0.020939612077884119 0 8.3524857964768332e-07 -0.022101106256658756 0 -2.6864519436250481e-05 -0.020806072046756472 0 -0.0004849134024481415 -0.022215051425701671 0 -0.00039515202759223499 -0.02261834092443904 0 -0.00061169870970113882 -0.024185219187101852 0 -0.00084345082027196205 -0.022919780178898324 0 -0.00052175836907979796 -0.022059354059531272 0 -0.00039515202759223499 -0.02261834092443904 0 -0.00084345082027196205 -0.022919780178898324 0 -8.687799294726392e-06 -0.022009954516889748 0 -0.00052175836907979796 -0.022059354059531272 0 -0.00039515202759223499 -0.02261834092443904 0 8.0495084503911458e-05 -0.023220193782299701 0 0.0004345565317133442 -0.024366118805805883 0 -0.00061169870970113882 -0.024185219187101852 0 -0.00039515202759223499 -0.02261834092443904 0 8.0495084503911458e-05 -0.023220193782299701 0 -0.00061169870970113882 -0.024185219187101852 0 0.00082060920899840357 -0.022813628379796787 0 8.0495084503911458e-05 -0.023220193782299701 0 0.0004345565317133442 -0.024366118805805883 0 0.0018239506160979057 -0.024215468490240998 0 0.0004345565317133442 -0.024366118805805883 0 0.00099413394590839709 -0.025638799236999851 0 0.0004345565317133442 -0.024366118805805883 0 -0.00061169870970113882 -0.024185219187101852 0 -0.00010786585701576081 -0.025869263919364737 0 -0.00061169870970113882 -0.024185219187101852 0 -0.0010688325886273916 -0.023913756523378273 0 -0.0010227976328107411 -0.0239219169777702 0 -0.000510291416983271 -0.024273405426192777 0 -0.0011082588714203111 -0.02463300459707737 0 -0.00061169870970113882 -0.024185219187101852 0 -0.0010307219477559296 -0.02586583851822901 0 -0.00010786585701576081 -0.025869263919364737 0 -0.0010688325886273916 -0.023913756523378273 0 -0.00085396860474303373 -0.023894517450787855 0 -0.0010227976328107411 -0.0239219169777702 0 -0.0010688325886273916 -0.023913756523378273 0 -0.001106606547951671 -0.023815795318231699 0 -0.0009244485457961725 -0.024063251681797085 0 -0.0010688325886273916 -0.023913756523378273 0 -0.0010832411543760549 -0.023500510639617084 0 -0.001106606547951671 -0.023815795318231699 0 -0.00061169870970113882 -0.024185219187101852 0 -0.0010688325886273916 -0.023913756523378273 0 -0.0010832411543760549 -0.023500510639617084 0 -0.00061169870970113882 -0.024185219187101852 0 -0.0010832411543760549 -0.023500510639617084 0 -0.00084345082027196205 -0.022919780178898324 0 -0.0010832411543760549 -0.023500510639617084 0 -0.0011101044148167727 -0.023318805472091239 0 -0.00084345082027196205 -0.022919780178898324 0 -1.5736816392857216e-06 -0.020939612077884119 0 8.3524857964768332e-07 -0.022101106256658756 0 7.935829797741699e-07 -0.022971216929020436 0 -0.0011101044148167727 -0.023318805472091239 0 -0.00097941882194134714 -0.022413802305382417 0 -0.0011771181488106895 -0.023932225096489963 0 -0.0011101044148167727 -0.023318805472091239 0 -0.00084345082027196205 -0.022919780178898324 0 -0.00097941882194134714 -0.022413802305382417 0 7.935829797741699e-07 -0.022971216929020436 0 4.5570036088448714e-06 -0.023996498678545464 0 -1.4541531960785685e-06 -0.02500270590965804 0 8.3524857964768332e-07 -0.022101106256658756 0 7.935829797741699e-07 -0.022971216929020436 0 4.5570036088448714e-06 -0.023996498678545464 0 -0.0004849134024481415 -0.022215051425701671 0 -0.00058351699377787213 -0.023975202648599751 0 -0.0011101044148167727 -0.023318805472091239 0 -0.0011771181488106895 -0.023932225096489963 0 -0.001106606547951671 -0.023815795318231699 0 -0.0010832411543760549 -0.023500510639617084 0 -0.0011101044148167727 -0.023318805472091239 0 -0.001106606547951671 -0.023815795318231699 0 -0.0011771181488106895 -0.023932225096489963 0 -0.001106606547951671 -0.023815795318231699 0 -0.00086349677059045164 -0.024332840951040796 0 -0.001106606547951671 -0.023815795318231699 0 -0.00086349677059045164 -0.024332840951040796 0 -0.0009244485457961725 -0.024063251681797085 0 -0.00086349677059045164 -0.024332840951040796 0 -0.00046965774367904549 -0.024567048210899313 0 -0.0009244485457961725 -0.024063251681797085 0 -0.00058351699377787213 -0.023975202648599751 0 -0.00029118390626834437 -0.025116135542879371 0 4.5570036088448714e-06 -0.023996498678545464 0 -1.4541531960785685e-06 -0.02500270590965804 0 -0.00027006852826002014 -0.02537697787695915 0 -0.0011771181488106895 -0.023932225096489963 0 -0.00086349677059045164 -0.024332840951040796 0 -0.00027006852826002014 -0.02537697787695915 0 1.3608582372612129e-06 -0.027030013357072422 0 -1.4541531960785685e-06 -0.02500270590965804 0 -0.00027006852826002014 -0.02537697787695915 0 -6.2123499750441091e-05 -0.025344952417077085 0 -0.00027006852826002014 -0.02537697787695915 0 -0.00046965774367904549 -0.024567048210899313 0 -0.00086349677059045164 -0.024332840951040796 0 -0.00027006852826002014 -0.02537697787695915 0 -0.00046965774367904549 -0.024567048210899313 0 -0.00046965774367904549 -0.024567048210899313 0 -0.00062698767899055385 -0.024024389486592412 0 -0.0009244485457961725 -0.024063251681797085 0 -0.00017400805993419765 -0.024067896725412662 0 -0.00046965774367904549 -0.024567048210899313 0 -0.00062698767899055385 -0.024024389486592412 0 -0.0010688325886273916 -0.023913756523378273 0 -0.0009244485457961725 -0.024063251681797085 0 -0.00085396860474303373 -0.023894517450787855 0 -0.00062698767899055385 -0.024024389486592412 0 -0.0009244485457961725 -0.024063251681797085 0 -0.00085396860474303373 -0.023894517450787855 0 -0.00062698767899055385 -0.024024389486592412 0 -0.00085396860474303373 -0.023894517450787855 0 -0.00056059967061751449 -0.023772084930966504 0 -0.00017400805993419765 -0.024067896725412662 0 -0.00062698767899055385 -0.024024389486592412 0 -0.00056059967061751449 -0.023772084930966504 0 0.0010537873821011626 -0.027182021588585976 0 0.0013515103454358344 -0.02644135762729009 0 0.0018684117841524363 -0.027380251536695759 0 0.00042112992909022263 -0.024983552089615686 0 -0.00039568864515798378 -0.026657232524806548 0 -0.00085396860474303373 -0.023894517450787855 0 -0.00056059967061751449 -0.023772084930966504 0 -0.00073686844382271361 -0.023618759731857737 0 -0.00039568864515798378 -0.026657232524806548 0 -0.0011082588714203111 -0.02463300459707737 0 -0.0017826295097003223 -0.026879318170862945 0 -0.00094053412120855353 -0.026950759724824507 0 -0.0010307219477559296 -0.02586583851822901 0 -0.00085396860474303373 -0.023894517450787855 0 -0.00073686844382271361 -0.023618759731857737 0 -0.0010227976328107411 -0.0239219169777702 0 -0.00041672656756285416 -0.028727270781297224 0 -0.00026887506485325391 -0.028496260857264099 0 -0.00075790005950166558 -0.028134532803272366 0 -0.00039568864515798378 -0.026657232524806548 0 -0.00084699788211420595 -0.028421924479474132 0 -0.0017826295097003223 -0.026879318170862945 0 -0.00075790005950166558 -0.028134532803272366 0 -0.00094053412120855353 -0.026950759724824507 0 0.0010537873821011626 -0.027182021588585976 0 0.00086201004820597033 -0.028074368633574463 0 0.0018684117841524363 -0.027380251536695759 0 -0.00019660236317550899 -0.028623367016591243 0 -0.00041672656756285416 -0.028727270781297224 0 -0.00026887506485325391 -0.028496260857264099 0 0.00042869702188249773 -0.028463431980650794 0 -0.00039568864515798378 -0.026657232524806548 0 -0.00026887506485325391 -0.028496260857264099 0 -8.7813335964941232e-05 -0.028735115330325776 0 -0.00075790005950166558 -0.028134532803272366 0 -0.00021640939890075318 -0.028834600743367765 0 -0.00026887506485325391 -0.028496260857264099 0 -8.7813335964941232e-05 -0.028735115330325776 0 -0.00021640939890075318 -0.028834600743367765 0 -8.7813335964941232e-05 -0.028735115330325776 0 -0.00015402325710725645 -0.029300100661266947 0 -8.7813335964941232e-05 -0.028735115330325776 0 -0.00075790005950166558 -0.028134532803272366 0 -0.00047144244494976467 -0.028266971500581797 0 -0.00047144244494976467 -0.028266971500581797 0 -0.00041088975912634534 -0.027221684659546424 0 0.00044232780795565996 -0.027870028756849994 0 -0.00075790005950166558 -0.028134532803272366 0 -0.00047144244494976467 -0.028266971500581797 0 -0.00041088975912634534 -0.027221684659546424 0 -0.00047144244494976467 -0.028266971500581797 0 0.00044232780795565996 -0.027870028756849994 0 -9.0027564332985314e-05 -0.028425866196834317 0 -0.00075790005950166558 -0.028134532803272366 0 -0.00041088975912634534 -0.027221684659546424 0 -0.00094053412120855353 -0.026950759724824507 0 -0.00041088975912634534 -0.027221684659546424 0 -0.00094053412120855353 -0.026950759724824507 0 -0.0010307219477559296 -0.02586583851822901 0 -0.00041088975912634534 -0.027221684659546424 0 -0.0010307219477559296 -0.02586583851822901 0 -0.00010786585701576081 -0.025869263919364737 0 -0.00010786585701576081 -0.025869263919364737 0 0.00099413394590839709 -0.025638799236999851 0 0.00036600109287206797 -0.026884410674457029 0 0.0004345565317133442 -0.024366118805805883 0 -0.00010786585701576081 -0.025869263919364737 0 0.00099413394590839709 -0.025638799236999851 0 0.00099413394590839709 -0.025638799236999851 0 0.00036600109287206797 -0.026884410674457029 0 0.0013259878476765987 -0.026821507128219697 0 -0.00041088975912634534 -0.027221684659546424 0 -0.00010786585701576081 -0.025869263919364737 0 0.00036600109287206797 -0.026884410674457029 0 -0.00041088975912634534 -0.027221684659546424 0 0.00036600109287206797 -0.026884410674457029 0 0.00044232780795565996 -0.027870028756849994 0 -0.00081509892884974364 -0.024018912986338823 0 -0.0013880259607945253 -0.024273905689991045 0 -0.0020882957872299717 -0.02003077816366533 0 -0.0016788523361924792 -0.020024443767233908 0 -0.0019633267686267764 -0.020623365555358257 0 -0.00081509892884974364 -0.024018912986338823 0 -0.00024076951326409277 -0.023120480632593438 0 -0.0020882957872299717 -0.02003077816366533 0 -0.0016788523361924792 -0.020024443767233908 0 -0.0017113828034495643 -0.019793014139230684 0 0.00036600109287206797 -0.026884410674457029 0 0.00044232780795565996 -0.027870028756849994 0 0.0013259878476765987 -0.026821507128219697 0 -0.0016788523361924792 -0.020024443767233908 0 -0.0015668625704307641 -0.019855384904685587 0 -0.0017113828034495643 -0.019793014139230684 0 -0.0014559252342939296 -0.019276485060408525 0 -0.0014673493089245914 -0.020210633572103578 0 -0.0016788523361924792 -0.020024443767233908 0 -0.001481678380147778 -0.01997937647234253 0 -0.0014605360312139053 -0.020214355149208395 0 -0.0012949494994040404 -0.018882186804323856 0 -0.0014605360312139053 -0.020214355149208395 0 -0.00092076768106076439 -0.019627658999497595 0 -0.0014559252342939296 -0.019276485060408525 0 -0.00013632464932731092 -0.019732706824668857 0 -0.0016788523361924792 -0.020024443767233908 0 -0.0015668625704307641 -0.019855384904685587 0 -0.001481678380147778 -0.01997937647234253 0 -0.0015668625704307641 -0.019855384904685587 0 -0.001481678380147778 -0.01997937647234253 0 -0.0014531373565929366 -0.019800369740561537 0 -0.0015668625704307641 -0.019855384904685587 0 -0.0014531373565929366 -0.019800369740561537 0 -0.0015245817012175394 -0.019678028837301235 0 -0.0015668625704307641 -0.019855384904685587 0 -0.0017113828034495643 -0.019793014139230684 0 -0.0015245817012175394 -0.019678028837301235 0 -0.00024076951326409277 -0.023120480632593438 0 0.000956088195400869 -0.023515018921646747 0 0.00099413394590839709 -0.025638799236999851 0 0.0013259878476765987 -0.026821507128219697 0 0.0024284077779963839 -0.025325743923184128 0 0.0023338548905472854 -0.024176988051541302 0 0.0021555134402940655 -0.023805422415472725 0 0.0023677065460025667 -0.023817411730583965 0 -0.00013632464932731092 -0.019732706824668857 0 0.000956088195400869 -0.023515018921646747 0 -0.00095808533134686175 -0.021910904936902988 0 -0.0017179403152432426 -0.022386365910478021 0 -0.0012476009035948682 -0.022626675017284544 0 -0.00093722126451900383 -0.021752756868145495 0 -0.0017221109658246412 -0.021985435527676782 0 -0.0017395171213525793 -0.021687086586664552 0 -0.0017974840871991121 -0.021119389950769198 0 -0.0013629752099954709 -0.021012633774172645 0 -0.00098024214966124291 -0.021586253019337621 0 -0.0017395171213525793 -0.021687086586664552 0 -0.0013629752099954709 -0.021012633774172645 0 -0.00098024214966124291 -0.021586253019337621 0 -0.0013629752099954709 -0.021012633774172645 0 -0.00059483525065439757 -0.021163202709759292 0 -0.0013629752099954709 -0.021012633774172645 0 -0.0014605360312139053 -0.020214355149208395 0 -0.00061932442159077464 -0.020618044588642307 0 -0.0014605360312139053 -0.020214355149208395 0 -0.00061932442159077464 -0.020618044588642307 0 -0.00092076768106076439 -0.019627658999497595 0 -0.0016788523361924792 -0.020024443767233908 0 -0.0014605360312139053 -0.020214355149208395 0 -0.0019633267686267764 -0.020623365555358257 0 -0.0017974840871991121 -0.021119389950769198 0 -0.0013629752099954709 -0.021012633774172645 0 -0.0019633267686267764 -0.020623365555358257 0 -0.0013629752099954709 -0.021012633774172645 0 -0.0014605360312139053 -0.020214355149208395 0 -0.0019633267686267764 -0.020623365555358257 0 -0.0020882957872299717 -0.02003077816366533 0 -0.0019633267686267764 -0.020623365555358257 0 -0.0025465664813598722 -0.020523130667981004 0 -0.0019633267686267764 -0.020623365555358257 0 -0.0024885801001420667 -0.021040543489591741 0 -0.0025465664813598722 -0.020523130667981004 0 -0.0019633267686267764 -0.020623365555358257 0 -0.0024885801001420667 -0.021040543489591741 0 -0.0021705163532262334 -0.021315403801559121 0 -0.0024885801001420667 -0.021040543489591741 0 -0.002431421509058198 -0.021409492370864536 0 -0.0026842460172842846 -0.021453478205069553 0 -0.0024885801001420667 -0.021040543489591741 0 -0.002431421509058198 -0.021409492370864536 0 -0.0021705163532262334 -0.021315403801559121 0 -0.0017395171213525793 -0.021687086586664552 0 -0.0017974840871991121 -0.021119389950769198 0 -0.0021705163532262334 -0.021315403801559121 0 -0.0017974840871991121 -0.021119389950769198 0 -0.0019633267686267764 -0.020623365555358257 0 -0.0021705163532262334 -0.021315403801559121 0 -0.0017221109658246412 -0.021985435527676782 0 -0.0022286580094882952 -0.022672304046446819 0 -0.0017395171213525793 -0.021687086586664552 0 -0.0021705163532262334 -0.021315403801559121 0 -0.0023823676078289732 -0.021828030552014772 0 -0.002431421509058198 -0.021409492370864536 0 -0.0026842460172842846 -0.021453478205069553 0 -0.0023823676078289732 -0.021828030552014772 0 -0.002431421509058198 -0.021409492370864536 0 -0.0021705163532262334 -0.021315403801559121 0 -0.0023823676078289732 -0.021828030552014772 0 -0.0022400515506379825 -0.023119721258794156 0 -0.0021995837203637033 -0.0230208080032747 0 -0.0022064747640052067 -0.023020457819333994 0 -0.0029114461331770807 -0.021659149650202967 0 -0.0022286580094882952 -0.022672304046446819 0 -0.0022400515506379825 -0.023119721258794156 0 -0.0022138066116806645 -0.02305857282319386 0 -0.0021995837203637033 -0.0230208080032747 0 -0.0022142139022282409 -0.023115306186615885 0 -0.0022400515506379825 -0.023119721258794156 0 -0.0021993844560096376 -0.02315397472317773 0 -0.0022142139022282409 -0.023115306186615885 0 -0.0022400515506379825 -0.023119721258794156 0 -0.0022197391438501441 -0.023084701968759138 0 -0.0022400515506379825 -0.023119721258794156 0 -0.0022197391438501441 -0.023084701968759138 0 -0.0022138066116806645 -0.02305857282319386 0 -0.0022142139022282409 -0.023115306186615885 0 -0.0022197391438501441 -0.023084701968759138 0 -0.0022221173161565935 -0.023099936305964134 0 -0.0022197391438501441 -0.023084701968759138 0 -0.0022221173161565935 -0.023099936305964134 0 -0.002227557494796471 -0.023090029334489361 0 -0.0022221173161565935 -0.023099936305964134 0 -0.0022124819220766469 -0.023116310963293758 0 -0.0022288407900886184 -0.023106469482292856 0 -0.0022124819220766469 -0.023116310963293758 0 -0.0021940551375785504 -0.023137972491537685 0 -0.0022288407900886184 -0.023106469482292856 0 0.00038664580169218992 -0.027990724767978425 0 0.00013596913616118411 -0.026462570789263989 0 -0.0021940551375785504 -0.023137972491537685 0 -0.0022519425922210433 -0.023100148995268736 0 -0.0022288407900886184 -0.023106469482292856 0 -0.0021940551375785504 -0.023137972491537685 0 -0.0021549780889235023 -0.023172878001305734 0 -0.0022519425922210433 -0.023100148995268736 0 0.0012681949485157638 -0.028867143134633826 0 0.001250069704195909 -0.029493753066399918 0 0.0011948883226356253 -0.029338980375861887 0 -0.0022142139022282409 -0.023115306186615885 0 -0.0022221173161565935 -0.023099936305964134 0 -0.0022124819220766469 -0.023116310963293758 0 -0.0021940551375785504 -0.023137972491537685 0 -0.0021993844560096376 -0.02315397472317773 0 -0.0021549780889235023 -0.023172878001305734 0 -0.0022142139022282409 -0.023115306186615885 0 -0.0021940551375785504 -0.023137972491537685 0 -0.0021993844560096376 -0.02315397472317773 0 -0.0022142139022282409 -0.023115306186615885 0 -0.0022124819220766469 -0.023116310963293758 0 -0.0021940551375785504 -0.023137972491537685 0 -0.0021993844560096376 -0.02315397472317773 0 -0.0021549780889235023 -0.023172878001305734 0 -0.002190355129570365 -0.023237753884017387 0 0.00038664580169218992 -0.027990724767978425 0 0.00081416455711295118 -0.030840065702491509 0 0.001193738755989432 -0.030927435968431508 0 0.0012351481481193522 -0.030586953593196253 0 0.0010267876205306329 -0.030748449715121796 0 0.0012351481481193522 -0.030586953593196253 0 0.00097338298622859918 -0.030460928504849889 0 0.0010267876205306329 -0.030748449715121796 0 0.00038664580169218992 -0.027990724767978425 0 -0.00091572573929444981 -0.025911706848798208 0 0.0012139890281671728 -0.030824823175492455 0 0.0012351481481193522 -0.030586953593196253 0 0.0014587733458230718 -0.030547589324339437 0 -0.0024885801001420667 -0.021040543489591741 0 -0.0026842460172842846 -0.021453478205069553 0 -0.0029775397398370861 -0.021107375817513475 0 -0.0022400515506379825 -0.023119721258794156 0 -0.0021993844560096376 -0.02315397472317773 0 -0.002190355129570365 -0.023237753884017387 0 -0.0029114461331770807 -0.021659149650202967 0 -0.00091572573929444981 -0.025911706848798208 0 -0.00033205958200225954 -0.028504448779551963 0 -9.0027564332985314e-05 -0.028425866196834317 0 -0.00032422014912107737 -0.028403447506294109 0 -0.0024885801001420667 -0.021040543489591741 0 -0.0029775397398370861 -0.021107375817513475 0 -0.0025465664813598722 -0.020523130667981004 0 -0.00091572573929444981 -0.025911706848798208 0 -0.0013880259607945253 -0.024273905689991045 0 -0.00047144244494976467 -0.028266971500581797 0 -9.0027564332985314e-05 -0.028425866196834317 0 -0.00032422014912107737 -0.028403447506294109 0 -0.00047144244494976467 -0.028266971500581797 0 -0.00032422014912107737 -0.028403447506294109 0 -0.00034340121983698522 -0.028379504036763113 0 -0.00091572573929444981 -0.025911706848798208 0 0.00076311462058663087 -0.029855528924710335 0 0.0012351481481193522 -0.030586953593196253 0 0.00097338298622859918 -0.030460928504849889 0 0.0010164108871641574 -0.029872245295683407 0 -0.00033205958200225954 -0.028504448779551963 0 -0.00032422014912107737 -0.028403447506294109 0 -0.00034340121983698522 -0.028379504036763113 0 0.0012351481481193522 -0.030586953593196253 0 0.0014587733458230718 -0.030547589324339437 0 0.0010164108871641574 -0.029872245295683407 0 0.00072766946810942353 -0.030344491700275263 0 0.0010164108871641574 -0.029872245295683407 0 0.00020568757841755574 -0.030012888008671301 0 0.00097338298622859918 -0.030460928504849889 0 0.00072766946810942353 -0.030344491700275263 0 0.00082042581163069229 -0.030712769508694095 0 0.00097338298622859918 -0.030460928504849889 0 0.00072766946810942353 -0.030344491700275263 0 0.0010164108871641574 -0.029872245295683407 0 0.00072766946810942353 -0.030344491700275263 0 0.00043598993907005844 -0.030477048046798214 0 0.00052015234661619545 -0.030786484101677527 0 -8.7813335964941232e-05 -0.028735115330325776 0 -0.00047144244494976467 -0.028266971500581797 0 -0.00034340121983698522 -0.028379504036763113 0 -8.7813335964941232e-05 -0.028735115330325776 0 0.0010164108871641574 -0.029872245295683407 0 0.00020568757841755574 -0.030012888008671301 0 -0.00025288813514712157 -0.028471603395838305 0 0.00076311462058663087 -0.029855528924710335 0 -8.7813335964941232e-05 -0.028735115330325776 0 0.00020568757841755574 -0.030012888008671301 0 -0.00015402325710725645 -0.029300100661266947 0 0.00072766946810942353 -0.030344491700275263 0 0.00020568757841755574 -0.030012888008671301 0 0.00043598993907005844 -0.030477048046798214 0 0.00020568757841755574 -0.030012888008671301 0 0.00043598993907005844 -0.030477048046798214 0 0.00022465458362185678 -0.030608284988520133 0 0.00020568757841755574 -0.030012888008671301 0 0.00022465458362185678 -0.030608284988520133 0 -1.1580137016670434e-05 -0.030408547525924604 0 0.00022465458362185678 -0.030608284988520133 0 0.00023206919328251662 -0.030990178510671214 0 0.00052015234661619545 -0.030786484101677527 0 0.00023206919328251662 -0.030990178510671214 0 0.00052015234661619545 -0.030786484101677527 0 0.00043859520853951331 -0.031099040423347584 0 0.00043598993907005844 -0.030477048046798214 0 0.00022465458362185678 -0.030608284988520133 0 0.00052015234661619545 -0.030786484101677527 0 0.00072766946810942353 -0.030344491700275263 0 0.00052015234661619545 -0.030786484101677527 0 0.00082042581163069229 -0.030712769508694095 0 0.00097338298622859918 -0.030460928504849889 0 0.0010267876205306329 -0.030748449715121796 0 0.00082042581163069229 -0.030712769508694095 0 0.001193738755989432 -0.030927435968431508 0 0.0010267876205306329 -0.030748449715121796 0 0.00082890600007933836 -0.031012503965541154 0 0.00082042581163069229 -0.030712769508694095 0 0.00082890600007933836 -0.031012503965541154 0 0.00066786324953237272 -0.030937581267726302 0 0.0010267876205306329 -0.030748449715121796 0 0.00082042581163069229 -0.030712769508694095 0 0.00082890600007933836 -0.031012503965541154 0 0.00052015234661619545 -0.030786484101677527 0 0.00082042581163069229 -0.030712769508694095 0 0.00066786324953237272 -0.030937581267726302 0 0.00052015234661619545 -0.030786484101677527 0 0.00066786324953237272 -0.030937581267726302 0 0.00043859520853951331 -0.031099040423347584 0 0.001193738755989432 -0.030927435968431508 0 0.00082890600007933836 -0.031012503965541154 0 0.00060076609026998894 -0.031482065118168812 0 0.00082890600007933836 -0.031012503965541154 0 0.00066786324953237272 -0.030937581267726302 0 0.00060669271558488056 -0.031175652274007769 0 0.00082890600007933836 -0.031012503965541154 0 0.00060669271558488056 -0.031175652274007769 0 0.00060076609026998894 -0.031482065118168812 0 0.00066786324953237272 -0.030937581267726302 0 0.00060669271558488056 -0.031175652274007769 0 0.00043859520853951331 -0.031099040423347584 0 0.00038664580169218992 -0.027990724767978425 0 0.00080327117992089539 -0.03070889188872029 0 0.0012681949485157638 -0.028867143134633826 0 0.00093417927649860281 -0.02936735417581323 0 0.0011948883226356253 -0.029338980375861887 0 0.00060669271558488056 -0.031175652274007769 0 0.00041164364241885574 -0.031325321353102981 0 0.00060076609026998894 -0.031482065118168812 0 0.00041164364241885574 -0.031325321353102981 0 0.00024165153438798409 -0.031296106675254426 0 0.00022795151878782184 -0.031514346150012355 0 0.00024165153438798409 -0.031296106675254426 0 0.00022795151878782184 -0.031514346150012355 0 0.00013252114600960607 -0.031442866697861768 0 0.00023206919328251662 -0.030990178510671214 0 0.00024165153438798409 -0.031296106675254426 0 0.00043859520853951331 -0.031099040423347584 0 0.00060669271558488056 -0.031175652274007769 0 0.00041164364241885574 -0.031325321353102981 0 0.00043859520853951331 -0.031099040423347584 0 0.00041164364241885574 -0.031325321353102981 0 0.00024165153438798409 -0.031296106675254426 0 0.00043859520853951331 -0.031099040423347584 0 0.00022795151878782184 -0.031514346150012355 0 0.00060076609026998894 -0.031482065118168812 0 0.00012676380592201083 -0.031616167470428211 0 0.00041164364241885574 -0.031325321353102981 0 0.00022795151878782184 -0.031514346150012355 0 0.00060076609026998894 -0.031482065118168812 0 0.00080327117992089539 -0.03070889188872029 0 0.00042669746928544457 -0.030656735787233397 0 0.00093417927649860281 -0.02936735417581323 0 0.0011017782328210666 -0.029527853898532005 0 0.00099640578769467111 -0.029748671902680209 0 0.00093417927649860281 -0.02936735417581323 0 0.00099640578769467111 -0.029748671902680209 0 0.00067286542084690889 -0.02985198683723914 0 0.00093417927649860281 -0.02936735417581323 0 0.0011017782328210666 -0.029527853898532005 0 0.0011948883226356253 -0.029338980375861887 0 0.0011017782328210666 -0.029527853898532005 0 0.0011403020218904191 -0.029701596687675774 0 0.00099640578769467111 -0.029748671902680209 0 0.00099640578769467111 -0.029748671902680209 0 0.00067286542084690889 -0.02985198683723914 0 0.00096874737049150569 -0.030025537382569592 0 0.0011403020218904191 -0.029701596687675774 0 0.00099640578769467111 -0.029748671902680209 0 0.0012066726348704977 -0.030020333863260185 0 0.00099640578769467111 -0.029748671902680209 0 0.00096874737049150569 -0.030025537382569592 0 0.0012066726348704977 -0.030020333863260185 0 0.00022795151878782184 -0.031514346150012355 0 0.00012676380592201083 -0.031616167470428211 0 7.2463756930799249e-05 -0.03157847657505243 0 0.00067286542084690889 -0.02985198683723914 0 0.00081471307151360147 -0.030252493985184824 0 0.00096874737049150569 -0.030025537382569592 0 0.00067286542084690889 -0.02985198683723914 0 0.00081471307151360147 -0.030252493985184824 0 0.0004549751455239213 -0.030266875203641883 0 0.00081471307151360147 -0.030252493985184824 0 0.00068392357326956866 -0.0304668866036054 0 0.0004549751455239213 -0.030266875203641883 0 0.00081471307151360147 -0.030252493985184824 0 0.00083176699758433855 -0.030443174636214456 0 0.00095441766624447229 -0.030372854518779756 0 0.00081471307151360147 -0.030252493985184824 0 0.00068392357326956866 -0.0304668866036054 0 0.00083176699758433855 -0.030443174636214456 0 0.00083176699758433855 -0.030443174636214456 0 0.0007212691942210524 -0.030616470104833159 0 0.0009606766785062225 -0.030490993851204514 0 0.00068392357326956866 -0.0304668866036054 0 0.00083176699758433855 -0.030443174636214456 0 0.0007212691942210524 -0.030616470104833159 0 0.00068392357326956866 -0.0304668866036054 0 0.00053008723225902521 -0.030719339289452724 0 0.0007212691942210524 -0.030616470104833159 0 0.00095441766624447229 -0.030372854518779756 0 0.0011165300836817962 -0.030404446005924353 0 0.0009606766785062225 -0.030490993851204514 0 0.00083176699758433855 -0.030443174636214456 0 0.00095441766624447229 -0.030372854518779756 0 0.0009606766785062225 -0.030490993851204514 0 0.00095441766624447229 -0.030372854518779756 0 0.0010200078342406439 -0.030222238289991751 0 0.0011165300836817962 -0.030404446005924353 0 0.0010200078342406439 -0.030222238289991751 0 0.0012066726348704977 -0.030020333863260185 0 0.0011165300836817962 -0.030404446005924353 0 0.00081471307151360147 -0.030252493985184824 0 0.0010200078342406439 -0.030222238289991751 0 0.00096874737049150569 -0.030025537382569592 0 0.00081471307151360147 -0.030252493985184824 0 0.00095441766624447229 -0.030372854518779756 0 0.0010200078342406439 -0.030222238289991751 0 0.0010200078342406439 -0.030222238289991751 0 0.00096874737049150569 -0.030025537382569592 0 0.0012066726348704977 -0.030020333863260185 0 0.00098842114365025333 -0.028048884317516991 0 0.0016239279173861215 -0.028310037220036593 0 0.00099783773331392944 -0.029417597295165378 0 0.0011775776909934319 -0.029359553600125061 0 0.0010687519946134803 -0.029828956111284926 0 0.0016239279173861215 -0.028310037220036593 0 0.00099783773331392944 -0.029417597295165378 0 0.0021533418254751353 -0.02985827144612585 0 0.00099783773331392944 -0.029417597295165378 0 0.0013538919106885995 -0.029865837594900732 0 0.0021533418254751353 -0.02985827144612585 0 -0.00058119356925049877 -0.025205784355998111 0 0.00029626668262005179 -0.02801321231000482 0 -0.0021361994004594222 -0.02345042132310093 0 -0.00208957823589999 -0.023624481902392871 0 -0.0022363215426799768 -0.02374137636708527 0 -0.0023356846422113633 -0.02332611552543698 0 -0.0021361994004594222 -0.02345042132310093 0 -0.0022363215426799768 -0.02374137636708527 0 -0.0023356846422113633 -0.02332611552543698 0 -0.0022227633878606329 -0.023263330905295684 0 -0.0021361994004594222 -0.02345042132310093 0 -0.0022227633878606329 -0.023263330905295684 0 -0.0021881844072063903 -0.023148471590498671 0 -0.0022443124221061387 -0.023175882550462708 0 -0.0021881844072063903 -0.023148471590498671 0 -0.0021983776139151701 -0.023061290927764246 0 -0.0022190163970628612 -0.023114074760785638 0 -0.0021881844072063903 -0.023148471590498671 0 -0.0022443124221061387 -0.023175882550462708 0 -0.0022190163970628612 -0.023114074760785638 0 -0.0022443124221061387 -0.023175882550462708 0 -0.0022762559134506936 -0.023191999747238189 0 -0.0022375117845222364 -0.023118834161885683 0 -0.0022443124221061387 -0.023175882550462708 0 -0.0022726519980024382 -0.023236921653448959 0 -0.0022762559134506936 -0.023191999747238189 0 -0.0022443124221061387 -0.023175882550462708 0 -0.0022190163970628612 -0.023114074760785638 0 -0.0022375117845222364 -0.023118834161885683 0 -0.0022227633878606329 -0.023263330905295684 0 -0.0022443124221061387 -0.023175882550462708 0 -0.0022726519980024382 -0.023236921653448959 0 -0.0023356846422113633 -0.02332611552543698 0 -0.0022227633878606329 -0.023263330905295684 0 -0.0022726519980024382 -0.023236921653448959 0 -0.0023356846422113633 -0.02332611552543698 0 -0.0022726519980024382 -0.023236921653448959 0 -0.0022762559134506936 -0.023191999747238189 0 0.0011775776909934319 -0.029359553600125061 0 0.00013596913616118411 -0.026462570789263989 0 0.00098842114365025333 -0.028048884317516991 0 0.0016239279173861215 -0.028310037220036593 0 0.00103015987747863 -0.02662590854251819 0 -0.0023356846422113633 -0.02332611552543698 0 -0.0022762559134506936 -0.023191999747238189 0 -0.0022519425922210433 -0.023100148995268736 0 0.0011403020218904191 -0.029701596687675774 0 0.0012066726348704977 -0.030020333863260185 0 0.0012539857463359206 -0.029504144481582922 0 -0.00058119356925049877 -0.025205784355998111 0 0.00013596913616118411 -0.026462570789263989 0 -0.0022762559134506936 -0.023191999747238189 0 -0.0022470256795206426 -0.023106266869511245 0 -0.0022519425922210433 -0.023100148995268736 0 -0.0022762559134506936 -0.023191999747238189 0 -0.0022489853682913295 -0.023126652175378074 0 -0.0022375117845222364 -0.023118834161885683 0 -0.0022762559134506936 -0.023191999747238189 0 -0.0022489853682913295 -0.023126652175378074 0 -0.0022470256795206426 -0.023106266869511245 0 -0.0022489853682913295 -0.023126652175378074 0 -0.0022470256795206426 -0.023106266869511245 0 -0.0022381938310816912 -0.023101952878232166 0 0.0011017782328210666 -0.029527853898532005 0 0.0011403020218904191 -0.029701596687675774 0 0.0012539857463359206 -0.029504144481582922 0 0.00013596913616118411 -0.026462570789263989 0 0.0010659974388266245 -0.029044978875487557 0 0.0011017782328210666 -0.029527853898532005 0 0.0012539857463359206 -0.029504144481582922 0 0.0011948883226356253 -0.029338980375861887 0 -0.0022470256795206426 -0.023106266869511245 0 -0.0022288407900886184 -0.023106469482292856 0 -0.002233890618926745 -0.023100967199818363 0 -0.0022470256795206426 -0.023106266869511245 0 -0.0022519425922210433 -0.023100148995268736 0 -0.0022288407900886184 -0.023106469482292856 0 -0.0022470256795206426 -0.023106266869511245 0 -0.002233890618926745 -0.023100967199818363 0 -0.0022381938310816912 -0.023101952878232166 0 -0.0022221173161565935 -0.023099936305964134 0 -0.0022288407900886184 -0.023106469482292856 0 -0.002233890618926745 -0.023100967199818363 0 -0.0022221173161565935 -0.023099936305964134 0 -0.002233890618926745 -0.023100967199818363 0 -0.002227557494796471 -0.023090029334489361 0 -0.002233890618926745 -0.023100967199818363 0 -0.002227557494796471 -0.023090029334489361 0 -0.0022381938310816912 -0.023101952878232166 0 -0.002227557494796471 -0.023090029334489361 0 -0.0022278267834031401 -0.023088118246763586 0 -0.0022381938310816912 -0.023101952878232166 0 -0.002227557494796471 -0.023090029334489361 0 -0.0022278267834031401 -0.023088118246763586 0 -0.0022208227903769968 -0.023076119673425717 0 -0.0022278267834031401 -0.023088118246763586 0 -0.0022208227903769968 -0.023076119673425717 0 -0.0022155942150019234 -0.023071025093634099 0 -0.0022197391438501441 -0.023084701968759138 0 -0.002227557494796471 -0.023090029334489361 0 -0.0022208227903769968 -0.023076119673425717 0 -0.0022197391438501441 -0.023084701968759138 0 -0.0022208227903769968 -0.023076119673425717 0 -0.0022138066116806645 -0.02305857282319386 0 -0.0022138066116806645 -0.02305857282319386 0 -0.0022155942150019234 -0.023071025093634099 0 -0.0021974256300946399 -0.023031893829823215 0 -0.0022208227903769968 -0.023076119673425717 0 -0.0022138066116806645 -0.02305857282319386 0 -0.0022155942150019234 -0.023071025093634099 0 -0.0022155942150019234 -0.023071025093634099 0 -0.0021983776139151701 -0.023061290927764246 0 -0.0022190163970628612 -0.023114074760785638 0 -0.0022155942150019234 -0.023071025093634099 0 -0.0021983776139151701 -0.023061290927764246 0 -0.0021974256300946399 -0.023031893829823215 0 -0.0022155942150019234 -0.023071025093634099 0 -0.0022190163970628612 -0.023114074760785638 0 -0.0022375117845222364 -0.023118834161885683 0 -0.0022489853682913295 -0.023126652175378074 0 -0.0022375117845222364 -0.023118834161885683 0 -0.0022381938310816912 -0.023101952878232166 0 -0.0022278267834031401 -0.023088118246763586 0 -0.0022375117845222364 -0.023118834161885683 0 -0.0022381938310816912 -0.023101952878232166 0 -0.0022278267834031401 -0.023088118246763586 0 -0.0022155942150019234 -0.023071025093634099 0 -0.0022375117845222364 -0.023118834161885683 0 -0.0021309189638724262 -0.023008746922913267 0 -0.002012559357706967 -0.022986338069958725 0 -0.0021084941534795119 -0.023101625523105032 0 -0.0021309189638724262 -0.023008746922913267 0 -0.0021471712959860107 -0.022903273380512481 0 -0.002012559357706967 -0.022986338069958725 0 -0.0021309189638724262 -0.023008746922913267 0 -0.0021752433588531116 -0.023009082186657211 0 -0.0021471712959860107 -0.022903273380512481 0 -0.0021309189638724262 -0.023008746922913267 0 -0.0021654447229925117 -0.023063283270331844 0 -0.0021084941534795119 -0.023101625523105032 0 -0.0021309189638724262 -0.023008746922913267 0 -0.0021654447229925117 -0.023063283270331844 0 -0.0021752433588531116 -0.023009082186657211 0 -0.0021881844072063903 -0.023148471590498671 0 -0.0021983776139151701 -0.023061290927764246 0 -0.0021654447229925117 -0.023063283270331844 0 -0.0021983776139151701 -0.023061290927764246 0 -0.0021654447229925117 -0.023063283270331844 0 -0.0021752433588531116 -0.023009082186657211 0 -0.0021983776139151701 -0.023061290927764246 0 -0.0021752433588531116 -0.023009082186657211 0 -0.0021974256300946399 -0.023031893829823215 0 -0.0021819794491808654 -0.022992057413259027 0 -0.0021974256300946399 -0.023031893829823215 0 -0.0021995837203637033 -0.0230208080032747 0 -0.0022138066116806645 -0.02305857282319386 0 -0.0021974256300946399 -0.023031893829823215 0 -0.0021995837203637033 -0.0230208080032747 0 -0.0021752433588531116 -0.023009082186657211 0 -0.0021819794491808654 -0.022992057413259027 0 -0.0021974256300946399 -0.023031893829823215 0 -0.0021819794491808654 -0.022992057413259027 0 -0.0021995837203637033 -0.0230208080032747 0 -0.0021877055365290246 -0.023000863998283785 0 -0.0022360027209762639 -0.022705571595244757 0 -0.0022286580094882952 -0.022672304046446819 0 -0.0022527767935847016 -0.02277936033004576 0 -0.0021471712959860107 -0.022903273380512481 0 -0.0019777544498233261 -0.022795182195500301 0 -0.0022286580094882952 -0.022672304046446819 0 -0.0021331972619835263 -0.022843853097197404 0 -0.0021752433588531116 -0.023009082186657211 0 -0.0021819794491808654 -0.022992057413259027 0 -0.0021471712959860107 -0.022903273380512481 0 -0.0021819794491808654 -0.022992057413259027 0 -0.0021877055365290246 -0.023000863998283785 0 -0.0021471712959860107 -0.022903273380512481 0 -0.0017179403152432426 -0.022386365910478021 0 -0.0019777544498233261 -0.022795182195500301 0 -0.0017613518867292313 -0.022882676966738812 0 -0.0017179403152432426 -0.022386365910478021 0 -0.0022527767935847016 -0.02277936033004576 0 -0.0019777544498233261 -0.022795182195500301 0 -0.0019777544498233261 -0.022795182195500301 0 -0.002012559357706967 -0.022986338069958725 0 -0.0017613518867292313 -0.022882676966738812 0 -0.0021471712959860107 -0.022903273380512481 0 -0.0019777544498233261 -0.022795182195500301 0 -0.002012559357706967 -0.022986338069958725 0 -0.0019357756191202189 -0.023187028756999531 0 -0.0017916848124667072 -0.02346013462532542 0 -0.0015706901670773062 -0.023153626614303612 0 -0.002012559357706967 -0.022986338069958725 0 -0.0019357756191202189 -0.023187028756999531 0 -0.0021084941534795119 -0.023101625523105032 0 -0.002012559357706967 -0.022986338069958725 0 -0.0019357756191202189 -0.023187028756999531 0 -0.0017613518867292313 -0.022882676966738812 0 -0.0019357756191202189 -0.023187028756999531 0 -0.0021064253988782818 -0.023252137730609617 0 -0.0019913593674858697 -0.023376652357562856 0 -0.0019357756191202189 -0.023187028756999531 0 -0.0021084941534795119 -0.023101625523105032 0 -0.0021064253988782818 -0.023252137730609617 0 -0.0021881844072063903 -0.023148471590498671 0 -0.0021084941534795119 -0.023101625523105032 0 -0.0021064253988782818 -0.023252137730609617 0 -0.0021881844072063903 -0.023148471590498671 0 -0.0021654447229925117 -0.023063283270331844 0 -0.0021084941534795119 -0.023101625523105032 0 -0.0022227633878606329 -0.023263330905295684 0 -0.0021881844072063903 -0.023148471590498671 0 -0.0021064253988782818 -0.023252137730609617 0 -0.0022227633878606329 -0.023263330905295684 0 -0.0021064253988782818 -0.023252137730609617 0 -0.0021361994004594222 -0.02345042132310093 0 -0.0021064253988782818 -0.023252137730609617 0 -0.0019913593674858697 -0.023376652357562856 0 -0.0021361994004594222 -0.02345042132310093 0 -0.0019913593674858697 -0.023376652357562856 0 -0.0021361994004594222 -0.02345042132310093 0 -0.0019945929561434326 -0.023531009819503772 0 -0.0021361994004594222 -0.02345042132310093 0 -0.0019945929561434326 -0.023531009819503772 0 -0.00208957823589999 -0.023624481902392871 0 -0.00208957823589999 -0.023624481902392871 0 -0.0022363215426799768 -0.02374137636708527 0 -0.0019369054966122464 -0.023731567494157078 0 -0.0019945929561434326 -0.023531009819503772 0 -0.00208957823589999 -0.023624481902392871 0 -0.0019369054966122464 -0.023731567494157078 0 -0.0020391813254407704 -0.023891154850862632 0 -0.0018186043275160233 -0.024582353413787752 0 -0.0024455595812795869 -0.024594418427985855 0 -0.0019945929561434326 -0.023531009819503772 0 -0.0017916848124667072 -0.02346013462532542 0 -0.0019369054966122464 -0.023731567494157078 0 -0.0020608605620790845 -0.023320328318715815 0 0.00011606132820299753 -0.02678077273938978 0 -0.0019913593674858697 -0.023376652357562856 0 -0.0019945929561434326 -0.023531009819503772 0 -0.0017916848124667072 -0.02346013462532542 0 -0.0019357756191202189 -0.023187028756999531 0 -0.0019913593674858697 -0.023376652357562856 0 -0.0017916848124667072 -0.02346013462532542 0 -0.0020608605620790845 -0.023320328318715815 0 -0.0015900486182988405 -0.023290430408595752 0 -0.0020391813254407704 -0.023891154850862632 0 -0.0015428505691736372 -0.023782293086905878 0 -0.0015706901670773062 -0.023153626614303612 0 -0.0020391813254407704 -0.023891154850862632 0 -0.0015428505691736372 -0.023782293086905878 0 -0.001520008962846158 -0.024171520433584458 0 -0.0014218690964434421 -0.024411131690241901 0 -0.0011789769178286746 -0.024587444242308517 0 -0.0018186043275160233 -0.024582353413787752 0 -0.0020391813254407704 -0.023891154850862632 0 -0.001520008962846158 -0.024171520433584458 0 -0.0018186043275160233 -0.024582353413787752 0 -0.001520008962846158 -0.024171520433584458 0 -0.0014218690964434421 -0.024411131690241901 0 -0.0018186043275160233 -0.024582353413787752 0 0.0026375806785941917 -0.030423412667653006 0 0.0026967476561255742 -0.0304219515341583 0 0.0025317584301608898 -0.030529405034655302 0 0.0015425319043392398 -0.028694599759975258 0 0.00045845942526188255 -0.02596094221557459 0 -0.0011709443389213057 -0.024304157492253411 0 -0.0011789769178286746 -0.024587444242308517 0 -0.00088630568696421673 -0.024373909244178447 0 -0.0011709443389213057 -0.024304157492253411 0 -0.0014218690964434421 -0.024411131690241901 0 -0.0011789769178286746 -0.024587444242308517 0 -0.001520008962846158 -0.024171520433584458 0 -0.0011709443389213057 -0.024304157492253411 0 -0.0014218690964434421 -0.024411131690241901 0 -0.001520008962846158 -0.024171520433584458 0 -0.0011709443389213057 -0.024304157492253411 0 -0.0011849856527194208 -0.02401921360242153 0 -0.0013845045175440037 -0.023723979199116785 0 0.00045845942526188255 -0.02596094221557459 0 -0.0011849856527194208 -0.02401921360242153 0 -0.00096964696919639296 -0.0240902656388206 0 -0.00098163689873417273 -0.024321969143128553 0 -0.0011709443389213057 -0.024304157492253411 0 -0.0011849856527194208 -0.02401921360242153 0 -0.00088630568696421673 -0.024373909244178447 0 -0.0011849856527194208 -0.02401921360242153 0 -0.0012150129034806589 -0.02358138845484908 0 -0.00091369645754284592 -0.023773441176697059 0 -0.0012150129034806589 -0.02358138845484908 0 -0.00085797572134679357 -0.023163759847311144 0 -0.00091369645754284592 -0.023773441176697059 0 -0.0011849856527194208 -0.02401921360242153 0 -0.00091369645754284592 -0.023773441176697059 0 -0.00096964696919639296 -0.0240902656388206 0 -0.0015428505691736372 -0.023782293086905878 0 -0.0012150129034806589 -0.02358138845484908 0 -0.0015706901670773062 -0.023153626614303612 0 -0.0015428505691736372 -0.023782293086905878 0 -0.0011849856527194208 -0.02401921360242153 0 -0.0012150129034806589 -0.02358138845484908 0 -0.0015428505691736372 -0.023782293086905878 0 -0.001520008962846158 -0.024171520433584458 0 -0.0011849856527194208 -0.02401921360242153 0 -0.0015706901670773062 -0.023153626614303612 0 -0.0012476009035948682 -0.022626675017284544 0 -0.00085797572134679357 -0.023163759847311144 0 -0.0012150129034806589 -0.02358138845484908 0 -0.0015706901670773062 -0.023153626614303612 0 -0.00085797572134679357 -0.023163759847311144 0 -0.0019357756191202189 -0.023187028756999531 0 -0.0015706901670773062 -0.023153626614303612 0 -0.0017613518867292313 -0.022882676966738812 0 -0.0017179403152432426 -0.022386365910478021 0 -0.0017613518867292313 -0.022882676966738812 0 -0.0012476009035948682 -0.022626675017284544 0 -0.0015706901670773062 -0.023153626614303612 0 -0.0017613518867292313 -0.022882676966738812 0 -0.0012476009035948682 -0.022626675017284544 0 -0.00068738526073490772 -0.031847628035800581 0 -0.00093266009752531972 -0.032094573577612827 0 -0.00076500669961352134 -0.031619080261836706 0 -0.00068738526073490772 -0.031847628035800581 0 -0.00064900199056024089 -0.032557741502348241 0 -0.00093266009752531972 -0.032094573577612827 0 -0.00068738526073490772 -0.031847628035800581 0 -0.00073898645829862427 -0.031454342294478653 0 -0.00054680479836009203 -0.032314251098555326 0 -0.00073898645829862427 -0.031454342294478653 0 -0.00054680479836009203 -0.032314251098555326 0 -0.00042828535229672053 -0.031978692088872704 0 -0.00054680479836009203 -0.032314251098555326 0 -0.00042828535229672053 -0.031978692088872704 0 -0.00044363723716366532 -0.032552800607418844 0 -0.00054680479836009203 -0.032314251098555326 0 -0.00064900199056024089 -0.032557741502348241 0 -0.00049316009952244993 -0.032823788044101881 0 -0.00068738526073490772 -0.031847628035800581 0 -0.00054680479836009203 -0.032314251098555326 0 -0.00064900199056024089 -0.032557741502348241 0 -0.00064900199056024089 -0.032557741502348241 0 -0.00093266009752531972 -0.032094573577612827 0 -0.0008988791396531842 -0.033162601064616042 0 -0.00045524431094298988 -0.033555803929218572 0 -0.00036861168833175035 -0.034037794884381023 0 3.3469992091885431e-08 -0.03499473836314683 0 9.3965204488343565e-07 -0.034987072163215983 0 -4.5627410719626335e-08 -0.034996177866935554 0 -3.5070383413891476e-10 -0.034999988693677292 0 3.3469992091885431e-08 -0.03499473836314683 0 -6.9733969333515e-10 -0.034999984519941921 0 -3.5070383413891476e-10 -0.034999988693677292 0 3.3469992091885431e-08 -0.03499473836314683 0 -4.5627410719626335e-08 -0.034996177866935554 0 -6.9733969333515e-10 -0.034999984519941921 0 9.3965204488343565e-07 -0.034987072163215983 0 6.9921129682539598e-08 -0.034990041884748219 0 3.3469992091885431e-08 -0.03499473836314683 0 -6.9733969333515e-10 -0.034999984519941921 0 9.3965204488343565e-07 -0.034987072163215983 0 -0.00045524431094298988 -0.033555803929218572 0 -0.00036501310416074158 -0.033264103417032266 0 9.3965204488343565e-07 -0.034987072163215983 0 6.9921129682539598e-08 -0.034990041884748219 0 1.9268190792687604e-06 -0.034976969143306599 0 -6.9733969333515e-10 -0.034999984519941921 0 6.9921129682539598e-08 -0.034990041884748219 0 -4.3810142593324947e-10 -0.034999981005242417 0 -4.747732250424659e-07 -0.034982690522144221 0 6.9921129682539598e-08 -0.034990041884748219 0 -4.3810142593324947e-10 -0.034999981005242417 0 -4.747732250424659e-07 -0.034982690522144221 0 6.9921129682539598e-08 -0.034990041884748219 0 1.9268190792687604e-06 -0.034976969143306599 0 8.2256711696097784e-07 -0.034965538172372669 0 -4.747732250424659e-07 -0.034982690522144221 0 1.9268190792687604e-06 -0.034976969143306599 0 -0.00069777025546165499 -0.031663766098424244 0 -0.00076500669961352134 -0.031619080261836706 0 -0.00070026527820823688 -0.031585207778271875 0 -0.00038893367886388118 -0.033530122288907775 0 -0.00036501310416074158 -0.033264103417032266 0 -0.00068738526073490772 -0.031847628035800581 0 -0.00076500669961352134 -0.031619080261836706 0 -0.00070026527820823688 -0.031585207778271875 0 -0.00075759360321781574 -0.031557295454400884 0 -0.00094514273281361182 -0.030596071073068474 0 -0.00073898645829862427 -0.031454342294478653 0 -0.00070026527820823688 -0.031585207778271875 0 -0.00075538619780302801 -0.031646956570718039 0 -0.00068738526073490772 -0.031847628035800581 0 -0.00073898645829862427 -0.031454342294478653 0 -0.00070026527820823688 -0.031585207778271875 0 -0.00069777025546165499 -0.031663766098424244 0 -0.00070026527820823688 -0.031585207778271875 0 -0.00075538619780302801 -0.031646956570718039 0 -0.00078721139776267773 -0.030070511310012468 0 -0.0010800246734079561 -0.030213639359913749 0 -0.00076284189077333573 -0.030491150802593618 0 -0.00076284189077333573 -0.030491150802593618 0 -0.00064478754144262952 -0.030223419087393427 0 -0.00059945393498383472 -0.030723273080771496 0 -0.00078721139776267773 -0.030070511310012468 0 -0.00076284189077333573 -0.030491150802593618 0 -0.00064478754144262952 -0.030223419087393427 0 -0.00057460579681684 -0.029999783676408726 0 -0.00064478754144262952 -0.030223419087393427 0 -0.00050158399460925075 -0.030321520391834479 0 -0.00057460579681684 -0.029999783676408726 0 -0.00050158399460925075 -0.030321520391834479 0 -0.00051487444880210672 -0.02988608537866945 0 -0.00064478754144262952 -0.030223419087393427 0 -0.00050158399460925075 -0.030321520391834479 0 -0.00059945393498383472 -0.030723273080771496 0 -0.00050158399460925075 -0.030321520391834479 0 -0.00047799166997731124 -0.030715995182422861 0 -0.00059945393498383472 -0.030723273080771496 0 -0.00050158399460925075 -0.030321520391834479 0 -0.00047799166997731124 -0.030715995182422861 0 -0.00032331972237150449 -0.030548730133353776 0 -0.00047799166997731124 -0.030715995182422861 0 -0.00036431359509855936 -0.030854104967614347 0 -0.00032331972237150449 -0.030548730133353776 0 -0.00047799166997731124 -0.030715995182422861 0 -0.00059945393498383472 -0.030723273080771496 0 -0.00048014474170433478 -0.031246535817068453 0 -0.00047799166997731124 -0.030715995182422861 0 -0.00036431359509855936 -0.030854104967614347 0 -0.00048014474170433478 -0.031246535817068453 0 -0.00073898645829862427 -0.031454342294478653 0 -0.00059945393498383472 -0.030723273080771496 0 -0.00048014474170433478 -0.031246535817068453 0 -0.00073898645829862427 -0.031454342294478653 0 -0.0010800246734079561 -0.030213639359913749 0 -0.00076284189077333573 -0.030491150802593618 0 -0.00073898645829862427 -0.031454342294478653 0 -0.00076284189077333573 -0.030491150802593618 0 -0.00059945393498383472 -0.030723273080771496 0 0.00020568757841755574 -0.030012888008671301 0 -0.0001123186291646624 -0.029939317062866382 0 -0.00015402325710725645 -0.029300100661266947 0 -0.0001123186291646624 -0.029939317062866382 0 -0.00015402325710725645 -0.029300100661266947 0 -0.00022103584393476754 -0.029581289412905738 0 -0.0001123186291646624 -0.029939317062866382 0 -0.00029117725738824802 -0.029920148194540756 0 -0.00021310088576763367 -0.030286505544377541 0 -0.0001123186291646624 -0.029939317062866382 0 -0.00022103584393476754 -0.029581289412905738 0 -0.00029117725738824802 -0.029920148194540756 0 -0.00029117725738824802 -0.029920148194540756 0 -0.00038675325526672127 -0.030178631044254906 0 -0.00021310088576763367 -0.030286505544377541 0 -0.00029117725738824802 -0.029920148194540756 0 -0.00051487444880210672 -0.02988608537866945 0 -0.00038675325526672127 -0.030178631044254906 0 -0.00033379498707559487 -0.029587094930717785 0 -0.00022103584393476754 -0.029581289412905738 0 -0.00029117725738824802 -0.029920148194540756 0 -0.00033379498707559487 -0.029587094930717785 0 -0.00029117725738824802 -0.029920148194540756 0 -0.00051487444880210672 -0.02988608537866945 0 -0.00050158399460925075 -0.030321520391834479 0 -0.00051487444880210672 -0.02988608537866945 0 -0.00038675325526672127 -0.030178631044254906 0 -0.00050158399460925075 -0.030321520391834479 0 -0.00038675325526672127 -0.030178631044254906 0 -0.00032331972237150449 -0.030548730133353776 0 -0.00036431359509855936 -0.030854104967614347 0 -0.00032331972237150449 -0.030548730133353776 0 -0.0001865547328976126 -0.030961882186771119 0 -0.00032331972237150449 -0.030548730133353776 0 -0.00014792373517821819 -0.030617250049071631 0 -0.0001865547328976126 -0.030961882186771119 0 -0.00038675325526672127 -0.030178631044254906 0 -0.00032331972237150449 -0.030548730133353776 0 -0.00021310088576763367 -0.030286505544377541 0 -0.00032331972237150449 -0.030548730133353776 0 -0.00021310088576763367 -0.030286505544377541 0 -0.00014792373517821819 -0.030617250049071631 0 -0.00021310088576763367 -0.030286505544377541 0 -0.00014792373517821819 -0.030617250049071631 0 -1.1580137016670434e-05 -0.030408547525924604 0 -0.0001123186291646624 -0.029939317062866382 0 -0.00021310088576763367 -0.030286505544377541 0 -1.1580137016670434e-05 -0.030408547525924604 0 -0.00014792373517821819 -0.030617250049071631 0 -1.1580137016670434e-05 -0.030408547525924604 0 1.1891219434022282e-05 -0.030871422067672911 0 0.00022465458362185678 -0.030608284988520133 0 -1.1580137016670434e-05 -0.030408547525924604 0 1.1891219434022282e-05 -0.030871422067672911 0 0.00020568757841755574 -0.030012888008671301 0 -0.0001123186291646624 -0.029939317062866382 0 -1.1580137016670434e-05 -0.030408547525924604 0 0.00023206919328251662 -0.030990178510671214 0 1.1891219434022282e-05 -0.030871422067672911 0 7.4970752404831522e-05 -0.031253883874883259 0 0.00022465458362185678 -0.030608284988520133 0 0.00023206919328251662 -0.030990178510671214 0 1.1891219434022282e-05 -0.030871422067672911 0 -0.00014792373517821819 -0.030617250049071631 0 1.1891219434022282e-05 -0.030871422067672911 0 -0.0001865547328976126 -0.030961882186771119 0 1.1891219434022282e-05 -0.030871422067672911 0 -4.8488103288305318e-05 -0.031139074198468744 0 -0.0001865547328976126 -0.030961882186771119 0 1.1891219434022282e-05 -0.030871422067672911 0 -4.8488103288305318e-05 -0.031139074198468744 0 7.4970752404831522e-05 -0.031253883874883259 0 -4.8488103288305318e-05 -0.031139074198468744 0 -0.0001865547328976126 -0.030961882186771119 0 -0.00020211921174336197 -0.031350312056515693 0 -0.00036431359509855936 -0.030854104967614347 0 -0.0001865547328976126 -0.030961882186771119 0 -0.00030015573579393265 -0.03117030716288012 0 -0.0001865547328976126 -0.030961882186771119 0 -0.00020211921174336197 -0.031350312056515693 0 -0.00030015573579393265 -0.03117030716288012 0 -0.00020211921174336197 -0.031350312056515693 0 -0.00010467119581989524 -0.031495678275395712 0 -4.6639383682620199e-05 -0.031388223759132097 0 -0.00020211921174336197 -0.031350312056515693 0 -0.00010467119581989524 -0.031495678275395712 0 -0.00013144494034369992 -0.031662318066374914 0 -0.00010467119581989524 -0.031495678275395712 0 -3.5180293951310699e-05 -0.031559982148773306 0 -0.00013144494034369992 -0.031662318066374914 0 -3.5180293951310699e-05 -0.031559982148773306 0 -0.00013144494034369992 -0.031662318066374914 0 4.7177286276028362e-06 -0.031683206631667397 0 -3.5180293951310699e-05 -0.031559982148773306 0 -4.6639383682620199e-05 -0.031388223759132097 0 4.2302418856146764e-05 -0.031481933946970478 0 -0.00010467119581989524 -0.031495678275395712 0 -3.5180293951310699e-05 -0.031559982148773306 0 -4.6639383682620199e-05 -0.031388223759132097 0 -3.5180293951310699e-05 -0.031559982148773306 0 4.2302418856146764e-05 -0.031481933946970478 0 2.3177581686543468e-05 -0.031593616502452314 0 -4.8488103288305318e-05 -0.031139074198468744 0 -0.00020211921174336197 -0.031350312056515693 0 -4.6639383682620199e-05 -0.031388223759132097 0 -4.8488103288305318e-05 -0.031139074198468744 0 -4.6639383682620199e-05 -0.031388223759132097 0 7.4970752404831522e-05 -0.031253883874883259 0 -4.6639383682620199e-05 -0.031388223759132097 0 4.2302418856146764e-05 -0.031481933946970478 0 7.4970752404831522e-05 -0.031253883874883259 0 4.2302418856146764e-05 -0.031481933946970478 0 0.00013252114600960607 -0.031442866697861768 0 7.4970752404831522e-05 -0.031253883874883259 0 0.00024165153438798409 -0.031296106675254426 0 0.00013252114600960607 -0.031442866697861768 0 7.4970752404831522e-05 -0.031253883874883259 0 0.00023206919328251662 -0.030990178510671214 0 0.00024165153438798409 -0.031296106675254426 0 7.4970752404831522e-05 -0.031253883874883259 0 -0.00073898645829862427 -0.031454342294478653 0 -0.00048014474170433478 -0.031246535817068453 0 -0.00042828535229672053 -0.031978692088872704 0 -0.00036431359509855936 -0.030854104967614347 0 -0.00048014474170433478 -0.031246535817068453 0 -0.00030015573579393265 -0.03117030716288012 0 -0.00020211921174336197 -0.031350312056515693 0 -0.00030015573579393265 -0.03117030716288012 0 -0.00031440255188469487 -0.031552054831183507 0 -0.00048014474170433478 -0.031246535817068453 0 -0.00030015573579393265 -0.03117030716288012 0 -0.00031440255188469487 -0.031552054831183507 0 -0.00020211921174336197 -0.031350312056515693 0 -0.00031440255188469487 -0.031552054831183507 0 -0.00013144494034369992 -0.031662318066374914 0 -0.00013144494034369992 -0.031662318066374914 0 -0.00026288862459965706 -0.031834011268703721 0 -0.00013569462166048796 -0.031878355213740224 0 -0.00031440255188469487 -0.031552054831183507 0 -0.00013144494034369992 -0.031662318066374914 0 -0.00026288862459965706 -0.031834011268703721 0 -0.00031440255188469487 -0.031552054831183507 0 -0.00026288862459965706 -0.031834011268703721 0 -0.00042828535229672053 -0.031978692088872704 0 -0.00048014474170433478 -0.031246535817068453 0 -0.00031440255188469487 -0.031552054831183507 0 -0.00042828535229672053 -0.031978692088872704 0 -0.00042828535229672053 -0.031978692088872704 0 -0.0002587077928335029 -0.032095621265480677 0 -0.00035000099849518687 -0.03248501158985815 0 -0.00042828535229672053 -0.031978692088872704 0 -0.00035000099849518687 -0.03248501158985815 0 -0.00044363723716366532 -0.032552800607418844 0 -0.00026288862459965706 -0.031834011268703721 0 -0.00042828535229672053 -0.031978692088872704 0 -0.0002587077928335029 -0.032095621265480677 0 -0.0002587077928335029 -0.032095621265480677 0 -0.00035000099849518687 -0.03248501158985815 0 -3.0730173578597309e-05 -0.032080193993964654 0 -0.00026288862459965706 -0.031834011268703721 0 -0.0002587077928335029 -0.032095621265480677 0 -0.00013569462166048796 -0.031878355213740224 0 -0.00013144494034369992 -0.031662318066374914 0 -0.00013569462166048796 -0.031878355213740224 0 9.1189959261676152e-06 -0.03181209134147877 0 -0.00013569462166048796 -0.031878355213740224 0 9.1189959261676152e-06 -0.03181209134147877 0 -3.0730173578597309e-05 -0.032080193993964654 0 -0.0002587077928335029 -0.032095621265480677 0 -0.00013569462166048796 -0.031878355213740224 0 -3.0730173578597309e-05 -0.032080193993964654 0 -0.00014907298187664245 -0.034938636670248678 0 -0.00013244954175921462 -0.03495730763963522 0 -0.00015661913997234631 -0.034935376584361834 0 -0.00014907298187664245 -0.034938636670248678 0 -0.00015661913997234631 -0.034935376584361834 0 -0.00017254681788234658 -0.034917633838517384 0 -0.00032340242376890243 -0.033797774328417934 0 0.00015325127520806248 -0.032947014250928386 0 0.00015325127520806248 -0.032947014250928386 0 6.4253985863543767e-06 -0.033144737065700133 0 -0.00014907298187664245 -0.034938636670248678 0 -0.00013244954175921462 -0.03495730763963522 0 -0.00012928706243238691 -0.034937706259759602 0 -0.00013244954175921462 -0.03495730763963522 0 -0.00012928706243238691 -0.034937706259759602 0 -8.1104832237799523e-05 -0.034956874042884487 0 0.00022795151878782184 -0.031514346150012355 0 7.1030648290305447e-05 -0.031563800584745158 0 7.2463756930799249e-05 -0.03157847657505243 0 0.00022795151878782184 -0.031514346150012355 0 0.00013252114600960607 -0.031442866697861768 0 7.1030648290305447e-05 -0.031563800584745158 0 4.2302418856146764e-05 -0.031481933946970478 0 0.00013252114600960607 -0.031442866697861768 0 7.1030648290305447e-05 -0.031563800584745158 0 7.1030648290305447e-05 -0.031563800584745158 0 3.4575434873631063e-05 -0.031631719690776113 0 2.3177581686543468e-05 -0.031593616502452314 0 4.2302418856146764e-05 -0.031481933946970478 0 7.1030648290305447e-05 -0.031563800584745158 0 2.3177581686543468e-05 -0.031593616502452314 0 7.1030648290305447e-05 -0.031563800584745158 0 5.2766666582550722e-05 -0.031591512853095034 0 3.4575434873631063e-05 -0.031631719690776113 0 7.1030648290305447e-05 -0.031563800584745158 0 5.2766666582550722e-05 -0.031591512853095034 0 7.2463756930799249e-05 -0.03157847657505243 0 3.4575434873631063e-05 -0.031631719690776113 0 4.0580487471716951e-05 -0.031680399294160999 0 5.6198943149475714e-05 -0.031579186767427513 0 5.2766666582550722e-05 -0.031591512853095034 0 3.4575434873631063e-05 -0.031631719690776113 0 5.6198943149475714e-05 -0.031579186767427513 0 3.4575434873631063e-05 -0.031631719690776113 0 4.7177286276028362e-06 -0.031683206631667397 0 4.0580487471716951e-05 -0.031680399294160999 0 -3.5180293951310699e-05 -0.031559982148773306 0 2.3177581686543468e-05 -0.031593616502452314 0 4.7177286276028362e-06 -0.031683206631667397 0 3.4575434873631063e-05 -0.031631719690776113 0 2.3177581686543468e-05 -0.031593616502452314 0 4.7177286276028362e-06 -0.031683206631667397 0 -0.00013144494034369992 -0.031662318066374914 0 4.7177286276028362e-06 -0.031683206631667397 0 9.1189959261676152e-06 -0.03181209134147877 0 4.7177286276028362e-06 -0.031683206631667397 0 9.1189959261676152e-06 -0.03181209134147877 0 4.0580487471716951e-05 -0.031680399294160999 0 9.1189959261676152e-06 -0.03181209134147877 0 4.0580487471716951e-05 -0.031680399294160999 0 0.00011123996725111895 -0.031657397830714959 0 9.1189959261676152e-06 -0.03181209134147877 0 0.00015937492014351035 -0.031648171108343823 0 0.00011123996725111895 -0.031657397830714959 0 0.00019797002077000147 -0.031977168773641401 0 0.00015325127520806248 -0.032947014250928386 0 4.0580487471716951e-05 -0.031680399294160999 0 0.00011123996725111895 -0.031657397830714959 0 5.6198943149475714e-05 -0.031579186767427513 0 0.00015325127520806248 -0.032947014250928386 0 0.00018294165679512468 -0.032880138827466925 0 0.00015668063790383872 -0.031652054409601019 0 0.0001375147950891069 -0.031442287428764162 0 0.00027741414031734934 -0.031203785318214029 0 0.00015668063790383872 -0.031652054409601019 0 0.00011123996725111895 -0.031657397830714959 0 0.0001375147950891069 -0.031442287428764162 0 0.00011123996725111895 -0.031657397830714959 0 0.0001375147950891069 -0.031442287428764162 0 5.6198943149475714e-05 -0.031579186767427513 0 0.0001375147950891069 -0.031442287428764162 0 5.6198943149475714e-05 -0.031579186767427513 0 5.5837576193341108e-05 -0.031464997318702531 0 0.00012676380592201083 -0.031616167470428211 0 5.5837576193341108e-05 -0.031464997318702531 0 7.2463756930799249e-05 -0.03157847657505243 0 5.6198943149475714e-05 -0.031579186767427513 0 5.5837576193341108e-05 -0.031464997318702531 0 7.2463756930799249e-05 -0.03157847657505243 0 5.2766666582550722e-05 -0.031591512853095034 0 5.6198943149475714e-05 -0.031579186767427513 0 7.2463756930799249e-05 -0.03157847657505243 0 0.00042669746928544457 -0.030656735787233397 0 0.00024723101440714002 -0.030794946490888025 0 0.00012676380592201083 -0.031616167470428211 0 5.5837576193341108e-05 -0.031464997318702531 0 1.9036376322264225e-06 -0.031293452294068089 0 5.5837576193341108e-05 -0.031464997318702531 0 1.9036376322264225e-06 -0.031293452294068089 0 0.00016887446242361552 -0.031158091411025129 0 0.0001375147950891069 -0.031442287428764162 0 0.00016887446242361552 -0.031158091411025129 0 0.00027741414031734934 -0.031203785318214029 0 0.0001375147950891069 -0.031442287428764162 0 5.5837576193341108e-05 -0.031464997318702531 0 0.00016887446242361552 -0.031158091411025129 0 0.00016887446242361552 -0.031158091411025129 0 0.00027741414031734934 -0.031203785318214029 0 0.00013860195223110129 -0.031017859431187195 0 0.00016887446242361552 -0.031158091411025129 0 0.00013860195223110129 -0.031017859431187195 0 0.00021649654055833016 -0.030949707297415217 0 1.9036376322264225e-06 -0.031293452294068089 0 0.00016887446242361552 -0.031158091411025129 0 0.00021649654055833016 -0.030949707297415217 0 0.0004549751455239213 -0.030266875203641883 0 0.00039153145928203285 -0.0307994938367823 0 0.00021649654055833016 -0.030949707297415217 0 0.00024723101440714002 -0.030794946490888025 0 0.00021338760539938754 -0.030916464531576312 0 0.00068392357326956866 -0.0304668866036054 0 0.0004549751455239213 -0.030266875203641883 0 0.00053008723225902521 -0.030719339289452724 0 0.0004549751455239213 -0.030266875203641883 0 0.00039153145928203285 -0.0307994938367823 0 0.00053008723225902521 -0.030719339289452724 0 -0.00012928706243238691 -0.034937706259759602 0 -0.00017254681788234658 -0.034917633838517384 0 -0.00013617842250566089 -0.034904057076900238 0 -0.00012928706243238691 -0.034937706259759602 0 -0.00013617842250566089 -0.034904057076900238 0 -9.58513927297285e-05 -0.034927525488686384 0 -0.00014907298187664245 -0.034938636670248678 0 -0.00012928706243238691 -0.034937706259759602 0 -0.00017254681788234658 -0.034917633838517384 0 -0.00017254681788234658 -0.034917633838517384 0 -0.00013617842250566089 -0.034904057076900238 0 -0.00022112561548472273 -0.034839744862174934 0 6.4253985863543767e-06 -0.033144737065700133 0 -0.00013867907775499784 -0.03298573484420831 0 0.00027741414031734934 -0.031203785318214029 0 -7.5081858231275619e-05 -0.031119202275033606 0 0.00013860195223110129 -0.031017859431187195 0 -8.4460706321211698e-05 -0.034898517748927924 0 -4.4457041741157864e-05 -0.034930154974121899 0 -3.316340110084898e-05 -0.034880626888302436 0 -8.4460706321211698e-05 -0.034898517748927924 0 -9.58513927297285e-05 -0.034927525488686384 0 -4.4457041741157864e-05 -0.034930154974121899 0 -0.00013617842250566089 -0.034904057076900238 0 -8.4460706321211698e-05 -0.034898517748927924 0 -9.58513927297285e-05 -0.034927525488686384 0 -4.4457041741157864e-05 -0.034930154974121899 0 -1.8473300948456406e-06 -0.034957487371943971 0 -8.5290851998039744e-06 -0.034932318588549401 0 -4.4457041741157864e-05 -0.034930154974121899 0 -8.5290851998039744e-06 -0.034932318588549401 0 -3.316340110084898e-05 -0.034880626888302436 0 -5.3866440711504212e-05 -0.034972987736318593 0 -8.1104832237799523e-05 -0.034956874042884487 0 -3.1955556845270308e-05 -0.034972162010964668 0 -4.4457041741157864e-05 -0.034930154974121899 0 -8.1104832237799523e-05 -0.034956874042884487 0 -1.8473300948456406e-06 -0.034957487371943971 0 -7.6573352963577704e-05 -0.034960069454102613 0 -1.8679644468702107e-05 -0.034965850360155114 0 -0.00012928706243238691 -0.034937706259759602 0 -9.58513927297285e-05 -0.034927525488686384 0 -8.1104832237799523e-05 -0.034956874042884487 0 -9.58513927297285e-05 -0.034927525488686384 0 -4.4457041741157864e-05 -0.034930154974121899 0 -8.1104832237799523e-05 -0.034956874042884487 0 -0.00032340242376890243 -0.033797774328417934 0 -0.0002688376690371742 -0.034016582192119407 0 -0.00035000099849518687 -0.03248501158985815 0 -0.00044028100710459604 -0.033041015602931642 0 -0.00044363723716366532 -0.032552800607418844 0 -0.00013244954175921462 -0.03495730763963522 0 -8.1104832237799523e-05 -0.034956874042884487 0 -7.2899408833397144e-05 -0.034974907004852403 0 -5.3866440711504212e-05 -0.034972987736318593 0 -7.2899408833397144e-05 -0.034974907004852403 0 -3.0429549391719854e-05 -0.034987875859773261 0 -0.00044028100710459604 -0.033041015602931642 0 -0.00051406347952572071 -0.033330268889439719 0 -0.00047628791715645792 -0.033857569516599163 0 -0.0002688376690371742 -0.034016582192119407 0 -0.00030998872282103813 -0.034457224166274746 0 -5.3866440711504212e-05 -0.034972987736318593 0 -8.1104832237799523e-05 -0.034956874042884487 0 -7.2899408833397144e-05 -0.034974907004852403 0 -0.00044028100710459604 -0.033041015602931642 0 -0.00049316009952244993 -0.032823788044101881 0 -0.00051406347952572071 -0.033330268889439719 0 -0.00064900199056024089 -0.032557741502348241 0 -0.00049316009952244993 -0.032823788044101881 0 -0.00051406347952572071 -0.033330268889439719 0 -0.00054680479836009203 -0.032314251098555326 0 -0.00049316009952244993 -0.032823788044101881 0 -0.00044363723716366532 -0.032552800607418844 0 -0.00044028100710459604 -0.033041015602931642 0 -0.00049316009952244993 -0.032823788044101881 0 -0.00044363723716366532 -0.032552800607418844 0 -0.00036861168833175035 -0.034037794884381023 0 -1.1193148255357758e-07 -0.03499945919074008 0 -3.5070383413891476e-10 -0.034999988693677292 0 -4.5627410719626335e-08 -0.034996177866935554 0 -8.5956238715023641e-10 -0.034999999146874725 0 -0.00064900199056024089 -0.032557741502348241 0 -0.0008988791396531842 -0.033162601064616042 0 -0.00051406347952572071 -0.033330268889439719 0 -0.0008988791396531842 -0.033162601064616042 0 -0.00051406347952572071 -0.033330268889439719 0 -0.00040246274783287524 -0.034176581300118469 0 -0.00051406347952572071 -0.033330268889439719 0 -0.00047628791715645792 -0.033857569516599163 0 -0.00040246274783287524 -0.034176581300118469 0 -0.00047628791715645792 -0.033857569516599163 0 -0.00040246274783287524 -0.034176581300118469 0 5.0251992393640118e-07 -0.035000519564285758 0 -0.0008988791396531842 -0.033162601064616042 0 -0.00040246274783287524 -0.034176581300118469 0 -1.702102252159492e-06 -0.034997438030955133 0 -0.00040246274783287524 -0.034176581300118469 0 -1.702102252159492e-06 -0.034997438030955133 0 5.0251992393640118e-07 -0.035000519564285758 0 -3.0429549391719854e-05 -0.034987875859773261 0 -1.4518427675891798e-08 -0.035000008514381772 0 -1.5840597314010134e-05 -0.034988762832698091 0 -1.5840597314010134e-05 -0.034988762832698091 0 -3.1955556845270308e-05 -0.034972162010964668 0 1.4659794110053847e-09 -0.034999961953737835 0 -1.4518427675891798e-08 -0.035000008514381772 0 -1.5840597314010134e-05 -0.034988762832698091 0 1.4659794110053847e-09 -0.034999961953737835 0 -0.00030998872282103813 -0.034457224166274746 0 -2.8788587890295379e-07 -0.034999793088957946 0 -5.3866440711504212e-05 -0.034972987736318593 0 -3.0429549391719854e-05 -0.034987875859773261 0 -3.1955556845270308e-05 -0.034972162010964668 0 -3.0429549391719854e-05 -0.034987875859773261 0 -1.5840597314010134e-05 -0.034988762832698091 0 -3.1955556845270308e-05 -0.034972162010964668 0 -1.8473300948456406e-06 -0.034957487371943971 0 5.5313339457365609e-06 -0.034960099550254801 0 -8.5290851998039744e-06 -0.034932318588549401 0 -1.8473300948456406e-06 -0.034957487371943971 0 5.5313339457365609e-06 -0.034960099550254801 0 1.1841497636874828e-08 -0.034999920660702691 0 -1.8679644468702107e-05 -0.034965850360155114 0 -9.2975228494247772e-10 -0.034999985085668539 0 5.5313339457365609e-06 -0.034960099550254801 0 1.1841497636874828e-08 -0.034999920660702691 0 3.0584522006104433e-08 -0.0349998945395825 0 5.5313339457365609e-06 -0.034960099550254801 0 3.0584522006104433e-08 -0.0349998945395825 0 1.1848737506060509e-05 -0.034913040417576723 0 5.5313339457365609e-06 -0.034960099550254801 0 -8.5290851998039744e-06 -0.034932318588549401 0 1.1848737506060509e-05 -0.034913040417576723 0 1.1848737506060509e-05 -0.034913040417576723 0 9.0344639771862682e-06 -0.034821129582507597 0 2.7217084790590148e-05 -0.034868074172402008 0 3.0584522006104433e-08 -0.0349998945395825 0 1.1848737506060509e-05 -0.034913040417576723 0 2.7217084790590148e-05 -0.034868074172402008 0 3.0584522006104433e-08 -0.0349998945395825 0 4.8652907165456543e-08 -0.034999773780508614 0 2.7217084790590148e-05 -0.034868074172402008 0 -8.4460706321211698e-05 -0.034898517748927924 0 -3.316340110084898e-05 -0.034880626888302436 0 -0.00012431982495258515 -0.034838813202600245 0 1.1848737506060509e-05 -0.034913040417576723 0 -3.316340110084898e-05 -0.034880626888302436 0 9.0344639771862682e-06 -0.034821129582507597 0 -8.5290851998039744e-06 -0.034932318588549401 0 1.1848737506060509e-05 -0.034913040417576723 0 -3.316340110084898e-05 -0.034880626888302436 0 -3.316340110084898e-05 -0.034880626888302436 0 9.0344639771862682e-06 -0.034821129582507597 0 -4.3503348951977055e-05 -0.034736605550376227 0 -3.316340110084898e-05 -0.034880626888302436 0 -4.3503348951977055e-05 -0.034736605550376227 0 -0.00012431982495258515 -0.034838813202600245 0 -4.3503348951977055e-05 -0.034736605550376227 0 2.394759895190068e-05 -0.034448103151363825 0 -0.0002888758891435489 -0.034643385391976617 0 -4.3503348951977055e-05 -0.034736605550376227 0 3.7282719520662506e-05 -0.034669887132896232 0 2.394759895190068e-05 -0.034448103151363825 0 9.0344639771862682e-06 -0.034821129582507597 0 3.7282719520662506e-05 -0.034669887132896232 0 2.7217084790590148e-05 -0.034868074172402008 0 9.0344639771862682e-06 -0.034821129582507597 0 -4.3503348951977055e-05 -0.034736605550376227 0 3.7282719520662506e-05 -0.034669887132896232 0 3.7282719520662506e-05 -0.034669887132896232 0 2.7243451526143853e-05 -0.034568704970097196 0 1.4934814419831997e-05 -0.034782037005719767 0 3.7282719520662506e-05 -0.034669887132896232 0 2.7243451526143853e-05 -0.034568704970097196 0 2.394759895190068e-05 -0.034448103151363825 0 2.7243451526143853e-05 -0.034568704970097196 0 2.394759895190068e-05 -0.034448103151363825 0 2.5950929375136054e-05 -0.034318391728659074 0 2.394759895190068e-05 -0.034448103151363825 0 2.5950929375136054e-05 -0.034318391728659074 0 -3.9466666181851136e-05 -0.034153419305727295 0 4.8652907165456543e-08 -0.034999773780508614 0 2.7217084790590148e-05 -0.034868074172402008 0 1.4934814419831997e-05 -0.034782037005719767 0 3.7282719520662506e-05 -0.034669887132896232 0 2.7217084790590148e-05 -0.034868074172402008 0 1.4934814419831997e-05 -0.034782037005719767 0 4.8652907165456543e-08 -0.034999773780508614 0 1.4934814419831997e-05 -0.034782037005719767 0 -2.1330403998202576e-08 -0.034999740301518117 0 1.4934814419831997e-05 -0.034782037005719767 0 -2.1330403998202576e-08 -0.034999740301518117 0 -3.0100142062422982e-05 -0.034839572101326141 0 -2.1330403998202576e-08 -0.034999740301518117 0 -3.0100142062422982e-05 -0.034839572101326141 0 -4.7843310026581978e-08 -0.034999814391189411 0 -3.0100142062422982e-05 -0.034839572101326141 0 -2.0743600528955673e-05 -0.034716161592428192 0 -4.5633411545763249e-05 -0.03486384904278976 0 1.4934814419831997e-05 -0.034782037005719767 0 -3.0100142062422982e-05 -0.034839572101326141 0 -1.3815985131389242e-05 -0.034622863284032419 0 2.7243451526143853e-05 -0.034568704970097196 0 1.4934814419831997e-05 -0.034782037005719767 0 -1.3815985131389242e-05 -0.034622863284032419 0 2.7243451526143853e-05 -0.034568704970097196 0 -1.3815985131389242e-05 -0.034622863284032419 0 2.5950929375136054e-05 -0.034318391728659074 0 -1.3815985131389242e-05 -0.034622863284032419 0 2.5950929375136054e-05 -0.034318391728659074 0 5.1809802496138226e-06 -0.034435600430421119 0 2.5950929375136054e-05 -0.034318391728659074 0 4.2415550939106781e-05 -0.033955813780099334 0 -3.9466666181851136e-05 -0.034153419305727295 0 2.5950929375136054e-05 -0.034318391728659074 0 5.1809802496138226e-06 -0.034435600430421119 0 4.2415550939106781e-05 -0.033955813780099334 0 0.00014080978677273354 -0.034681834210390505 0 5.1809802496138226e-06 -0.034435600430421119 0 -2.0743600528955673e-05 -0.034716161592428192 0 0.00014080978677273354 -0.034681834210390505 0 5.1809802496138226e-06 -0.034435600430421119 0 4.2415550939106781e-05 -0.033955813780099334 0 -1.3815985131389242e-05 -0.034622863284032419 0 5.1809802496138226e-06 -0.034435600430421119 0 -2.0743600528955673e-05 -0.034716161592428192 0 -3.0100142062422982e-05 -0.034839572101326141 0 -1.3815985131389242e-05 -0.034622863284032419 0 -2.0743600528955673e-05 -0.034716161592428192 0 -2.0743600528955673e-05 -0.034716161592428192 0 2.3118337281637259e-05 -0.034889500774281018 0 -4.5633411545763249e-05 -0.03486384904278976 0 7.3221911829950178e-05 -0.033523644773886169 0 -0.00010980847625220223 -0.033689944387215717 0 6.7796829445588154e-05 -0.033575615996168096 0 7.9301740098642749e-05 -0.034110017365770864 0 -3.6635101620281082e-05 -0.034289872282654239 0 0.00014080978677273354 -0.034681834210390505 0 -2.0743600528955673e-05 -0.034716161592428192 0 2.3118337281637259e-05 -0.034889500774281018 0 -0.00010980847625220223 -0.033689944387215717 0 7.315119059427851e-05 -0.03376727927802968 0 -0.00021119496543645032 -0.034083823970043142 0 2.3118337281637259e-05 -0.034889500774281018 0 -3.7148799854356262e-05 -0.034926406722105667 0 -4.5633411545763249e-05 -0.03486384904278976 0 -3.7148799854356262e-05 -0.034926406722105667 0 -3.1690720885511814e-08 -0.034999946747819977 0 -4.5633411545763249e-05 -0.03486384904278976 0 -3.1690720885511814e-08 -0.034999946747819977 0 -4.7843310026581978e-08 -0.034999814391189411 0 -4.5633411545763249e-05 -0.03486384904278976 0 -3.0100142062422982e-05 -0.034839572101326141 0 -4.7843310026581978e-08 -0.034999814391189411 0 -4.5633411545763249e-05 -0.03486384904278976 0 0.00029215421888947077 -0.03338669023220156 0 0.00049183722499019375 -0.033267575051279523 0 0.0004070778835165589 -0.033494395756638914 0 0.00029215421888947077 -0.03338669023220156 0 0.0004070778835165589 -0.033494395756638914 0 0.00024317055989225072 -0.03352216524335213 0 0.00029215421888947077 -0.03338669023220156 0 0.00024317055989225072 -0.03352216524335213 0 0.0001699938158024691 -0.033464688373847994 0 0.00049183722499019375 -0.033267575051279523 0 0.00060014568405497549 -0.033389525366240062 0 0.0004070778835165589 -0.033494395756638914 0 0.00049183722499019375 -0.033267575051279523 0 0.00060014568405497549 -0.033389525366240062 0 0.00066333546889673733 -0.033035196569111358 0 0.00060014568405497549 -0.033389525366240062 0 0.00052260500264839495 -0.033627479553990564 0 0.0004070778835165589 -0.033494395756638914 0 0.00060014568405497549 -0.033389525366240062 0 0.00052260500264839495 -0.033627479553990564 0 0.00072865300616203855 -0.033549687201471903 0 0.00052260500264839495 -0.033627479553990564 0 0.0004070778835165589 -0.033494395756638914 0 0.00034024885907080806 -0.033657956131061907 0 0.0004070778835165589 -0.033494395756638914 0 0.00034024885907080806 -0.033657956131061907 0 0.00024317055989225072 -0.03352216524335213 0 0.00034024885907080806 -0.033657956131061907 0 0.00018465987522762252 -0.03365287233964271 0 0.00026448896094436283 -0.033869045516076085 0 0.00018465987522762252 -0.03365287233964271 0 7.315119059427851e-05 -0.03376727927802968 0 0.00026448896094436283 -0.033869045516076085 0 0.00034024885907080806 -0.033657956131061907 0 0.00018465987522762252 -0.03365287233964271 0 0.00024317055989225072 -0.03352216524335213 0 -0.00010980847625220223 -0.033689944387215717 0 7.315119059427851e-05 -0.03376727927802968 0 6.7796829445588154e-05 -0.033575615996168096 0 0.00018465987522762252 -0.03365287233964271 0 7.315119059427851e-05 -0.03376727927802968 0 6.7796829445588154e-05 -0.033575615996168096 0 6.7796829445588154e-05 -0.033575615996168096 0 0.0001185060152578887 -0.033529722959643918 0 1.4285952629087876e-05 -0.033562049322150761 0 7.3221911829950178e-05 -0.033523644773886169 0 6.7796829445588154e-05 -0.033575615996168096 0 1.4285952629087876e-05 -0.033562049322150761 0 0.00018465987522762252 -0.03365287233964271 0 6.7796829445588154e-05 -0.033575615996168096 0 0.0001185060152578887 -0.033529722959643918 0 0.00018465987522762252 -0.03365287233964271 0 0.00024317055989225072 -0.03352216524335213 0 0.0001185060152578887 -0.033529722959643918 0 0.00024317055989225072 -0.03352216524335213 0 0.0001185060152578887 -0.033529722959643918 0 0.0001699938158024691 -0.033464688373847994 0 0.0001185060152578887 -0.033529722959643918 0 4.6289803694217328e-05 -0.033530860055751378 0 1.4285952629087876e-05 -0.033562049322150761 0 0.0001185060152578887 -0.033529722959643918 0 0.0001699938158024691 -0.033464688373847994 0 4.6289803694217328e-05 -0.033530860055751378 0 0.0001699938158024691 -0.033464688373847994 0 4.6289803694217328e-05 -0.033530860055751378 0 0.00024486160164374006 -0.033336732951410319 0 7.9301740098642749e-05 -0.034110017365770864 0 6.0239702266525189e-05 -0.033992317719875972 0 7.3221911829950178e-05 -0.033523644773886169 0 1.4285952629087876e-05 -0.033562049322150761 0 4.2415550939106781e-05 -0.033955813780099334 0 4.6289803694217328e-05 -0.033530860055751378 0 1.4285952629087876e-05 -0.033562049322150761 0 -5.0629589556257809e-05 -0.033694886551846673 0 1.4285952629087876e-05 -0.033562049322150761 0 4.2415550939106781e-05 -0.033955813780099334 0 -5.0629589556257809e-05 -0.033694886551846673 0 4.2415550939106781e-05 -0.033955813780099334 0 -5.0629589556257809e-05 -0.033694886551846673 0 -0.00020230937789251152 -0.033777676712368421 0 4.2415550939106781e-05 -0.033955813780099334 0 -0.00020230937789251152 -0.033777676712368421 0 -3.9466666181851136e-05 -0.034153419305727295 0 4.6289803694217328e-05 -0.033530860055751378 0 7.2590280591377845e-05 -0.033469216222987069 0 0.00024486160164374006 -0.033336732951410319 0 4.6289803694217328e-05 -0.033530860055751378 0 -5.0629589556257809e-05 -0.033694886551846673 0 7.2590280591377845e-05 -0.033469216222987069 0 -0.00020230937789251152 -0.033777676712368421 0 7.2590280591377845e-05 -0.033469216222987069 0 0.00011199919909355124 -0.033134181670322366 0 -5.0629589556257809e-05 -0.033694886551846673 0 -0.00020230937789251152 -0.033777676712368421 0 7.2590280591377845e-05 -0.033469216222987069 0 7.2590280591377845e-05 -0.033469216222987069 0 0.00039321240933300699 -0.033116552569461187 0 0.00011199919909355124 -0.033134181670322366 0 7.2590280591377845e-05 -0.033469216222987069 0 0.00039321240933300699 -0.033116552569461187 0 0.00024486160164374006 -0.033336732951410319 0 0.00039321240933300699 -0.033116552569461187 0 0.00024486160164374006 -0.033336732951410319 0 0.00051116629685516324 -0.033038995809992054 0 0.00029215421888947077 -0.03338669023220156 0 0.00024486160164374006 -0.033336732951410319 0 0.00051116629685516324 -0.033038995809992054 0 0.00029215421888947077 -0.03338669023220156 0 0.0001699938158024691 -0.033464688373847994 0 0.00024486160164374006 -0.033336732951410319 0 0.00029215421888947077 -0.03338669023220156 0 0.00049183722499019375 -0.033267575051279523 0 0.00051116629685516324 -0.033038995809992054 0 0.00049183722499019375 -0.033267575051279523 0 0.00051116629685516324 -0.033038995809992054 0 0.00066333546889673733 -0.033035196569111358 0 0.00039321240933300699 -0.033116552569461187 0 0.00051116629685516324 -0.033038995809992054 0 0.00076731211573655036 -0.032847683830247464 0 0.00039321240933300699 -0.033116552569461187 0 0.00045817147934614703 -0.032670994493721885 0 0.00076731211573655036 -0.032847683830247464 0 0.00039321240933300699 -0.033116552569461187 0 0.00045817147934614703 -0.032670994493721885 0 0.00011199919909355124 -0.033134181670322366 0 0.00045817147934614703 -0.032670994493721885 0 0.00079937419513621203 -0.03213364566976485 0 0.00019922726348466958 -0.031699739298375475 0 0.00057965428455533478 -0.031501048838333968 0 0.00060432558593455691 -0.032095681992040284 0 0.00043398813863848416 -0.030876279796159537 0 0.00040108730084536251 -0.031335395423609184 0 0.0006823286897952854 -0.030993161626011921 0 0.00045817147934614703 -0.032670994493721885 0 0.00079937419513621203 -0.03213364566976485 0 0.00076731211573655036 -0.032847683830247464 0 2.394759895190068e-05 -0.034448103151363825 0 -3.9466666181851136e-05 -0.034153419305727295 0 -0.0002888758891435489 -0.034643385391976617 0 -0.00020230937789251152 -0.033777676712368421 0 -3.9466666181851136e-05 -0.034153419305727295 0 -0.0002888758891435489 -0.034643385391976617 0 -0.00022882438170941167 -0.033737263089005209 0 -0.0003020105478896725 -0.033472110920270394 0 -0.00020230937789251152 -0.033777676712368421 0 0.00011199919909355124 -0.033134181670322366 0 -0.00036619492865592882 -0.032321356774297406 0 0.00045817147934614703 -0.032670994493721885 0 0.00011199919909355124 -0.033134181670322366 0 -0.00036619492865592882 -0.032321356774297406 0 0.00045817147934614703 -0.032670994493721885 0 -0.00036619492865592882 -0.032321356774297406 0 0.00019922726348466958 -0.031699739298375475 0 -0.0002888758891435489 -0.034643385391976617 0 -0.00022112561548472273 -0.034839744862174934 0 -0.00012431982495258515 -0.034838813202600245 0 -4.3503348951977055e-05 -0.034736605550376227 0 -0.0002888758891435489 -0.034643385391976617 0 -0.00012431982495258515 -0.034838813202600245 0 -0.0003020105478896725 -0.033472110920270394 0 -0.00013867907775499784 -0.03298573484420831 0 -0.00036619492865592882 -0.032321356774297406 0 -7.5081858231275619e-05 -0.031119202275033606 0 0.00019922726348466958 -0.031699739298375475 0 -7.5081858231275619e-05 -0.031119202275033606 0 0.00019922726348466958 -0.031699739298375475 0 0.00013860195223110129 -0.031017859431187195 0 -0.00013617842250566089 -0.034904057076900238 0 -8.4460706321211698e-05 -0.034898517748927924 0 -0.00012431982495258515 -0.034838813202600245 0 -0.00013617842250566089 -0.034904057076900238 0 -0.00022112561548472273 -0.034839744862174934 0 -0.00012431982495258515 -0.034838813202600245 0 0.00043398813863848416 -0.030876279796159537 0 0.00045044456142887072 -0.030864094044882894 0 0.00061490391546233667 -0.030759570908577352 0 0.00057965428455533478 -0.031501048838333968 0 0.00035643060426786353 -0.031022582931215955 0 0.00079937419513621203 -0.03213364566976485 0 0.00019922726348466958 -0.031699739298375475 0 0.00033363915289133983 -0.031008805927175486 0 0.00019922726348466958 -0.031699739298375475 0 0.00013860195223110129 -0.031017859431187195 0 0.00033363915289133983 -0.031008805927175486 0 0.00013860195223110129 -0.031017859431187195 0 0.00021649654055833016 -0.030949707297415217 0 0.00033363915289133983 -0.031008805927175486 0 0.00039153145928203285 -0.0307994938367823 0 0.00021649654055833016 -0.030949707297415217 0 0.00033363915289133983 -0.031008805927175486 0 0.00039153145928203285 -0.0307994938367823 0 0.00033363915289133983 -0.031008805927175486 0 0.00045044456142887072 -0.030864094044882894 0 0.00043398813863848416 -0.030876279796159537 0 0.00033363915289133983 -0.031008805927175486 0 0.00045044456142887072 -0.030864094044882894 0 0.00039153145928203285 -0.0307994938367823 0 0.00045044456142887072 -0.030864094044882894 0 0.00053008723225902521 -0.030719339289452724 0 0.00045044456142887072 -0.030864094044882894 0 0.00053008723225902521 -0.030719339289452724 0 0.00061490391546233667 -0.030759570908577352 0 0.00053008723225902521 -0.030719339289452724 0 0.0007212691942210524 -0.030616470104833159 0 0.00061490391546233667 -0.030759570908577352 0 0.0007212691942210524 -0.030616470104833159 0 0.00085370187580847208 -0.03062185789811209 0 0.0009606766785062225 -0.030490993851204514 0 0.0007212691942210524 -0.030616470104833159 0 0.00085370187580847208 -0.03062185789811209 0 0.00061490391546233667 -0.030759570908577352 0 0.00043398813863848416 -0.030876279796159537 0 0.00061490391546233667 -0.030759570908577352 0 0.00081125447583038027 -0.030755611203143126 0 0.00085370187580847208 -0.03062185789811209 0 0.00061490391546233667 -0.030759570908577352 0 0.00081125447583038027 -0.030755611203143126 0 0.00085370187580847208 -0.03062185789811209 0 0.00081125447583038027 -0.030755611203143126 0 0.0011576387037586212 -0.030490407431773968 0 0.00081125447583038027 -0.030755611203143126 0 0.0011263796806887847 -0.030700764013750631 0 0.0011576387037586212 -0.030490407431773968 0 0.0011165300836817962 -0.030404446005924353 0 0.0009606766785062225 -0.030490993851204514 0 0.0011576387037586212 -0.030490407431773968 0 0.00085370187580847208 -0.03062185789811209 0 0.0009606766785062225 -0.030490993851204514 0 0.0011576387037586212 -0.030490407431773968 0 0.0010687519946134803 -0.029828956111284926 0 0.0011301969327418401 -0.03047350532375543 0 0.00099783773331392944 -0.029417597295165378 0 0.0013538919106885995 -0.029865837594900732 0 0.0011576387037586212 -0.030490407431773968 0 0.0013538919106885995 -0.029865837594900732 0 0.0014289248604041403 -0.030249412197500481 0 0.0017969762153012762 -0.02996385300207793 0 0.0014289248604041403 -0.030249412197500481 0 0.001658166199085914 -0.030314692462691535 0 0.001560255224649689 -0.030451500628456547 0 0.0014289248604041403 -0.030249412197500481 0 0.0011576387037586212 -0.030490407431773968 0 0.001560255224649689 -0.030451500628456547 0 0.0013538919106885995 -0.029865837594900732 0 0.0014289248604041403 -0.030249412197500481 0 0.0011576387037586212 -0.030490407431773968 0 0.00029626668262005179 -0.02801321231000482 0 0.0021485238254439452 -0.031097299719048763 0 0.0013215494193834683 -0.029325195016322216 0 0.0018185197768861129 -0.03048014645342741 0 0.0018869361946956126 -0.029999283977190629 0 0.0017969762153012762 -0.02996385300207793 0 0.0018185197768861129 -0.03048014645342741 0 0.0017435356208863029 -0.030356742829096482 0 0.0013215494193834683 -0.029325195016322216 0 0.0019271119607677551 -0.029648643590662556 0 0.0018869361946956126 -0.029999283977190629 0 0.0019063608420677117 -0.029686596262922735 0 0.00029626668262005179 -0.02801321231000482 0 0.0014289248604041403 -0.030249412197500481 0 0.0017969762153012762 -0.02996385300207793 0 0.001658166199085914 -0.030314692462691535 0 0.0017969762153012762 -0.02996385300207793 0 0.001658166199085914 -0.030314692462691535 0 0.0017435356208863029 -0.030356742829096482 0 0.0017435356208863029 -0.030356742829096482 0 0.0017750133086704585 -0.030486497977943266 0 0.0017093428163165068 -0.030468046504620521 0 0.0018185197768861129 -0.03048014645342741 0 0.0017435356208863029 -0.030356742829096482 0 0.0017750133086704585 -0.030486497977943266 0 0.001658166199085914 -0.030314692462691535 0 0.0017435356208863029 -0.030356742829096482 0 0.0017093428163165068 -0.030468046504620521 0 0.001658166199085914 -0.030314692462691535 0 0.0017093428163165068 -0.030468046504620521 0 0.001560255224649689 -0.030451500628456547 0 0.0017093428163165068 -0.030468046504620521 0 0.001560255224649689 -0.030451500628456547 0 0.0016125942788745684 -0.030559921602345119 0 0.0017353938323217207 -0.030544249566940383 0 0.0016125942788745684 -0.030559921602345119 0 0.0016938370321959548 -0.030586545589513216 0 0.0017353938323217207 -0.030544249566940383 0 0.0018032449499724044 -0.030542319976138377 0 0.0017556417713142135 -0.030590162878106956 0 0.0017353938323217207 -0.030544249566940383 0 0.0017556417713142135 -0.030590162878106956 0 0.0016938370321959548 -0.030586545589513216 0 0.0017750133086704585 -0.030486497977943266 0 0.0017093428163165068 -0.030468046504620521 0 0.0017353938323217207 -0.030544249566940383 0 0.0017093428163165068 -0.030468046504620521 0 0.0017353938323217207 -0.030544249566940383 0 0.0016125942788745684 -0.030559921602345119 0 0.0018185197768861129 -0.03048014645342741 0 0.0018032449499724044 -0.030542319976138377 0 0.0018641084390708447 -0.030494096535925268 0 0.0017750133086704585 -0.030486497977943266 0 0.0017353938323217207 -0.030544249566940383 0 0.0018032449499724044 -0.030542319976138377 0 0.0018185197768861129 -0.03048014645342741 0 0.0017750133086704585 -0.030486497977943266 0 0.0018032449499724044 -0.030542319976138377 0 0.0011576387037586212 -0.030490407431773968 0 0.001560255224649689 -0.030451500628456547 0 0.0014221998728161272 -0.030609964602677637 0 0.001560255224649689 -0.030451500628456547 0 0.0014221998728161272 -0.030609964602677637 0 0.0016125942788745684 -0.030559921602345119 0 0.0014221998728161272 -0.030609964602677637 0 0.0016125942788745684 -0.030559921602345119 0 0.0016561958157188901 -0.030653393036229413 0 0.0011263796806887847 -0.030700764013750631 0 0.0011576387037586212 -0.030490407431773968 0 0.0014221998728161272 -0.030609964602677637 0 0.0011263796806887847 -0.030700764013750631 0 0.0014221998728161272 -0.030609964602677637 0 0.0013908036024264637 -0.030787405128502383 0 0.0014221998728161272 -0.030609964602677637 0 0.0013908036024264637 -0.030787405128502383 0 0.0016561958157188901 -0.030653393036229413 0 0.0013908036024264637 -0.030787405128502383 0 0.0016227956381547626 -0.030783448003154818 0 0.0014826141870416839 -0.031148332435836954 0 0.0013908036024264637 -0.030787405128502383 0 0.0016561958157188901 -0.030653393036229413 0 0.0016227956381547626 -0.030783448003154818 0 0.0016561958157188901 -0.030653393036229413 0 0.0016227956381547626 -0.030783448003154818 0 0.0018308227081357379 -0.030627211858329822 0 0.0013908036024264637 -0.030787405128502383 0 0.0014826141870416839 -0.031148332435836954 0 0.0010830370916497627 -0.030958439819080908 0 0.0018308227081357379 -0.030627211858329822 0 0.0020871687304867209 -0.030554857633644152 0 0.0022038938320647016 -0.029952155979503792 0 0.0018032449499724044 -0.030542319976138377 0 0.0018308227081357379 -0.030627211858329822 0 0.0018641084390708447 -0.030494096535925268 0 0.0018108587260829369 -0.030482497089983698 0 0.0022538233370186663 -0.030609311347276388 0 0.0016561958157188901 -0.030653393036229413 0 0.0017556417713142135 -0.030590162878106956 0 0.0018308227081357379 -0.030627211858329822 0 0.0018032449499724044 -0.030542319976138377 0 0.0017556417713142135 -0.030590162878106956 0 0.0018308227081357379 -0.030627211858329822 0 0.0016125942788745684 -0.030559921602345119 0 0.0016561958157188901 -0.030653393036229413 0 0.0016938370321959548 -0.030586545589513216 0 0.0016561958157188901 -0.030653393036229413 0 0.0017556417713142135 -0.030590162878106956 0 0.0016938370321959548 -0.030586545589513216 0 0.0016227956381547626 -0.030783448003154818 0 0.0018308227081357379 -0.030627211858329822 0 0.0017497154453278395 -0.030871872461841067 0 0.0018308227081357379 -0.030627211858329822 0 0.0020871687304867209 -0.030554857633644152 0 0.0019538005804436522 -0.03078272465004352 0 0.0020871687304867209 -0.030554857633644152 0 0.0021850876617209771 -0.030783123773359646 0 0.0025143380317324366 -0.030566216002917569 0 0.0020871687304867209 -0.030554857633644152 0 0.0021850876617209771 -0.030783123773359646 0 0.0019538005804436522 -0.03078272465004352 0 0.0021850876617209771 -0.030783123773359646 0 0.0019538005804436522 -0.03078272465004352 0 0.0018902236718689272 -0.031042871191551906 0 0.0018308227081357379 -0.030627211858329822 0 0.0019538005804436522 -0.03078272465004352 0 0.0017497154453278395 -0.030871872461841067 0 0.0019538005804436522 -0.03078272465004352 0 0.0017497154453278395 -0.030871872461841067 0 0.0018902236718689272 -0.031042871191551906 0 0.0021850876617209771 -0.030783123773359646 0 0.0018902236718689272 -0.031042871191551906 0 0.002215535081467746 -0.03106308658559476 0 0.0021850876617209771 -0.030783123773359646 0 0.002215535081467746 -0.03106308658559476 0 0.0024206729314578319 -0.030775885806860026 0 0.0018902236718689272 -0.031042871191551906 0 0.0014826141870416839 -0.031148332435836954 0 0.0018735693261970085 -0.031611973146765372 0 0.0016227956381547626 -0.030783448003154818 0 0.0017497154453278395 -0.030871872461841067 0 0.0014826141870416839 -0.031148332435836954 0 0.0017497154453278395 -0.030871872461841067 0 0.0018902236718689272 -0.031042871191551906 0 0.0014826141870416839 -0.031148332435836954 0 0.0014826141870416839 -0.031148332435836954 0 0.00096868789336432086 -0.031466001852582498 0 0.0010830370916497627 -0.030958439819080908 0 0.0014826141870416839 -0.031148332435836954 0 0.00096868789336432086 -0.031466001852582498 0 0.0013116578445995016 -0.031944840770328872 0 0.00096868789336432086 -0.031466001852582498 0 0.00040108730084536251 -0.031335395423609184 0 0.0006823286897952854 -0.030993161626011921 0 0.00043398813863848416 -0.030876279796159537 0 0.00081125447583038027 -0.030755611203143126 0 0.0006823286897952854 -0.030993161626011921 0 0.00081125447583038027 -0.030755611203143126 0 0.0006823286897952854 -0.030993161626011921 0 0.0010830370916497627 -0.030958439819080908 0 0.00096868789336432086 -0.031466001852582498 0 0.0006823286897952854 -0.030993161626011921 0 0.0010830370916497627 -0.030958439819080908 0 0.00081125447583038027 -0.030755611203143126 0 0.0011263796806887847 -0.030700764013750631 0 0.0010830370916497627 -0.030958439819080908 0 0.0011263796806887847 -0.030700764013750631 0 0.0013908036024264637 -0.030787405128502383 0 0.0010830370916497627 -0.030958439819080908 0 0.0026374958458898687 -0.02998565410696799 0 0.0028577214272132588 -0.030091823533521779 0 0.0028922347335122987 -0.029946481848727051 0 0.0026374958458898687 -0.02998565410696799 0 0.0028577214272132588 -0.030091823533521779 0 0.0026814704267315026 -0.030218120333453294 0 0.0028577214272132588 -0.030091823533521779 0 0.0026814704267315026 -0.030218120333453294 0 0.0027066104564391 -0.030419336127161398 0 0.0026814704267315026 -0.030218120333453294 0 0.0026375806785941917 -0.030423412667653006 0 0.0027066104564391 -0.030419336127161398 0 0.0018973336679618885 -0.028857857197451084 0 0.0015425319043392398 -0.028694599759975258 0 0.0015425319043392398 -0.028694599759975258 0 0.00026537686848936251 -0.027070529675272542 0 0.0028401428507802821 -0.029628582408547988 0 0.0026550443236062833 -0.029638281666870922 0 0.0026629536354568963 -0.029816699268981936 0 0.0028577214272132588 -0.030091823533521779 0 0.0027066104564391 -0.030419336127161398 0 0.0030360012743324036 -0.030101036139491628 0 0.0015425319043392398 -0.028694599759975258 0 0.0029790928455549117 -0.030084310989802063 0 0.0026550443236062833 -0.029638281666870922 0 0.0026629536354568963 -0.029816699268981936 0 0.0025525754124664417 -0.029728503869219276 0 0.0028577214272132588 -0.030091823533521779 0 0.0030360012743324036 -0.030101036139491628 0 0.0030373077048687054 -0.029988167160813383 0 0.0028577214272132588 -0.030091823533521779 0 0.0030373077048687054 -0.029988167160813383 0 0.0028922347335122987 -0.029946481848727051 0 0.0030360012743324036 -0.030101036139491628 0 0.0030373077048687054 -0.029988167160813383 0 0.0029532853045556753 -0.02989034776392235 0 0.0026629536354568963 -0.029816699268981936 0 0.0024630959225728842 -0.029840673230234954 0 0.0024413514277136683 -0.030108161597276559 0 0.0029790928455549117 -0.030084310989802063 0 0.0026521562131301434 -0.03002963463884508 0 0.0026550443236062833 -0.029638281666870922 0 0.0025525754124664417 -0.029728503869219276 0 0.0024138684932950879 -0.029615955664427877 0 0.00026537686848936251 -0.027070529675272542 0 0.00011606132820299753 -0.02678077273938978 0 0.0026629536354568963 -0.029816699268981936 0 0.0025525754124664417 -0.029728503869219276 0 0.0024630959225728842 -0.029840673230234954 0 0.0025525754124664417 -0.029728503869219276 0 0.0024138684932950879 -0.029615955664427877 0 0.0024630959225728842 -0.029840673230234954 0 0.00029626668262005179 -0.02801321231000482 0 0.00011606132820299753 -0.02678077273938978 0 0.00011606132820299753 -0.02678077273938978 0 0.0022538233370186663 -0.030609311347276388 0 0.0026404183882106406 -0.02931282723433996 0 0.0018869361946956126 -0.029999283977190629 0 0.0018641084390708447 -0.030494096535925268 0 0.0013215494193834683 -0.029325195016322216 0 0.0026404183882106406 -0.02931282723433996 0 0.0019271119607677551 -0.029648643590662556 0 0.0024138684932950879 -0.029615955664427877 0 0.0024630959225728842 -0.029840673230234954 0 0.0022038938320647016 -0.029952155979503792 0 0.0026404183882106406 -0.02931282723433996 0 0.0019271119607677551 -0.029648643590662556 0 0.0018869361946956126 -0.029999283977190629 0 0.0024630959225728842 -0.029840673230234954 0 0.0022038938320647016 -0.029952155979503792 0 0.0024413514277136683 -0.030108161597276559 0 0.0018185197768861129 -0.03048014645342741 0 0.0018869361946956126 -0.029999283977190629 0 0.0018641084390708447 -0.030494096535925268 0 0.0021265961044761041 -0.030505877925410402 0 0.0026521562131301434 -0.03002963463884508 0 0.0020871687304867209 -0.030554857633644152 0 0.0022038938320647016 -0.029952155979503792 0 0.0024413514277136683 -0.030108161597276559 0 0.0020871687304867209 -0.030554857633644152 0 0.0029532853045556753 -0.02989034776392235 0 0.0025143380317324366 -0.030566216002917569 0 0.0029532853045556753 -0.02989034776392235 0 0.0029171442850348659 -0.030271040698704843 0 0.0025143380317324366 -0.030566216002917569 0 0.0021850876617209771 -0.030783123773359646 0 0.0025143380317324366 -0.030566216002917569 0 0.0024206729314578319 -0.030775885806860026 0 0.0025143380317324366 -0.030566216002917569 0 0.0024206729314578319 -0.030775885806860026 0 0.0027381334674574688 -0.030587084028159992 0 0.0025468916328506173 -0.03088572525010664 0 0.0024206729314578319 -0.030775885806860026 0 0.0027381334674574688 -0.030587084028159992 0 0.002215535081467746 -0.03106308658559476 0 0.0025468916328506173 -0.03088572525010664 0 0.0024206729314578319 -0.030775885806860026 0 0.0025468916328506173 -0.03088572525010664 0 0.0027381334674574688 -0.030587084028159992 0 0.0029288689913441216 -0.030620297280196607 0 0.0027381334674574688 -0.030587084028159992 0 0.0029288689913441216 -0.030620297280196607 0 0.00307224414917914 -0.030324432581936667 0 0.0029171442850348659 -0.030271040698704843 0 0.0027381334674574688 -0.030587084028159992 0 0.00307224414917914 -0.030324432581936667 0 0.0029171442850348659 -0.030271040698704843 0 0.0025143380317324366 -0.030566216002917569 0 0.0027381334674574688 -0.030587084028159992 0 0.0032994925010746421 -0.03029804417808216 0 0.0031285305435786257 -0.030105013867518432 0 0.0030550218686137723 -0.029860354393191835 0 0.0029171442850348659 -0.030271040698704843 0 0.0030480890741286814 -0.030188533852855977 0 0.00307224414917914 -0.030324432581936667 0 0.0030480890741286814 -0.030188533852855977 0 0.00307224414917914 -0.030324432581936667 0 0.0031285305435786257 -0.030105013867518432 0 0.00307224414917914 -0.030324432581936667 0 0.0030982686938250538 -0.030425734130869676 0 0.0032994925010746421 -0.03029804417808216 0 0.0030982686938250538 -0.030425734130869676 0 0.0032994925010746421 -0.03029804417808216 0 0.0031347389784153151 -0.030526752158209214 0 0.0029288689913441216 -0.030620297280196607 0 0.00307224414917914 -0.030324432581936667 0 0.0030982686938250538 -0.030425734130869676 0 0.0029288689913441216 -0.030620297280196607 0 0.0030982686938250538 -0.030425734130869676 0 0.0031347389784153151 -0.030526752158209214 0 0.00307224414917914 -0.030324432581936667 0 0.0032994925010746421 -0.03029804417808216 0 0.0031285305435786257 -0.030105013867518432 0 0.0030480890741286814 -0.030188533852855977 0 0.0031285305435786257 -0.030105013867518432 0 0.0030629504476479639 -0.030046148484280878 0 0.0030373077048687054 -0.029988167160813383 0 0.0029532853045556753 -0.02989034776392235 0 0.0030629504476479639 -0.030046148484280878 0 0.0029532853045556753 -0.02989034776392235 0 0.0029171442850348659 -0.030271040698704843 0 0.0030629504476479639 -0.030046148484280878 0 0.0031285305435786257 -0.030105013867518432 0 0.0030629504476479639 -0.030046148484280878 0 0.0030415672187523407 -0.029939580249338647 0 0.0029171442850348659 -0.030271040698704843 0 0.0030480890741286814 -0.030188533852855977 0 0.0030629504476479639 -0.030046148484280878 0 0.0030415672187523407 -0.029939580249338647 0 0.0030550218686137723 -0.029860354393191835 0 0.0027478698737301967 -0.029712026655744482 0 0.0030373077048687054 -0.029988167160813383 0 0.0030629504476479639 -0.030046148484280878 0 0.0030415672187523407 -0.029939580249338647 0 0.0030373077048687054 -0.029988167160813383 0 0.0028922347335122987 -0.029946481848727051 0 0.0030415672187523407 -0.029939580249338647 0 0.0031285305435786257 -0.030105013867518432 0 0.0030415672187523407 -0.029939580249338647 0 0.0030550218686137723 -0.029860354393191835 0 0.0032994925010746421 -0.03029804417808216 0 0.0030550218686137723 -0.029860354393191835 0 0.0028397040018854156 -0.029323779748090306 0 0.0030550218686137723 -0.029860354393191835 0 0.0027478698737301967 -0.029712026655744482 0 0.0028397040018854156 -0.029323779748090306 0 0.0027478698737301967 -0.029712026655744482 0 0.0028397040018854156 -0.029323779748090306 0 0.0022471072702114859 -0.029289133608149789 0 0.0028922347335122987 -0.029946481848727051 0 0.0030415672187523407 -0.029939580249338647 0 0.0027478698737301967 -0.029712026655744482 0 0.0026374958458898687 -0.02998565410696799 0 0.0028922347335122987 -0.029946481848727051 0 0.0027478698737301967 -0.029712026655744482 0 0.0032664994730907024 -0.029374268787823128 0 0.0031628478425592458 -0.029394187920242336 0 0.0032528150837166001 -0.029098647203246467 0 0.0032664994730907024 -0.029374268787823128 0 0.0032549502274693836 -0.029609669119305019 0 0.0031628478425592458 -0.029394187920242336 0 0.0032549502274693836 -0.029609669119305019 0 0.0031628478425592458 -0.029394187920242336 0 0.0032298331801607705 -0.029743584737636216 0 0.003277917291235851 -0.03017349004239964 0 0.0030151197157762843 -0.029567499992992175 0 0.0032994925010746421 -0.03029804417808216 0 0.0032298331801607705 -0.029743584737636216 0 0.0033709998135140421 -0.030266725146663481 0 0.0032298331801607705 -0.029743584737636216 0 0.0033147874917554354 -0.029844772614229301 0 0.0033709998135140421 -0.030266725146663481 0 0.0032549502274693836 -0.029609669119305019 0 0.0032298331801607705 -0.029743584737636216 0 0.0033147874917554354 -0.029844772614229301 0 0.0033147874917554354 -0.029844772614229301 0 0.0034006160703627789 -0.029761201140585884 0 0.0034283689007123322 -0.02992068022169116 0 0.0033147874917554354 -0.029844772614229301 0 0.0034006160703627789 -0.029761201140585884 0 0.0033339279200652592 -0.029613512926261101 0 0.0032549502274693836 -0.029609669119305019 0 0.0033147874917554354 -0.029844772614229301 0 0.0033339279200652592 -0.029613512926261101 0 0.0032664994730907024 -0.029374268787823128 0 0.0033339279200652592 -0.029613512926261101 0 0.0033561030024691916 -0.029411817476420622 0 0.0032664994730907024 -0.029374268787823128 0 0.0032549502274693836 -0.029609669119305019 0 0.0033339279200652592 -0.029613512926261101 0 0.0034006160703627789 -0.029761201140585884 0 0.0033339279200652592 -0.029613512926261101 0 0.0034668745274713119 -0.02966649660819469 0 0.0033339279200652592 -0.029613512926261101 0 0.0034668745274713119 -0.02966649660819469 0 0.0033561030024691916 -0.029411817476420622 0 0.0035817130910403478 -0.029754826674703656 0 0.0034668745274713119 -0.02966649660819469 0 0.0035299236960900826 -0.029543020632022285 0 0.0035817130910403478 -0.029754826674703656 0 0.0034668745274713119 -0.02966649660819469 0 0.0035113682535537209 -0.029789203600261265 0 0.0035817130910403478 -0.029754826674703656 0 0.0035650902164471444 -0.029814797120530718 0 0.0037962499858801273 -0.029850256174877871 0 0.0035817130910403478 -0.029754826674703656 0 0.0035650902164471444 -0.029814797120530718 0 0.0035113682535537209 -0.029789203600261265 0 0.0035650902164471444 -0.029814797120530718 0 0.0035113682535537209 -0.029789203600261265 0 0.0034283689007123322 -0.02992068022169116 0 0.0034006160703627789 -0.029761201140585884 0 0.0034668745274713119 -0.02966649660819469 0 0.0035113682535537209 -0.029789203600261265 0 0.0034006160703627789 -0.029761201140585884 0 0.0035113682535537209 -0.029789203600261265 0 0.0034283689007123322 -0.02992068022169116 0 0.0033147874917554354 -0.029844772614229301 0 0.0034283689007123322 -0.02992068022169116 0 0.0033709998135140421 -0.030266725146663481 0 0.0035650902164471444 -0.029814797120530718 0 0.0034283689007123322 -0.02992068022169116 0 0.0033709998135140421 -0.030266725146663481 0 0.0033579604007576776 -0.030373261096182561 0 0.0031308423599502814 -0.030902367942158351 0 0.0035650902164471444 -0.029814797120530718 0 0.0033709998135140421 -0.030266725146663481 0 0.0036662475262485778 -0.029673212686124089 0 0.0033709998135140421 -0.030266725146663481 0 0.0029288656803882146 -0.031042586683231153 0 0.0027276880241346706 -0.032121249985335283 0 0.0029288689913441216 -0.030620297280196607 0 0.0031347389784153151 -0.030526752158209214 0 0.0029288656803882146 -0.031042586683231153 0 0.0033709998135140421 -0.030266725146663481 0 0.0031347389784153151 -0.030526752158209214 0 0.0029288656803882146 -0.031042586683231153 0 0.0032994925010746421 -0.03029804417808216 0 0.0033709998135140421 -0.030266725146663481 0 0.0031347389784153151 -0.030526752158209214 0 0.0029288656803882146 -0.031042586683231153 0 0.0026097431522754686 -0.031427266851311447 0 0.0027276880241346706 -0.032121249985335283 0 0.0029288656803882146 -0.031042586683231153 0 0.0027211134420110665 -0.03101129553819473 0 0.0026097431522754686 -0.031427266851311447 0 0.0025468916328506173 -0.03088572525010664 0 0.0029288689913441216 -0.030620297280196607 0 0.0027211134420110665 -0.03101129553819473 0 0.0029288689913441216 -0.030620297280196607 0 0.0029288656803882146 -0.031042586683231153 0 0.0027211134420110665 -0.03101129553819473 0 0.0025468916328506173 -0.03088572525010664 0 0.0027211134420110665 -0.03101129553819473 0 0.0023902564093875602 -0.031324404464505691 0 0.002215535081467746 -0.03106308658559476 0 0.0025468916328506173 -0.03088572525010664 0 0.0023902564093875602 -0.031324404464505691 0 0.0023902564093875602 -0.031324404464505691 0 0.0026097431522754686 -0.031427266851311447 0 0.002312273384309985 -0.03175609309204188 0 0.0027211134420110665 -0.03101129553819473 0 0.0023902564093875602 -0.031324404464505691 0 0.0026097431522754686 -0.031427266851311447 0 0.0026097431522754686 -0.031427266851311447 0 0.0027276880241346706 -0.032121249985335283 0 0.002312273384309985 -0.03175609309204188 0 0.0036662475262485778 -0.029673212686124089 0 0.0037962499858801273 -0.029850256174877871 0 0.0032330942523558352 -0.030464689052216085 0 0.0035650902164471444 -0.029814797120530718 0 0.0036662475262485778 -0.029673212686124089 0 0.0037962499858801273 -0.029850256174877871 0 0.0037962499858801273 -0.029850256174877871 0 0.0032330942523558352 -0.030464689052216085 0 0.0041380948139610636 -0.030824572863988819 0 0.0036695760186245263 -0.030688476300111994 0 0.0036345723162244004 -0.030668654689313648 0 0.0032330942523558352 -0.030464689052216085 0 0.0039100101350039631 -0.03157030578989755 0 0.0049245386620820663 -0.031434695180354071 0 0.0039100101350039631 -0.03157030578989755 0 0.0030267167194180941 -0.031464963080514989 0 0.0034116302762886644 -0.032697258168356523 0 0.0024342162614432623 -0.03131547256388667 0 0.0020261732713654185 -0.033194004870248095 0 0.0032330942523558352 -0.030464689052216085 0 0.0039100101350039631 -0.03157030578989755 0 0.0030267167194180941 -0.031464963080514989 0 0.0039100101350039631 -0.03157030578989755 0 0.0050598800001821877 -0.031855985103567352 0 0.0034116302762886644 -0.032697258168356523 0 0.0039100101350039631 -0.03157030578989755 0 0.0049245386620820663 -0.031434695180354071 0 0.0050598800001821877 -0.031855985103567352 0 0.0036345723162244004 -0.030668654689313648 0 0.0024342162614432623 -0.03131547256388667 0 0.0024342162614432623 -0.03131547256388667 0 0.0029260231437029578 -0.030116016256499765 0 0.0036648819104775914 -0.029147840216005954 0 0.0035129848432584312 -0.029084586514218292 0 0.0034595946451501085 -0.029284584543813785 0 0.0032729639192401001 -0.030627561254498534 0 0.0031334289538308222 -0.03023156905189308 0 0.0028341763019606343 -0.030382714945026309 0 0.0036345723162244004 -0.030668654689313648 0 0.0029260231437029578 -0.030116016256499765 0 0.0037962499858801273 -0.029850256174877871 0 0.0036648819104775914 -0.029147840216005954 0 0.0035299236960900826 -0.029543020632022285 0 0.0036648819104775914 -0.029147840216005954 0 0.0034595946451501085 -0.029284584543813785 0 0.0035299236960900826 -0.029543020632022285 0 0.0037963889927853244 -0.029627739306938718 0 0.0036345723162244004 -0.030668654689313648 0 0.0035817130910403478 -0.029754826674703656 0 0.0037962499858801273 -0.029850256174877871 0 0.0035299236960900826 -0.029543020632022285 0 0.0034668745274713119 -0.02966649660819469 0 0.0035299236960900826 -0.029543020632022285 0 0.0033561030024691916 -0.029411817476420622 0 0.0032664994730907024 -0.029374268787823128 0 0.0033561030024691916 -0.029411817476420622 0 0.0032695169223628993 -0.029170511325648307 0 0.0033561030024691916 -0.029411817476420622 0 0.0033265340507388635 -0.029196746593879858 0 0.0032695169223628993 -0.029170511325648307 0 0.0034595946451501085 -0.029284584543813785 0 0.0035299236960900826 -0.029543020632022285 0 0.0033561030024691916 -0.029411817476420622 0 0.0034595946451501085 -0.029284584543813785 0 0.0033561030024691916 -0.029411817476420622 0 0.0033265340507388635 -0.029196746593879858 0 0.0035129848432584312 -0.029084586514218292 0 0.0034595946451501085 -0.029284584543813785 0 0.0033265340507388635 -0.029196746593879858 0 0.0029260231437029578 -0.030116016256499765 0 0.0035655794767802461 -0.02930716609397406 0 0.0018083007020027215 -0.030579174854820659 0 0.0018784004396280125 -0.030542655999057255 0 0.0021002867593525364 -0.030661913096659093 0 0.0029260231437029578 -0.030116016256499765 0 0.0026736393613496015 -0.029878062143977278 0 0.0033502731821856363 -0.029186932323395465 0 0.0033265340507388635 -0.029196746593879858 0 0.0032926742484918441 -0.029161591931609828 0 0.0033265340507388635 -0.029196746593879858 0 0.0032926742484918441 -0.029161591931609828 0 0.0032695169223628993 -0.029170511325648307 0 0.0033891370805371975 -0.028799458206753458 0 0.0029936132817584326 -0.029379740660730558 0 0.0032926742484918441 -0.029161591931609828 0 0.0032695169223628993 -0.029170511325648307 0 0.0032790665499176611 -0.029171479406497267 0 0.0032695169223628993 -0.029170511325648307 0 0.0032528150837166001 -0.029098647203246467 0 0.0032790665499176611 -0.029171479406497267 0 0.0032528150837166001 -0.029098647203246467 0 0.0034957422465511944 -0.028334906372323672 0 0.0031990943342435833 -0.028647866734110111 0 0.0032664994730907024 -0.029374268787823128 0 0.0032695169223628993 -0.029170511325648307 0 0.0032528150837166001 -0.029098647203246467 0 0.0011730214935105133 -0.032719571295060479 0 0.00069243676723632411 -0.032584314259547727 0 0.0013116578445995016 -0.031944840770328872 0 0.0011730214935105133 -0.032719571295060479 0 0.00069243676723632411 -0.032584314259547727 0 0.00066333546889673733 -0.033035196569111358 0 0.00051116629685516324 -0.033038995809992054 0 0.00069243676723632411 -0.032584314259547727 0 0.00066333546889673733 -0.033035196569111358 0 0.00060432558593455691 -0.032095681992040284 0 0.00070344732523663597 -0.032570080314539798 0 0.00096868789336432086 -0.031466001852582498 0 0.00040108730084536251 -0.031335395423609184 0 0.00069243676723632411 -0.032584314259547727 0 0.00051116629685516324 -0.033038995809992054 0 0.00076731211573655036 -0.032847683830247464 0 0.00069243676723632411 -0.032584314259547727 0 0.00096868789336432086 -0.031466001852582498 0 0.00069243676723632411 -0.032584314259547727 0 0.0013116578445995016 -0.031944840770328872 0 0.0014826141870416839 -0.031148332435836954 0 0.0013116578445995016 -0.031944840770328872 0 0.0018735693261970085 -0.031611973146765372 0 0.0013116578445995016 -0.031944840770328872 0 0.0018735693261970085 -0.031611973146765372 0 0.0015733287357373182 -0.032241905392305786 0 0.002215535081467746 -0.03106308658559476 0 0.0023902564093875602 -0.031324404464505691 0 0.0018735693261970085 -0.031611973146765372 0 0.0018902236718689272 -0.031042871191551906 0 0.002215535081467746 -0.03106308658559476 0 0.0018735693261970085 -0.031611973146765372 0 0.0023902564093875602 -0.031324404464505691 0 0.0018735693261970085 -0.031611973146765372 0 0.002312273384309985 -0.03175609309204188 0 0.0027276880241346706 -0.032121249985335283 0 0.002312273384309985 -0.03175609309204188 0 0.0019640787633730347 -0.032264196500926802 0 0.0027276880241346706 -0.032121249985335283 0 0.0019640787633730347 -0.032264196500926802 0 0.0018625425926458894 -0.033051366763049109 0 0.0018735693261970085 -0.031611973146765372 0 0.0019640787633730347 -0.032264196500926802 0 0.0015733287357373182 -0.032241905392305786 0 0.0018735693261970085 -0.031611973146765372 0 0.002312273384309985 -0.03175609309204188 0 0.0019640787633730347 -0.032264196500926802 0 0.0011730214935105133 -0.032719571295060479 0 0.0013116578445995016 -0.031944840770328872 0 0.0015733287357373182 -0.032241905392305786 0 0.0019640787633730347 -0.032264196500926802 0 0.0015733287357373182 -0.032241905392305786 0 0.0015578940393090937 -0.032673489032520306 0 0.0011730214935105133 -0.032719571295060479 0 0.0015733287357373182 -0.032241905392305786 0 0.0015578940393090937 -0.032673489032520306 0 0.0011730214935105133 -0.032719571295060479 0 0.0015578940393090937 -0.032673489032520306 0 0.0013085538749069417 -0.03306506288083319 0 0.0015578940393090937 -0.032673489032520306 0 0.0013085538749069417 -0.03306506288083319 0 0.0018625425926458894 -0.033051366763049109 0 0.0013085538749069417 -0.03306506288083319 0 0.0018625425926458894 -0.033051366763049109 0 0.0011355418602709705 -0.033558203730831543 0 0.0019640787633730347 -0.032264196500926802 0 0.0015578940393090937 -0.032673489032520306 0 0.0018625425926458894 -0.033051366763049109 0 0.0031308423599502814 -0.030902367942158351 0 0.0021573618075268206 -0.031859855588457948 0 0.0036662475262485778 -0.029673212686124089 0 0.0032330942523558352 -0.030464689052216085 0 0.0024165287974183612 -0.030660867343293739 0 0.0032330942523558352 -0.030464689052216085 0 0.0024165287974183612 -0.030660867343293739 0 0.0030267167194180941 -0.031464963080514989 0 0.0024165287974183612 -0.030660867343293739 0 0.002336326909121987 -0.03211191378431362 0 0.0030267167194180941 -0.031464963080514989 0 0.002336326909121987 -0.03211191378431362 0 0.0030267167194180941 -0.031464963080514989 0 0.0034116302762886644 -0.032697258168356523 0 0.0024165287974183612 -0.030660867343293739 0 0.002336326909121987 -0.03211191378431362 0 0.0011880571289290631 -0.032283660609502718 0 0.0021573618075268206 -0.031859855588457948 0 0.0012000561600515249 -0.032901998213298783 0 0.0011355418602709705 -0.033558203730831543 0 0.00089986534102293159 -0.03325721260319766 0 0.00072865300616203855 -0.033549687201471903 0 0.0013085538749069417 -0.03306506288083319 0 0.0011355418602709705 -0.033558203730831543 0 0.00089986534102293159 -0.03325721260319766 0 0.0011730214935105133 -0.032719571295060479 0 0.00089986534102293159 -0.03325721260319766 0 0.00066333546889673733 -0.033035196569111358 0 0.0011730214935105133 -0.032719571295060479 0 0.0013085538749069417 -0.03306506288083319 0 0.00089986534102293159 -0.03325721260319766 0 0.00060014568405497549 -0.033389525366240062 0 0.00089986534102293159 -0.03325721260319766 0 0.00066333546889673733 -0.033035196569111358 0 0.00060014568405497549 -0.033389525366240062 0 0.00089986534102293159 -0.03325721260319766 0 0.00072865300616203855 -0.033549687201471903 0 0.00072865300616203855 -0.033549687201471903 0 0.00070605737646249167 -0.033643957058683852 0 0.00064405292983558992 -0.033692306682701623 0 0.00070605737646249167 -0.033643957058683852 0 0.00064405292983558992 -0.033692306682701623 0 0.00066191718841538793 -0.033755858365252737 0 0.00070605737646249167 -0.033643957058683852 0 0.00075654488389396719 -0.033786923344512283 0 0.00066191718841538793 -0.033755858365252737 0 0.00075654488389396719 -0.033786923344512283 0 0.00084419486551949141 -0.033862233530726177 0 0.00080638284048279428 -0.033538879657613332 0 0.00070605737646249167 -0.033643957058683852 0 0.00075654488389396719 -0.033786923344512283 0 0.00084419486551949141 -0.033862233530726177 0 0.00084538544703922252 -0.03358202171094294 0 0.0013468015030663116 -0.033371908747222921 0 0.00070605737646249167 -0.033643957058683852 0 0.00084419486551949141 -0.033862233530726177 0 0.0011463408184441669 -0.033301946439055236 0 0.00084419486551949141 -0.033862233530726177 0 0.0011463408184441669 -0.033301946439055236 0 0.0019285635835821638 -0.033474392145398234 0 0.0011880571289290631 -0.032283660609502718 0 0.00070605737646249167 -0.033643957058683852 0 0.0011463408184441669 -0.033301946439055236 0 0.0011355418602709705 -0.033558203730831543 0 0.00072865300616203855 -0.033549687201471903 0 0.00070605737646249167 -0.033643957058683852 0 0.0012000561600515249 -0.032901998213298783 0 0.00073918206380914071 -0.033557538739471128 0 0.0011880571289290631 -0.032283660609502718 0 0.0011463408184441669 -0.033301946439055236 0 0.0019285635835821638 -0.033474392145398234 0 0.002336326909121987 -0.03211191378431362 0 0.0011880571289290631 -0.032283660609502718 0 0.0019285635835821638 -0.033474392145398234 0 0.002336326909121987 -0.03211191378431362 0 0.0019285635835821638 -0.033474392145398234 0 0.0034116302762886644 -0.032697258168356523 0 0.0013468015030663116 -0.033371908747222921 0 0.0020261732713654185 -0.033194004870248095 0 0.0006931425265614006 -0.03326136500556176 0 0.00075386503519769431 -0.033325924515429289 0 0.00062449514853057833 -0.03338186333210412 0 0.00078748851698661696 -0.033326415517318318 0 0.00075386503519769431 -0.033325924515429289 0 0.00077842650245560341 -0.033273380344899822 0 0.0006931425265614006 -0.03326136500556176 0 0.00075386503519769431 -0.033325924515429289 0 0.00077842650245560341 -0.033273380344899822 0 0.0006931425265614006 -0.03326136500556176 0 0.00077842650245560341 -0.033273380344899822 0 0.00074692251083882872 -0.033126344567898633 0 0.0006931425265614006 -0.03326136500556176 0 0.00074692251083882872 -0.033126344567898633 0 0.00057326198352619596 -0.033134225570550048 0 0.00074692251083882872 -0.033126344567898633 0 0.00053368074754761618 -0.032795089081719644 0 0.00083127056998721525 -0.032897034490311429 0 0.00077842650245560341 -0.033273380344899822 0 0.00074692251083882872 -0.033126344567898633 0 0.0007760626313279579 -0.033319430412061424 0 0.00069054371200960108 -0.033168924659121475 0 0.0010037181615249451 -0.033072829767827827 0 0.00074692251083882872 -0.033126344567898633 0 0.00099777590816497053 -0.032994241285776681 0 0.00083127056998721525 -0.032897034490311429 0 0.0007760626313279579 -0.033319430412061424 0 0.00078636585490782977 -0.03338652363676621 0 0.00078111740960333401 -0.033350774714540204 0 0.0007760626313279579 -0.033319430412061424 0 0.00078636585490782977 -0.03338652363676621 0 0.00080330015649960652 -0.033366333489918631 0 0.0010037181615249451 -0.033072829767827827 0 0.00049460543090856335 -0.033691798558241864 0 0.00078636585490782977 -0.03338652363676621 0 0.00080330015649960652 -0.033366333489918631 0 0.00081150696075033273 -0.033405124369356776 0 0.00079957466133036444 -0.033444242591456314 0 0.00078636585490782977 -0.03338652363676621 0 0.00081150696075033273 -0.033405124369356776 0 0.00078636585490782977 -0.03338652363676621 0 0.00078646876239780495 -0.033420940337602019 0 0.00078111740960333401 -0.033350774714540204 0 0.00078748851698661696 -0.033326415517318318 0 0.00078646876239780495 -0.033420940337602019 0 0.00080638284048279428 -0.033538879657613332 0 0.00084538544703922252 -0.03358202171094294 0 0.00083019955527588289 -0.033537975650726873 0 0.00079957466133036444 -0.033444242591456314 0 0.00078636585490782977 -0.03338652363676621 0 0.00078646876239780495 -0.033420940337602019 0 0.00079957466133036444 -0.033444242591456314 0 0.00078646876239780495 -0.033420940337602019 0 0.00080638284048279428 -0.033538879657613332 0 0.00077842650245560341 -0.033273380344899822 0 0.0007760626313279579 -0.033319430412061424 0 0.00078111740960333401 -0.033350774714540204 0 0.00078748851698661696 -0.033326415517318318 0 0.00078646876239780495 -0.033420940337602019 0 0.00078111740960333401 -0.033350774714540204 0 0.00078748851698661696 -0.033326415517318318 0 0.00077842650245560341 -0.033273380344899822 0 0.00078111740960333401 -0.033350774714540204 0 0.0028746512194098186 -0.026678212823590876 0 0.0019832048959474431 -0.026276819401309319 0 0.0018987342761946371 -0.027586721447057091 0 0.0022861292126446103 -0.031125548065627274 0 0.0022603224186852617 -0.031047354222051248 0 0.0023334086287664008 -0.030782879031009177 0 0.0024071550974286027 -0.029609881801829645 0 0.0025052910182999676 -0.028886141952062228 0 0.0029298636849355206 -0.029120599609719792 0 0.0021637992901580982 -0.029995099777859881 0 0.0029936132817584326 -0.029379740660730558 0 0.0021637992901580982 -0.029995099777859881 0 0.0014114456980440573 -0.029473240958647107 0 0.0021637992901580982 -0.029995099777859881 0 0.0023111645710861789 -0.030595097991835518 0 0.0021637992901580982 -0.029995099777859881 0 0.0027549579257798531 -0.028205026514389196 0 0.0029936132817584326 -0.029379740660730558 0 0.0027549579257798531 -0.028205026514389196 0 0.0026736393613496015 -0.029878062143977278 0 0.0029936132817584326 -0.029379740660730558 0 0.0021002867593525364 -0.030661913096659093 0 0.0023334086287664008 -0.030782879031009177 0 0.0021540303142728269 -0.030861335288918545 0 0.0022603224186852617 -0.031047354222051248 0 0.0023334086287664008 -0.030782879031009177 0 0.0021540303142728269 -0.030861335288918545 0 0.0021002867593525364 -0.030661913096659093 0 0.0021540303142728269 -0.030861335288918545 0 0.0019229428556501089 -0.030955155503804843 0 0.0018083007020027215 -0.030579174854820659 0 0.0021002867593525364 -0.030661913096659093 0 0.0019229428556501089 -0.030955155503804843 0 0.0022603224186852617 -0.031047354222051248 0 0.0021540303142728269 -0.030861335288918545 0 0.0019229428556501089 -0.030955155503804843 0 0.0010840872407325828 -0.032164335280552694 0 0.00078400579189020808 -0.032598941687151065 0 0.0022857844432395062 -0.031129924598024147 0 0.0019229428556501089 -0.030955155503804843 0 0.0020457327241719578 -0.031359409999970472 0 0.0022857844432395062 -0.031129924598024147 0 0.0022603224186852617 -0.031047354222051248 0 0.0019229428556501089 -0.030955155503804843 0 0.0005173630725826188 -0.033346143984007467 0 0.0005733946088633487 -0.033259457927188443 0 0.00046079273658028745 -0.033194636687699272 0 0.00041157376273980527 -0.033304014767425345 0 0.0005173630725826188 -0.033346143984007467 0 0.00046079273658028745 -0.033194636687699272 0 0.00041157376273980527 -0.033304014767425345 0 0.00046079273658028745 -0.033194636687699272 0 0.00032146069468130074 -0.033143692151026562 0 0.00049202934683368422 -0.033432443825424173 0 0.00041157376273980527 -0.033304014767425345 0 0.0005173630725826188 -0.033346143984007467 0 0.0024342162614432623 -0.03131547256388667 0 0.0010840872407325828 -0.032164335280552694 0 0.0005173630725826188 -0.033346143984007467 0 0.00062449514853057833 -0.03338186333210412 0 0.0005733946088633487 -0.033259457927188443 0 0.00049202934683368422 -0.033432443825424173 0 0.0005173630725826188 -0.033346143984007467 0 0.00062449514853057833 -0.03338186333210412 0 0.0006931425265614006 -0.03326136500556176 0 0.00062449514853057833 -0.03338186333210412 0 0.0005733946088633487 -0.033259457927188443 0 0.0005733946088633487 -0.033259457927188443 0 0.00057326198352619596 -0.033134225570550048 0 0.00046079273658028745 -0.033194636687699272 0 0.0006931425265614006 -0.03326136500556176 0 0.0005733946088633487 -0.033259457927188443 0 0.00057326198352619596 -0.033134225570550048 0 0.00074692251083882872 -0.033126344567898633 0 0.00057326198352619596 -0.033134225570550048 0 0.00053368074754761618 -0.032795089081719644 0 0.00057326198352619596 -0.033134225570550048 0 0.00040735012975448456 -0.033013664453446542 0 0.00053368074754761618 -0.032795089081719644 0 0.00047596842143752128 -0.032676494670780022 0 0.00048806139649910105 -0.032658348592726691 0 0.00049121467499881467 -0.032658467285443089 0 0.00038195248281751467 -0.032896855928548414 0 0.00055801280653891561 -0.032764061206538457 0 0.00040735012975448456 -0.033013664453446542 0 0.00046079273658028745 -0.033194636687699272 0 0.00032146069468130074 -0.033143692151026562 0 0.00057326198352619596 -0.033134225570550048 0 0.00040735012975448456 -0.033013664453446542 0 0.00046079273658028745 -0.033194636687699272 0 0.00050020756355836536 -0.032586159772139967 0 0.00050498844726352542 -0.032623105481010335 0 0.00063840833163724428 -0.032424767005274788 0 0.0021637992901580982 -0.029995099777859881 0 0.00078400579189020808 -0.032598941687151065 0 0.00046312784431934212 -0.032476115257542411 0 0.00050020756355836536 -0.032586159772139967 0 0.00063840833163724428 -0.032424767005274788 0 0.00078400579189020808 -0.032598941687151065 0 0.00061053819310216077 -0.032520412040938786 0 0.00038195248281751467 -0.032896855928548414 0 0.00078400579189020808 -0.032598941687151065 0 0.00047596842143752128 -0.032676494670780022 0 0.00049371997520527005 -0.032565554372945192 0 0.00050020756355836536 -0.032586159772139967 0 0.00047596842143752128 -0.032676494670780022 0 0.00048806139649910105 -0.032658348592726691 0 0.00050020756355836536 -0.032586159772139967 0 0.00049548282096746491 -0.032664251194632898 0 0.00050121883023908527 -0.032686168435778977 0 0.0004952555411015672 -0.032656916262812669 0 0.00048806139649910105 -0.032658348592726691 0 0.00049548282096746491 -0.032664251194632898 0 0.00050498844726352542 -0.032623105481010335 0 0.00048806139649910105 -0.032658348592726691 0 0.00049548282096746491 -0.032664251194632898 0 0.0004952555411015672 -0.032656916262812669 0 0.00049548282096746491 -0.032664251194632898 0 0.00050498844726352542 -0.032623105481010335 0 0.00050121883023908527 -0.032686168435778977 0 0.00048806139649910105 -0.032658348592726691 0 0.00050020756355836536 -0.032586159772139967 0 0.00050498844726352542 -0.032623105481010335 0 0.00050498844726352542 -0.032623105481010335 0 0.00050121883023908527 -0.032686168435778977 0 0.00063840833163724428 -0.032424767005274788 0 0.00077227037830326028 -0.031270820925459429 0 0.00054622606838075573 -0.031306455264452054 0 0.00078031663995339515 -0.029767083980420904 0 0.00042724908789514737 -0.032367133387122493 0 0.0014114456980440573 -0.029473240958647107 0 0.0028883540461210819 -0.024368043865260348 0 0.0023082968007543656 -0.025419808244626543 0 0.0029496647021039781 -0.026097266419037229 0 0.0018449063066932855 -0.02755794823377582 0 0.0014114456980440573 -0.029473240958647107 0 0.0006609533390414473 -0.032288001281250887 0 0.00046312784431934212 -0.032476115257542411 0 0.00063840833163724428 -0.032424767005274788 0 0.0023082968007543656 -0.025419808244626543 0 0.0029496647021039781 -0.026097266419037229 0 0.0019832048959474431 -0.026276819401309319 0 0.0028746512194098186 -0.026678212823590876 0 0.0029496647021039781 -0.026097266419037229 0 0.0019832048959474431 -0.026276819401309319 0 0.00077227037830326028 -0.031270820925459429 0 0.00054622606838075573 -0.031306455264452054 0 0.0006965097562408952 -0.032456313355735796 0 0.0018449063066932855 -0.02755794823377582 0 0.0020023875227451436 -0.027224311687675772 0 0.0028883540461210819 -0.024368043865260348 0 0.0028226078796308781 -0.022642370654249427 0 0.0011825598865682757 -0.023402825417878578 0 0.00054622606838075573 -0.031306455264452054 0 0.0006965097562408952 -0.032456313355735796 0 0.00046780967568135361 -0.032519091689000947 0 0.00042724908789514737 -0.032367133387122493 0 0.00050157483886846467 -0.032324830796675898 0 0.00048910551060417763 -0.03261319420432416 0 0.00049121467499881467 -0.032658467285443089 0 0.00046952843521363903 -0.032606248601697134 0 0.00050121883023908527 -0.032686168435778977 0 0.00048910551060417763 -0.03261319420432416 0 0.00046780967568135361 -0.032519091689000947 0 0.00050121883023908527 -0.032686168435778977 0 0.00048910551060417763 -0.03261319420432416 0 0.0004952555411015672 -0.032656916262812669 0 0.00048806139649910105 -0.032658348592726691 0 0.0004952555411015672 -0.032656916262812669 0 0.00049121467499881467 -0.032658467285443089 0 0.00048910551060417763 -0.03261319420432416 0 0.0004952555411015672 -0.032656916262812669 0 0.00049121467499881467 -0.032658467285443089 0 0.00048910551060417763 -0.03261319420432416 0 0.00046780967568135361 -0.032519091689000947 0 0.00046952843521363903 -0.032606248601697134 0 0.00046780967568135361 -0.032519091689000947 0 0.00046952843521363903 -0.032606248601697134 0 0.00044593940729714595 -0.03258790854553064 0 0.00046952843521363903 -0.032606248601697134 0 0.00054097741136224038 -0.03260796224923302 0 0.00044593940729714595 -0.03258790854553064 0 0.00046952843521363903 -0.032606248601697134 0 0.00049761389807388711 -0.032690944728808222 0 0.00054097741136224038 -0.03260796224923302 0 0.00047596842143752128 -0.032676494670780022 0 0.00049761389807388711 -0.032690944728808222 0 0.00053368074754761618 -0.032795089081719644 0 0.00047596842143752128 -0.032676494670780022 0 0.00049121467499881467 -0.032658467285443089 0 0.00049761389807388711 -0.032690944728808222 0 0.00049121467499881467 -0.032658467285443089 0 0.00046952843521363903 -0.032606248601697134 0 0.00049761389807388711 -0.032690944728808222 0 0.00049761389807388711 -0.032690944728808222 0 0.00053368074754761618 -0.032795089081719644 0 0.00054097741136224038 -0.03260796224923302 0 0.00053368074754761618 -0.032795089081719644 0 0.00054097741136224038 -0.03260796224923302 0 0.00075059279983537264 -0.032704025266849686 0 -0.0016036125631389085 -0.034637228034049963 0 -0.0016411942705462899 -0.034355105249441825 0 -0.0013423739376544324 -0.034474288531628754 0 -0.0016411942705462899 -0.034355105249441825 0 -0.0018655932987187336 -0.034121580038962519 0 -0.001504196301336809 -0.034112116892702937 0 -0.0016411942705462899 -0.034355105249441825 0 -0.0013423739376544324 -0.034474288531628754 0 -0.001504196301336809 -0.034112116892702937 0 -0.0018655932987187336 -0.034121580038962519 0 -0.0019922180745661562 -0.034481475808673508 0 -0.0021350032365565074 -0.034219231688632563 0 -0.0016411942705462899 -0.034355105249441825 0 -0.0018655932987187336 -0.034121580038962519 0 -0.0019922180745661562 -0.034481475808673508 0 -0.00058392081990210837 -0.033549706463091536 0 -0.0006175092721727993 -0.034110465463003732 0 -0.0016036125631389085 -0.034637228034049963 0 -0.0016411942705462899 -0.034355105249441825 0 -0.0019922180745661562 -0.034481475808673508 0 -0.0019922180745661562 -0.034481475808673508 0 -0.0021350032365565074 -0.034219231688632563 0 -0.0024132863077325393 -0.034290511289910758 0 -0.0006175092721727993 -0.034110465463003732 0 -0.00074349552880781421 -0.028549740252870878 0 0.00046780967568135361 -0.032519091689000947 0 0.00044593940729714595 -0.03258790854553064 0 0.00056278459336826109 -0.032661314976721451 0 -0.0021350032365565074 -0.034219231688632563 0 -0.0021393062881836064 -0.033909161929791341 0 -0.0024385093901214583 -0.0340167552511801 0 -0.0018655932987187336 -0.034121580038962519 0 -0.0021350032365565074 -0.034219231688632563 0 -0.0021393062881836064 -0.033909161929791341 0 -0.0032936654032171826 -0.02650635700394573 0 -0.0032389519084090766 -0.026473910805252864 0 -0.0033135996934365963 -0.026551183035266632 0 -0.0021350032365565074 -0.034219231688632563 0 -0.0024132863077325393 -0.034290511289910758 0 -0.0024385093901214583 -0.0340167552511801 0 -0.00074349552880781421 -0.028549740252870878 0 -0.0027833939539602926 -0.030351119740161747 0 0.0028226078796308781 -0.022642370654249427 0 0.0027551917787405444 -0.02091626573197922 0 0.0014030748443130485 -0.021595657829106486 0 0.0006965097562408952 -0.032456313355735796 0 0.00046780967568135361 -0.032519091689000947 0 0.00056278459336826109 -0.032661314976721451 0 0.0020023875227451436 -0.027224311687675772 0 -0.00074349552880781421 -0.028549740252870878 0 -0.00065439597275364315 -0.034766428637138899 0 -0.00089002262351181116 -0.034880039830919939 0 -0.0010180439676774245 -0.034588384356733483 0 -0.00065439597275364315 -0.034766428637138899 0 -0.00053202376841754548 -0.034854677975219309 0 -0.00043594573528829561 -0.034624338191099481 0 -0.00065439597275364315 -0.034766428637138899 0 -0.00054929394306919149 -0.0350002278629356 0 -0.00089002262351181116 -0.034880039830919939 0 0.00049460543090856335 -0.033691798558241864 0 2.3737346453894365e-05 -0.033878117629657707 0 -0.00065439597275364315 -0.034766428637138899 0 -0.00053202376841754548 -0.034854677975219309 0 -0.00054929394306919149 -0.0350002278629356 0 0.00099777590816497053 -0.032994241285776681 0 0.0011968938908397924 -0.032929891936978831 0 0.00099722980065312418 -0.032831053141878612 0 0.00099777590816497053 -0.032994241285776681 0 0.00099722980065312418 -0.032831053141878612 0 0.00083127056998721525 -0.032897034490311429 0 0.00099722980065312418 -0.032831053141878612 0 0.00083127056998721525 -0.032897034490311429 0 0.00075059279983537264 -0.032704025266849686 0 0.00053368074754761618 -0.032795089081719644 0 0.00083127056998721525 -0.032897034490311429 0 0.00075059279983537264 -0.032704025266849686 0 -0.00058392081990210837 -0.033549706463091536 0 -0.00022844638938405453 -0.033741275254054806 0 -0.0016036125631389085 -0.034637228034049963 0 -0.0012380469879472069 -0.034761129436970718 0 -0.0013423739376544324 -0.034474288531628754 0 2.3737346453894365e-05 -0.033878117629657707 0 -0.00022844638938405453 -0.033741275254054806 0 -0.00089002262351181116 -0.034880039830919939 0 -0.0012380469879472069 -0.034761129436970718 0 -0.0010180439676774245 -0.034588384356733483 0 -0.0010180439676774245 -0.034588384356733483 0 -0.0013423739376544324 -0.034474288531628754 0 -0.0011889056811866087 -0.034225366433700194 0 -0.0012380469879472069 -0.034761129436970718 0 -0.0010180439676774245 -0.034588384356733483 0 -0.0013423739376544324 -0.034474288531628754 0 -0.0010180439676774245 -0.034588384356733483 0 -0.0011889056811866087 -0.034225366433700194 0 -0.00080859416893872471 -0.03441998606741959 0 -0.0013423739376544324 -0.034474288531628754 0 -0.0011889056811866087 -0.034225366433700194 0 -0.001504196301336809 -0.034112116892702937 0 -0.0011889056811866087 -0.034225366433700194 0 -0.00099352403880243172 -0.034342119221715831 0 -0.001027386131063971 -0.034215620398905543 0 -0.00099352403880243172 -0.034342119221715831 0 -0.00097503150389516573 -0.034255133385455626 0 -0.001027386131063971 -0.034215620398905543 0 -0.0011520037539905809 -0.034241495909853654 0 -0.0009555608743094117 -0.034362899111336137 0 -0.00065439597275364315 -0.034766428637138899 0 -0.0010180439676774245 -0.034588384356733483 0 -0.00080859416893872471 -0.03441998606741959 0 -0.00065439597275364315 -0.034766428637138899 0 -0.00080859416893872471 -0.03441998606741959 0 -0.00043594573528829561 -0.034624338191099481 0 -0.00099352403880243172 -0.034342119221715831 0 -0.00089202092367271317 -0.034304283961299351 0 -0.00088477884608328733 -0.034401092027155071 0 -0.0009555608743094117 -0.034362899111336137 0 -0.00043315950005437602 -0.034553575407703603 0 -0.00099352403880243172 -0.034342119221715831 0 -0.00097503150389516573 -0.034255133385455626 0 -0.00089202092367271317 -0.034304283961299351 0 -0.00097503150389516573 -0.034255133385455626 0 -0.00089202092367271317 -0.034304283961299351 0 -0.00094551083499103572 -0.034246733460433998 0 -0.00052977324479299608 -0.034376914506157999 0 -0.00064915598753395836 -0.034444774573710812 0 -0.00016654315181550218 -0.034513078451713287 0 -0.00017595079913732741 -0.034504638077212879 0 -0.00018441443290052956 -0.034527158547056368 0 -0.00016654315181550218 -0.034513078451713287 0 -0.00017595079913732741 -0.034504638077212879 0 -0.00016270705033101914 -0.034494251475399126 0 -0.00052977324479299608 -0.034376914506157999 0 -0.00043315950005437602 -0.034553575407703603 0 -0.00053202376841754548 -0.034854677975219309 0 -0.00043594573528829561 -0.034624338191099481 0 -0.00042655262071210581 -0.034960267664097426 0 -0.00011181086057129031 -0.034510306069103699 0 -0.00013198631029042013 -0.034478559028195882 0 -0.00011436540083065906 -0.034443867345613652 0 -0.00043315950005437602 -0.034553575407703603 0 -7.6575979028804889e-05 -0.034480015363332103 0 -0.00017595079913732741 -0.034504638077212879 0 -0.00016270705033101914 -0.034494251475399126 0 -0.00017304503909839277 -0.034478777713988669 0 -0.00043315950005437602 -0.034553575407703603 0 -7.4157970124416253e-05 -0.034497398517341446 0 -0.00011181086057129031 -0.034510306069103699 0 -0.00013198631029042013 -0.034478559028195882 0 -0.00017304503909839277 -0.034478777713988669 0 -0.00013198631029042013 -0.034478559028195882 0 -0.00017304503909839277 -0.034478777713988669 0 -0.00014781437358983148 -0.034469090993671056 0 -0.00014781437358983148 -0.034469090993671056 0 -0.00016015215452896021 -0.034457582293565041 0 -0.00011436540083065906 -0.034443867345613652 0 -0.00016015215452896021 -0.034457582293565041 0 -0.0001889601977722432 -0.034473299349336184 0 -0.00015332941245266036 -0.034372329641176348 0 -0.00016015215452896021 -0.034457582293565041 0 -0.00012433835676993035 -0.034416841705383408 0 -0.00015332941245266036 -0.034372329641176348 0 9.4262532616558293e-05 -0.034605257602959662 0 0.00039235575786925254 -0.034048423684950258 0 0.00042098774507341746 -0.034649491951814777 0 0.00070753576647281753 -0.034201114898255842 0 0.00048750872552133474 -0.034324913631506838 0 -0.00015512652890502357 -0.034453763178415517 0 -7.6575979028804889e-05 -0.034480015363332103 0 -0.00016015215452896021 -0.034457582293565041 0 -0.00012433835676993035 -0.034416841705383408 0 -7.1272701041923275e-05 -0.034430538722275215 0 -0.00017304503909839277 -0.034478777713988669 0 -0.00016015215452896021 -0.034457582293565041 0 -0.0001889601977722432 -0.034473299349336184 0 -0.00017304503909839277 -0.034478777713988669 0 -0.00014781437358983148 -0.034469090993671056 0 -0.00016015215452896021 -0.034457582293565041 0 -0.00012433835676993035 -0.034416841705383408 0 -7.1272701041923275e-05 -0.034430538722275215 0 -7.1438529179942029e-05 -0.034399121297150607 0 -0.00053202376841754548 -0.034854677975219309 0 -0.00054929394306919149 -0.0350002278629356 0 -0.00042655262071210581 -0.034960267664097426 0 0.00049460543090856335 -0.033691798558241864 0 -7.6575979028804889e-05 -0.034480015363332103 0 0.00049460543090856335 -0.033691798558241864 0 0.00045702928959267668 -0.033757845478601202 0 -7.6575979028804889e-05 -0.034480015363332103 0 0.00045702928959267668 -0.033757845478601202 0 0.0003958015602638055 -0.033892661757261994 0 0.00032307049941286724 -0.033917503835754759 0 0.00032280809127462122 -0.033865333495749453 0 -0.00013198631029042013 -0.034478559028195882 0 -0.00014781437358983148 -0.034469090993671056 0 -0.00011436540083065906 -0.034443867345613652 0 7.8614186210654199e-05 -0.03448723859802684 0 0.00028609718418390003 -0.034456611502099867 0 0.00015285675199384804 -0.034709020308929431 0 0.00028609718418390003 -0.034456611502099867 0 0.00042098774507341746 -0.034649491951814777 0 0.00015285675199384804 -0.034709020308929431 0 0.00028609718418390003 -0.034456611502099867 0 0.00042098774507341746 -0.034649491951814777 0 0.00048750872552133474 -0.034324913631506838 0 9.4262532616558293e-05 -0.034605257602959662 0 3.106953839561889e-05 -0.034659516145811947 0 -0.00017304503909839277 -0.034478777713988669 0 -0.0001889601977722432 -0.034473299349336184 0 -0.0001963742252762704 -0.034504023596059544 0 0.00042098774507341746 -0.034649491951814777 0 0.00015285675199384804 -0.034709020308929431 0 0.00022426644178188623 -0.034866639731729265 0 0.00015285675199384804 -0.034709020308929431 0 0.00022426644178188623 -0.034866639731729265 0 5.1170494949837273e-05 -0.034845500414852099 0 0.00010493051598036226 -0.034904751949253694 0 0.00022426644178188623 -0.034866639731729265 0 5.1170494949837273e-05 -0.034845500414852099 0 -0.00017595079913732741 -0.034504638077212879 0 -0.00017304503909839277 -0.034478777713988669 0 -0.0001963742252762704 -0.034504023596059544 0 -0.00017595079913732741 -0.034504638077212879 0 -0.0001963742252762704 -0.034504023596059544 0 -0.00018441443290052956 -0.034527158547056368 0 -0.0001963742252762704 -0.034504023596059544 0 -0.00020378882705685385 -0.03452407164042913 0 -0.00018441443290052956 -0.034527158547056368 0 0.00010493051598036226 -0.034904751949253694 0 0.00022426644178188623 -0.034866639731729265 0 0.0001043891926393737 -0.034984391338563542 0 3.106953839561889e-05 -0.034659516145811947 0 -0.00010924090783008722 -0.034795591525192675 0 0.00010493051598036226 -0.034904751949253694 0 0.0001043891926393737 -0.034984391338563542 0 2.2084746364924018e-05 -0.034950783505517148 0 -0.00010924090783008722 -0.034795591525192675 0 5.6158349929720617e-05 -0.034912422341797221 0 2.2084746364924018e-05 -0.034950783505517148 0 2.5863234290476423e-05 -0.034913681531339176 0 6.8901441951608276e-06 -0.034930323871139625 0 0.00010493051598036226 -0.034904751949253694 0 2.2084746364924018e-05 -0.034950783505517148 0 2.5863234290476423e-05 -0.034913681531339176 0 2.5863234290476423e-05 -0.034913681531339176 0 6.8901441951608276e-06 -0.034930323871139625 0 -1.26697744282957e-05 -0.034912089094047166 0 2.2084746364924018e-05 -0.034950783505517148 0 6.8901441951608276e-06 -0.034930323871139625 0 4.2315068827175372e-07 -0.034918936158240682 0 6.8901441951608276e-06 -0.034930323871139625 0 -1.26697744282957e-05 -0.034912089094047166 0 1.0195242216135908e-05 -0.034930481661611577 0 -1.26697744282957e-05 -0.034912089094047166 0 -6.0762134568660209e-06 -0.034955964598596956 0 1.0195242216135908e-05 -0.034930481661611577 0 2.5863234290476423e-05 -0.034913681531339176 0 -1.26697744282957e-05 -0.034912089094047166 0 5.1170494949837273e-05 -0.034845500414852099 0 -1.26697744282957e-05 -0.034912089094047166 0 5.1170494949837273e-05 -0.034845500414852099 0 -4.3558697997400132e-05 -0.034735109659544551 0 0.00010493051598036226 -0.034904751949253694 0 2.5863234290476423e-05 -0.034913681531339176 0 5.1170494949837273e-05 -0.034845500414852099 0 -6.0762134568660209e-06 -0.034955964598596956 0 -7.7612866759529162e-08 -0.034999831054819061 0 2.5120980120332912e-08 -0.034999947034233488 0 -1.26697744282957e-05 -0.034912089094047166 0 -6.0762134568660209e-06 -0.034955964598596956 0 -4.456968393922741e-05 -0.034890437814249581 0 -7.9723011555547157e-09 -0.034999967179578866 0 -3.5262278897850719e-05 -0.034923523988757851 0 -6.0762134568660209e-06 -0.034955964598596956 0 -7.7612866759529162e-08 -0.034999831054819061 0 -4.456968393922741e-05 -0.034890437814249581 0 6.7972979484943041e-09 -0.034999975443650362 0 -3.3774120064196804e-05 -0.034962990263682499 0 -4.4701820646849311e-08 -0.034999930235737789 0 -3.3774120064196804e-05 -0.034962990263682499 0 -4.3242573255906344e-05 -0.034940850736137105 0 -4.4701820646849311e-08 -0.034999930235737789 0 -3.3774120064196804e-05 -0.034962990263682499 0 -4.3242573255906344e-05 -0.034940850736137105 0 -4.0440644042051338e-05 -0.034910204584442411 0 -4.3242573255906344e-05 -0.034940850736137105 0 -4.0440644042051338e-05 -0.034910204584442411 0 -6.9910866557224157e-05 -0.034855206801150306 0 -4.3242573255906344e-05 -0.034940850736137105 0 -4.4701820646849311e-08 -0.034999930235737789 0 -4.6871716127259375e-08 -0.034999849121463804 0 0.00015285675199384804 -0.034709020308929431 0 5.1170494949837273e-05 -0.034845500414852099 0 -4.3558697997400132e-05 -0.034735109659544551 0 -3.5262278897850719e-05 -0.034923523988757851 0 -3.5985863626227907e-05 -0.034818839688871644 0 -1.26697744282957e-05 -0.034912089094047166 0 -4.456968393922741e-05 -0.034890437814249581 0 -4.3558697997400132e-05 -0.034735109659544551 0 7.0134153467677968e-05 -0.034639538272339794 0 -3.5985863626227907e-05 -0.034818839688871644 0 7.8614186210654199e-05 -0.03448723859802684 0 0.00015285675199384804 -0.034709020308929431 0 -4.3558697997400132e-05 -0.034735109659544551 0 4.8993192175837245e-05 -0.034805328151417916 0 -4.0440644042051338e-05 -0.034910204584442411 0 -4.4595149631597859e-05 -0.034720828810173875 0 -4.0440644042051338e-05 -0.034910204584442411 0 -4.4595149631597859e-05 -0.034720828810173875 0 -6.9910866557224157e-05 -0.034855206801150306 0 -4.4595149631597859e-05 -0.034720828810173875 0 -0.00012963581380728498 -0.034690231772022774 0 -6.9910866557224157e-05 -0.034855206801150306 0 -4.4595149631597859e-05 -0.034720828810173875 0 -4.0933912277316612e-05 -0.034410022308028247 0 6.5417804076495884e-05 -0.034490432198106713 0 -4.4595149631597859e-05 -0.034720828810173875 0 -0.00012963581380728498 -0.034690231772022774 0 -4.0933912277316612e-05 -0.034410022308028247 0 -4.6871716127259375e-08 -0.034999849121463804 0 -6.9910866557224157e-05 -0.034855206801150306 0 -3.1507958527024051e-05 -0.034902733747558472 0 -4.3242573255906344e-05 -0.034940850736137105 0 -4.6871716127259375e-08 -0.034999849121463804 0 -6.9910866557224157e-05 -0.034855206801150306 0 -0.00012963581380728498 -0.034690231772022774 0 -6.9910866557224157e-05 -0.034855206801150306 0 -3.1507958527024051e-05 -0.034902733747558472 0 -4.6871716127259375e-08 -0.034999849121463804 0 -3.1507958527024051e-05 -0.034902733747558472 0 5.6592049029060521e-09 -0.034999880369562211 0 -3.1507958527024051e-05 -0.034902733747558472 0 5.6592049029060521e-09 -0.034999880369562211 0 -2.3892029039986193e-05 -0.034919686370255207 0 -0.00012963581380728498 -0.034690231772022774 0 -3.1507958527024051e-05 -0.034902733747558472 0 -2.3892029039986193e-05 -0.034919686370255207 0 -3.7148799854356262e-05 -0.034926406722105667 0 -3.1690720885511814e-08 -0.034999946747819977 0 -2.3892029039986193e-05 -0.034919686370255207 0 -3.1690720885511814e-08 -0.034999946747819977 0 5.6592049029060521e-09 -0.034999880369562211 0 -2.3892029039986193e-05 -0.034919686370255207 0 -4.0933912277316612e-05 -0.034410022308028247 0 -0.00021119496543645032 -0.034083823970043142 0 9.4811941232542221e-05 -0.034041167830166183 0 -0.00012963581380728498 -0.034690231772022774 0 -4.0933912277316612e-05 -0.034410022308028247 0 -0.00021119496543645032 -0.034083823970043142 0 -0.00013759198344550968 -0.034652885144235986 0 -0.00013029076619859589 -0.034485799388776862 0 -0.00012963581380728498 -0.034690231772022774 0 -2.3892029039986193e-05 -0.034919686370255207 0 -8.1526867946945576e-05 -0.034901787270577252 0 2.3118337281637259e-05 -0.034889500774281018 0 -3.7148799854356262e-05 -0.034926406722105667 0 -8.1526867946945576e-05 -0.034901787270577252 0 -3.7148799854356262e-05 -0.034926406722105667 0 -2.3892029039986193e-05 -0.034919686370255207 0 -8.1526867946945576e-05 -0.034901787270577252 0 -3.6635101620281082e-05 -0.034289872282654239 0 -0.00013029076619859589 -0.034485799388776862 0 7.315119059427851e-05 -0.03376727927802968 0 9.4811941232542221e-05 -0.034041167830166183 0 0.00026448896094436283 -0.033869045516076085 0 7.315119059427851e-05 -0.03376727927802968 0 -0.00021119496543645032 -0.034083823970043142 0 9.4811941232542221e-05 -0.034041167830166183 0 9.4811941232542221e-05 -0.034041167830166183 0 0.00011847120722939871 -0.034284036582231149 0 0.000267874842697257 -0.034155324761135995 0 -4.0933912277316612e-05 -0.034410022308028247 0 9.4811941232542221e-05 -0.034041167830166183 0 0.00011847120722939871 -0.034284036582231149 0 -4.0933912277316612e-05 -0.034410022308028247 0 0.00011847120722939871 -0.034284036582231149 0 6.5417804076495884e-05 -0.034490432198106713 0 0.000267874842697257 -0.034155324761135995 0 0.00026448896094436283 -0.033869045516076085 0 0.00035861501054844548 -0.033971952470982412 0 0.000267874842697257 -0.034155324761135995 0 0.00040735993659914041 -0.034084809759579546 0 0.00034385367919743948 -0.034225185325633775 0 0.00011847120722939871 -0.034284036582231149 0 0.000267874842697257 -0.034155324761135995 0 0.0002260136820341548 -0.034375866853571517 0 9.4811941232542221e-05 -0.034041167830166183 0 0.000267874842697257 -0.034155324761135995 0 0.00026448896094436283 -0.033869045516076085 0 0.00034024885907080806 -0.033657956131061907 0 0.00026448896094436283 -0.033869045516076085 0 0.00042645039287630032 -0.033802530502022157 0 0.00052260500264839495 -0.033627479553990564 0 0.00034024885907080806 -0.033657956131061907 0 0.00042645039287630032 -0.033802530502022157 0 0.00042645039287630032 -0.033802530502022157 0 0.00055306783029008015 -0.033793362443483042 0 0.00047885151839611095 -0.03392660780395064 0 0.00042645039287630032 -0.033802530502022157 0 0.00035861501054844548 -0.033971952470982412 0 0.00047885151839611095 -0.03392660780395064 0 0.00026448896094436283 -0.033869045516076085 0 0.00042645039287630032 -0.033802530502022157 0 0.00035861501054844548 -0.033971952470982412 0 0.00052260500264839495 -0.033627479553990564 0 0.00072865300616203855 -0.033549687201471903 0 0.00064405292983558992 -0.033692306682701623 0 0.00052260500264839495 -0.033627479553990564 0 0.00055306783029008015 -0.033793362443483042 0 0.00064405292983558992 -0.033692306682701623 0 0.00052260500264839495 -0.033627479553990564 0 0.00042645039287630032 -0.033802530502022157 0 0.00055306783029008015 -0.033793362443483042 0 0.00055306783029008015 -0.033793362443483042 0 0.00064405292983558992 -0.033692306682701623 0 0.00066191718841538793 -0.033755858365252737 0 0.00075654488389396719 -0.033786923344512283 0 0.00053786778553106753 -0.034033932493145999 0 0.00054673504245548858 -0.034241912955478529 0 0.00074743811386592473 -0.033808942611760949 0 0.00072994648530966212 -0.033907716835371748 0 0.00075654488389396719 -0.033786923344512283 0 0.00059533992095115091 -0.033872781328247843 0 0.00053786778553106753 -0.034033932493145999 0 0.00055306783029008015 -0.033793362443483042 0 0.00066191718841538793 -0.033755858365252737 0 0.00059533992095115091 -0.033872781328247843 0 0.00075654488389396719 -0.033786923344512283 0 0.00066191718841538793 -0.033755858365252737 0 0.00059533992095115091 -0.033872781328247843 0 0.00055306783029008015 -0.033793362443483042 0 0.00059533992095115091 -0.033872781328247843 0 0.00047885151839611095 -0.03392660780395064 0 0.00059533992095115091 -0.033872781328247843 0 0.00053786778553106753 -0.034033932493145999 0 0.00047885151839611095 -0.03392660780395064 0 0.000267874842697257 -0.034155324761135995 0 0.00035861501054844548 -0.033971952470982412 0 0.00040735993659914041 -0.034084809759579546 0 0.00035861501054844548 -0.033971952470982412 0 0.00047885151839611095 -0.03392660780395064 0 0.00040735993659914041 -0.034084809759579546 0 0.00053786778553106753 -0.034033932493145999 0 0.00047885151839611095 -0.03392660780395064 0 0.00040735993659914041 -0.034084809759579546 0 0.00053786778553106753 -0.034033932493145999 0 0.00040735993659914041 -0.034084809759579546 0 0.00044630092651587314 -0.034179444877752055 0 0.00040735993659914041 -0.034084809759579546 0 0.00044630092651587314 -0.034179444877752055 0 0.00034385367919743948 -0.034225185325633775 0 0.00095155387909720633 -0.033535371176387906 0 0.00090531010215015096 -0.033629311691492553 0 0.00036561243722785317 -0.03409285289342244 0 0.00037326343855562414 -0.034333364951560405 0 0.00044630092651587314 -0.034179444877752055 0 0.00034385367919743948 -0.034225185325633775 0 0.00072994648530966212 -0.033907716835371748 0 0.00033766399107355648 -0.034326317935487308 0 0.00037326343855562414 -0.034333364951560405 0 0.00054673504245548858 -0.034241912955478529 0 0.00028991857334637337 -0.034580756939237629 0 0.00053786778553106753 -0.034033932493145999 0 0.00044630092651587314 -0.034179444877752055 0 0.00054673504245548858 -0.034241912955478529 0 0.00037326343855562414 -0.034333364951560405 0 0.00044630092651587314 -0.034179444877752055 0 0.00054673504245548858 -0.034241912955478529 0 0.00075654488389396719 -0.033786923344512283 0 0.00095155387909720633 -0.033535371176387906 0 0.00080638284048279428 -0.033538879657613332 0 0.00095155387909720633 -0.033535371176387906 0 0.00089291360343757623 -0.03353602650830971 0 0.00080638284048279428 -0.033538879657613332 0 0.00090531010215015096 -0.033629311691492553 0 0.00089291360343757623 -0.03353602650830971 0 0.00089498790576304158 -0.033501602249441147 0 0.00095155387909720633 -0.033535371176387906 0 0.00090531010215015096 -0.033629311691492553 0 0.00089291360343757623 -0.03353602650830971 0 0.00089291360343757623 -0.03353602650830971 0 0.00085488897257624626 -0.033469006849336777 0 0.00089498790576304158 -0.033501602249441147 0 0.00089291360343757623 -0.03353602650830971 0 0.00080638284048279428 -0.033538879657613332 0 0.00085488897257624626 -0.033469006849336777 0 0.00079957466133036444 -0.033444242591456314 0 0.00080638284048279428 -0.033538879657613332 0 0.00085488897257624626 -0.033469006849336777 0 0.00088558191629424402 -0.033439680505492959 0 0.00083233380650224627 -0.033375453541622649 0 0.0010054274340223067 -0.033419495815360467 0 0.00079957466133036444 -0.033444242591456314 0 0.00085488897257624626 -0.033469006849336777 0 0.00081150696075033273 -0.033405124369356776 0 0.00085488897257624626 -0.033469006849336777 0 0.00089498790576304158 -0.033501602249441147 0 0.00088558191629424402 -0.033439680505492959 0 0.00085488897257624626 -0.033469006849336777 0 0.00088558191629424402 -0.033439680505492959 0 0.00083233380650224627 -0.033375453541622649 0 0.00077780177810434501 -0.033359967311304084 0 0.00045702928959267668 -0.033757845478601202 0 0.00085488897257624626 -0.033469006849336777 0 0.00081150696075033273 -0.033405124369356776 0 0.0008469590547910751 -0.033370522450278203 0 0.00080330015649960652 -0.033366333489918631 0 0.00081150696075033273 -0.033405124369356776 0 0.0008469590547910751 -0.033370522450278203 0 -0.00012433835676993035 -0.034416841705383408 0 -7.1438529179942029e-05 -0.034399121297150607 0 -0.00015332941245266036 -0.034372329641176348 0 0.00045702928959267668 -0.033757845478601202 0 0.00039235575786925254 -0.034048423684950258 0 0.00090531010215015096 -0.033629311691492553 0 0.00066812888174408772 -0.034176855872312138 0 0.00036561243722785317 -0.03409285289342244 0 0.00090531010215015096 -0.033629311691492553 0 0.00066812888174408772 -0.034176855872312138 0 0.00072964772381065653 -0.034200303877289569 0 0.00090531010215015096 -0.033629311691492553 0 0.00089498790576304158 -0.033501602249441147 0 0.0010054274340223067 -0.033419495815360467 0 0.00094963569463554776 -0.033536638034180492 0 0.00039235575786925254 -0.034048423684950258 0 0.00089498790576304158 -0.033501602249441147 0 0.00088558191629424402 -0.033439680505492959 0 0.0010054274340223067 -0.033419495815360467 0 0.00066812888174408772 -0.034176855872312138 0 0.00070753576647281753 -0.034201114898255842 0 0.00048750872552133474 -0.034324913631506838 0 0.00043125029499413588 -0.034064273652112315 0 0.00039235575786925254 -0.034048423684950258 0 0.00028609718418390003 -0.034456611502099867 0 0.00048750872552133474 -0.034324913631506838 0 0.00036561243722785317 -0.03409285289342244 0 0.00066812888174408772 -0.034176855872312138 0 0.00048750872552133474 -0.034324913631506838 0 0.00036561243722785317 -0.03409285289342244 0 4.8993192175837245e-05 -0.034805328151417916 0 -4.4595149631597859e-05 -0.034720828810173875 0 0.00011949586326619077 -0.034609001774411764 0 7.0134153467677968e-05 -0.034639538272339794 0 0.00033766399107355648 -0.034326317935487308 0 7.8614186210654199e-05 -0.03448723859802684 0 0.00028609718418390003 -0.034456611502099867 0 0.00036561243722785317 -0.03409285289342244 0 4.8993192175837245e-05 -0.034805328151417916 0 0.00028991857334637337 -0.034580756939237629 0 0.00011949586326619077 -0.034609001774411764 0 -4.4595149631597859e-05 -0.034720828810173875 0 0.00011949586326619077 -0.034609001774411764 0 6.5417804076495884e-05 -0.034490432198106713 0 0.00011949586326619077 -0.034609001774411764 0 6.5417804076495884e-05 -0.034490432198106713 0 0.0002260136820341548 -0.034375866853571517 0 0.00011847120722939871 -0.034284036582231149 0 6.5417804076495884e-05 -0.034490432198106713 0 0.0002260136820341548 -0.034375866853571517 0 0.000267874842697257 -0.034155324761135995 0 0.0002260136820341548 -0.034375866853571517 0 0.00034385367919743948 -0.034225185325633775 0 0.00037326343855562414 -0.034333364951560405 0 0.0002260136820341548 -0.034375866853571517 0 0.00034385367919743948 -0.034225185325633775 0 0.00037326343855562414 -0.034333364951560405 0 0.00028991857334637337 -0.034580756939237629 0 0.0002260136820341548 -0.034375866853571517 0 0.00028991857334637337 -0.034580756939237629 0 0.00011949586326619077 -0.034609001774411764 0 0.0002260136820341548 -0.034375866853571517 0 0.0020354286530233122 -0.0025077386149805095 0 0.002773989715203499 -0.0030121730011569126 0 0.0024839227149543348 -0.0032745742729325036 0 0.002066340661052571 -0.00044147352227588281 0 0.0026309087758390665 -0.0016814992518715457 0 0.0020957907717733099 0.0016935275627205084 0 0.0028364569954318192 -0.00010045674572790587 0 0.0014363612492527354 0.0011588214136482936 0 0.0020354286530233122 -0.0025077386149805095 0 0.0028628424259661877 -0.0022439400202480752 0 0.0023527919706150618 -0.0018525333451424918 0 0.0020354286530233122 -0.0025077386149805095 0 0.0028628424259661877 -0.0022439400202480752 0 0.002773989715203499 -0.0030121730011569126 0 0.0028628424259661877 -0.0022439400202480752 0 0.0033026935592445732 -0.0025080107735335031 0 0.002773989715203499 -0.0030121730011569126 0 0.0033026935592445732 -0.0025080107735335031 0 0.0033864177113687752 -0.0030415019915162136 0 0.002773989715203499 -0.0030121730011569126 0 0.002773989715203499 -0.0030121730011569126 0 0.0028834876085025805 -0.0035066132555299353 0 0.0027127576107150151 -0.0033370275012403272 0 0.0033864177113687752 -0.0030415019915162136 0 0.002773989715203499 -0.0030121730011569126 0 0.0028834876085025805 -0.0035066132555299353 0 0.0028437231809170724 -0.0038302496016367907 0 0.0029570322213183019 -0.0035077802587478789 0 0.0026110799542900429 -0.0043521534045500316 0 0.0028834876085025805 -0.0035066132555299353 0 0.0025661975899057272 -0.0037591095639961185 0 0.0028834876085025805 -0.0035066132555299353 0 0.0025661975899057272 -0.0037591095639961185 0 0.0027008430084195182 -0.0034536591192326892 0 0.0027008430084195182 -0.0034536591192326892 0 0.0027650100784721403 -0.0032800227435460863 0 0.0026702799781010041 -0.0033108735055892634 0 0.0027008430084195182 -0.0034536591192326892 0 0.0025335511465436854 -0.0034987042975423623 0 0.0026702799781010041 -0.0033108735055892634 0 0.0025661975899057272 -0.0037591095639961185 0 0.0027008430084195182 -0.0034536591192326892 0 0.0025335511465436854 -0.0034987042975423623 0 0.0028834876085025805 -0.0035066132555299353 0 0.0027008430084195182 -0.0034536591192326892 0 0.0027650100784721403 -0.0032800227435460863 0 0.0028834876085025805 -0.0035066132555299353 0 0.0027127576107150151 -0.0033370275012403272 0 0.0027650100784721403 -0.0032800227435460863 0 0.0027127576107150151 -0.0033370275012403272 0 0.0027650100784721403 -0.0032800227435460863 0 0.0028922779338360093 -0.0029263497329024037 0 0.0027127576107150151 -0.0033370275012403272 0 0.0024839227149543348 -0.0032745742729325036 0 0.0028922779338360093 -0.0029263497329024037 0 0.0026309087758390665 -0.0016814992518715457 0 0.002878207912805476 -0.0028181269890106063 0 0.002773989715203499 -0.0030121730011569126 0 0.0027127576107150151 -0.0033370275012403272 0 0.0024839227149543348 -0.0032745742729325036 0 0.0028364569954318192 -0.00010045674572790587 0 0.0014661421762508719 -0.0012956944059295591 0 0.0014363612492527354 0.0011588214136482936 0 0.0028364569954318192 -0.00010045674572790587 0 0.0014661421762508719 -0.0012956944059295591 0 0.0028922779338360093 -0.0029263497329024037 0 0.0016197122170786909 0.0013373805146351145 0 0.0015587869449809084 0.0012889291658105325 0 0.0013994245025995046 0.0014044241232636153 0 0.0016197122170786909 0.0013373805146351145 0 0.0015587869449809084 0.0012889291658105325 0 0.0019663474118388909 0.0011359503543401763 0 0.0015587869449809084 0.0012889291658105325 0 0.0013594722058850126 0.0013075813378166732 0 0.0013994245025995046 0.0014044241232636153 0 0.0016197122170786909 0.0013373805146351145 0 0.0013994245025995046 0.0014044241232636153 0 0.0014363612492527354 0.0011588214136482936 0 0.0015874281577226033 2.1945614741460218e-05 0 0.0014241442262567792 0.0010449591138144644 0 0.0013594722058850126 0.0013075813378166732 0 0.0010774553303052356 0.0014138321186651236 0 0.001236671980491907 0.0014262424124731395 0 0.0013594722058850126 0.0013075813378166732 0 0.0013994245025995046 0.0014044241232636153 0 0.001236671980491907 0.0014262424124731395 0 0.0013994245025995046 0.0014044241232636153 0 0.001236671980491907 0.0014262424124731395 0 0.0010941406790551755 0.0015820498517819469 0 0.0010774553303052356 0.0014138321186651236 0 0.0010941406790551755 0.0015820498517819469 0 0.00095904320007990092 0.0015975765637108235 0 0.0010774553303052356 0.0014138321186651236 0 0.001236671980491907 0.0014262424124731395 0 0.0010941406790551755 0.0015820498517819469 0 0.0010941406790551755 0.0015820498517819469 0 0.0010197947664963686 0.0017857848597453456 0 0.00084517515077492931 0.0017707206419170804 0 0.0010941406790551755 0.0015820498517819469 0 0.0012106602541420292 0.0015915948997100239 0 0.0010197947664963686 0.0017857848597453456 0 0.0013994245025995046 0.0014044241232636153 0 0.0010941406790551755 0.0015820498517819469 0 0.0012106602541420292 0.0015915948997100239 0 0.0012106602541420292 0.0015915948997100239 0 0.0010197947664963686 0.0017857848597453456 0 0.0012760569225157342 0.0016916565672238371 0 0.0010197947664963686 0.0017857848597453456 0 0.0012760569225157342 0.0016916565672238371 0 0.0011558845385880984 0.0018811249499691325 0 0.0014363612492527354 0.0011588214136482936 0 0.0013568027025458475 0.0014683367009949641 0 0.0014949106173362998 0.0015795563247041761 0 0.0013994245025995046 0.0014044241232636153 0 0.0012106602541420292 0.0015915948997100239 0 0.0013568027025458475 0.0014683367009949641 0 0.0013994245025995046 0.0014044241232636153 0 0.0014363612492527354 0.0011588214136482936 0 0.0013568027025458475 0.0014683367009949641 0 0.0012760569225157342 0.0016916565672238371 0 0.0014949106173362998 0.0015795563247041761 0 0.0015164947692510263 0.0017552835754584826 0 0.0013568027025458475 0.0014683367009949641 0 0.0012760569225157342 0.0016916565672238371 0 0.0014949106173362998 0.0015795563247041761 0 0.0012106602541420292 0.0015915948997100239 0 0.0013568027025458475 0.0014683367009949641 0 0.0012760569225157342 0.0016916565672238371 0 0.0020957907717733099 0.0016935275627205084 0 0.0014363612492527354 0.0011588214136482936 0 0.0014949106173362998 0.0015795563247041761 0 0.0020957907717733099 0.0016935275627205084 0 0.0014949106173362998 0.0015795563247041761 0 0.0018210124861075677 0.0017464907045613937 0 0.0015164947692510263 0.0017552835754584826 0 0.0018210124861075677 0.0017464907045613937 0 0.0015030082540204825 0.0020981955345237436 0 0.0014949106173362998 0.0015795563247041761 0 0.0015164947692510263 0.0017552835754584826 0 0.0018210124861075677 0.0017464907045613937 0 0.0012760569225157342 0.0016916565672238371 0 0.0013662214087589546 0.0019561026807124638 0 0.0011558845385880984 0.0018811249499691325 0 0.0015164947692510263 0.0017552835754584826 0 0.0013662214087589546 0.0019561026807124638 0 0.0015030082540204825 0.0020981955345237436 0 0.0012760569225157342 0.0016916565672238371 0 0.0015164947692510263 0.0017552835754584826 0 0.0013662214087589546 0.0019561026807124638 0 0.0015030082540204825 0.0020981955345237436 0 0.0015856241705129407 0.0024281660112007619 0 0.0013346177434766877 0.0024213416574738649 0 0.0013662214087589546 0.0019561026807124638 0 0.0015030082540204825 0.0020981955345237436 0 0.0013346177434766877 0.0024213416574738649 0 0.0018210124861075677 0.0017464907045613937 0 0.0023693748545739377 0.00029571628383507124 0 0.001504548056409866 0.0013807154702379697 0 0.0018722924868404451 0.0013678481689332548 0 0.0019712510585398356 0.0021788523199710477 0 0.0018210124861075677 0.0017464907045613937 0 0.0015030082540204825 0.0020981955345237436 0 0.0015856241705129407 0.0024281660112007619 0 0.0010197947664963686 0.0017857848597453456 0 0.0011558845385880984 0.0018811249499691325 0 0.001006276376196759 0.0020595494422461906 0 0.0010197947664963686 0.0017857848597453456 0 0.001006276376196759 0.0020595494422461906 0 0.00083395258814733628 0.001940889154671769 0 0.0013662214087589546 0.0019561026807124638 0 0.0011558845385880984 0.0018811249499691325 0 0.001006276376196759 0.0020595494422461906 0 0.0013662214087589546 0.0019561026807124638 0 0.001006276376196759 0.0020595494422461906 0 0.0013346177434766877 0.0024213416574738649 0 0.0012325683657996159 0.002683622539227245 0 0.00125716662623787 0.0025893062070726472 0 0.0013346177434766877 0.0024213416574738649 0 0.0011370843486980019 0.0023798895513493993 0 0.0013369403133500965 0.0024348796138298507 0 0.0012325683657996159 0.002683622539227245 0 0.00125716662623787 0.0025893062070726472 0 0.0012511672717211931 0.0026799987028591735 0 0.00125716662623787 0.0025893062070726472 0 0.0012803540600855048 0.0025772958250013583 0 0.0012662055774140554 0.002619711568146632 0 0.00125716662623787 0.0025893062070726472 0 0.0012662055774140554 0.002619711568146632 0 0.0012511672717211931 0.0026799987028591735 0 0.00125716662623787 0.0025893062070726472 0 0.0012803540600855048 0.0025772958250013583 0 0.0013346177434766877 0.0024213416574738649 0 0.0012803540600855048 0.0025772958250013583 0 0.0013708563075865024 0.002538592293893859 0 0.0012933430857354131 0.0025896815783466105 0 0.0012803540600855048 0.0025772958250013583 0 0.0012662055774140554 0.002619711568146632 0 0.0012761249985902611 0.0025862833524699204 0 0.0012803540600855048 0.0025772958250013583 0 0.0013346177434766877 0.0024213416574738649 0 0.0013708563075865024 0.002538592293893859 0 0.0015856241705129407 0.0024281660112007619 0 0.0013346177434766877 0.0024213416574738649 0 0.0013708563075865024 0.002538592293893859 0 0.0014120357201610968 0.0025839193091775504 0 0.0013708563075865024 0.002538592293893859 0 0.0012933430857354131 0.0025896815783466105 0 0.0015856241705129407 0.0024281660112007619 0 0.0014120357201610968 0.0025839193091775504 0 0.0013708563075865024 0.002538592293893859 0 0.0019712510585398356 0.0021788523199710477 0 0.0012074924889913059 -0.0028013005369814767 0 0.0024147417737249034 -0.00097764735326476867 0 0.0016755475861010361 -0.00034134987100728151 0 0.0017414346265657589 -0.00031726780796207342 0 0.0012074924889913059 -0.0028013005369814767 0 0.00051942590557667821 -0.0040315411942839696 0 0.00047075015392233888 -0.0077817823149620704 0 -0.00088146287774247252 -0.0071621588028980138 0 -0.00040388420522875079 -0.0082961430218859572 0 0.0023693748545739377 0.00029571628383507124 0 0.0024147417737249034 -0.00097764735326476867 0 0.0017414346265657589 -0.00031726780796207342 0 -0.00088146287774247252 -0.0071621588028980138 0 -0.0014683135773818719 -0.0082049266811399808 0 -0.00040388420522875079 -0.0082961430218859572 0 -0.00088146287774247252 -0.0071621588028980138 0 -0.0025955527717261167 -0.0076904789593821559 0 -0.0014683135773818719 -0.0082049266811399808 0 -0.00088146287774247252 -0.0071621588028980138 0 -0.0022232576640851807 -0.0065520430191852693 0 -0.0025955527717261167 -0.0076904789593821559 0 0.00051942590557667821 -0.0040315411942839696 0 0.00024599137461992968 -0.003805224183044045 0 0.0016755475861010361 -0.00034134987100728151 0 0.0018719355841604962 -0.00087040681567864659 0 0.0027138439994573464 -0.00097564388647459024 0 0.0017414346265657589 -0.00031726780796207342 0 0.0018719355841604962 -0.00087040681567864659 0 0.0016817963768882996 -0.0014772570098460502 0 0.0023693748545739377 0.00029571628383507124 0 0.0017414346265657589 -0.00031726780796207342 0 0.001504548056409866 0.0013807154702379697 0 0.0016755475861010361 -0.00034134987100728151 0 0.0017414346265657589 -0.00031726780796207342 0 0.0018719355841604962 -0.00087040681567864659 0 0.00171289271155594 -0.0003136490106707986 0 0.0016430283153690093 -7.5839801708353109e-05 0 0.0018719355841604962 -0.00087040681567864659 0 0.0016817963768882996 -0.0014772570098460502 0 0.002295698848109054 -0.0013547125814383494 0 0.0018719355841604962 -0.00087040681567864659 0 0.002295698848109054 -0.0013547125814383494 0 0.0027138439994573464 -0.00097564388647459024 0 0.002295698848109054 -0.0013547125814383494 0 0.0023527919706150618 -0.0018525333451424918 0 0.0028241348233665536 -0.0016277935981517972 0 0.0016817963768882996 -0.0014772570098460502 0 0.002295698848109054 -0.0013547125814383494 0 0.0023527919706150618 -0.0018525333451424918 0 0.0020354286530233122 -0.0025077386149805095 0 0.0016817963768882996 -0.0014772570098460502 0 0.0023527919706150618 -0.0018525333451424918 0 0.002066340661052571 -0.00044147352227588281 0 0.0016430283153690093 -7.5839801708353109e-05 0 0.0020957907717733099 0.0016935275627205084 0 0.0018210124861075677 0.0017464907045613937 0 0.001504548056409866 0.0013807154702379697 0 0.0028628424259661877 -0.0022439400202480752 0 0.0028241348233665536 -0.0016277935981517972 0 0.0035038381893650879 -0.0016046576056456812 0 0.0028628424259661877 -0.0022439400202480752 0 0.0033026935592445732 -0.0025080107735335031 0 0.0035038381893650879 -0.0016046576056456812 0 0.0028628424259661877 -0.0022439400202480752 0 0.0023527919706150618 -0.0018525333451424918 0 0.0028241348233665536 -0.0016277935981517972 0 0.002295698848109054 -0.0013547125814383494 0 0.0028241348233665536 -0.0016277935981517972 0 0.0027138439994573464 -0.00097564388647459024 0 0.0028241348233665536 -0.0016277935981517972 0 0.0027138439994573464 -0.00097564388647459024 0 0.0035038381893650879 -0.0016046576056456812 0 0.00024599137461992968 -0.003805224183044045 0 -0.00016235732534937669 -0.003198916560014098 0 -0.0030969772330744017 -0.0069382599672233878 0 -0.0022232576640851807 -0.0065520430191852693 0 -0.0036171362376056747 -0.0058643587474396536 0 -0.0030969772330744017 -0.0069382599672233878 0 -0.0039272355058562252 -0.0073553328716766406 0 -0.0036171362376056747 -0.0058643587474396536 0 -0.0030969772330744017 -0.0069382599672233878 0 -0.0033186028719032986 -0.0076908974937941951 0 -0.0039272355058562252 -0.0073553328716766406 0 -0.0030969772330744017 -0.0069382599672233878 0 -0.0022232576640851807 -0.0065520430191852693 0 -0.0025955527717261167 -0.0076904789593821559 0 -0.0030969772330744017 -0.0069382599672233878 0 -0.0025955527717261167 -0.0076904789593821559 0 -0.0033186028719032986 -0.0076908974937941951 0 -0.0025955527717261167 -0.0076904789593821559 0 -0.0033186028719032986 -0.0076908974937941951 0 -0.0035943271751671677 -0.0084839768164160952 0 -0.0033186028719032986 -0.0076908974937941951 0 -0.0039272355058562252 -0.0073553328716766406 0 -0.0035943271751671677 -0.0084839768164160952 0 -0.0039272355058562252 -0.0073553328716766406 0 -0.0050314583306533215 -0.0082166445393764241 0 -0.0035943271751671677 -0.0084839768164160952 0 -0.0049039791556923142 -0.0072423119712805122 0 -0.0058725944938608637 -0.0069754649542983953 0 -0.004815555326177526 -0.006447120969512281 0 -0.0039272355058562252 -0.0073553328716766406 0 -0.0049039791556923142 -0.0072423119712805122 0 -0.004815555326177526 -0.006447120969512281 0 -0.0049039791556923142 -0.0072423119712805122 0 -0.0050314583306533215 -0.0082166445393764241 0 -0.0058725944938608637 -0.0069754649542983953 0 -0.0039272355058562252 -0.0073553328716766406 0 -0.0049039791556923142 -0.0072423119712805122 0 -0.0050314583306533215 -0.0082166445393764241 0 -0.001242492648080456 -0.019487773043029406 0 -0.001129550170399208 -0.019615839465059574 0 -0.0011973626809601995 -0.019624461945403016 0 -0.0037787251032987703 -0.013460968464772807 0 -0.0034934392229727658 -0.013053678262989867 0 -0.0050314583306533215 -0.0082166445393764241 0 -0.0063139569758012895 -0.0083173615716289062 0 -0.0058725944938608637 -0.0069754649542983953 0 -0.0010623708650357171 -0.01950456932582556 0 -0.001129550170399208 -0.019615839465059574 0 -0.0009181681830896073 -0.019710155296158285 0 -0.001242492648080456 -0.019487773043029406 0 -0.0010623708650357171 -0.01950456932582556 0 -0.001129550170399208 -0.019615839465059574 0 -0.001129550170399208 -0.019615839465059574 0 -0.001161320339188467 -0.019667932222206943 0 -0.0011973626809601995 -0.019624461945403016 0 -0.001129550170399208 -0.019615839465059574 0 -0.001161320339188467 -0.019667932222206943 0 -0.0009181681830896073 -0.019710155296158285 0 -0.0021446324845707421 -0.021668400738822376 0 -0.0011299824314800787 -0.020132189405530087 0 -0.0026927756660203878 -0.021935193055464985 0 -0.0035624800198477682 -0.022819833566750863 0 -0.0037974346743548356 -0.022887503873587924 0 -0.0058725944938608637 -0.0069754649542983953 0 -0.0055615544713022913 -0.0058653839017309244 0 -0.004815555326177526 -0.006447120969512281 0 -0.001161320339188467 -0.019667932222206943 0 -0.0011973626809601995 -0.019624461945403016 0 -0.0012017714536451186 -0.019566055605917173 0 -0.0034934392229727658 -0.013053678262989867 0 -0.0037631071968955523 -0.014455622337506066 0 -0.0021446324845707421 -0.021668400738822376 0 -0.0037631071968955523 -0.014455622337506066 0 -0.0026927756660203878 -0.021935193055464985 0 -0.0027265104066665196 -0.02278023495471123 0 -0.0014474806716406321 -0.02214166316754124 0 -0.0026927756660203878 -0.021935193055464985 0 -0.0035624800198477682 -0.022819833566750863 0 -0.0027265104066665196 -0.02278023495471123 0 -0.0029230605914717803 -0.023718494463517498 0 -0.0019734174106797306 -0.023530539895574059 0 -0.0025413202369222862 -0.02495570210684965 0 -0.0027265104066665196 -0.02278023495471123 0 -0.0029230605914717803 -0.023718494463517498 0 -0.0019734174106797306 -0.023530539895574059 0 -0.0027265104066665196 -0.02278023495471123 0 -0.0029230605914717803 -0.023718494463517498 0 -0.0033804333769942158 -0.023303926212617145 0 -0.0029230605914717803 -0.023718494463517498 0 -0.0033804333769942158 -0.023303926212617145 0 -0.0039962901469180138 -0.02404104688205215 0 -0.0037631071968955523 -0.014455622337506066 0 -0.0031877497246998497 -0.0066782211326659752 0 -0.0055981704261011903 -0.006046117566055104 0 -0.0055716812057171154 -0.0058071159499620177 0 -0.0050755149030764874 -0.0054679087571605552 0 -0.0035162703420936908 -0.016270523470158723 0 -0.00043469916456241212 -0.0069009701099519991 0 -0.0035624800198477682 -0.022819833566750863 0 -0.0037974346743548356 -0.022887503873587924 0 -0.0038290923074535813 -0.02307040149812549 0 -0.0037631071968955523 -0.014455622337506066 0 -0.0035162703420936908 -0.016270523470158723 0 -0.005090458740742378 -0.019973855236790891 0 -0.0035162703420936908 -0.016270523470158723 0 -0.0035624800198477682 -0.022819833566750863 0 -0.0027265104066665196 -0.02278023495471123 0 -0.0033804333769942158 -0.023303926212617145 0 -0.0035624800198477682 -0.022819833566750863 0 -0.0038560186824244786 -0.023128169213598261 0 -0.0033804333769942158 -0.023303926212617145 0 -0.0026367852992448385 -0.014740359738385399 0 -0.00060928914664417429 -0.012543183455795926 0 -0.0021378351075041087 -0.011703458935123539 0 -0.0035162703420936908 -0.016270523470158723 0 -0.00014692810990053886 -0.01701734389634528 0 -0.0038560186824244786 -0.023128169213598261 0 -0.0033804333769942158 -0.023303926212617145 0 -0.0039962901469180138 -0.02404104688205215 0 -0.0050262854599907149 -0.0051810626839271703 0 -0.0050755149030764874 -0.0054679087571605552 0 -0.0036171362376056747 -0.0058643587474396536 0 -0.00043469916456241212 -0.0069009701099519991 0 -0.00014692810990053886 -0.01701734389634528 0 -0.0055716812057171154 -0.0058071159499620177 0 -0.0050262854599907149 -0.0051810626839271703 0 -0.0050755149030764874 -0.0054679087571605552 0 0.0042067582443548164 -0.0021084022522038972 0 0.0035038381893650879 -0.0016046576056456812 0 0.0038218661421133902 -0.0025550852252226334 0 -0.00043469916456241212 -0.0069009701099519991 0 -0.00016235732534937669 -0.003198916560014098 0 -0.0039272355058562252 -0.0073553328716766406 0 -0.0036171362376056747 -0.0058643587474396536 0 -0.004815555326177526 -0.006447120969512281 0 -0.0055615544713022913 -0.0058653839017309244 0 -0.0050755149030764874 -0.0054679087571605552 0 -0.004815555326177526 -0.006447120969512281 0 -0.0050755149030764874 -0.0054679087571605552 0 -0.0036171362376056747 -0.0058643587474396536 0 -0.004815555326177526 -0.006447120969512281 0 -0.00074349552880781421 -0.028549740252870878 0 -0.0010731568653247234 -0.022893769941608341 0 0.0027551917787405444 -0.02091626573197922 0 0.0014030748443130485 -0.021595657829106486 0 0.0012580947898080265 -0.020250089691072629 0 0.0014030748443130485 -0.021595657829106486 0 0.0012580947898080265 -0.020250089691072629 0 0.00027679518307649275 -0.020528586719993806 0 0.0012580947898080265 -0.020250089691072629 0 0.00027679518307649275 -0.020528586719993806 0 -0.00034589469532979707 -0.019577397720373292 0 -0.0010731568653247234 -0.022893769941608341 0 -0.0017868466013107108 -0.022965705737171941 0 0.0014030748443130485 -0.021595657829106486 0 0.00027679518307649275 -0.020528586719993806 0 7.2522939447818523e-05 -0.021786815922543824 0 7.2522939447818523e-05 -0.021786815922543824 0 -0.00063021978354766426 -0.021026333840487695 0 -0.0014474806716406321 -0.02214166316754124 0 0.00027679518307649275 -0.020528586719993806 0 7.2522939447818523e-05 -0.021786815922543824 0 -0.00063021978354766426 -0.021026333840487695 0 -0.00053913536732902055 -0.019753268847992698 0 -0.0011299824314800787 -0.020132189405530087 0 0.00027679518307649275 -0.020528586719993806 0 -0.00063021978354766426 -0.021026333840487695 0 -0.00044527206615304704 -0.019684762809425733 0 -0.00063021978354766426 -0.021026333840487695 0 -0.00044527206615304704 -0.019684762809425733 0 -0.0015903385313283717 -0.020884316044723135 0 0.00027679518307649275 -0.020528586719993806 0 -0.00044527206615304704 -0.019684762809425733 0 -0.00034589469532979707 -0.019577397720373292 0 -0.00044527206615304704 -0.019684762809425733 0 -0.00082613814131393063 -0.019579228660086819 0 -0.0009181681830896073 -0.019710155296158285 0 -0.0010623708650357171 -0.01950456932582556 0 -0.00082613814131393063 -0.019579228660086819 0 -0.0009181681830896073 -0.019710155296158285 0 -0.0026927756660203878 -0.021935193055464985 0 -0.0015903385313283717 -0.020884316044723135 0 -0.0014474806716406321 -0.02214166316754124 0 -0.00063021978354766426 -0.021026333840487695 0 -0.0015903385313283717 -0.020884316044723135 0 -0.0014474806716406321 -0.02214166316754124 0 -0.0014474806716406321 -0.02214166316754124 0 -0.0019734174106797306 -0.023530539895574059 0 -0.0004749124343121331 -0.023298015392250866 0 -0.0027265104066665196 -0.02278023495471123 0 -0.0014474806716406321 -0.02214166316754124 0 -0.0019734174106797306 -0.023530539895574059 0 -0.0019734174106797306 -0.023530539895574059 0 -0.0004749124343121331 -0.023298015392250866 0 -0.0012250995205698497 -0.024480045815574964 0 7.2522939447818523e-05 -0.021786815922543824 0 -0.0014474806716406321 -0.02214166316754124 0 -0.0004749124343121331 -0.023298015392250866 0 0.0014030748443130485 -0.021595657829106486 0 7.2522939447818523e-05 -0.021786815922543824 0 0.0011825598865682757 -0.023402825417878578 0 7.2522939447818523e-05 -0.021786815922543824 0 -0.0004749124343121331 -0.023298015392250866 0 0.0011825598865682757 -0.023402825417878578 0 -0.0004749124343121331 -0.023298015392250866 0 0.0011825598865682757 -0.023402825417878578 0 -5.6625285380110596e-05 -0.024771170208601343 0 0.0028226078796308781 -0.022642370654249427 0 0.0014030748443130485 -0.021595657829106486 0 0.0011825598865682757 -0.023402825417878578 0 0.0023082968007543656 -0.025419808244626543 0 0.0019832048959474431 -0.026276819401309319 0 0.0014536405987593654 -0.025161743355155291 0 0.0019832048959474431 -0.026276819401309319 0 0.0014536405987593654 -0.025161743355155291 0 0.00041202535831127502 -0.026731950588512961 0 0.0028883540461210819 -0.024368043865260348 0 0.0011825598865682757 -0.023402825417878578 0 0.0014536405987593654 -0.025161743355155291 0 0.0028883540461210819 -0.024368043865260348 0 0.0023082968007543656 -0.025419808244626543 0 0.0014536405987593654 -0.025161743355155291 0 0.0011825598865682757 -0.023402825417878578 0 0.0014536405987593654 -0.025161743355155291 0 -5.6625285380110596e-05 -0.024771170208601343 0 0.0014536405987593654 -0.025161743355155291 0 -5.6625285380110596e-05 -0.024771170208601343 0 0.00041202535831127502 -0.026731950588512961 0 -5.6625285380110596e-05 -0.024771170208601343 0 -0.0010739504328613236 -0.025855644901231416 0 0.00041202535831127502 -0.026731950588512961 0 0.00075040310158240369 -0.026646598308669847 0 0.0016527453787013829 -0.027341271237607451 0 -5.6625285380110596e-05 -0.024771170208601343 0 -0.0012250995205698497 -0.024480045815574964 0 -0.0010739504328613236 -0.025855644901231416 0 -0.0004749124343121331 -0.023298015392250866 0 -5.6625285380110596e-05 -0.024771170208601343 0 -0.0012250995205698497 -0.024480045815574964 0 -0.0012250995205698497 -0.024480045815574964 0 -0.0010739504328613236 -0.025855644901231416 0 -0.0025413202369222862 -0.02495570210684965 0 -0.0019734174106797306 -0.023530539895574059 0 -0.0012250995205698497 -0.024480045815574964 0 -0.0025413202369222862 -0.02495570210684965 0 0.0027579472989373048 -0.027736384039277546 0 0.0025063089341347787 -0.027385623581114165 0 0.0025417646419518677 -0.027818038214823794 0 0.00075040310158240369 -0.026646598308669847 0 0.00022874625752358635 -0.027239831808247593 0 0.0027579472989373048 -0.027736384039277546 0 0.0027118610135544951 -0.028181340801883663 0 0.0025417646419518677 -0.027818038214823794 0 0.0027118610135544951 -0.028181340801883663 0 0.0024800234771617771 -0.028131370626810523 0 0.0025930520537169096 -0.02841275944362974 0 0.0027118610135544951 -0.028181340801883663 0 0.0029520763013329977 -0.028009758238612559 0 0.0028964924836951313 -0.028373062599659722 0 0.0027579472989373048 -0.027736384039277546 0 0.0027118610135544951 -0.028181340801883663 0 0.0029520763013329977 -0.028009758238612559 0 0.0016527453787013829 -0.027341271237607451 0 0.0027549579257798531 -0.028205026514389196 0 0.0029520763013329977 -0.028009758238612559 0 0.0028964924836951313 -0.028373062599659722 0 0.0030625922355664711 -0.028294293445476699 0 0.0028964924836951313 -0.028373062599659722 0 0.0030625922355664711 -0.028294293445476699 0 0.0030400237199158528 -0.028475702392022986 0 0.0031576291046223476 -0.028280382468181448 0 0.0030625922355664711 -0.028294293445476699 0 0.0032039000337000696 -0.028237298031649618 0 0.0031576291046223476 -0.028280382468181448 0 0.0030625922355664711 -0.028294293445476699 0 0.0031371449755408071 -0.028410845743318914 0 0.0030625922355664711 -0.028294293445476699 0 0.0031371449755408071 -0.028410845743318914 0 0.0030400237199158528 -0.028475702392022986 0 0.0031371449755408071 -0.028410845743318914 0 0.0032500456431645373 -0.028387102893120467 0 0.0031990943342435833 -0.028647866734110111 0 0.0034957422465511944 -0.028334906372323672 0 0.0032500456431645373 -0.028387102893120467 0 0.0031990943342435833 -0.028647866734110111 0 0.0031576291046223476 -0.028280382468181448 0 0.0031371449755408071 -0.028410845743318914 0 0.0032500456431645373 -0.028387102893120467 0 0.0034957422465511944 -0.028334906372323672 0 0.0032500456431645373 -0.028387102893120467 0 0.0032187102143522626 -0.028208385907115812 0 0.0031576291046223476 -0.028280382468181448 0 0.0032500456431645373 -0.028387102893120467 0 0.0032187102143522626 -0.028208385907115812 0 0.0029069774097409827 -0.02814840145781021 0 0.0027549579257798531 -0.028205026514389196 0 0.0019832048959474431 -0.026276819401309319 0 0.00041202535831127502 -0.026731950588512961 0 0.0018987342761946371 -0.027586721447057091 0 0.0029520763013329977 -0.028009758238612559 0 0.0030625922355664711 -0.028294293445476699 0 0.0032039000337000696 -0.028237298031649618 0 0.0019132779754495407 -0.0043042894255237007 0 0.0023361285196016961 -0.0048655102249438907 0 0.0022250058332862546 -0.0043158530733014306 0 0.0026110799542900429 -0.0043521534045500316 0 0.0023361285196016961 -0.0048655102249438907 0 0.0022250058332862546 -0.0043158530733014306 0 0.0028437231809170724 -0.0038302496016367907 0 0.0037225980742718779 -0.0030566724166266428 0 0.0033026935592445732 -0.0025080107735335031 0 0.0033864177113687752 -0.0030415019915162136 0 0.0038218661421133902 -0.0025550852252226334 0 0.0033026935592445732 -0.0025080107735335031 0 0.0035038381893650879 -0.0016046576056456812 0 0.0038218661421133902 -0.0025550852252226334 0 0.0019132779754495407 -0.0043042894255237007 0 0.0023361285196016961 -0.0048655102249438907 0 0.001587680283747366 -0.0054311738634951184 0 -0.00043469916456241212 -0.0069009701099519991 0 0.0037225980742718779 -0.0030566724166266428 0 0.001827920334974389 -0.0055595690782437625 0 0.0023361285196016961 -0.0048655102249438907 0 0.001587680283747366 -0.0054311738634951184 0 0.0021196226486904835 -0.027635833880296331 0 0.0021016742640321343 -0.027001191003463598 0 0.0025063089341347787 -0.027385623581114165 0 -0.0029230605914717803 -0.023718494463517498 0 -0.0039962901469180138 -0.02404104688205215 0 -0.0025413202369222862 -0.02495570210684965 0 0.0023315990032034819 -0.015777625798859631 0 -0.00014692810990053886 -0.01701734389634528 0 -0.00014692810990053886 -0.01701734389634528 0 0.00022874625752358635 -0.027239831808247593 0 0.0021196226486904835 -0.027635833880296331 0 0.0025063089341347787 -0.027385623581114165 0 0.0025417646419518677 -0.027818038214823794 0 0.0021196226486904835 -0.027635833880296331 0 0.0025417646419518677 -0.027818038214823794 0 0.0024800234771617771 -0.028131370626810523 0 0.0027118610135544951 -0.028181340801883663 0 0.0025417646419518677 -0.027818038214823794 0 0.0024800234771617771 -0.028131370626810523 0 0.0021196226486904835 -0.027635833880296331 0 0.0024800234771617771 -0.028131370626810523 0 0.0022748939483085043 -0.028118597108521819 0 0.0024177508235567477 -0.004798587136708791 0 0.0020768603188903458 -0.0042774119667909971 0 0.0015377645500139253 -0.0053711492494911278 0 0.0019132779754495407 -0.0043042894255237007 0 0.0020768603188903458 -0.0042774119667909971 0 0.0022250058332862546 -0.0043158530733014306 0 0.0019132779754495407 -0.0043042894255237007 0 0.0024177508235567477 -0.004798587136708791 0 0.0020768603188903458 -0.0042774119667909971 0 0.0023315990032034819 -0.015777625798859631 0 0.0022866866299620261 -0.016561683083157318 0 0.0026110799542900429 -0.0043521534045500316 0 0.0025661975899057272 -0.0037591095639961185 0 0.0023432572050956489 -0.0040978799680965279 0 0.0026110799542900429 -0.0043521534045500316 0 0.0022250058332862546 -0.0043158530733014306 0 0.0023432572050956489 -0.0040978799680965279 0 0.0020768603188903458 -0.0042774119667909971 0 0.0022250058332862546 -0.0043158530733014306 0 0.0023432572050956489 -0.0040978799680965279 0 0.0020768603188903458 -0.0042774119667909971 0 0.0023432572050956489 -0.0040978799680965279 0 0.0023788353684714848 -0.0038214162558637297 0 0.0025661975899057272 -0.0037591095639961185 0 0.0023788353684714848 -0.0038214162558637297 0 0.0025335511465436854 -0.0034987042975423623 0 0.0025661975899057272 -0.0037591095639961185 0 0.0023432572050956489 -0.0040978799680965279 0 0.0023788353684714848 -0.0038214162558637297 0 0.002025571799046028 -0.0043028663343572205 0 0.0019545811535563581 -0.0043340621254775412 0 0.0020768603188903458 -0.0042774119667909971 0 0.0023788353684714848 -0.0038214162558637297 0 0.0022709347241882645 -0.0033963362957830736 0 0.0023788353684714848 -0.0038214162558637297 0 0.0025335511465436854 -0.0034987042975423623 0 0.0022709347241882645 -0.0033963362957830736 0 0.0015377645500139253 -0.0053711492494911278 0 0.0011480206887831434 -0.0064686200138692291 0 0.0019951757341863962 -0.0054809763541220627 0 0.0019545811535563581 -0.0043340621254775412 0 0.0017843775897143656 -0.0052713355554889155 0 0.0022709347241882645 -0.0033963362957830736 0 0.002535602187109757 -0.0032982498247455046 0 0.0025373156876113763 -0.0031652798309844726 0 0.0025335511465436854 -0.0034987042975423623 0 0.0022709347241882645 -0.0033963362957830736 0 0.002535602187109757 -0.0032982498247455046 0 0.00099129374068810945 -0.0073142580901122897 0 0.0022367293106758473 -0.0078452229907680672 0 0.0019951757341863962 -0.0054809763541220627 0 0.0017843775897143656 -0.0052713355554889155 0 0.00159889440440388 -0.0061309416608698519 0 0.002535602187109757 -0.0032982498247455046 0 0.0025373156876113763 -0.0031652798309844726 0 0.0026298895565884605 -0.0032141854306806613 0 0.00099129374068810945 -0.0073142580901122897 0 0.0022367293106758473 -0.0078452229907680672 0 0.0014036793146578051 -0.0087641458487610503 0 0.0022748939483085043 -0.028118597108521819 0 0.002618364951510846 -0.028427442959306763 0 0.0025153822650425986 -0.028414539947454739 0 0.0024177508235567477 -0.004798587136708791 0 0.0022367293106758473 -0.0078452229907680672 0 0.0019951757341863962 -0.0054809763541220627 0 0.0022866866299620261 -0.016561683083157318 0 0.002441764563149121 -0.018020567608295499 0 0.0024177508235567477 -0.004798587136708791 0 0.0015377645500139253 -0.0053711492494911278 0 0.0019951757341863962 -0.0054809763541220627 0 0.0024800234771617771 -0.028131370626810523 0 0.0022748939483085043 -0.028118597108521819 0 0.0025153822650425986 -0.028414539947454739 0 0.0024800234771617771 -0.028131370626810523 0 0.0025153822650425986 -0.028414539947454739 0 0.0025930520537169096 -0.02841275944362974 0 0.0025153822650425986 -0.028414539947454739 0 0.0025930520537169096 -0.02841275944362974 0 0.002566378353781274 -0.028637832836828955 0 0.0025153822650425986 -0.028414539947454739 0 0.0025764041538125686 -0.028502761720321151 0 0.002566378353781274 -0.028637832836828955 0 0.002618364951510846 -0.028427442959306763 0 0.0025153822650425986 -0.028414539947454739 0 0.0025764041538125686 -0.028502761720321151 0 0.002618364951510846 -0.028427442959306763 0 0.0025764041538125686 -0.028502761720321151 0 0.0028372850618945482 -0.028304660858850937 0 0.0025764041538125686 -0.028502761720321151 0 0.0024731698328572327 -0.028460864224977098 0 0.002566378353781274 -0.028637832836828955 0 0.0024731698328572327 -0.028460864224977098 0 0.0012304294756447882 -0.028498966977533742 0 0.0018850446873693741 -0.027836717777119133 0 0.0024731698328572327 -0.028460864224977098 0 0.0028372850618945482 -0.028304660858850937 0 0.0026806826092513089 -0.027591502980783774 0 0.0025764041538125686 -0.028502761720321151 0 0.0024731698328572327 -0.028460864224977098 0 0.0028372850618945482 -0.028304660858850937 0 0.0028372850618945482 -0.028304660858850937 0 0.0031910654231646889 -0.028161303288021095 0 0.0031834155924952852 -0.027635881151394318 0 0.0012428811315622699 -0.009481862378746788 0 0.0011183084236126607 -0.010076111239315042 0 0.00072084129570740296 -0.0093416794540271443 0 0.0012428811315622699 -0.009481862378746788 0 0.0017042594230121384 -0.0098159577685248689 0 0.0011183084236126607 -0.010076111239315042 0 0.0017843775897143656 -0.0052713355554889155 0 0.0016789812045209368 -0.0062622852425507237 0 0.0022367293106758473 -0.0078452229907680672 0 0.0017042594230121384 -0.0098159577685248689 0 0.0014036793146578051 -0.0087641458487610503 0 0.00099129374068810945 -0.0073142580901122897 0 0.0014036793146578051 -0.0087641458487610503 0 0.00072084129570740296 -0.0093416794540271443 0 0.0012428811315622699 -0.009481862378746788 0 0.0017042594230121384 -0.0098159577685248689 0 0.0014036793146578051 -0.0087641458487610503 0 0.0012428811315622699 -0.009481862378746788 0 0.0014036793146578051 -0.0087641458487610503 0 0.00072084129570740296 -0.0093416794540271443 0 0.002441764563149121 -0.018020567608295499 0 0.0023826629219891272 -0.01920997589614579 0 0.002618364951510846 -0.028427442959306763 0 0.0028372850618945482 -0.028304660858850937 0 0.0031910654231646889 -0.028161303288021095 0 0.0032528150837166001 -0.029098647203246467 0 0.0029677543150298624 -0.028671833487776684 0 0.0029933683298923089 -0.029056619616896061 0 0.0032528150837166001 -0.029098647203246467 0 0.0031990943342435833 -0.028647866734110111 0 0.0029677543150298624 -0.028671833487776684 0 0.0031371449755408071 -0.028410845743318914 0 0.0031990943342435833 -0.028647866734110111 0 0.0030400237199158528 -0.028475702392022986 0 0.0031990943342435833 -0.028647866734110111 0 0.0029677543150298624 -0.028671833487776684 0 0.0030400237199158528 -0.028475702392022986 0 0.0028964924836951313 -0.028373062599659722 0 0.0029677543150298624 -0.028671833487776684 0 0.002717561765307755 -0.028556134742763677 0 0.0028964924836951313 -0.028373062599659722 0 0.0029677543150298624 -0.028671833487776684 0 0.0030400237199158528 -0.028475702392022986 0 0.0029677543150298624 -0.028671833487776684 0 0.0028218526601337226 -0.028823360466088303 0 0.0029933683298923089 -0.029056619616896061 0 0.0029677543150298624 -0.028671833487776684 0 0.0028218526601337226 -0.028823360466088303 0 0.002717561765307755 -0.028556134742763677 0 0.0028218526601337226 -0.028823360466088303 0 0.002717561765307755 -0.028556134742763677 0 0.0026869483980062592 -0.028808076641049851 0 0.0027118610135544951 -0.028181340801883663 0 0.0028964924836951313 -0.028373062599659722 0 0.002717561765307755 -0.028556134742763677 0 0.0027118610135544951 -0.028181340801883663 0 0.002717561765307755 -0.028556134742763677 0 0.0025930520537169096 -0.02841275944362974 0 0.002717561765307755 -0.028556134742763677 0 0.0025930520537169096 -0.02841275944362974 0 0.002566378353781274 -0.028637832836828955 0 0.002717561765307755 -0.028556134742763677 0 0.002566378353781274 -0.028637832836828955 0 0.0026869483980062592 -0.028808076641049851 0 0.002566378353781274 -0.028637832836828955 0 0.0026396813041273028 -0.028929948784894657 0 0.0026869483980062592 -0.028808076641049851 0 0.0024731698328572327 -0.028460864224977098 0 0.002566378353781274 -0.028637832836828955 0 0.0026396813041273028 -0.028929948784894657 0 0.0024475102476799755 -0.028506384690834871 0 0.0019826299545004883 -0.028707320770174141 0 0.0026396813041273028 -0.028929948784894657 0 0.002804454568515745 -0.028989687529594931 0 0.002929761481389106 -0.029344717178336428 0 0.0012304294756447882 -0.028498966977533742 0 0.0020007506841406585 -0.028683783413508218 0 0.0016354355874510429 -0.028809914797444353 0 0.0019826299545004883 -0.028707320770174141 0 0.0024609477909052721 -0.029027086491745836 0 0.0026396813041273028 -0.028929948784894657 0 0.002804454568515745 -0.028989687529594931 0 0.0026869483980062592 -0.028808076641049851 0 0.0028218526601337226 -0.028823360466088303 0 0.002804454568515745 -0.028989687529594931 0 0.0026869483980062592 -0.028808076641049851 0 0.0028218526601337226 -0.028823360466088303 0 0.002804454568515745 -0.028989687529594931 0 0.0029933683298923089 -0.029056619616896061 0 0.002804454568515745 -0.028989687529594931 0 0.002929761481389106 -0.029344717178336428 0 0.0029933683298923089 -0.029056619616896061 0 0.0030151197157762843 -0.029567499992992175 0 0.0024609477909052721 -0.029027086491745836 0 0.0031628478425592458 -0.029394187920242336 0 0.0032298331801607705 -0.029743584737636216 0 0.002929761481389106 -0.029344717178336428 0 0.0031628478425592458 -0.029394187920242336 0 0.0032528150837166001 -0.029098647203246467 0 0.0029933683298923089 -0.029056619616896061 0 0.0031628478425592458 -0.029394187920242336 0 0.002929761481389106 -0.029344717178336428 0 0.0029933683298923089 -0.029056619616896061 0 0.0027478698737301967 -0.029712026655744482 0 0.0023261474755837119 -0.029775197466341375 0 0.0022471072702114859 -0.029289133608149789 0 0.0026374958458898687 -0.02998565410696799 0 0.0027478698737301967 -0.029712026655744482 0 0.0023261474755837119 -0.029775197466341375 0 0.0028397040018854156 -0.029323779748090306 0 0.0020007506841406585 -0.028683783413508218 0 0.0022471072702114859 -0.029289133608149789 0 0.0020007506841406585 -0.028683783413508218 0 0.0022471072702114859 -0.029289133608149789 0 0.0016354355874510429 -0.028809914797444353 0 0.0023261474755837119 -0.029775197466341375 0 0.0022471072702114859 -0.029289133608149789 0 0.0016456800814384444 -0.029617811857539231 0 0.0022471072702114859 -0.029289133608149789 0 0.0016456800814384444 -0.029617811857539231 0 0.0016354355874510429 -0.028809914797444353 0 0.00089928811205983248 -0.028180562819593028 0 0.0012018272086962384 -0.028405902772503332 0 0.00014557140316393195 -0.026879115119059185 0 0.0012120712589867295 -0.028345511222792004 0 0.0013835157987019176 -0.026833843264311173 0 0.0012304294756447882 -0.028498966977533742 0 0.0016354355874510429 -0.028809914797444353 0 0.0012120712589867295 -0.028345511222792004 0 0.0016456800814384444 -0.029617811857539231 0 0.0016354355874510429 -0.028809914797444353 0 0.0012120712589867295 -0.028345511222792004 0 0.0012304294756447882 -0.028498966977533742 0 0.0012120712589867295 -0.028345511222792004 0 0.0018850446873693741 -0.027836717777119133 0 0.0012120712589867295 -0.028345511222792004 0 0.0013835157987019176 -0.026833843264311173 0 0.0018850446873693741 -0.027836717777119133 0 0.0013835157987019176 -0.026833843264311173 0 0.0017648790131406806 -0.02591834125348319 0 0.00093535630367937118 -0.025716618897933013 0 0.0017648790131406806 -0.02591834125348319 0 0.0017272996238793714 -0.024964281015838419 0 0.00093535630367937118 -0.025716618897933013 0 0.0017272996238793714 -0.024964281015838419 0 0.00093535630367937118 -0.025716618897933013 0 0.00086034679152682792 -0.02449342806546537 0 0.00093535630367937118 -0.025716618897933013 0 0.00021093217923987304 -0.025057254956976908 0 0.00086034679152682792 -0.02449342806546537 0 0.00014557140316393195 -0.026879115119059185 0 0.00093535630367937118 -0.025716618897933013 0 -0.00057377332848043423 -0.02567314721329832 0 0.00014557140316393195 -0.026879115119059185 0 0.0013835157987019176 -0.026833843264311173 0 0.00093535630367937118 -0.025716618897933013 0 0.00089928811205983248 -0.028180562819593028 0 0.00091300715342121982 -0.028234091149744005 0 0.0023261474755837119 -0.029775197466341375 0 0.0016456800814384444 -0.029617811857539231 0 0.0021856948628196119 -0.030202476745179934 0 0.00021093217923987304 -0.025057254956976908 0 -0.00057377332848043423 -0.02567314721329832 0 -0.00048711134898897816 -0.024778197630243672 0 0.00093535630367937118 -0.025716618897933013 0 0.00021093217923987304 -0.025057254956976908 0 -0.00057377332848043423 -0.02567314721329832 0 -0.00057377332848043423 -0.02567314721329832 0 -0.0012493861968595676 -0.024560046961843975 0 -0.00048711134898897816 -0.024778197630243672 0 0.0026814704267315026 -0.030218120333453294 0 0.0026375806785941917 -0.030423412667653006 0 0.0021856948628196119 -0.030202476745179934 0 0.0026375806785941917 -0.030423412667653006 0 0.0021856948628196119 -0.030202476745179934 0 0.0025317584301608898 -0.030529405034655302 0 0.00091300715342121982 -0.028234091149744005 0 0.00045845942526188255 -0.02596094221557459 0 0.0026374958458898687 -0.02998565410696799 0 0.0026814704267315026 -0.030218120333453294 0 0.0021856948628196119 -0.030202476745179934 0 0.0026374958458898687 -0.02998565410696799 0 0.0023261474755837119 -0.029775197466341375 0 0.0021856948628196119 -0.030202476745179934 0 0.0031834155924952852 -0.027635881151394318 0 0.0030288335316016324 -0.026597388002766328 0 0.0038280630571349648 -0.026407852049189728 0 0.002781658905388406 -0.017925799854212787 0 0.002516068618177656 -0.028554931240029214 0 0.0043516075777694872 -0.027114980984604589 0 0.0031834155924952852 -0.027635881151394318 0 0.0038280630571349648 -0.026407852049189728 0 0.002781658905388406 -0.017925799854212787 0 0.0021185343965722486 -0.0080442852374632955 0 0.0023948487825348145 -0.006171810227584857 0 0.0026445649230980132 -0.0051033218026659321 0 0.0030792104562204982 -0.0056972680320316856 0 0.0013665480711287426 -0.010752487017562927 0 0.00090993126650488695 -0.010792517888009003 0 0.0010099620737018121 -0.010532249877324889 0 0.0023826629219891272 -0.01920997589614579 0 0.002781658905388406 -0.017925799854212787 0 0.0017042594230121384 -0.0098159577685248689 0 0.0013665480711287426 -0.010752487017562927 0 0.0011183084236126607 -0.010076111239315042 0 0.0013665480711287426 -0.010752487017562927 0 0.0011183084236126607 -0.010076111239315042 0 0.0010099620737018121 -0.010532249877324889 0 0.0031910654231646889 -0.028161303288021095 0 0.0035459018396718054 -0.027356031448480648 0 0.0031834155924952852 -0.027635881151394318 0 0.0028372850618945482 -0.028304660858850937 0 0.0031834155924952852 -0.027635881151394318 0 0.0026806826092513089 -0.027591502980783774 0 0.0024731698328572327 -0.028460864224977098 0 0.0026806826092513089 -0.027591502980783774 0 0.0018850446873693741 -0.027836717777119133 0 0.0026806826092513089 -0.027591502980783774 0 0.0018850446873693741 -0.027836717777119133 0 0.0022562689050238125 -0.0266299384536283 0 0.0013835157987019176 -0.026833843264311173 0 0.0018850446873693741 -0.027836717777119133 0 0.0022562689050238125 -0.0266299384536283 0 0.0026806826092513089 -0.027591502980783774 0 0.0030288335316016324 -0.026597388002766328 0 0.0022562689050238125 -0.0266299384536283 0 0.0031834155924952852 -0.027635881151394318 0 0.0026806826092513089 -0.027591502980783774 0 0.0030288335316016324 -0.026597388002766328 0 0.0030288335316016324 -0.026597388002766328 0 0.0022562689050238125 -0.0266299384536283 0 0.0025002089602552333 -0.025452635700622301 0 0.0030288335316016324 -0.026597388002766328 0 0.0025002089602552333 -0.025452635700622301 0 0.0033592364073914294 -0.025464771805363492 0 0.0013835157987019176 -0.026833843264311173 0 0.0017648790131406806 -0.02591834125348319 0 0.0022562689050238125 -0.0266299384536283 0 0.0017648790131406806 -0.02591834125348319 0 0.0022562689050238125 -0.0266299384536283 0 0.0025002089602552333 -0.025452635700622301 0 0.0017648790131406806 -0.02591834125348319 0 0.0017272996238793714 -0.024964281015838419 0 0.0025002089602552333 -0.025452635700622301 0 0.0017272996238793714 -0.024964281015838419 0 0.0025002089602552333 -0.025452635700622301 0 0.0028091334007785138 -0.024304779049153045 0 0.0025002089602552333 -0.025452635700622301 0 0.0033592364073914294 -0.025464771805363492 0 0.0028091334007785138 -0.024304779049153045 0 0.0033592364073914294 -0.025464771805363492 0 0.0028091334007785138 -0.024304779049153045 0 0.0039314850677312592 -0.024733330190269753 0 0.0033592364073914294 -0.025464771805363492 0 0.0046105634823285528 -0.025750486896453689 0 0.0039314850677312592 -0.024733330190269753 0 0.0030288335316016324 -0.026597388002766328 0 0.0033592364073914294 -0.025464771805363492 0 0.0038280630571349648 -0.026407852049189728 0 0.0033592364073914294 -0.025464771805363492 0 0.0038280630571349648 -0.026407852049189728 0 0.0046105634823285528 -0.025750486896453689 0 0.0043516075777694872 -0.027114980984604589 0 0.0038280630571349648 -0.026407852049189728 0 0.0046105634823285528 -0.025750486896453689 0 0.002781658905388406 -0.017925799854212787 0 0.0037173138393421694 -0.015116957639203135 0 0.0037173138393421694 -0.015116957639203135 0 0.0038917170650480874 -0.014776038747900936 0 0.0046105634823285528 -0.025750486896453689 0 0.0039314850677312592 -0.024733330190269753 0 0.0048454859230347884 -0.024437840785640368 0 0.0026445649230980132 -0.0051033218026659321 0 0.0032772804243239714 -0.004609716470454976 0 0.0029731715733870671 -0.0045141474919511773 0 0.0032772804243239714 -0.004609716470454976 0 0.0035894423783291289 -0.0052401948681754795 0 0.0034487712547954276 -0.0040398506466047708 0 0.0040523301396358374 -0.0028569728591806985 0 0.0035988054855155241 -0.0032628881302666931 0 0.0034487712547954276 -0.0040398506466047708 0 0.0031478000449075383 -0.0051627836912503857 0 0.0037440531624531679 -0.003579120903555198 0 0.0037217787730208967 -0.001984666281165978 0 0.0033132375524789997 -0.0022513038232123044 0 0.0035324823085286826 -0.0019275563669609267 0 0.0026445649230980132 -0.0051033218026659321 0 0.0032772804243239714 -0.004609716470454976 0 0.0031659390273935488 -0.005151058459158195 0 0.0032772804243239714 -0.004609716470454976 0 0.0035894423783291289 -0.0052401948681754795 0 0.0031659390273935488 -0.005151058459158195 0 0.0035894423783291289 -0.0052401948681754795 0 0.0031659390273935488 -0.005151058459158195 0 0.0030792104562204982 -0.0056972680320316856 0 0.0026445649230980132 -0.0051033218026659321 0 0.0031659390273935488 -0.005151058459158195 0 0.0030792104562204982 -0.0056972680320316856 0 0.0031478000449075383 -0.0051627836912503857 0 0.0021185343965722486 -0.0080442852374632955 0 0.002813268686047591 -0.001315057484502612 0 0.0018920987529773201 -0.00061894357369504487 0 0.0019287228935861915 -0.0016653759452665705 0 0.0033322442235118517 -0.0034286452740463704 0 0.0035988054855155241 -0.0032628881302666931 0 0.0034487712547954276 -0.0040398506466047708 0 0.0030244089592402794 -0.0031118064708712148 0 0.0033322442235118517 -0.0034286452740463704 0 0.0035988054855155241 -0.0032628881302666931 0 0.0030244089592402794 -0.0031118064708712148 0 0.0033322442235118517 -0.0034286452740463704 0 0.0031377105276499668 -0.0035898780858722333 0 0.0033322442235118517 -0.0034286452740463704 0 0.0031377105276499668 -0.0035898780858722333 0 0.0034487712547954276 -0.0040398506466047708 0 0.0031478000449075383 -0.0051627836912503857 0 0.0034847071745344009 -0.0022533081964511148 0 0.0040523301396358374 -0.0028569728591806985 0 0.0030244089592402794 -0.0031118064708712148 0 0.0035988054855155241 -0.0032628881302666931 0 0.0037217787730208967 -0.001984666281165978 0 0.0030244089592402794 -0.0031118064708712148 0 0.0033132375524789997 -0.0022513038232123044 0 0.0033132375524789997 -0.0022513038232123044 0 0.0027001012752955449 -0.0019840779748592119 0 0.0034502019059986797 -0.0017395718002642482 0 0.0030244089592402794 -0.0031118064708712148 0 0.0033132375524789997 -0.0022513038232123044 0 0.0027001012752955449 -0.0019840779748592119 0 0.0030244089592402794 -0.0031118064708712148 0 0.0027001012752955449 -0.0019840779748592119 0 0.0018314254933842057 -0.0018968872656033337 0 0.0031014204038913905 -0.0027259966449357381 0 0.0018660637286957555 -0.0012179025230931394 0 0.0030244089592402794 -0.0031118064708712148 0 0.0031377105276499668 -0.0035898780858722333 0 0.0018314254933842057 -0.0018968872656033337 0 0.0027001012752955449 -0.0019840779748592119 0 0.002342310251458556 -0.0008911915886781937 0 0.002811895292003748 -0.0013719551241263895 0 0.0027001012752955449 -0.0019840779748592119 0 0.002342310251458556 -0.0008911915886781937 0 0.0018314254933842057 -0.0018968872656033337 0 0.0032788226491078085 -0.0016752767985836173 0 0.0030772153007059678 -0.0020610745014824228 0 0.002811895292003748 -0.0013719551241263895 0 0.0034502019059986797 -0.0017395718002642482 0 0.0032476919621472998 -0.00095172879898232647 0 0.0027001012752955449 -0.0019840779748592119 0 0.002811895292003748 -0.0013719551241263895 0 0.0034502019059986797 -0.0017395718002642482 0 0.0033132375524789997 -0.0022513038232123044 0 0.0035324823085286826 -0.0019275563669609267 0 0.0034502019059986797 -0.0017395718002642482 0 0.0035324823085286826 -0.0019275563669609267 0 0.0034502019059986797 -0.0017395718002642482 0 0.0034573283437179933 -0.0019697933824038612 0 0.0034502019059986797 -0.0017395718002642482 0 0.0036392021555928648 -0.0020027533018627881 0 0.0034573283437179933 -0.0019697933824038612 0 0.0026693582931791712 -0.0032574869939965903 0 0.0026718287213487852 -0.0032375399083421435 0 0.0026739865517645821 -0.0032688009042242546 0 0.0030772153007059678 -0.0020610745014824228 0 0.0030036725437854852 -0.0030715282996176371 0 0.002811895292003748 -0.0013719551241263895 0 0.0029045587649732798 -9.8512501019939899e-05 0 0.0032476919621472998 -0.00095172879898232647 0 0.0027904177660607035 -0.0017038173729579499 0 0.0030772153007059678 -0.0020610745014824228 0 0.002342310251458556 -0.0008911915886781937 0 0.0029045587649732798 -9.8512501019939899e-05 0 0.0022410194175953176 -4.282356859422789e-06 0 0.002342310251458556 -0.0008911915886781937 0 0.002811895292003748 -0.0013719551241263895 0 0.0029045587649732798 -9.8512501019939899e-05 0 0.00065534869357744151 -0.010868893599635922 0 0.00090993126650488695 -0.010792517888009003 0 0.00070044474806297272 -0.010415609000555956 0 0.00090993126650488695 -0.010792517888009003 0 0.00070044474806297272 -0.010415609000555956 0 0.0010099620737018121 -0.010532249877324889 0 0.0037217787730208967 -0.001984666281165978 0 0.0035324823085286826 -0.0019275563669609267 0 0.0034573283437179933 -0.0019697933824038612 0 0.0037217787730208967 -0.001984666281165978 0 0.0034573283437179933 -0.0019697933824038612 0 0.00314359771892686 -0.0021202014045701551 0 0.0031478000449075383 -0.0051627836912503857 0 0.0017579099317555121 -0.0065560987752790664 0 0.0034573283437179933 -0.0019697933824038612 0 0.00314359771892686 -0.0021202014045701551 0 0.0034731272312054496 -0.0025571889301760492 0 0.0036392021555928648 -0.0020027533018627881 0 0.0034573283437179933 -0.0019697933824038612 0 0.0034731272312054496 -0.0025571889301760492 0 0.0011183084236126607 -0.010076111239315042 0 0.00070044474806297272 -0.010415609000555956 0 0.0010099620737018121 -0.010532249877324889 0 0.00314359771892686 -0.0021202014045701551 0 0.002650789327687782 -0.003103596138131211 0 0.0034731272312054496 -0.0025571889301760492 0 0.002650789327687782 -0.003103596138131211 0 0.002911253440172938 -0.0034324902403257591 0 0.0034731272312054496 -0.0025571889301760492 0 0.0017579099317555121 -0.0065560987752790664 0 0.0016789812045209368 -0.0062622852425507237 0 0.0011183084236126607 -0.010076111239315042 0 0.00070044474806297272 -0.010415609000555956 0 0.00072084129570740296 -0.0093416794540271443 0 0.0021402123742889994 -0.0044077560574285347 0 0.002650789327687782 -0.003103596138131211 0 0.002911253440172938 -0.0034324902403257591 0 0.0027085051717969629 -0.003195684730783549 0 0.0026894811915560875 -0.0032346092142964715 0 0.0026739865517645821 -0.0032688009042242546 0 0.0026894811915560875 -0.0032346092142964715 0 0.0027070932536345186 -0.0032006833778048557 0 0.0026994028707686131 -0.0032323660858884248 0 0.0027085051717969629 -0.003195684730783549 0 0.0026894811915560875 -0.0032346092142964715 0 0.0027070932536345186 -0.0032006833778048557 0 0.0026894811915560875 -0.0032346092142964715 0 0.0026601648446378445 -0.0032715478984930882 0 0.0026994028707686131 -0.0032323660858884248 0 0.0026894811915560875 -0.0032346092142964715 0 0.0026739865517645821 -0.0032688009042242546 0 0.0026601648446378445 -0.0032715478984930882 0 0.0029634969917607776 -0.0030126790354235329 0 0.0030036725437854852 -0.0030715282996176371 0 0.0026693582931791712 -0.0032574869939965903 0 0.0025944951584698311 -0.003308038800037761 0 0.0026601648446378445 -0.0032715478984930882 0 0.0026693582931791712 -0.0032574869939965903 0 0.0026739865517645821 -0.0032688009042242546 0 0.0026601648446378445 -0.0032715478984930882 0 0.0027904177660607035 -0.0017038173729579499 0 0.0024757964832352961 -0.0013185319565237801 0 0.0029045587649732798 -9.8512501019939899e-05 0 0.0022410194175953176 -4.282356859422789e-06 0 0.0023785147181725952 0.00069047949272727296 0 0.0022410194175953176 -4.282356859422789e-06 0 0.0023785147181725952 0.00069047949272727296 0 0.0018065508630367402 0.00030530468011340223 0 0.0025944951584698311 -0.003308038800037761 0 0.0026601648446378445 -0.0032715478984930882 0 0.0026994028707686131 -0.0032323660858884248 0 0.0026515435678367565 -0.0032175113839826184 0 0.0028023266057619609 -0.0031189582484162353 0 0.0026994028707686131 -0.0032323660858884248 0 0.0025944951584698311 -0.003308038800037761 0 0.0026515435678367565 -0.0032175113839826184 0 0.0026994028707686131 -0.0032323660858884248 0 0.0024757964832352961 -0.0013185319565237801 0 0.0020623747723516176 -0.00099126715417544465 0 0.0023785147181725952 0.00069047949272727296 0 0.0019663474118388909 0.0011359503543401763 0 0.0018308178255450308 0.0007910497390770443 0 0.0025944951584698311 -0.003308038800037761 0 0.0026515435678367565 -0.0032175113839826184 0 0.0021644818244951308 -0.0031697856816611061 0 0.0014661421762508719 -0.0012956944059295591 0 0.0021644818244951308 -0.0031697856816611061 0 0.0028922779338360093 -0.0029263497329024037 0 0.0015874281577226033 2.1945614741460218e-05 0 0.0020623747723516176 -0.00099126715417544465 0 0.0026515435678367565 -0.0032175113839826184 0 0.0028922779338360093 -0.0029263497329024037 0 0.0028023266057619609 -0.0031189582484162353 0 0.0026515435678367565 -0.0032175113839826184 0 0.0021644818244951308 -0.0031697856816611061 0 0.0028922779338360093 -0.0029263497329024037 0 0.0027650100784721403 -0.0032800227435460863 0 0.0028922779338360093 -0.0029263497329024037 0 0.0028023266057619609 -0.0031189582484162353 0 0.0027650100784721403 -0.0032800227435460863 0 0.0026702799781010041 -0.0033108735055892634 0 0.0027426690374579505 -0.0031754853754236306 0 0.0027650100784721403 -0.0032800227435460863 0 0.0028023266057619609 -0.0031189582484162353 0 0.0027426690374579505 -0.0031754853754236306 0 0.0025335511465436854 -0.0034987042975423623 0 0.002535602187109757 -0.0032982498247455046 0 0.0026702799781010041 -0.0033108735055892634 0 0.002535602187109757 -0.0032982498247455046 0 0.0026702799781010041 -0.0033108735055892634 0 0.0026298895565884605 -0.0032141854306806613 0 0.0026702799781010041 -0.0033108735055892634 0 0.0026298895565884605 -0.0032141854306806613 0 0.0027426690374579505 -0.0031754853754236306 0 0.0026729311969667701 -0.0031852618340940659 0 0.0027070932536345186 -0.0032006833778048557 0 0.0027426690374579505 -0.0031754853754236306 0 0.0017843775897143656 -0.0052713355554889155 0 0.0029634969917607776 -0.0030126790354235329 0 0.0025373156876113763 -0.0031652798309844726 0 0.0027085051717969629 -0.003195684730783549 0 0.0026729311969667701 -0.0031852618340940659 0 0.0026298895565884605 -0.0032141854306806613 0 0.0026729311969667701 -0.0031852618340940659 0 0.0027426690374579505 -0.0031754853754236306 0 0.0025373156876113763 -0.0031652798309844726 0 0.0026298895565884605 -0.0032141854306806613 0 0.0026729311969667701 -0.0031852618340940659 0 0.0027085051717969629 -0.003195684730783549 0 0.0026729311969667701 -0.0031852618340940659 0 0.0027070932536345186 -0.0032006833778048557 0 0.0028023266057619609 -0.0031189582484162353 0 0.0026994028707686131 -0.0032323660858884248 0 0.0027426690374579505 -0.0031754853754236306 0 0.0027070932536345186 -0.0032006833778048557 0 0.0026994028707686131 -0.0032323660858884248 0 0.0027426690374579505 -0.0031754853754236306 0 0.0012367679383859331 0.0010977559058430774 0 0.0014571466205386097 0.00073212436628752636 0 0.0011338403408325652 0.00075124497511298459 0 0.0012367679383859331 0.0010977559058430774 0 0.0011338403408325652 0.00075124497511298459 0 0.00095370893678741158 0.001151630152577606 0 0.0010774553303052356 0.0014138321186651236 0 0.0012367679383859331 0.0010977559058430774 0 0.00095370893678741158 0.001151630152577606 0 0.0013594722058850126 0.0013075813378166732 0 0.0010774553303052356 0.0014138321186651236 0 0.0012367679383859331 0.0010977559058430774 0 0.0013594722058850126 0.0013075813378166732 0 0.0012367679383859331 0.0010977559058430774 0 0.0015555871733520779 0.0010749041644209038 0 0.0015587869449809084 0.0012889291658105325 0 0.0013594722058850126 0.0013075813378166732 0 0.0015555871733520779 0.0010749041644209038 0 0.0015587869449809084 0.0012889291658105325 0 0.0019663474118388909 0.0011359503543401763 0 0.0015555871733520779 0.0010749041644209038 0 0.0019663474118388909 0.0011359503543401763 0 0.0015555871733520779 0.0010749041644209038 0 0.0018308178255450308 0.0007910497390770443 0 0.0012367679383859331 0.0010977559058430774 0 0.0015555871733520779 0.0010749041644209038 0 0.0014571466205386097 0.00073212436628752636 0 0.0015555871733520779 0.0010749041644209038 0 0.0014571466205386097 0.00073212436628752636 0 0.0018308178255450308 0.0007910497390770443 0 0.0014571466205386097 0.00073212436628752636 0 0.0018308178255450308 0.0007910497390770443 0 0.0018065508630367402 0.00030530468011340223 0 0.0023785147181725952 0.00069047949272727296 0 0.0018308178255450308 0.0007910497390770443 0 0.0018065508630367402 0.00030530468011340223 0 0.0022410194175953176 -4.282356859422789e-06 0 0.0018065508630367402 0.00030530468011340223 0 0.0017500926540682524 -0.00032268385750254471 0 0.0014571466205386097 0.00073212436628752636 0 0.0018065508630367402 0.00030530468011340223 0 0.0013380970337416463 0.0002354708029282103 0 0.0018065508630367402 0.00030530468011340223 0 0.0013380970337416463 0.0002354708029282103 0 0.0017500926540682524 -0.00032268385750254471 0 0.0013380970337416463 0.0002354708029282103 0 0.0010426691548593191 0.0003661138643589117 0 0.0011723760846875497 -8.3888135668761772e-06 0 0.0013380970337416463 0.0002354708029282103 0 0.0011338403408325652 0.00075124497511298459 0 0.0010426691548593191 0.0003661138643589117 0 0.0014571466205386097 0.00073212436628752636 0 0.0013380970337416463 0.0002354708029282103 0 0.0011338403408325652 0.00075124497511298459 0 0.0011338403408325652 0.00075124497511298459 0 0.00095370893678741158 0.001151630152577606 0 0.0008687339264263767 0.00080592456968241004 0 0.0011338403408325652 0.00075124497511298459 0 0.0010426691548593191 0.0003661138643589117 0 0.0008687339264263767 0.00080592456968241004 0 0.0010426691548593191 0.0003661138643589117 0 0.00099923597007455195 -1.4786924093504868e-05 0 0.00082561889678568919 0.00034897320999813545 0 0.0010426691548593191 0.0003661138643589117 0 0.00099923597007455195 -1.4786924093504868e-05 0 0.0011723760846875497 -8.3888135668761772e-06 0 0.0013380970337416463 0.0002354708029282103 0 0.0011723760846875497 -8.3888135668761772e-06 0 0.0013040120453303677 -0.0003843038370973533 0 0.00099923597007455195 -1.4786924093504868e-05 0 0.0011723760846875497 -8.3888135668761772e-06 0 0.0011598260362453705 -0.00030358667669811958 0 0.0011723760846875497 -8.3888135668761772e-06 0 0.0011598260362453705 -0.00030358667669811958 0 0.0013040120453303677 -0.0003843038370973533 0 0.0011598260362453705 -0.00030358667669811958 0 0.0010120034663739568 -0.0003044670075775671 0 0.0010607369462075989 -0.00053855838602579116 0 0.00099923597007455195 -1.4786924093504868e-05 0 0.0010120034663739568 -0.0003044670075775671 0 0.00083468867991550041 -8.9619764617542184e-05 0 0.00099923597007455195 -1.4786924093504868e-05 0 0.0011598260362453705 -0.00030358667669811958 0 0.0010120034663739568 -0.0003044670075775671 0 0.002342310251458556 -0.0008911915886781937 0 0.0022410194175953176 -4.282356859422789e-06 0 0.0017500926540682524 -0.00032268385750254471 0 0.0013380970337416463 0.0002354708029282103 0 0.0017500926540682524 -0.00032268385750254471 0 0.0013040120453303677 -0.0003843038370973533 0 0.0011598260362453705 -0.00030358667669811958 0 0.0013040120453303677 -0.0003843038370973533 0 0.0013577110047610316 -0.0006013794006906073 0 0.0013040120453303677 -0.0003843038370973533 0 0.0018920987529773201 -0.00061894357369504487 0 0.0013577110047610316 -0.0006013794006906073 0 0.0013568953512288016 -0.00050330968338017392 0 0.0018660637286957555 -0.0012179025230931394 0 0.0017500926540682524 -0.00032268385750254471 0 0.0013040120453303677 -0.0003843038370973533 0 0.0018314254933842057 -0.0018968872656033337 0 0.002342310251458556 -0.0008911915886781937 0 0.0017500926540682524 -0.00032268385750254471 0 0.0018314254933842057 -0.0018968872656033337 0 0.0018920987529773201 -0.00061894357369504487 0 0.0013577110047610316 -0.0006013794006906073 0 0.001338926884848618 -0.001099330431166109 0 0.00056388665655447907 -0.0027478034321391162 0 0.0009566893003125186 -0.0029769818538949275 0 0.0018920987529773201 -0.00061894357369504487 0 0.001338926884848618 -0.001099330431166109 0 0.0019287228935861915 -0.0016653759452665705 0 0.00040047248870841545 -0.0013791179165786758 0 0.0010254444568265576 5.6417825454843251e-05 0 0.0010120034663739568 -0.0003044670075775671 0 0.0010290010908841356 -0.00056228547562018748 0 0.00083468867991550041 -8.9619764617542184e-05 0 0.0011169404532914593 -0.00021775517534625044 0 0.00083468867991550041 -8.9619764617542184e-05 0 0.00090870718664739483 -0.0002659759076870386 0 0.0010120034663739568 -0.0003044670075775671 0 0.0010607369462075989 -0.00053855838602579116 0 0.0010290010908841356 -0.00056228547562018748 0 0.0013577110047610316 -0.0006013794006906073 0 0.001338926884848618 -0.001099330431166109 0 0.0010607369462075989 -0.00053855838602579116 0 0.00056388665655447907 -0.0027478034321391162 0 0.00040047248870841545 -0.0013791179165786758 0 0.001338926884848618 -0.001099330431166109 0 0.0010607369462075989 -0.00053855838602579116 0 0.00098843554854086114 -0.00062419204200176196 0 0.0011598260362453705 -0.00030358667669811958 0 0.0013577110047610316 -0.0006013794006906073 0 0.0010607369462075989 -0.00053855838602579116 0 0.00076210406226101513 -0.00094033479148276336 0 0.00040047248870841545 -0.0013791179165786758 0 -0.00027493845324839586 -0.0041632066161637329 0 -0.00055387933941997353 -0.0040011914261301306 0 -0.00055327437082145024 -0.0043059794322745249 0 -0.00055387933941997353 -0.0040011914261301306 0 -0.00055327437082145024 -0.0043059794322745249 0 -0.00078542497366032116 -0.0043188192342558203 0 0.00040047248870841545 -0.0013791179165786758 0 1.4544085894522406e-05 -0.0025904023616164906 0 0.0011169404532914593 -0.00021775517534625044 0 0.00094341948679225974 -0.0005211630349994499 0 0.00090870718664739483 -0.0002659759076870386 0 -0.00040127488955748661 -0.004483153205737684 0 -0.00059772296265266328 -0.00471525495558854 0 -0.00014317776004303548 -0.0047912651785371923 0 -0.00055327437082145024 -0.0043059794322745249 0 -0.00072386979872175316 -0.0045331212476656469 0 -0.00078542497366032116 -0.0043188192342558203 0 -0.00027493845324839586 -0.0041632066161637329 0 -0.00055327437082145024 -0.0043059794322745249 0 -0.00040127488955748661 -0.004483153205737684 0 -0.00055327437082145024 -0.0043059794322745249 0 -0.00040127488955748661 -0.004483153205737684 0 -0.00072386979872175316 -0.0045331212476656469 0 -0.00040127488955748661 -0.004483153205737684 0 -0.00072386979872175316 -0.0045331212476656469 0 -0.00059772296265266328 -0.00471525495558854 0 -0.00072386979872175316 -0.0045331212476656469 0 -0.00059772296265266328 -0.00471525495558854 0 -0.00086644591044563346 -0.0047009878921962685 0 -0.00059772296265266328 -0.00471525495558854 0 -0.0008236810192557135 -0.0050430827160475433 0 -0.0010255260797587442 -0.0047485463407277518 0 -0.0005605402041629887 -0.0046591192187472891 0 -0.0010570521167583649 -0.0048854954741967098 0 -0.00059772296265266328 -0.00471525495558854 0 -0.00053107695154353679 -0.0051250983366812608 0 -0.00031031914670567146 -0.005064528303710931 0 -0.00059772296265266328 -0.00471525495558854 0 -0.00053107695154353679 -0.0051250983366812608 0 -0.0008236810192557135 -0.0050430827160475433 0 -0.00059772296265266328 -0.00471525495558854 0 -0.00031031914670567146 -0.005064528303710931 0 -0.00014317776004303548 -0.0047912651785371923 0 -1.3247791497457687e-05 -0.0052609235204132332 0 -0.00031031914670567146 -0.005064528303710931 0 -0.00014317776004303548 -0.0047912651785371923 0 -0.00014317776004303548 -0.0047912651785371923 0 0.00015960307607442093 -0.0047661568886641671 0 0.00021177282906290732 -0.005129498508810928 0 -1.3247791497457687e-05 -0.0052609235204132332 0 -0.00014317776004303548 -0.0047912651785371923 0 0.00021177282906290732 -0.005129498508810928 0 -0.00014317776004303548 -0.0047912651785371923 0 2.4916927740156962e-05 -0.0043395930998332095 0 0.00015960307607442093 -0.0047661568886641671 0 -0.00027493845324839586 -0.0041632066161637329 0 -0.00040127488955748661 -0.004483153205737684 0 2.4916927740156962e-05 -0.0043395930998332095 0 -0.00040127488955748661 -0.004483153205737684 0 -0.00014317776004303548 -0.0047912651785371923 0 2.4916927740156962e-05 -0.0043395930998332095 0 0.0009566893003125186 -0.0029769818538949275 0 0.0017134400584613066 -0.0036045605567392568 0 2.4916927740156962e-05 -0.0043395930998332095 0 0.00035522243421655066 -0.004531874339566558 0 0.00015960307607442093 -0.0047661568886641671 0 0.002813268686047591 -0.001315057484502612 0 0.0019287228935861915 -0.0016653759452665705 0 0.0028254385953964448 -0.0024154072938293858 0 0.002813268686047591 -0.001315057484502612 0 0.0028254385953964448 -0.0024154072938293858 0 0.0040733663316180457 -0.0023524283586318622 0 0.0031014204038913905 -0.0027259966449357381 0 0.0035518451844775869 -0.0019141760995036244 0 0.0031377105276499668 -0.0035898780858722333 0 0.0034487712547954276 -0.0040398506466047708 0 0.0035633744377323879 -0.004403120927555835 0 0.00035522243421655066 -0.004531874339566558 0 0.00015960307607442093 -0.0047661568886641671 0 0.00046072042317100878 -0.0049897912106489492 0 0.0017134400584613066 -0.0036045605567392568 0 0.0020991167818410024 -0.0031381296012602828 0 0.00035522243421655066 -0.004531874339566558 0 0.00077201211655258159 -0.0047108780025365013 0 0.00046072042317100878 -0.0049897912106489492 0 0.0032772804243239714 -0.004609716470454976 0 0.0032275111466317343 -0.0044353398987149245 0 0.0035633744377323879 -0.004403120927555835 0 0.0032275111466317343 -0.0044353398987149245 0 0.0030874392111043722 -0.0041770135137453833 0 0.0029731715733870671 -0.0045141474919511773 0 0.0032772804243239714 -0.004609716470454976 0 0.0032275111466317343 -0.0044353398987149245 0 0.0029731715733870671 -0.0045141474919511773 0 0.0032772804243239714 -0.004609716470454976 0 0.0034487712547954276 -0.0040398506466047708 0 0.0035633744377323879 -0.004403120927555835 0 0.0028254385953964448 -0.0024154072938293858 0 0.0040733663316180457 -0.0023524283586318622 0 0.0040458288289023535 -0.0033131535736211654 0 0.0035518451844775869 -0.0019141760995036244 0 0.0037743383440722107 -0.012502361672678153 0 0.0040458288289023535 -0.0033131535736211654 0 0.0056449454053378988 -0.0037616848246572895 0 0.0055630518500485076 -0.0042707592066879765 0 0.0040733663316180457 -0.0023524283586318622 0 0.0040458288289023535 -0.0033131535736211654 0 0.0056449454053378988 -0.0037616848246572895 0 0.0032275111466317343 -0.0044353398987149245 0 0.0035633744377323879 -0.004403120927555835 0 0.0030874392111043722 -0.0041770135137453833 0 0.0020991167818410024 -0.0031381296012602828 0 0.0036633087680435872 -0.011793652075582603 0 0.00077201211655258159 -0.0047108780025365013 0 0.0017570986246470484 -0.0050410975909336315 0 0.00084364319942421763 -0.0051342874863404345 0 0.0017570986246470484 -0.0050410975909336315 0 0.0011298357587107759 -0.0054249517417733258 0 0.00084364319942421763 -0.0051342874863404345 0 0.0041785310475408663 -0.012390822089979835 0 0.0036633087680435872 -0.011793652075582603 0 0.004851156703695343 -0.022819657783215434 0 0.0048394646188864463 -0.022630067774878904 0 0.0048792533881605879 -0.022644279192935768 0 0.0037743383440722107 -0.012502361672678153 0 0.0036633087680435872 -0.011793652075582603 0 0.00084364319942421763 -0.0051342874863404345 0 0.00063036238092458222 -0.0052709934934665964 0 0.00046072042317100878 -0.0049897912106489492 0 0.00077201211655258159 -0.0047108780025365013 0 0.00084364319942421763 -0.0051342874863404345 0 0.00046072042317100878 -0.0049897912106489492 0 0.00072421748378433668 -0.0055078785708880607 0 0.00084364319942421763 -0.0051342874863404345 0 0.00063036238092458222 -0.0052709934934665964 0 0.0011298357587107759 -0.0054249517417733258 0 0.00072421748378433668 -0.0055078785708880607 0 0.00084364319942421763 -0.0051342874863404345 0 0.00072421748378433668 -0.0055078785708880607 0 0.00063036238092458222 -0.0052709934934665964 0 0.00054048014057302542 -0.0053701532779394014 0 0.00066456783219831907 -0.0056222695283300681 0 3.8356067732068425e-05 -0.007524263237401835 0 0.00072421748378433668 -0.0055078785708880607 0 0.0026271728682492872 -0.0086630809723952651 0 -0.00059315710531802467 -0.009584161292407873 0 0.00072421748378433668 -0.0055078785708880607 0 0.00054048014057302542 -0.0053701532779394014 0 0.00058341310702570337 -0.0054892416367548665 0 0.0011298357587107759 -0.0054249517417733258 0 0.00072421748378433668 -0.0055078785708880607 0 0.0026271728682492872 -0.0086630809723952651 0 0.0049102962276767461 -0.022662376679136165 0 0.005151100913245648 -0.021384853475519872 0 0.0046964644098833521 -0.02197625647808709 0 0.0017570986246470484 -0.0050410975909336315 0 0.0011298357587107759 -0.0054249517417733258 0 0.0016336503645462174 -0.0064941707498368225 0 0.0036633087680435872 -0.011793652075582603 0 0.0027525640751594892 -0.012570919124831798 0 0.00057394789435437441 -0.0038606033795983421 0 0.0027525640751594892 -0.012570919124831798 0 0.00015960307607442093 -0.0047661568886641671 0 0.00021177282906290732 -0.005129498508810928 0 0.00046072042317100878 -0.0049897912106489492 0 0.00021177282906290732 -0.005129498508810928 0 0.00046072042317100878 -0.0049897912106489492 0 0.00054048014057302542 -0.0053701532779394014 0 0.00063036238092458222 -0.0052709934934665964 0 0.00046072042317100878 -0.0049897912106489492 0 0.00054048014057302542 -0.0053701532779394014 0 0.00021177282906290732 -0.005129498508810928 0 0.00054048014057302542 -0.0053701532779394014 0 0.00032221825982283505 -0.0054897673501701919 0 -1.3247791497457687e-05 -0.0052609235204132332 0 0.00021177282906290732 -0.005129498508810928 0 0.00032221825982283505 -0.0054897673501701919 0 0.00054048014057302542 -0.0053701532779394014 0 0.00032221825982283505 -0.0054897673501701919 0 0.00058341310702570337 -0.0054892416367548665 0 0.00032221825982283505 -0.0054897673501701919 0 0.00050531674975803529 -0.0057822400555340141 0 0.00058341310702570337 -0.0054892416367548665 0 0.00032221825982283505 -0.0054897673501701919 0 0.00050531674975803529 -0.0057822400555340141 0 0.00025520841833279797 -0.0057705444955375761 0 0.00032221825982283505 -0.0054897673501701919 0 0.00025520841833279797 -0.0057705444955375761 0 -8.0796119966625229e-07 -0.0056280987637175733 0 0.0027525640751594892 -0.012570919124831798 0 0.0018254778501850426 -0.010695728306623875 0 0.0021142557952649383 -0.009909538397722949 0 0.0016982887763530615 -0.012192558275519556 0 0.0030742237651406362 -0.011798154494509163 0 0.0026271728682492872 -0.0086630809723952651 0 0.00043987416439080548 -0.011191971262710142 0 0.0016982887763530615 -0.012192558275519556 0 0.0027525640751594892 -0.012570919124831798 0 0.0041872587270471075 -0.016666088775454443 0 0.0026271728682492872 -0.0086630809723952651 0 -0.00059315710531802467 -0.009584161292407873 0 0.00043987416439080548 -0.011191971262710142 0 -0.0011209859173362438 -0.012972649224347536 0 -0.00059315710531802467 -0.009584161292407873 0 0.00043987416439080548 -0.011191971262710142 0 -0.00026073569284983957 -0.0092192733627724406 0 3.8356067732068425e-05 -0.007524263237401835 0 -0.0011209859173362438 -0.012972649224347536 0 0.00032033883618074241 -0.012772097556921243 0 0.00043987416439080548 -0.011191971262710142 0 0.00032033883618074241 -0.012772097556921243 0 0.00043987416439080548 -0.011191971262710142 0 0.0016982887763530615 -0.012192558275519556 0 0.00032033883618074241 -0.012772097556921243 0 0.0016982887763530615 -0.012192558275519556 0 0.0012782366059600418 -0.013145671918269927 0 0.0016982887763530615 -0.012192558275519556 0 0.0030742237651406362 -0.011798154494509163 0 0.0027411975210425931 -0.013304020621893214 0 0.0016982887763530615 -0.012192558275519556 0 0.0012782366059600418 -0.013145671918269927 0 0.0027411975210425931 -0.013304020621893214 0 0.0004780623396751815 -0.014308864867397394 0 0.0027411975210425931 -0.013304020621893214 0 0.0043237141999168853 -0.014120739189456692 0 0.0013717220336580587 -0.014811840857771553 0 0.0004780623396751815 -0.014308864867397394 0 0.0021539503753953888 -0.014443717760271417 0 0.0012782366059600418 -0.013145671918269927 0 0.0004780623396751815 -0.014308864867397394 0 0.0027411975210425931 -0.013304020621893214 0 0.00049241930701646023 -0.013467905941433331 0 0.003515406495672739 -0.017253871799865914 0 -0.0011209859173362438 -0.012972649224347536 0 0.0004780623396751815 -0.014308864867397394 0 -0.0012836745106602539 -0.014996579417140894 0 -0.0011209859173362438 -0.012972649224347536 0 0.00032033883618074241 -0.012772097556921243 0 0.0004780623396751815 -0.014308864867397394 0 0.00032033883618074241 -0.012772097556921243 0 0.0012782366059600418 -0.013145671918269927 0 0.0004780623396751815 -0.014308864867397394 0 0.0004780623396751815 -0.014308864867397394 0 0.00030078757068912324 -0.015558038591254767 0 -0.0012836745106602539 -0.014996579417140894 0 0.00030078757068912324 -0.015558038591254767 0 -0.0012836745106602539 -0.014996579417140894 0 -0.00060447103007111561 -0.015878352588419811 0 0.0013717220336580587 -0.014811840857771553 0 0.0004780623396751815 -0.014308864867397394 0 0.00088533535608456625 -0.015181341693806142 0 0.00030078757068912324 -0.015558038591254767 0 0.00088533535608456625 -0.015181341693806142 0 0.0014152336780271163 -0.01587128830880382 0 0.0004780623396751815 -0.014308864867397394 0 0.00030078757068912324 -0.015558038591254767 0 0.00088533535608456625 -0.015181341693806142 0 0.00088533535608456625 -0.015181341693806142 0 0.0015130953134477839 -0.015294971918958676 0 0.0014152336780271163 -0.01587128830880382 0 0.0013717220336580587 -0.014811840857771553 0 0.00088533535608456625 -0.015181341693806142 0 0.0015130953134477839 -0.015294971918958676 0 0.00025520841833279797 -0.0057705444955375761 0 0.00042024810360992058 -0.0061349108488693294 0 7.9768409799797177e-05 -0.0059858034172278777 0 0.00025520841833279797 -0.0057705444955375761 0 7.9768409799797177e-05 -0.0059858034172278777 0 -8.0796119966625229e-07 -0.0056280987637175733 0 0.00050531674975803529 -0.0057822400555340141 0 0.00025520841833279797 -0.0057705444955375761 0 0.00042024810360992058 -0.0061349108488693294 0 -0.00026073569284983957 -0.0092192733627724406 0 -0.00063251861582741715 -0.011091121089197496 0 0.00042024810360992058 -0.0061349108488693294 0 7.9768409799797177e-05 -0.0059858034172278777 0 -3.5803915412025287e-06 -0.0063287974754677569 0 7.9768409799797177e-05 -0.0059858034172278777 0 -0.00032224803842462348 -0.0061591315074246067 0 -3.5803915412025287e-06 -0.0063287974754677569 0 7.9768409799797177e-05 -0.0059858034172278777 0 -0.00029474712567417825 -0.0057728036488904804 0 -8.0796119966625229e-07 -0.0056280987637175733 0 7.9768409799797177e-05 -0.0059858034172278777 0 -0.00029474712567417825 -0.0057728036488904804 0 -0.00032224803842462348 -0.0061591315074246067 0 0.00032051215432611212 -0.0056414277909246661 0 0.00035145294127227143 -0.0054590285668119172 0 0.00032051215432611212 -0.0056414277909246661 0 0.0001966324806048143 -0.0055389619965062285 0 -0.00029474712567417825 -0.0057728036488904804 0 -0.00032224803842462348 -0.0061591315074246067 0 -0.00066952304384256315 -0.0059902390020553451 0 0.00094750404973525557 -0.0050751194024990943 0 0.00090729112380838982 -0.0049764737882095032 0 0.00091838155180992015 -0.005034163960165791 0 0.00090729112380838982 -0.0049764737882095032 0 0.00091838155180992015 -0.005034163960165791 0 0.00085105768729295368 -0.0049733419363419901 0 -0.00066952304384256315 -0.0059902390020553451 0 -0.00062301888202730236 -0.005453708498413719 0 -0.0010647859232781843 -0.0058086576972878152 0 0.0001966324806048143 -0.0055389619965062285 0 -0.00048464759146982179 -0.0049489461366800085 0 -0.00029474712567417825 -0.0057728036488904804 0 -0.00066952304384256315 -0.0059902390020553451 0 -0.00062301888202730236 -0.005453708498413719 0 -0.00029474712567417825 -0.0057728036488904804 0 -0.00062301888202730236 -0.005453708498413719 0 -0.00029270546607791821 -0.0054091903810733633 0 -0.00089446831741971631 -0.0057624159718575431 0 -0.00048464759146982179 -0.0049489461366800085 0 -0.00062301888202730236 -0.005453708498413719 0 -0.00093712327416459336 -0.0053113844608785868 0 -0.0009534381212404474 -0.0056259173968273204 0 -0.00053107695154353679 -0.0051250983366812608 0 -0.0008236810192557135 -0.0050430827160475433 0 -0.00062301888202730236 -0.005453708498413719 0 -0.0008236810192557135 -0.0050430827160475433 0 -0.00062301888202730236 -0.005453708498413719 0 -0.00093712327416459336 -0.0053113844608785868 0 -0.00053107695154353679 -0.0051250983366812608 0 -0.00031031914670567146 -0.005064528303710931 0 -0.00029270546607791821 -0.0054091903810733633 0 -0.00053107695154353679 -0.0051250983366812608 0 -0.00062301888202730236 -0.005453708498413719 0 -0.00029270546607791821 -0.0054091903810733633 0 -1.3247791497457687e-05 -0.0052609235204132332 0 -0.00031031914670567146 -0.005064528303710931 0 -0.00029270546607791821 -0.0054091903810733633 0 -1.3247791497457687e-05 -0.0052609235204132332 0 0.00032221825982283505 -0.0054897673501701919 0 -8.0796119966625229e-07 -0.0056280987637175733 0 -1.3247791497457687e-05 -0.0052609235204132332 0 -0.00029270546607791821 -0.0054091903810733633 0 -8.0796119966625229e-07 -0.0056280987637175733 0 -0.00029474712567417825 -0.0057728036488904804 0 -0.00029270546607791821 -0.0054091903810733633 0 -8.0796119966625229e-07 -0.0056280987637175733 0 -0.0012476009035948682 -0.022626675017284544 0 -0.00085797572134679357 -0.023163759847311144 0 -0.00035279500140737784 -0.022243925373232491 0 -0.0002595336253482003 -0.023138591466739477 0 0.00018449657360952449 -0.022655174418221177 0 -0.00035279500140737784 -0.022243925373232491 0 0.00018449657360952449 -0.022655174418221177 0 0.00048850412532394606 -0.021745521341702732 0 -0.00035279500140737784 -0.022243925373232491 0 -0.0002595336253482003 -0.023138591466739477 0 8.8138966883286694e-05 -0.023678707482298826 0 0.00018449657360952449 -0.022655174418221177 0 -0.0002595336253482003 -0.023138591466739477 0 -0.00085797572134679357 -0.023163759847311144 0 -0.00045307543892655417 -0.023752919217064124 0 -0.0002595336253482003 -0.023138591466739477 0 -0.00085797572134679357 -0.023163759847311144 0 -0.00035279500140737784 -0.022243925373232491 0 -0.00085797572134679357 -0.023163759847311144 0 -0.00091369645754284592 -0.023773441176697059 0 -0.00045307543892655417 -0.023752919217064124 0 -0.00091369645754284592 -0.023773441176697059 0 -0.00077837688605160188 -0.024207824060787524 0 -0.00045307543892655417 -0.023752919217064124 0 -0.00091369645754284592 -0.023773441176697059 0 -0.00096964696919639296 -0.0240902656388206 0 -0.00077837688605160188 -0.024207824060787524 0 -0.00077837688605160188 -0.024207824060787524 0 -0.0012493861968595676 -0.024560046961843975 0 -0.00048711134898897816 -0.024778197630243672 0 -0.00096964696919639296 -0.0240902656388206 0 -0.00077837688605160188 -0.024207824060787524 0 -0.00098163689873417273 -0.024321969143128553 0 -0.00042910814530186384 -0.024917639339965308 0 0.00045845942526188255 -0.02596094221557459 0 -0.00077837688605160188 -0.024207824060787524 0 -0.00048711134898897816 -0.024778197630243672 0 -6.6050948543100585e-05 -0.024413305604166376 0 -0.00077837688605160188 -0.024207824060787524 0 -6.6050948543100585e-05 -0.024413305604166376 0 -0.00045307543892655417 -0.023752919217064124 0 0.00021093217923987304 -0.025057254956976908 0 -0.00048711134898897816 -0.024778197630243672 0 -6.6050948543100585e-05 -0.024413305604166376 0 -6.6050948543100585e-05 -0.024413305604166376 0 -0.00045307543892655417 -0.023752919217064124 0 8.8138966883286694e-05 -0.023678707482298826 0 -0.0002595336253482003 -0.023138591466739477 0 -0.00045307543892655417 -0.023752919217064124 0 8.8138966883286694e-05 -0.023678707482298826 0 8.8138966883286694e-05 -0.023678707482298826 0 0.00088816609984691266 -0.023431900464707511 0 0.00086034679152682792 -0.02449342806546537 0 0.00021093217923987304 -0.025057254956976908 0 -6.6050948543100585e-05 -0.024413305604166376 0 0.00086034679152682792 -0.02449342806546537 0 -6.6050948543100585e-05 -0.024413305604166376 0 8.8138966883286694e-05 -0.023678707482298826 0 0.00086034679152682792 -0.02449342806546537 0 0.0017272996238793714 -0.024964281015838419 0 0.00086034679152682792 -0.02449342806546537 0 0.0016562944257227194 -0.024083377028788315 0 0.00088816609984691266 -0.023431900464707511 0 0.0016562944257227194 -0.024083377028788315 0 0.0015914952776352226 -0.023176384641752128 0 0.00088816609984691266 -0.023431900464707511 0 0.00086034679152682792 -0.02449342806546537 0 0.0016562944257227194 -0.024083377028788315 0 0.0015914952776352226 -0.023176384641752128 0 0.0012160599202914336 -0.022456984390252104 0 0.0019898161931427077 -0.02232090546955906 0 0.00088816609984691266 -0.023431900464707511 0 0.0015914952776352226 -0.023176384641752128 0 0.0012160599202914336 -0.022456984390252104 0 8.8138966883286694e-05 -0.023678707482298826 0 0.00088816609984691266 -0.023431900464707511 0 0.00018449657360952449 -0.022655174418221177 0 0.00088816609984691266 -0.023431900464707511 0 0.00018449657360952449 -0.022655174418221177 0 0.0012160599202914336 -0.022456984390252104 0 0.00018449657360952449 -0.022655174418221177 0 0.0011002109572095836 -0.021615188423715629 0 0.00055336633519531509 -0.020929733299272595 0 0.00018449657360952449 -0.022655174418221177 0 0.0012160599202914336 -0.022456984390252104 0 0.0011002109572095836 -0.021615188423715629 0 0.0002044670825830542 -0.02258587038163519 0 0.00049457660909417867 -0.021342341622449832 0 0.0015615805598702076 -0.021754393859450383 0 0.0012160599202914336 -0.022456984390252104 0 0.0011002109572095836 -0.021615188423715629 0 0.0015615805598702076 -0.021754393859450383 0 0.0012160599202914336 -0.022456984390252104 0 0.0019898161931427077 -0.02232090546955906 0 0.0019898161931427077 -0.02232090546955906 0 0.0025372831119212912 -0.021934489401645465 0 0.0027049808456789601 -0.022395694128258235 0 0.0015615805598702076 -0.021754393859450383 0 0.0019898161931427077 -0.02232090546955906 0 0.0021250743298666095 -0.021492549566138077 0 0.0025372831119212912 -0.021934489401645465 0 0.0026771429284943799 -0.02144233265090063 0 0.0021250743298666095 -0.021492549566138077 0 0.0019898161931427077 -0.02232090546955906 0 0.0025372831119212912 -0.021934489401645465 0 0.0021250743298666095 -0.021492549566138077 0 0.0025372831119212912 -0.021934489401645465 0 0.0032095207915922904 -0.021625055015660588 0 0.0026771429284943799 -0.02144233265090063 0 0.0025372831119212912 -0.021934489401645465 0 0.0032095207915922904 -0.021625055015660588 0 0.0031320018598965239 -0.02213760631623982 0 0.0032095207915922904 -0.021625055015660588 0 0.0031320018598965239 -0.02213760631623982 0 0.0036025752925616722 -0.022094132081254391 0 0.0025372831119212912 -0.021934489401645465 0 0.0031320018598965239 -0.02213760631623982 0 0.0027049808456789601 -0.022395694128258235 0 0.0027049808456789601 -0.022395694128258235 0 0.0032255889386809873 -0.022705100036282982 0 0.0023899170559528709 -0.022908841235801149 0 0.0032255889386809873 -0.022705100036282982 0 0.0023899170559528709 -0.022908841235801149 0 0.0027795591268211964 -0.023357277663377252 0 0.0031320018598965239 -0.02213760631623982 0 0.0027049808456789601 -0.022395694128258235 0 0.0032255889386809873 -0.022705100036282982 0 0.0031320018598965239 -0.02213760631623982 0 0.0032255889386809873 -0.022705100036282982 0 0.0036025752925616722 -0.022094132081254391 0 0.0015914952776352226 -0.023176384641752128 0 0.0019898161931427077 -0.02232090546955906 0 0.0023899170559528709 -0.022908841235801149 0 0.0019898161931427077 -0.02232090546955906 0 0.0027049808456789601 -0.022395694128258235 0 0.0023899170559528709 -0.022908841235801149 0 0.0015914952776352226 -0.023176384641752128 0 0.0023899170559528709 -0.022908841235801149 0 0.0021619539671183796 -0.023535269889474384 0 0.0016562944257227194 -0.024083377028788315 0 0.0015914952776352226 -0.023176384641752128 0 0.0021619539671183796 -0.023535269889474384 0 0.0016562944257227194 -0.024083377028788315 0 0.0021619539671183796 -0.023535269889474384 0 0.0028091334007785138 -0.024304779049153045 0 0.0023899170559528709 -0.022908841235801149 0 0.0021619539671183796 -0.023535269889474384 0 0.0027795591268211964 -0.023357277663377252 0 0.0017272996238793714 -0.024964281015838419 0 0.0016562944257227194 -0.024083377028788315 0 0.0028091334007785138 -0.024304779049153045 0 0.0028091334007785138 -0.024304779049153045 0 0.0027795591268211964 -0.023357277663377252 0 0.0033431423261397171 -0.023466687897155392 0 0.0021619539671183796 -0.023535269889474384 0 0.0028091334007785138 -0.024304779049153045 0 0.0027795591268211964 -0.023357277663377252 0 0.0032255889386809873 -0.022705100036282982 0 0.0027795591268211964 -0.023357277663377252 0 0.0033431423261397171 -0.023466687897155392 0 0.0028091334007785138 -0.024304779049153045 0 0.0033431423261397171 -0.023466687897155392 0 0.0038652753000970718 -0.023895320131691471 0 0.0033431423261397171 -0.023466687897155392 0 0.0038652753000970718 -0.023895320131691471 0 0.0038963748276605948 -0.023034061315807861 0 0.0038652753000970718 -0.023895320131691471 0 0.0044274735813689282 -0.023436336995874243 0 0.0038963748276605948 -0.023034061315807861 0 0.0028091334007785138 -0.024304779049153045 0 0.0038652753000970718 -0.023895320131691471 0 0.0039314850677312592 -0.024733330190269753 0 0.0038652753000970718 -0.023895320131691471 0 0.0048454859230347884 -0.024437840785640368 0 0.0044274735813689282 -0.023436336995874243 0 0.0038652753000970718 -0.023895320131691471 0 0.0039314850677312592 -0.024733330190269753 0 0.0048454859230347884 -0.024437840785640368 0 0.0050558442566551783 -0.023112087486387468 0 0.0048454859230347884 -0.024437840785640368 0 0.0044274735813689282 -0.023436336995874243 0 0.0037743383440722107 -0.012502361672678153 0 0.0038917170650480874 -0.014776038747900936 0 0.0044274735813689282 -0.023436336995874243 0 0.004488321362006319 -0.022684222732319684 0 0.0038963748276605948 -0.023034061315807861 0 0.0050558442566551783 -0.023112087486387468 0 0.0044274735813689282 -0.023436336995874243 0 0.004488321362006319 -0.022684222732319684 0 0.004851156703695343 -0.022819657783215434 0 0.0048394646188864463 -0.022630067774878904 0 0.0046919278471207991 -0.022615546466510286 0 0.0037743383440722107 -0.012502361672678153 0 0.006889564700496429 -0.022478173791704609 0 0.0049102962276767461 -0.022662376679136165 0 0.0046735149463027169 -0.022348898395946452 0 0.0046964644098833521 -0.02197625647808709 0 0.004851156703695343 -0.022819657783215434 0 0.0046919278471207991 -0.022615546466510286 0 0.004488321362006319 -0.022684222732319684 0 0.0046919278471207991 -0.022615546466510286 0 0.0046735149463027169 -0.022348898395946452 0 0.004488321362006319 -0.022684222732319684 0 0.0048394646188864463 -0.022630067774878904 0 0.0046919278471207991 -0.022615546466510286 0 0.0046735149463027169 -0.022348898395946452 0 0.0048394646188864463 -0.022630067774878904 0 0.0049102962276767461 -0.022662376679136165 0 0.0046735149463027169 -0.022348898395946452 0 0.0046735149463027169 -0.022348898395946452 0 0.004323647704044537 -0.022357980762426469 0 0.0046964644098833521 -0.02197625647808709 0 0.0046735149463027169 -0.022348898395946452 0 0.004323647704044537 -0.022357980762426469 0 0.004488321362006319 -0.022684222732319684 0 0.004323647704044537 -0.022357980762426469 0 0.004488321362006319 -0.022684222732319684 0 0.004103031965687288 -0.022671845092976161 0 0.004488321362006319 -0.022684222732319684 0 0.0038963748276605948 -0.023034061315807861 0 0.004103031965687288 -0.022671845092976161 0 0.0038963748276605948 -0.023034061315807861 0 0.004103031965687288 -0.022671845092976161 0 0.0038665213328845263 -0.022475540703368081 0 0.0032255889386809873 -0.022705100036282982 0 0.0038963748276605948 -0.023034061315807861 0 0.0038665213328845263 -0.022475540703368081 0 0.0032255889386809873 -0.022705100036282982 0 0.0033431423261397171 -0.023466687897155392 0 0.0038963748276605948 -0.023034061315807861 0 0.0032255889386809873 -0.022705100036282982 0 0.0038665213328845263 -0.022475540703368081 0 0.0036025752925616722 -0.022094132081254391 0 0.004323647704044537 -0.022357980762426469 0 0.0038665213328845263 -0.022475540703368081 0 0.00406350428851005 -0.022013193441584426 0 0.004323647704044537 -0.022357980762426469 0 0.004103031965687288 -0.022671845092976161 0 0.0038665213328845263 -0.022475540703368081 0 0.00406350428851005 -0.022013193441584426 0 0.0036025752925616722 -0.022094132081254391 0 0.0038266880403350326 -0.021612204247750798 0 0.0038665213328845263 -0.022475540703368081 0 0.00406350428851005 -0.022013193441584426 0 0.0036025752925616722 -0.022094132081254391 0 0.0032095207915922904 -0.021625055015660588 0 0.0036025752925616722 -0.022094132081254391 0 0.0038266880403350326 -0.021612204247750798 0 0.00406350428851005 -0.022013193441584426 0 0.0038266880403350326 -0.021612204247750798 0 0.0043837910899005668 -0.021601719972997785 0 0.005151100913245648 -0.021384853475519872 0 0.0043837910899005668 -0.021601719972997785 0 0.0046964644098833521 -0.02197625647808709 0 0.00406350428851005 -0.022013193441584426 0 0.0043837910899005668 -0.021601719972997785 0 0.0046964644098833521 -0.02197625647808709 0 0.004323647704044537 -0.022357980762426469 0 0.00406350428851005 -0.022013193441584426 0 0.0046964644098833521 -0.02197625647808709 0 0.005151100913245648 -0.021384853475519872 0 0.0043837910899005668 -0.021601719972997785 0 0.0041624894786125161 -0.021021854032464173 0 0.005151100913245648 -0.021384853475519872 0 0.0041624894786125161 -0.021021854032464173 0 0.0047117692240445904 -0.02049041784191415 0 0.0041624894786125161 -0.021021854032464173 0 0.0040523906767942156 -0.020559991000642781 0 0.0047117692240445904 -0.02049041784191415 0 0.0038266880403350326 -0.021612204247750798 0 0.0043837910899005668 -0.021601719972997785 0 0.0041624894786125161 -0.021021854032464173 0 0.0038266880403350326 -0.021612204247750798 0 0.0041624894786125161 -0.021021854032464173 0 0.0035893609336558889 -0.021002142854640214 0 0.0032095207915922904 -0.021625055015660588 0 0.0038266880403350326 -0.021612204247750798 0 0.0035893609336558889 -0.021002142854640214 0 0.0035893609336558889 -0.021002142854640214 0 0.0036069744414341347 -0.02047988384459129 0 0.0032266697602771279 -0.020670219092240573 0 0.0041624894786125161 -0.021021854032464173 0 0.0035893609336558889 -0.021002142854640214 0 0.0040523906767942156 -0.020559991000642781 0 0.0035893609336558889 -0.021002142854640214 0 0.0040523906767942156 -0.020559991000642781 0 0.0036069744414341347 -0.02047988384459129 0 0.0040523906767942156 -0.020559991000642781 0 0.0036069744414341347 -0.02047988384459129 0 0.0039327421066356338 -0.020215819036035972 0 0.0040523906767942156 -0.020559991000642781 0 0.0039327421066356338 -0.020215819036035972 0 0.0042622567246737558 -0.020143956148766209 0 0.0036044958273427504 -0.020127959384954621 0 0.0035176532224962908 -0.01988607394559495 0 0.0031775717792376815 -0.020186107175849156 0 0.0036069744414341347 -0.02047988384459129 0 0.0036044958273427504 -0.020127959384954621 0 0.0031775717792376815 -0.020186107175849156 0 0.0036069744414341347 -0.02047988384459129 0 0.0036044958273427504 -0.020127959384954621 0 0.0039327421066356338 -0.020215819036035972 0 0.0036044958273427504 -0.020127959384954621 0 0.003844832866454948 -0.019937315073784361 0 0.0035176532224962908 -0.01988607394559495 0 0.0039327421066356338 -0.020215819036035972 0 0.0040761351586833146 -0.019966366020818502 0 0.0042622567246737558 -0.020143956148766209 0 0.0036044958273427504 -0.020127959384954621 0 0.0039327421066356338 -0.020215819036035972 0 0.003844832866454948 -0.019937315073784361 0 0.0039327421066356338 -0.020215819036035972 0 0.003844832866454948 -0.019937315073784361 0 0.0040761351586833146 -0.019966366020818502 0 0.0030742237651406362 -0.011798154494509163 0 0.0027411975210425931 -0.013304020621893214 0 0.0043237141999168853 -0.014120739189456692 0 0.0041872587270471075 -0.016666088775454443 0 0.003515406495672739 -0.017253871799865914 0 0.0042622567246737558 -0.020143956148766209 0 0.0047117692240445904 -0.02049041784191415 0 0.0042468552908904271 -0.019532359435836286 0 0.0040523906767942156 -0.020559991000642781 0 0.0042622567246737558 -0.020143956148766209 0 0.0047117692240445904 -0.02049041784191415 0 0.0040761351586833146 -0.019966366020818502 0 0.0042622567246737558 -0.020143956148766209 0 0.0042468552908904271 -0.019532359435836286 0 0.0013717220336580587 -0.014811840857771553 0 0.0021539503753953888 -0.014443717760271417 0 0.0018414326565628011 -0.014882896568657234 0 0.0018414326565628011 -0.014882896568657234 0 0.0015130953134477839 -0.015294971918958676 0 0.0020419629523819607 -0.015457922825016901 0 0.0013717220336580587 -0.014811840857771553 0 0.0018414326565628011 -0.014882896568657234 0 0.0015130953134477839 -0.015294971918958676 0 0.0021539503753953888 -0.014443717760271417 0 0.0018414326565628011 -0.014882896568657234 0 0.0020419629523819607 -0.015457922825016901 0 0.0015130953134477839 -0.015294971918958676 0 0.0020419629523819607 -0.015457922825016901 0 0.0014152336780271163 -0.01587128830880382 0 0.0021539503753953888 -0.014443717760271417 0 0.0020419629523819607 -0.015457922825016901 0 0.0027759920919226801 -0.016121726158938379 0 0.0036005453600362696 -0.019816038272258019 0 0.0031214135446426244 -0.019480368401497705 0 0.0031868285133938782 -0.018922957330376567 0 0.003515406495672739 -0.017253871799865914 0 0.0028375306829056318 -0.017454549876166032 0 0.0031214135446426244 -0.019480368401497705 0 0.0028595758345373997 -0.019362760704121008 0 0.0031868285133938782 -0.018922957330376567 0 0.003515406495672739 -0.017253871799865914 0 0.0030052256284794571 -0.019798601438721055 0 0.003515406495672739 -0.017253871799865914 0 0.0028416670157758958 -0.020042624945732487 0 0.0036005453600362696 -0.019816038272258019 0 0.0031214135446426244 -0.019480368401497705 0 0.0028387275404939257 -0.019814589978046075 0 0.0039943696873752463 -0.019448003208574774 0 0.0026786369996840177 -0.019707400616823332 0 0.003036629393366643 -0.019479714466167412 0 0.0042468552908904271 -0.019532359435836286 0 0.0035176532224962908 -0.01988607394559495 0 0.0028141128782862529 -0.01974312942595223 0 0.003844832866454948 -0.019937315073784361 0 0.0040761351586833146 -0.019966366020818502 0 0.0042468552908904271 -0.019532359435836286 0 0.003844832866454948 -0.019937315073784361 0 0.0042468552908904271 -0.019532359435836286 0 0.0035176532224962908 -0.01988607394559495 0 0.0026786369996840177 -0.019707400616823332 0 0.003036629393366643 -0.019479714466167412 0 0.0020499749122020808 -0.019481875361912079 0 0.0028387275404939257 -0.019814589978046075 0 0.0024519335695869391 -0.019486887418880595 0 0.0020575078874151467 -0.019789336100463194 0 0.0030052256284794571 -0.019798601438721055 0 0.0020496670103556168 -0.01959065116199531 0 0.0031214135446426244 -0.019480368401497705 0 0.0028387275404939257 -0.019814589978046075 0 0.0028595758345373997 -0.019362760704121008 0 0.0028387275404939257 -0.019814589978046075 0 0.0028595758345373997 -0.019362760704121008 0 0.0024519335695869391 -0.019486887418880595 0 0.0028595758345373997 -0.019362760704121008 0 0.0022504958910657242 -0.01903141372725841 0 0.0031868285133938782 -0.018922957330376567 0 0.0028595758345373997 -0.019362760704121008 0 0.0024519335695869391 -0.019486887418880595 0 0.0022504958910657242 -0.01903141372725841 0 0.0022504958910657242 -0.01903141372725841 0 0.0019888820374232043 -0.019399155826131942 0 0.0015138559265727605 -0.019164769427895346 0 0.0024519335695869391 -0.019486887418880595 0 0.0022504958910657242 -0.01903141372725841 0 0.0019888820374232043 -0.019399155826131942 0 0.0026786369996840177 -0.019707400616823332 0 0.0020499749122020808 -0.019481875361912079 0 0.0012792269862979752 -0.019906216106234813 0 0.0019888820374232043 -0.019399155826131942 0 0.0020575078874151467 -0.019789336100463194 0 0.0017016227031257942 -0.019540746400591925 0 0.0028416670157758958 -0.020042624945732487 0 0.001299529897221224 -0.019808074531505595 0 0.0028141128782862529 -0.01974312942595223 0 0.0021567750671719179 -0.0200879707851228 0 0.0012792269862979752 -0.019906216106234813 0 0.0024519335695869391 -0.019486887418880595 0 0.0019888820374232043 -0.019399155826131942 0 0.0020575078874151467 -0.019789336100463194 0 0.0023684632619035027 -0.020455377289695317 0 0.0021567750671719179 -0.0200879707851228 0 0.0016898976647102672 -0.020272413626663668 0 0.0023684632619035027 -0.020455377289695317 0 0.0021043226617457399 -0.020802645860538108 0 0.0016898976647102672 -0.020272413626663668 0 0.0023684632619035027 -0.020455377289695317 0 0.0021567750671719179 -0.0200879707851228 0 0.0026750278044158481 -0.020206742764402538 0 0.0028141128782862529 -0.01974312942595223 0 0.0021567750671719179 -0.0200879707851228 0 0.0026750278044158481 -0.020206742764402538 0 0.0026750278044158481 -0.020206742764402538 0 0.0031775717792376815 -0.020186107175849156 0 0.0028208876300381052 -0.02058708916314287 0 0.0028141128782862529 -0.01974312942595223 0 0.0026750278044158481 -0.020206742764402538 0 0.0031775717792376815 -0.020186107175849156 0 0.0035176532224962908 -0.01988607394559495 0 0.0028141128782862529 -0.01974312942595223 0 0.0031775717792376815 -0.020186107175849156 0 0.0031775717792376815 -0.020186107175849156 0 0.0032266697602771279 -0.020670219092240573 0 0.0028208876300381052 -0.02058708916314287 0 0.0036069744414341347 -0.02047988384459129 0 0.0031775717792376815 -0.020186107175849156 0 0.0032266697602771279 -0.020670219092240573 0 0.0023684632619035027 -0.020455377289695317 0 0.0026750278044158481 -0.020206742764402538 0 0.0028208876300381052 -0.02058708916314287 0 0.0023684632619035027 -0.020455377289695317 0 0.0028208876300381052 -0.02058708916314287 0 0.0025100825881856472 -0.0210655478106813 0 0.0028208876300381052 -0.02058708916314287 0 0.0029965019924137219 -0.021095099697456137 0 0.0025100825881856472 -0.0210655478106813 0 0.0035893609336558889 -0.021002142854640214 0 0.0032266697602771279 -0.020670219092240573 0 0.0029965019924137219 -0.021095099697456137 0 0.0032266697602771279 -0.020670219092240573 0 0.0028208876300381052 -0.02058708916314287 0 0.0029965019924137219 -0.021095099697456137 0 0.0032095207915922904 -0.021625055015660588 0 0.0035893609336558889 -0.021002142854640214 0 0.0029965019924137219 -0.021095099697456137 0 0.0032095207915922904 -0.021625055015660588 0 0.0029965019924137219 -0.021095099697456137 0 0.0026771429284943799 -0.02144233265090063 0 0.0029965019924137219 -0.021095099697456137 0 0.0026771429284943799 -0.02144233265090063 0 0.0025100825881856472 -0.0210655478106813 0 0.0026771429284943799 -0.02144233265090063 0 0.0021250743298666095 -0.021492549566138077 0 0.0025100825881856472 -0.0210655478106813 0 0.0015615805598702076 -0.021754393859450383 0 0.0021250743298666095 -0.021492549566138077 0 0.0016555497910634811 -0.021209820563926823 0 0.0021250743298666095 -0.021492549566138077 0 0.0021043226617457399 -0.020802645860538108 0 0.0016555497910634811 -0.021209820563926823 0 0.0021250743298666095 -0.021492549566138077 0 0.0021043226617457399 -0.020802645860538108 0 0.0025100825881856472 -0.0210655478106813 0 0.0023684632619035027 -0.020455377289695317 0 0.0021043226617457399 -0.020802645860538108 0 0.0025100825881856472 -0.0210655478106813 0 0.0016555497910634811 -0.021209820563926823 0 0.0011002109572095836 -0.021615188423715629 0 0.0013850328216698079 -0.020713456935058928 0 0.0011002109572095836 -0.021615188423715629 0 0.00055336633519531509 -0.020929733299272595 0 0.0013850328216698079 -0.020713456935058928 0 0.0021043226617457399 -0.020802645860538108 0 0.0016555497910634811 -0.021209820563926823 0 0.0013850328216698079 -0.020713456935058928 0 0.0015615805598702076 -0.021754393859450383 0 0.0016555497910634811 -0.021209820563926823 0 0.0011002109572095836 -0.021615188423715629 0 0.00048850412532394606 -0.021745521341702732 0 0.0003362774550898992 -0.021137745582850049 0 0.00082182959220835749 -0.020666796537404847 0 0.00048850412532394606 -0.021745521341702732 0 0.0003362774550898992 -0.021137745582850049 0 -2.9405049091102071e-05 -0.021488270269456759 0 0.00049457660909417867 -0.021342341622449832 0 0.0011219191964462057 -0.020109968622554729 0 0.0021567750671719179 -0.0200879707851228 0 0.0016898976647102672 -0.020272413626663668 0 0.0012792269862979752 -0.019906216106234813 0 0.00055336633519531509 -0.020929733299272595 0 0.0013850328216698079 -0.020713456935058928 0 0.0012792269862979752 -0.019906216106234813 0 0.00055336633519531509 -0.020929733299272595 0 0.0010172093433072306 -0.019440765559296514 0 0.0012792269862979752 -0.019906216106234813 0 0.0021043226617457399 -0.020802645860538108 0 0.0013850328216698079 -0.020713456935058928 0 0.0016898976647102672 -0.020272413626663668 0 0.0013850328216698079 -0.020713456935058928 0 0.0016898976647102672 -0.020272413626663668 0 0.0012792269862979752 -0.019906216106234813 0 0.0020575078874151467 -0.019789336100463194 0 0.0013317735793299248 -0.019758583925374731 0 0.0017016227031257942 -0.019540746400591925 0 0.0020499749122020808 -0.019481875361912079 0 0.0010172093433072306 -0.019440765559296514 0 0.0012792269862979752 -0.019906216106234813 0 0.0020496670103556168 -0.01959065116199531 0 0.0011219191964462057 -0.020109968622554729 0 0.0019888820374232043 -0.019399155826131942 0 0.0017016227031257942 -0.019540746400591925 0 0.0015138559265727605 -0.019164769427895346 0 0.0011219191964462057 -0.020109968622554729 0 0.0015077597866052406 -0.019414746473864777 0 0.0013317735793299248 -0.019758583925374731 0 0.0017016227031257942 -0.019540746400591925 0 0.0015138559265727605 -0.019164769427895346 0 0.0012623444137081425 -0.020582292321205536 0 0.0015118310652138028 -0.019686082271430604 0 0.00089770564099123182 -0.019911419502880806 0 0.00089770564099123182 -0.019911419502880806 0 0.00031259101044931646 -0.020573864709235654 0 0.00042738129217477543 -0.019495721790169399 0 0.0015118310652138028 -0.019686082271430604 0 0.00089770564099123182 -0.019911419502880806 0 0.0010891261743395503 -0.019082479572563697 0 0.0003362774550898992 -0.021137745582850049 0 0.00082182959220835749 -0.020666796537404847 0 6.9063283844545618e-05 -0.020646429662366555 0 0.0011219191964462057 -0.020109968622554729 0 0.00016232331835487813 -0.02063436036866555 0 0.0012623444137081425 -0.020582292321205536 0 0.00089770564099123182 -0.019911419502880806 0 0.00031259101044931646 -0.020573864709235654 0 0.00016232331835487813 -0.02063436036866555 0 -0.00054490712741180633 -0.020608779811120487 0 6.9063283844545618e-05 -0.020646429662366555 0 -0.00061932442159077464 -0.020618044588642307 0 -0.00059483525065439757 -0.021163202709759292 0 0.00031259101044931646 -0.020573864709235654 0 -0.00030086141591477715 -0.019618023833920709 0 0.00042738129217477543 -0.019495721790169399 0 0.00031259101044931646 -0.020573864709235654 0 -0.00061932442159077464 -0.020618044588642307 0 -0.00030086141591477715 -0.019618023833920709 0 -0.00061932442159077464 -0.020618044588642307 0 -0.00030086141591477715 -0.019618023833920709 0 -0.00092076768106076439 -0.019627658999497595 0 -0.0013629752099954709 -0.021012633774172645 0 -0.00061932442159077464 -0.020618044588642307 0 -0.00059483525065439757 -0.021163202709759292 0 -0.00093722126451900383 -0.021752756868145495 0 -6.5846367816499974e-05 -0.021497641138733363 0 -0.00098024214966124291 -0.021586253019337621 0 -0.00059483525065439757 -0.021163202709759292 0 -2.9405049091102071e-05 -0.021488270269456759 0 0.0003362774550898992 -0.021137745582850049 0 6.9063283844545618e-05 -0.020646429662366555 0 -2.9405049091102071e-05 -0.021488270269456759 0 6.9063283844545618e-05 -0.020646429662366555 0 -0.00059483525065439757 -0.021163202709759292 0 -2.9405049091102071e-05 -0.021488270269456759 0 0.00048850412532394606 -0.021745521341702732 0 -2.9405049091102071e-05 -0.021488270269456759 0 -0.00035279500140737784 -0.022243925373232491 0 -0.00095808533134686175 -0.021910904936902988 0 -2.9405049091102071e-05 -0.021488270269456759 0 -0.00035279500140737784 -0.022243925373232491 0 -0.00095808533134686175 -0.021910904936902988 0 -0.0012476009035948682 -0.022626675017284544 0 -0.00035279500140737784 -0.022243925373232491 0 -0.00027535984967586404 -0.017324473523745637 0 2.6535677213158885e-05 -0.016847641324876986 0 -0.00042077122623538753 -0.016717355311718606 0 -0.00013632464932731092 -0.019732706824668857 0 0.0013024739599319071 -0.02056268167480263 0 0.0023338548905472854 -0.024176988051541302 0 0.0023677065460025667 -0.023817411730583965 0 0.0026629730789985854 -0.023684921239916123 0 -0.00085161583349754465 -0.017783008696110193 0 -0.00027535984967586404 -0.017324473523745637 0 -0.00042077122623538753 -0.016717355311718606 0 0.00014785956387154131 -0.017411479144888001 0 0.00076970963657977656 -0.016951180103577684 0 2.6535677213158885e-05 -0.016847641324876986 0 -0.00027535984967586404 -0.017324473523745637 0 0.00014785956387154131 -0.017411479144888001 0 2.6535677213158885e-05 -0.016847641324876986 0 0.00014785956387154131 -0.017411479144888001 0 -0.0002520895106962991 -0.017876305375982771 0 0.00028750042069480445 -0.018202708714319098 0 -0.00027535984967586404 -0.017324473523745637 0 0.00014785956387154131 -0.017411479144888001 0 -0.0002520895106962991 -0.017876305375982771 0 -0.00085161583349754465 -0.017783008696110193 0 -0.0002520895106962991 -0.017876305375982771 0 -0.00050242949466671578 -0.01859305865328879 0 -0.00085161583349754465 -0.017783008696110193 0 -0.00027535984967586404 -0.017324473523745637 0 -0.0002520895106962991 -0.017876305375982771 0 -0.0012949494994040404 -0.018882186804323856 0 -0.00098608426903156647 -0.017745325833361487 0 -0.00050242949466671578 -0.01859305865328879 0 -0.00013632464932731092 -0.019732706824668857 0 -0.00088576274821572203 -0.017825768547917887 0 -0.00050242949466671578 -0.01859305865328879 0 -0.00030086141591477715 -0.019618023833920709 0 3.588687411467817e-05 -0.018960579904330636 0 -0.0012949494994040404 -0.018882186804323856 0 -0.00050242949466671578 -0.01859305865328879 0 -0.00092076768106076439 -0.019627658999497595 0 -0.00050242949466671578 -0.01859305865328879 0 -0.00030086141591477715 -0.019618023833920709 0 -0.00092076768106076439 -0.019627658999497595 0 -0.00030086141591477715 -0.019618023833920709 0 0.00042738129217477543 -0.019495721790169399 0 3.588687411467817e-05 -0.018960579904330636 0 0.00042738129217477543 -0.019495721790169399 0 3.588687411467817e-05 -0.018960579904330636 0 0.00054230718564111349 -0.018804897002872044 0 3.588687411467817e-05 -0.018960579904330636 0 0.00028750042069480445 -0.018202708714319098 0 0.00054230718564111349 -0.018804897002872044 0 -0.0002520895106962991 -0.017876305375982771 0 -0.00050242949466671578 -0.01859305865328879 0 0.00028750042069480445 -0.018202708714319098 0 -0.00050242949466671578 -0.01859305865328879 0 3.588687411467817e-05 -0.018960579904330636 0 0.00028750042069480445 -0.018202708714319098 0 0.001065346300006658 -0.018279733649480007 0 0.00054230718564111349 -0.018804897002872044 0 0.0010891261743395503 -0.019082479572563697 0 0.00028750042069480445 -0.018202708714319098 0 0.001065346300006658 -0.018279733649480007 0 0.00054230718564111349 -0.018804897002872044 0 0.00042738129217477543 -0.019495721790169399 0 0.00054230718564111349 -0.018804897002872044 0 0.0010891261743395503 -0.019082479572563697 0 0.00089770564099123182 -0.019911419502880806 0 0.00042738129217477543 -0.019495721790169399 0 0.0010891261743395503 -0.019082479572563697 0 0.0015077597866052406 -0.019414746473864777 0 0.0016613230728712073 -0.018737801322259537 0 0.0015118310652138028 -0.019686082271430604 0 0.0010891261743395503 -0.019082479572563697 0 0.0016663759164546154 -0.018639084168336262 0 0.001065346300006658 -0.018279733649480007 0 0.0010891261743395503 -0.019082479572563697 0 0.0016663759164546154 -0.018639084168336262 0 0.001065346300006658 -0.018279733649480007 0 0.0016663759164546154 -0.018639084168336262 0 0.0019384570911571497 -0.017779994923585347 0 0.001065346300006658 -0.018279733649480007 0 0.0010379854550692106 -0.017584874373374318 0 0.0019384570911571497 -0.017779994923585347 0 0.0010379854550692106 -0.017584874373374318 0 0.0016409976467940514 -0.017261768949833271 0 0.0019384570911571497 -0.017779994923585347 0 0.00028750042069480445 -0.018202708714319098 0 0.001065346300006658 -0.018279733649480007 0 0.0010379854550692106 -0.017584874373374318 0 0.00014785956387154131 -0.017411479144888001 0 0.00028750042069480445 -0.018202708714319098 0 0.0010379854550692106 -0.017584874373374318 0 0.00014785956387154131 -0.017411479144888001 0 0.0010379854550692106 -0.017584874373374318 0 0.00076970963657977656 -0.016951180103577684 0 0.0010379854550692106 -0.017584874373374318 0 0.00076970963657977656 -0.016951180103577684 0 0.0016409976467940514 -0.017261768949833271 0 0.00076970963657977656 -0.016951180103577684 0 0.0016409976467940514 -0.017261768949833271 0 0.0014047198607563833 -0.016689497786373322 0 0.0016409976467940514 -0.017261768949833271 0 0.0017720310244729747 -0.016909732246235053 0 0.0014047198607563833 -0.016689497786373322 0 0.0016409976467940514 -0.017261768949833271 0 0.0023059572895310315 -0.017163063265799645 0 0.0017720310244729747 -0.016909732246235053 0 0.0023059572895310315 -0.017163063265799645 0 0.0020892879176133191 -0.016820867547065393 0 0.0023207923163610644 -0.01667099869807389 0 0.0023059572895310315 -0.017163063265799645 0 0.0017720310244729747 -0.016909732246235053 0 0.0020892879176133191 -0.016820867547065393 0 0.0023059572895310315 -0.017163063265799645 0 0.0028863715094207677 -0.016907716242015459 0 0.0023207923163610644 -0.01667099869807389 0 0.0026401266621086483 -0.017599437909293962 0 0.0023600487771337111 -0.016503135089941837 0 0.0023059572895310315 -0.017163063265799645 0 0.0028863715094207677 -0.016907716242015459 0 0.0034771569630003391 -0.017614890171517281 0 0.0023059572895310315 -0.017163063265799645 0 0.0025187863497600576 -0.017587686455668605 0 0.0025661183055698221 -0.017770235394760449 0 0.0025187863497600576 -0.017587686455668605 0 0.0019384570911571497 -0.017779994923585347 0 0.0027171413703550584 -0.017767825374617487 0 0.0025187863497600576 -0.017587686455668605 0 0.0027171413703550584 -0.017767825374617487 0 0.0025797057322248505 -0.017650694811785727 0 0.0023059572895310315 -0.017163063265799645 0 0.0025187863497600576 -0.017587686455668605 0 0.0019384570911571497 -0.017779994923585347 0 0.0016409976467940514 -0.017261768949833271 0 0.0023059572895310315 -0.017163063265799645 0 0.0019384570911571497 -0.017779994923585347 0 0.0019384570911571497 -0.017779994923585347 0 0.0022241065198877448 -0.018399214166918473 0 0.0027171413703550584 -0.017767825374617487 0 0.0016663759164546154 -0.018639084168336262 0 0.0019384570911571497 -0.017779994923585347 0 0.0022241065198877448 -0.018399214166918473 0 0.0022504958910657242 -0.01903141372725841 0 0.0015138559265727605 -0.019164769427895346 0 0.0016663759164546154 -0.018639084168336262 0 0.0022504958910657242 -0.01903141372725841 0 0.0016663759164546154 -0.018639084168336262 0 0.0022241065198877448 -0.018399214166918473 0 0.0022241065198877448 -0.018399214166918473 0 0.0027171413703550584 -0.017767825374617487 0 0.0031868285133938782 -0.018922957330376567 0 0.0022504958910657242 -0.01903141372725841 0 0.0022241065198877448 -0.018399214166918473 0 0.0031868285133938782 -0.018922957330376567 0 0.0027871172419397334 -0.017726493299599425 0 0.0028375306829056318 -0.017454549876166032 0 0.0027171413703550584 -0.017767825374617487 0 0.0023934429363934831 -0.01720485540661101 0 0.0025797057322248505 -0.017650694811785727 0 0.0027171413703550584 -0.017767825374617487 0 0.0023934429363934831 -0.01720485540661101 0 0.0027759920919226801 -0.016121726158938379 0 0.002299522701307313 -0.017456289580393056 0 0.0023934429363934831 -0.01720485540661101 0 0.0025797057322248505 -0.017650694811785727 0 0.0020419629523819607 -0.015457922825016901 0 0.0027759920919226801 -0.016121726158938379 0 0.0020654215893152915 -0.016495827972778366 0 0.0023934429363934831 -0.01720485540661101 0 0.0027759920919226801 -0.016121726158938379 0 0.0020654215893152915 -0.016495827972778366 0 0.0020419629523819607 -0.015457922825016901 0 0.0020654215893152915 -0.016495827972778366 0 0.0014152336780271163 -0.01587128830880382 0 0.0020654215893152915 -0.016495827972778366 0 0.0014152336780271163 -0.01587128830880382 0 0.0015435895817042936 -0.017166576425767917 0 0.0023934429363934831 -0.01720485540661101 0 0.0020654215893152915 -0.016495827972778366 0 0.0015435895817042936 -0.017166576425767917 0 0.002299522701307313 -0.017456289580393056 0 0.0015435895817042936 -0.017166576425767917 0 0.0025661183055698221 -0.017770235394760449 0 0.002299522701307313 -0.017456289580393056 0 0.0023934429363934831 -0.01720485540661101 0 0.0015435895817042936 -0.017166576425767917 0 0.00076179152926952604 -0.016430377875941416 0 0.00089943276622740827 -0.016670209472857501 0 0.00055451893409007758 -0.016727702707342543 0 0.00076179152926952604 -0.016430377875941416 0 0.00089943276622740827 -0.016670209472857501 0 0.0011092517097476048 -0.016888368349453842 0 4.1085783431512653e-05 -0.005646182880013023 0 -0.00029962296628050725 -0.0058982839931216828 0 -0.00050142968233943513 -0.0055820403887931131 0 0.00089943276622740827 -0.016670209472857501 0 0.0010346645941401869 -0.016798738611288978 0 0.00055451893409007758 -0.016727702707342543 0 4.1085783431512653e-05 -0.005646182880013023 0 -0.00050142968233943513 -0.0055820403887931131 0 -0.00046772229745869868 -0.0055598216619367497 0 0.00035574311965369456 -0.013324897318293812 0 -5.4312244633792735e-06 -0.010906887411267989 0 0.0010874813304946182 -0.016886584011403132 0 0.0023600487771337111 -0.016503135089941837 0 0.00089943276622740827 -0.016670209472857501 0 0.0010166182160135323 -0.016843820577961927 0 0.0011092517097476048 -0.016888368349453842 0 0.0016064242687808834 -0.016765891961110013 0 0.00035574311965369456 -0.013324897318293812 0 0.0025187863497600576 -0.017587686455668605 0 0.0025797057322248505 -0.017650694811785727 0 0.0025661183055698221 -0.017770235394760449 0 0.002299522701307313 -0.017456289580393056 0 0.0025797057322248505 -0.017650694811785727 0 0.0025661183055698221 -0.017770235394760449 0 0.00035574311965369456 -0.013324897318293812 0 0.0023600487771337111 -0.016503135089941837 0 4.1085783431512653e-05 -0.005646182880013023 0 0.00058149858904307989 -0.0063788844491858695 0 1.6999495818295977e-05 -0.0062401999518577837 0 0.0024879775289557192 -0.01623256670576893 0 0.0023600487771337111 -0.016503135089941837 0 0.00035574311965369456 -0.013324897318293812 0 0.0011198200630599172 -0.01050302585386502 0 0.0014813501680451088 -0.014940203659903959 0 0.001647848917292468 -0.015013967453818593 0 0.0019328712368840051 -0.015579922872493757 0 0.0021017219368911454 -0.015610127487350052 0 0.001647848917292468 -0.015013967453818593 0 0.0019328712368840051 -0.015579922872493757 0 4.1085783431512653e-05 -0.005646182880013023 0 1.6999495818295977e-05 -0.0062401999518577837 0 -0.00029962296628050725 -0.0058982839931216828 0 1.6999495818295977e-05 -0.0062401999518577837 0 -0.00029962296628050725 -0.0058982839931216828 0 -0.00028197527125079229 -0.0063548259635341428 0 -0.00028197527125079229 -0.0063548259635341428 0 0.00016225675833472528 -0.0070674516726833576 0 -0.00020225045413156781 -0.0075665391238265997 0 1.6999495818295977e-05 -0.0062401999518577837 0 -0.00028197527125079229 -0.0063548259635341428 0 0.00016225675833472528 -0.0070674516726833576 0 0.00058149858904307989 -0.0063788844491858695 0 0.00016225675833472528 -0.0070674516726833576 0 0.0010467494939124381 -0.0075246468979042391 0 0.00058149858904307989 -0.0063788844491858695 0 1.6999495818295977e-05 -0.0062401999518577837 0 0.00016225675833472528 -0.0070674516726833576 0 0.00016225675833472528 -0.0070674516726833576 0 0.00017027637740837809 -0.008665398561517176 0 0.0010467494939124381 -0.0075246468979042391 0 0.00016225675833472528 -0.0070674516726833576 0 -0.00020225045413156781 -0.0075665391238265997 0 0.00017027637740837809 -0.008665398561517176 0 -0.00020225045413156781 -0.0075665391238265997 0 -0.00016536653983652676 -0.0086933803071571978 0 -0.00043210949743324002 -0.007686101061438232 0 -0.00020225045413156781 -0.0075665391238265997 0 -0.00016536653983652676 -0.0086933803071571978 0 0.00017027637740837809 -0.008665398561517176 0 -0.00016536653983652676 -0.0086933803071571978 0 -1.2433253709587584e-06 -0.010469884857085304 0 -1.5795244875143005e-07 -0.0087051782606259696 0 -1.2433253709587584e-06 -0.010469884857085304 0 0.00017027637740837809 -0.008665398561517176 0 0.0002135636296916589 -0.010255183135095528 0 -0.00016536653983652676 -0.0086933803071571978 0 -1.2433253709587584e-06 -0.010469884857085304 0 0.00017027637740837809 -0.008665398561517176 0 0.00017027637740837809 -0.008665398561517176 0 0.0002135636296916589 -0.010255183135095528 0 0.0014672547365167667 -0.0088726318232718229 0 -1.2433253709587584e-06 -0.010469884857085304 0 0.0002135636296916589 -0.010255183135095528 0 4.4472099443363467e-06 -0.012231413672538941 0 0.0002135636296916589 -0.010255183135095528 0 4.4472099443363467e-06 -0.012231413672538941 0 0.00133197223039979 -0.01059232915709922 0 -8.7896816674559758e-09 -0.012236336442687613 0 1.7321295932955749e-08 -0.013252087874932631 0 2.8602812308738888e-06 -0.013529325070211004 0 9.1908617634297672e-07 -0.012234650452467603 0 0.0008940462372312904 -0.013330453566907371 0 4.4472099443363467e-06 -0.012231413672538941 0 0.00133197223039979 -0.01059232915709922 0 0.0028096165560206926 -0.011091848334279635 0 0.00133197223039979 -0.01059232915709922 0 0.0014672547365167667 -0.0088726318232718229 0 0.0030230292527462809 -0.010994428005714839 0 0.0002135636296916589 -0.010255183135095528 0 0.00133197223039979 -0.01059232915709922 0 0.0014672547365167667 -0.0088726318232718229 0 0.0019895320845157278 -0.015348808230871992 0 0.001793491996495178 -0.016079895230360755 0 0.0022128291379215734 -0.016062124044795564 0 0.0018613512367403322 -0.011953916986898492 0 0.0016541777841537287 -0.011837140562464352 0 0.0019895320845157278 -0.015348808230871992 0 0.0022495710852600214 -0.016032303618687255 0 0.0022128291379215734 -0.016062124044795564 0 0.0019895320845157278 -0.015348808230871992 0 0.001793491996495178 -0.016079895230360755 0 0.00141942752966124 -0.015834957484023485 0 0.00017027637740837809 -0.008665398561517176 0 0.0014672547365167667 -0.0088726318232718229 0 0.0010467494939124381 -0.0075246468979042391 0 0.0021017219368911454 -0.015610127487350052 0 0.0019328712368840051 -0.015579922872493757 0 0.0022495710852600214 -0.016032303618687255 0 0.0021017219368911454 -0.015610127487350052 0 0.0022495710852600214 -0.016032303618687255 0 0.0022128291379215734 -0.016062124044795564 0 0.0024879775289557192 -0.01623256670576893 0 0.0022369593349838837 -0.016061770385228297 0 0.0028863715094207677 -0.016907716242015459 0 0.0023207923163610644 -0.01667099869807389 0 0.0022128291379215734 -0.016062124044795564 0 0.0011198200630599172 -0.01050302585386502 0 0.0016541777841537287 -0.011837140562464352 0 0.0020892879176133191 -0.016820867547065393 0 0.0023207923163610644 -0.01667099869807389 0 0.0019387070207857226 -0.016547041929841973 0 0.0023207923163610644 -0.01667099869807389 0 0.0019387070207857226 -0.016547041929841973 0 0.0022128291379215734 -0.016062124044795564 0 0.0017720310244729747 -0.016909732246235053 0 0.0020892879176133191 -0.016820867547065393 0 0.0019387070207857226 -0.016547041929841973 0 0.0017720310244729747 -0.016909732246235053 0 0.0019387070207857226 -0.016547041929841973 0 0.0014047198607563833 -0.016689497786373322 0 0.001793491996495178 -0.016079895230360755 0 0.0019387070207857226 -0.016547041929841973 0 0.0014047198607563833 -0.016689497786373322 0 0.001793491996495178 -0.016079895230360755 0 0.0019387070207857226 -0.016547041929841973 0 0.0022128291379215734 -0.016062124044795564 0 0.00076970963657977656 -0.016951180103577684 0 0.0014047198607563833 -0.016689497786373322 0 0.0009552365649575723 -0.016270633686264181 0 0.0014047198607563833 -0.016689497786373322 0 0.0009552365649575723 -0.016270633686264181 0 0.00141942752966124 -0.015834957484023485 0 0.001793491996495178 -0.016079895230360755 0 0.0014047198607563833 -0.016689497786373322 0 0.00141942752966124 -0.015834957484023485 0 0.00076970963657977656 -0.016951180103577684 0 0.0009552365649575723 -0.016270633686264181 0 0.00029464394766260944 -0.016529121574130497 0 0.0009552365649575723 -0.016270633686264181 0 0.00086183697076112724 -0.01546223851163432 0 0.00029464394766260944 -0.016529121574130497 0 0.00032091007652521004 -0.016224710556903919 0 0.0001309219354780214 -0.016315639068635007 0 0.00029464394766260944 -0.016529121574130497 0 0.00055278736442100922 -0.016117562919222599 0 0.00033259653729958877 -0.016388021591577977 0 0.00032091007652521004 -0.016224710556903919 0 9.7149536134505797e-05 -0.016194238146137119 0 0.0001309219354780214 -0.016315639068635007 0 0.0009552365649575723 -0.016270633686264181 0 0.00141942752966124 -0.015834957484023485 0 0.00086183697076112724 -0.01546223851163432 0 0.00141942752966124 -0.015834957484023485 0 0.0014185217148785048 -0.01528736673334102 0 0.00086183697076112724 -0.01546223851163432 0 0.0019895320845157278 -0.015348808230871992 0 0.00141942752966124 -0.015834957484023485 0 0.0014185217148785048 -0.01528736673334102 0 0.0018613512367403322 -0.011953916986898492 0 0.00083991345677518015 -0.013856173283939219 0 0.00083991345677518015 -0.013856173283939219 0 0.00055278736442100922 -0.016117562919222599 0 0.0014185217148785048 -0.01528736673334102 0 0.0013623437161008995 -0.014432833187770739 0 0.00086183697076112724 -0.01546223851163432 0 0.0019895320845157278 -0.015348808230871992 0 0.0014185217148785048 -0.01528736673334102 0 0.0013623437161008995 -0.014432833187770739 0 0.00133197223039979 -0.01059232915709922 0 0.0030230292527462809 -0.010994428005714839 0 0.0028096165560206926 -0.011091848334279635 0 0.00083991345677518015 -0.013856173283939219 0 -5.3089227219243054e-05 -0.015676993527173506 0 0.00050687658942907485 -0.014682720977064053 0 1.2111250583670795e-06 -0.014062881972362898 0 -6.8682068987310186e-05 -0.015368557623133652 0 0.00083991345677518015 -0.013856173283939219 0 5.2430728169877428e-07 -0.014060098656922745 0 2.1903880842539445e-05 -0.013580378321446505 0 3.3001150550222052e-09 -0.014058847774298614 0 -2.2033149414487121e-05 -0.013584989227602769 0 3.3001150550222052e-09 -0.014058847774298614 0 3.4229150922227276e-09 -0.01325518362530367 0 -2.2033149414487121e-05 -0.013584989227602769 0 6.430985834213905e-07 -0.013254104071760904 0 0.0008940462372312904 -0.013330453566907371 0 0.00083991345677518015 -0.013856173283939219 0 0.0008940462372312904 -0.013330453566907371 0 1.2111250583670795e-06 -0.014062881972362898 0 -6.8682068987310186e-05 -0.015368557623133652 0 -7.0579136395742261e-07 -0.015676072142446984 0 0.00027125309315627273 -0.01590452119317284 0 0.00016679116487632579 -0.016091690281677496 0 -2.7128807716170385e-05 -0.016058534484716253 0 0.00055121997599606645 -0.015784233664765723 0 0.00027125309315627273 -0.01590452119317284 0 0.00032091007652521004 -0.016224710556903919 0 0.00027125309315627273 -0.01590452119317284 0 0.00016679116487632579 -0.016091690281677496 0 0.00032091007652521004 -0.016224710556903919 0 -5.3089227219243054e-05 -0.015676993527173506 0 -5.6543355065341377e-05 -0.015928733092719548 0 0.00016679116487632579 -0.016091690281677496 0 0.00032091007652521004 -0.016224710556903919 0 9.7149536134505797e-05 -0.016194238146137119 0 9.7149536134505797e-05 -0.016194238146137119 0 -3.4062672872950887e-05 -0.016170498224897568 0 -2.7128807716170385e-05 -0.016058534484716253 0 0.00016679116487632579 -0.016091690281677496 0 9.7149536134505797e-05 -0.016194238146137119 0 -2.7128807716170385e-05 -0.016058534484716253 0 9.7149536134505797e-05 -0.016194238146137119 0 -3.4062672872950887e-05 -0.016170498224897568 0 -5.4699282765027518e-05 -0.016216021042960077 0 -3.4062672872950887e-05 -0.016170498224897568 0 -9.2122665387316206e-05 -0.0162092336127839 0 -5.4699282765027518e-05 -0.016216021042960077 0 -3.4062672872950887e-05 -0.016170498224897568 0 -0.00010626338072246963 -0.01620688084065422 0 -9.2122665387316206e-05 -0.0162092336127839 0 0.0010515639961379893 -0.018510127224527159 0 -8.4159959636828055e-05 -0.017157300968066631 0 -3.4062672872950887e-05 -0.016170498224897568 0 -0.00010626338072246963 -0.01620688084065422 0 -2.7128807716170385e-05 -0.016058534484716253 0 -0.00010257940627537956 -0.016186648355339284 0 -0.00010626338072246963 -0.01620688084065422 0 -2.7128807716170385e-05 -0.016058534484716253 0 -6.8682068987310186e-05 -0.015368557623133652 0 -4.7623415021185476e-05 -0.015899587681243783 0 -7.0579136395742261e-07 -0.015676072142446984 0 -6.8682068987310186e-05 -0.015368557623133652 0 -2.7128807716170385e-05 -0.016058534484716253 0 -4.7623415021185476e-05 -0.015899587681243783 0 -0.00010257940627537956 -0.016186648355339284 0 -2.7128807716170385e-05 -0.016058534484716253 0 -4.7623415021185476e-05 -0.015899587681243783 0 -0.00010257940627537956 -0.016186648355339284 0 -4.7623415021185476e-05 -0.015899587681243783 0 -9.8728541302702783e-05 -0.016311093129184238 0 -4.7623415021185476e-05 -0.015899587681243783 0 -9.8728541302702783e-05 -0.016311093129184238 0 -7.0579136395742261e-07 -0.015676072142446984 0 -9.8728541302702783e-05 -0.016311093129184238 0 -7.0579136395742261e-07 -0.015676072142446984 0 -2.0640745365964327e-07 -0.017292546218963284 0 0.00013684223466882132 -0.016861637830122032 0 -2.0640745365964327e-07 -0.017292546218963284 0 -2.593843603898888e-05 -0.016530648969321493 0 -9.8728541302702783e-05 -0.016311093129184238 0 -2.0640745365964327e-07 -0.017292546218963284 0 -2.593843603898888e-05 -0.016530648969321493 0 -0.00010257940627537956 -0.016186648355339284 0 -9.8728541302702783e-05 -0.016311093129184238 0 -2.593843603898888e-05 -0.016530648969321493 0 0.0012810132046927949 -0.01900754392574952 0 0.0010515639961379893 -0.018510127224527159 0 0.00013684223466882132 -0.016861637830122032 0 -2.593843603898888e-05 -0.016530648969321493 0 -6.5524276551403215e-05 -0.016043075017285222 0 0.0024631730305447797 -0.020949309571937181 0 0.003386178595853633 -0.022144003956723154 0 0.0027309815123219422 -0.0225423592449332 0 -0.00010257940627537956 -0.016186648355339284 0 -0.00010626338072246963 -0.01620688084065422 0 -2.593843603898888e-05 -0.016530648969321493 0 -0.00010626338072246963 -0.01620688084065422 0 -2.593843603898888e-05 -0.016530648969321493 0 -6.5524276551403215e-05 -0.016043075017285222 0 0.00091624285524317072 -0.016903074881834984 0 0.0010515639961379893 -0.018510127224527159 0 0.0023693998887359216 -0.023044733337501625 0 0.0027309815123219422 -0.0225423592449332 0 0.0026629730789985854 -0.023684921239916123 0 0.0010515639961379893 -0.018510127224527159 0 0.0013024739599319071 -0.02056268167480263 0 -0.00012747770152667318 -0.016131222593158984 0 -9.8155087041952528e-05 -0.016480544635256222 0 -0.00042077122623538753 -0.016717355311718606 0 0.003386178595853633 -0.022144003956723154 0 0.0027309815123219422 -0.0225423592449332 0 0.0026629730789985854 -0.023684921239916123 0 -0.00012747770152667318 -0.016131222593158984 0 -5.4699282765027518e-05 -0.016216021042960077 0 -9.8155087041952528e-05 -0.016480544635256222 0 9.7149536134505797e-05 -0.016194238146137119 0 -5.4699282765027518e-05 -0.016216021042960077 0 0.0001309219354780214 -0.016315639068635007 0 0.0001309219354780214 -0.016315639068635007 0 -9.8155087041952528e-05 -0.016480544635256222 0 0.00029464394766260944 -0.016529121574130497 0 -5.4699282765027518e-05 -0.016216021042960077 0 0.0001309219354780214 -0.016315639068635007 0 -9.8155087041952528e-05 -0.016480544635256222 0 0.00076970963657977656 -0.016951180103577684 0 0.00029464394766260944 -0.016529121574130497 0 2.6535677213158885e-05 -0.016847641324876986 0 -9.8155087041952528e-05 -0.016480544635256222 0 0.00029464394766260944 -0.016529121574130497 0 2.6535677213158885e-05 -0.016847641324876986 0 -9.8155087041952528e-05 -0.016480544635256222 0 2.6535677213158885e-05 -0.016847641324876986 0 -0.00042077122623538753 -0.016717355311718606 0 0.002273254999745994 -0.023502670025846127 0 0.0023677065460025667 -0.023817411730583965 0 0.0026629730789985854 -0.023684921239916123 0 0.002273254999745994 -0.023502670025846127 0 0.0023693998887359216 -0.023044733337501625 0 0.0026629730789985854 -0.023684921239916123 0 0.00096866488891607849 -0.005075317160949935 0 0.0010287148072766423 -0.005030292533030235 0 0.0010226222103808665 -0.0050685869614271965 0 0.00096866488891607849 -0.005075317160949935 0 0.0010226222103808665 -0.0050685869614271965 0 0.00094459327799535219 -0.0051454320471198958 0 0.00096866488891607849 -0.005075317160949935 0 0.0010287148072766423 -0.005030292533030235 0 0.0010652973092609695 -0.0049658798310599009 0 0.00088901438289991114 -0.0050347380389344897 0 0.00089098153057269656 -0.005191642096444694 0 0.00078398126391933647 -0.0052631518675051404 0 0.00096866488891607849 -0.005075317160949935 0 0.00088901438289991114 -0.0050347380389344897 0 0.00089098153057269656 -0.005191642096444694 0 0.00067774832570891615 -0.0051882116790554957 0 0.0010652973092609695 -0.0049658798310599009 0 0.00091920465390141887 -0.0047201575210520843 0 0.00067774832570891615 -0.0051882116790554957 0 0.00022745442710030137 -0.0039898513854516272 0 0.00091920465390141887 -0.0047201575210520843 0 0.00096866488891607849 -0.005075317160949935 0 0.00088901438289991114 -0.0050347380389344897 0 0.0010652973092609695 -0.0049658798310599009 0 0.00036650717179593432 -0.0030610028167668015 0 0.00041253075430725173 -0.0034294476009166827 0 0.0010652973092609695 -0.0049658798310599009 0 0.0010910569809240911 -0.0049742406342422208 0 0.00091920465390141887 -0.0047201575210520843 0 0.0007564412346074107 -0.0051120977476107722 0 0.0010585406957032205 -0.0049841172300473992 0 -0.00032951386965276785 -0.0011181777187101514 0 -0.00016748382800259521 -0.0017084184571243455 0 0.00012808909803437997 -0.0021215050416640265 0 0.0010287148072766423 -0.005030292533030235 0 0.0010652973092609695 -0.0049658798310599009 0 0.0010557772872181502 -0.0050076325113381755 0 -0.00032951386965276785 -0.0011181777187101514 0 -0.00035834874006628536 -0.0013124831658664767 0 -0.00016748382800259521 -0.0017084184571243455 0 0.00036650717179593432 -0.0030610028167668015 0 0.00014821813778053574 -0.0028784958730311691 0 0.0010910569809240911 -0.0049742406342422208 0 0.0010353982291323139 -0.0050073705553212722 0 0.001059648098026596 -0.0050004595963457198 0 -0.00032951386965276785 -0.0011181777187101514 0 -0.0005022042058789941 -0.00098097562000598192 0 -0.00060498400743747623 -0.00079474246773896266 0 -0.00032951386965276785 -0.0011181777187101514 0 -0.00035834874006628536 -0.0013124831658664767 0 -0.00044014551707961271 -0.0011240492845807899 0 -0.00032951386965276785 -0.0011181777187101514 0 -0.00044014551707961271 -0.0011240492845807899 0 -0.0005022042058789941 -0.00098097562000598192 0 -0.00044014551707961271 -0.0011240492845807899 0 -0.00051048079957099828 -0.0010035994813286978 0 -0.00046364740254652392 -0.0011506884757981472 0 -0.00044014551707961271 -0.0011240492845807899 0 -0.00051048079957099828 -0.0010035994813286978 0 -0.0005022042058789941 -0.00098097562000598192 0 0.0010652973092609695 -0.0049658798310599009 0 0.0010910569809240911 -0.0049742406342422208 0 0.0010557772872181502 -0.0050076325113381755 0 0.0010910569809240911 -0.0049742406342422208 0 0.0010557772872181502 -0.0050076325113381755 0 0.001059648098026596 -0.0050004595963457198 0 -0.00058059894277255771 -0.00084698171932548331 0 -0.00056536368224091398 -0.00080589507085065948 0 -0.00056477493296717561 -0.00064685153157086593 0 -0.00058059894277255771 -0.00084698171932548331 0 -0.00056536368224091398 -0.00080589507085065948 0 -0.00053389413682219228 -0.00094848766824041041 0 -0.00058059894277255771 -0.00084698171932548331 0 -0.00051048079957099828 -0.0010035994813286978 0 -0.00053389413682219228 -0.00094848766824041041 0 -0.00058059894277255771 -0.00084698171932548331 0 -0.00051048079957099828 -0.0010035994813286978 0 -0.0005022042058789941 -0.00098097562000598192 0 -0.00058059894277255771 -0.00084698171932548331 0 -0.0005022042058789941 -0.00098097562000598192 0 -0.00060498400743747623 -0.00079474246773896266 0 -0.00058059894277255771 -0.00084698171932548331 0 -0.00060498400743747623 -0.00079474246773896266 0 -0.00056293276273762342 -0.00074761094311538083 0 0.0010353982291323139 -0.0050073705553212722 0 0.0010496772971079807 -0.004998440598496399 0 0.001059648098026596 -0.0050004595963457198 0 0.0010353982291323139 -0.0050073705553212722 0 0.0010496772971079807 -0.004998440598496399 0 0.0010452132814179722 -0.0049642910814872007 0 0.00090903588776787959 -0.0051004674256597297 0 0.0010226222103808665 -0.0050685869614271965 0 0.00095874079969840214 -0.0050733505287859143 0 0.0010363479735628247 -0.0051938667309864225 0 0.00098670856690175144 -0.0050339650820891554 0 0.0010496772971079807 -0.004998440598496399 0 0.0010452132814179722 -0.0049642910814872007 0 0.0010226222103808665 -0.0050685869614271965 0 0.0010557772872181502 -0.0050076325113381755 0 0.001059648098026596 -0.0050004595963457198 0 0.0010226222103808665 -0.0050685869614271965 0 0.0010287148072766423 -0.005030292533030235 0 0.0010557772872181502 -0.0050076325113381755 0 0.0010226222103808665 -0.0050685869614271965 0 0.0010496772971079807 -0.004998440598496399 0 0.001059648098026596 -0.0050004595963457198 0 0.0010226222103808665 -0.0050685869614271965 0 0.0010226222103808665 -0.0050685869614271965 0 0.00095874079969840214 -0.0050733505287859143 0 0.00097154855940007458 -0.0050928651572872798 0 0.00095874079969840214 -0.0050733505287859143 0 0.00093804575167201238 -0.0050625448167834217 0 0.00097154855940007458 -0.0050928651572872798 0 0.00093804575167201238 -0.0050625448167834217 0 0.00097154855940007458 -0.0050928651572872798 0 0.00095111408914990044 -0.0050950228464515948 0 0.00093804575167201238 -0.0050625448167834217 0 0.00090991838350152699 -0.0050594994545056756 0 0.00087836832170757261 -0.0050221885898319284 0 0.00090903588776787959 -0.0051004674256597297 0 0.00090991838350152699 -0.0050594994545056756 0 0.00086554735444993841 -0.0050462435644992275 0 0.00095874079969840214 -0.0050733505287859143 0 0.00093804575167201238 -0.0050625448167834217 0 0.00090991838350152699 -0.0050594994545056756 0 0.00090903588776787959 -0.0051004674256597297 0 0.00095874079969840214 -0.0050733505287859143 0 0.00090991838350152699 -0.0050594994545056756 0 0.00090991838350152699 -0.0050594994545056756 0 0.00087836832170757261 -0.0050221885898319284 0 0.00086554735444993841 -0.0050462435644992275 0 0.00093804575167201238 -0.0050625448167834217 0 0.00091838155180992015 -0.005034163960165791 0 0.00087836832170757261 -0.0050221885898319284 0 0.00091838155180992015 -0.005034163960165791 0 0.00087836832170757261 -0.0050221885898319284 0 0.00085105768729295368 -0.0049733419363419901 0 0.00093804575167201238 -0.0050625448167834217 0 0.00091838155180992015 -0.005034163960165791 0 0.00095111408914990044 -0.0050950228464515948 0 0.00094750404973525557 -0.0050751194024990943 0 0.00091838155180992015 -0.005034163960165791 0 0.00095111408914990044 -0.0050950228464515948 0 0.00095111408914990044 -0.0050950228464515948 0 0.00094459327799535219 -0.0051454320471198958 0 0.00091420902424348409 -0.0051736138358592434 0 0.00094750404973525557 -0.0050751194024990943 0 0.00095111408914990044 -0.0050950228464515948 0 0.00091420902424348409 -0.0051736138358592434 0 0.0010226222103808665 -0.0050685869614271965 0 0.00097154855940007458 -0.0050928651572872798 0 0.00094459327799535219 -0.0051454320471198958 0 0.00097154855940007458 -0.0050928651572872798 0 0.00095111408914990044 -0.0050950228464515948 0 0.00094459327799535219 -0.0051454320471198958 0 0.00094459327799535219 -0.0051454320471198958 0 0.00089098153057269656 -0.005191642096444694 0 0.00091420902424348409 -0.0051736138358592434 0 0.00096866488891607849 -0.005075317160949935 0 0.00094459327799535219 -0.0051454320471198958 0 0.00089098153057269656 -0.005191642096444694 0 0.00089098153057269656 -0.005191642096444694 0 0.00091420902424348409 -0.0051736138358592434 0 0.00085302370972887133 -0.0052332670513095658 0 0.00035145294127227143 -0.0054590285668119172 0 0.00043140028695351306 -0.008794895831003454 0 0.00042024810360992058 -0.0061349108488693294 0 -3.5803915412025287e-06 -0.0063287974754677569 0 0.00031446176618865564 -0.0065031221366693513 0 -0.0012836745106602539 -0.014996579417140894 0 -0.0014445602132568262 -0.016181356389901293 0 -0.00060447103007111561 -0.015878352588419811 0 -0.0014445602132568262 -0.016181356389901293 0 -0.00060447103007111561 -0.015878352588419811 0 -0.00031564498883864835 -0.016562209830666787 0 -0.00063251861582741715 -0.011091121089197496 0 0.00043140028695351306 -0.008794895831003454 0 0.00043140028695351306 -0.008794895831003454 0 -0.00023152009773486971 -0.011414343885244546 0 0.00059169624944786585 -0.006090323359116784 0 0.00035018825023986163 -0.0055329717517071013 0 -4.8354819078206632e-05 -0.0058058840567659364 0 0.00059169624944786585 -0.006090323359116784 0 0.00035018825023986163 -0.0055329717517071013 0 0.00078398126391933647 -0.0052631518675051404 0 0.00089098153057269656 -0.005191642096444694 0 0.00085302370972887133 -0.0052332670513095658 0 0.00078398126391933647 -0.0052631518675051404 0 0.00043140028695351306 -0.008794895831003454 0 0.0010515228510601924 -0.004064884410932763 0 0.00033554417411088132 -0.015584779362735906 0 0.0010874813304946182 -0.016886584011403132 0 0.00030078757068912324 -0.015558038591254767 0 0.00076179152926952604 -0.016430377875941416 0 0.00019027481063699198 -0.016261494970723007 0 0.00030078757068912324 -0.015558038591254767 0 0.0014152336780271163 -0.01587128830880382 0 0.0015435895817042936 -0.017166576425767917 0 0.00030078757068912324 -0.015558038591254767 0 -0.00060447103007111561 -0.015878352588419811 0 0.00019027481063699198 -0.016261494970723007 0 -0.00060447103007111561 -0.015878352588419811 0 0.00019027481063699198 -0.016261494970723007 0 -0.00031564498883864835 -0.016562209830666787 0 -0.00023152009773486971 -0.011414343885244546 0 -5.4312244633792735e-06 -0.010906887411267989 0 0.00019027481063699198 -0.016261494970723007 0 -0.00031564498883864835 -0.016562209830666787 0 0.00055451893409007758 -0.016727702707342543 0 -4.8354819078206632e-05 -0.0058058840567659364 0 -0.00046772229745869868 -0.0055598216619367497 0 -0.00015848779318489061 -0.0055411985323492322 0 0.00035018825023986163 -0.0055329717517071013 0 -4.8354819078206632e-05 -0.0058058840567659364 0 -0.00015848779318489061 -0.0055411985323492322 0 0.00076179152926952604 -0.016430377875941416 0 0.00019027481063699198 -0.016261494970723007 0 0.00055451893409007758 -0.016727702707342543 0 -0.00050142968233943513 -0.0055820403887931131 0 -0.00046772229745869868 -0.0055598216619367497 0 -0.00015848779318489061 -0.0055411985323492322 0 -0.00050142968233943513 -0.0055820403887931131 0 -0.00015848779318489061 -0.0055411985323492322 0 0.0002195163452247031 -0.0051411032593175901 0 -0.0004776889221232941 -0.0055484613331655943 0 -0.00015469329260292742 -0.0053648171910033356 0 -0.00050142968233943513 -0.0055820403887931131 0 -0.00070852474065614479 -0.0055245955413052907 0 -0.00056579902316617153 -0.0055744352432806205 0 -0.00050142968233943513 -0.0055820403887931131 0 -0.00070852474065614479 -0.0055245955413052907 0 -0.00060194641646345152 -0.0057907963475661867 0 -0.00070852474065614479 -0.0055245955413052907 0 -0.00060194641646345152 -0.0057907963475661867 0 -0.00084326700598570735 -0.005556647055495724 0 -0.00029962296628050725 -0.0058982839931216828 0 -0.00050142968233943513 -0.0055820403887931131 0 -0.00060194641646345152 -0.0057907963475661867 0 -0.00029962296628050725 -0.0058982839931216828 0 -0.00028197527125079229 -0.0063548259635341428 0 -0.00060194641646345152 -0.0057907963475661867 0 0.00088901438289991114 -0.0050347380389344897 0 0.00078398126391933647 -0.0052631518675051404 0 0.0002195163452247031 -0.0051411032593175901 0 0.00035018825023986163 -0.0055329717517071013 0 -0.00015848779318489061 -0.0055411985323492322 0 0.0002195163452247031 -0.0051411032593175901 0 0.00035018825023986163 -0.0055329717517071013 0 0.00078398126391933647 -0.0052631518675051404 0 0.0002195163452247031 -0.0051411032593175901 0 -0.00070852474065614479 -0.0055245955413052907 0 -0.00056579902316617153 -0.0055744352432806205 0 4.6318960539901803e-06 -0.0050201051813901932 0 -0.00070852474065614479 -0.0055245955413052907 0 4.6318960539901803e-06 -0.0050201051813901932 0 0.00022745442710030137 -0.0039898513854516272 0 0.00067774832570891615 -0.0051882116790554957 0 4.6318960539901803e-06 -0.0050201051813901932 0 0.00022745442710030137 -0.0039898513854516272 0 0.00067774832570891615 -0.0051882116790554957 0 -0.00056579902316617153 -0.0055744352432806205 0 4.6318960539901803e-06 -0.0050201051813901932 0 0.0007564412346074107 -0.0051120977476107722 0 -0.00015469329260292742 -0.0053648171910033356 0 -0.00070852474065614479 -0.0055245955413052907 0 0.00022745442710030137 -0.0039898513854516272 0 -0.00084326700598570735 -0.005556647055495724 0 0.00022745442710030137 -0.0039898513854516272 0 -0.00033025788266476016 -0.0036723191024126403 0 -0.00084326700598570735 -0.005556647055495724 0 0.00022745442710030137 -0.0039898513854516272 0 -0.00033025788266476016 -0.0036723191024126403 0 0.0001780861905539217 -0.0032852659166496415 0 0.0001780861905539217 -0.0032852659166496415 0 4.4000985722345625e-05 -0.0029095466147148895 0 0.00022545461974250028 -0.0030386725557907807 0 0.00022745442710030137 -0.0039898513854516272 0 0.0001780861905539217 -0.0032852659166496415 0 0.00022545461974250028 -0.0030386725557907807 0 -0.00028197527125079229 -0.0063548259635341428 0 -0.00060194641646345152 -0.0057907963475661867 0 -0.00042027015955466168 -0.0067639492943668226 0 -0.00060194641646345152 -0.0057907963475661867 0 -0.00084326700598570735 -0.005556647055495724 0 -0.00042027015955466168 -0.0067639492943668226 0 -0.00028197527125079229 -0.0063548259635341428 0 -0.00020225045413156781 -0.0075665391238265997 0 -0.00042027015955466168 -0.0067639492943668226 0 -0.0007754832984371412 -0.0070516782411313194 0 -0.00084326700598570735 -0.005556647055495724 0 -0.00042027015955466168 -0.0067639492943668226 0 -0.00049531703432267404 -0.0053411720493476162 0 -0.00076129979380415295 -0.0054841372033692694 0 -0.0007754832984371412 -0.0070516782411313194 0 -0.00042027015955466168 -0.0067639492943668226 0 -0.00043210949743324002 -0.007686101061438232 0 -0.00020225045413156781 -0.0075665391238265997 0 -0.00042027015955466168 -0.0067639492943668226 0 -0.00043210949743324002 -0.007686101061438232 0 -0.0007754832984371412 -0.0070516782411313194 0 -0.00043210949743324002 -0.007686101061438232 0 -0.00020589357549609941 -0.0069012753407923485 0 -0.00043210949743324002 -0.007686101061438232 0 -1.3641879558747797e-06 -0.0069408538421579348 0 -0.00020589357549609941 -0.0069012753407923485 0 -0.00043210949743324002 -0.007686101061438232 0 -1.3641879558747797e-06 -0.0069408538421579348 0 -1.5795244875143005e-07 -0.0087051782606259696 0 -0.00016536653983652676 -0.0086933803071571978 0 -0.00043210949743324002 -0.007686101061438232 0 -1.5795244875143005e-07 -0.0087051782606259696 0 0.0001780861905539217 -0.0032852659166496415 0 -4.2785852594524723e-05 -0.0034604794936401164 0 0.00036149176159578202 -0.003448054501970786 0 0.0001780861905539217 -0.0032852659166496415 0 -4.2785852594524723e-05 -0.0034604794936401164 0 4.4000985722345625e-05 -0.0029095466147148895 0 -0.00033025788266476016 -0.0036723191024126403 0 0.0001780861905539217 -0.0032852659166496415 0 0.00036149176159578202 -0.003448054501970786 0 -0.00049531703432267404 -0.0053411720493476162 0 -2.1876280570986425e-05 -0.0052081643535304934 0 -2.1876280570986425e-05 -0.0052081643535304934 0 -2.9073670576465259e-08 -0.0051765454266516067 0 -1.3641879558747797e-06 -0.0069408538421579348 0 -0.00020589357549609941 -0.0069012753407923485 0 1.2229231394601633e-06 -0.0051790690675380131 0 -4.2785852594524723e-05 -0.0034604794936401164 0 0.00036149176159578202 -0.003448054501970786 0 1.5165791980084076e-06 -0.0051725755031808377 0 -4.2785852594524723e-05 -0.0034604794936401164 0 -8.0727237473999142e-07 -0.003357490481480744 0 -4.3917584427293201e-05 -0.0028270163376348354 0 -4.2785852594524723e-05 -0.0034604794936401164 0 1.5165791980084076e-06 -0.0051725755031808377 0 -8.0727237473999142e-07 -0.003357490481480744 0 -8.0727237473999142e-07 -0.003357490481480744 0 -0.00017459805127932382 -0.0019929258322109976 0 -2.4161306427738159e-07 -0.0015377761375514366 0 -8.0727237473999142e-07 -0.003357490481480744 0 -0.00017459805127932382 -0.0019929258322109976 0 -4.3917584427293201e-05 -0.0028270163376348354 0 -0.00017459805127932382 -0.0019929258322109976 0 -4.3917584427293201e-05 -0.0028270163376348354 0 -0.00013282435950378354 -0.0022095257630925839 0 -4.3917584427293201e-05 -0.0028270163376348354 0 4.4000985722345625e-05 -0.0029095466147148895 0 -0.00013282435950378354 -0.0022095257630925839 0 -4.2785852594524723e-05 -0.0034604794936401164 0 -4.3917584427293201e-05 -0.0028270163376348354 0 4.4000985722345625e-05 -0.0029095466147148895 0 4.4000985722345625e-05 -0.0029095466147148895 0 -0.00013282435950378354 -0.0022095257630925839 0 -6.7463457204762078e-06 -0.0024124939434791515 0 4.4000985722345625e-05 -0.0029095466147148895 0 0.00022545461974250028 -0.0030386725557907807 0 -6.7463457204762078e-06 -0.0024124939434791515 0 -0.00013282435950378354 -0.0022095257630925839 0 -6.7463457204762078e-06 -0.0024124939434791515 0 -0.00026767598657365398 -0.0017307763064320009 0 -6.7463457204762078e-06 -0.0024124939434791515 0 -0.00016748382800259521 -0.0017084184571243455 0 -0.00026767598657365398 -0.0017307763064320009 0 -6.7463457204762078e-06 -0.0024124939434791515 0 -0.00016748382800259521 -0.0017084184571243455 0 0.00012808909803437997 -0.0021215050416640265 0 0.00022545461974250028 -0.0030386725557907807 0 -6.7463457204762078e-06 -0.0024124939434791515 0 0.00012808909803437997 -0.0021215050416640265 0 0.00016928351192431611 -0.0038182239051033824 0 0.00041253075430725173 -0.0034294476009166827 0 0.00022745442710030137 -0.0039898513854516272 0 0.00022545461974250028 -0.0030386725557907807 0 0.00012808909803437997 -0.0021215050416640265 0 -0.00052123468887460111 -0.00094505992787520781 0 -0.00046364740254652392 -0.0011506884757981472 0 -0.00042898062182468444 -0.0012304803253015862 0 -0.00052123468887460111 -0.00094505992787520781 0 -0.00042898062182468444 -0.0012304803253015862 0 -0.00049461283720590038 -0.00078109874131568563 0 -0.00052123468887460111 -0.00094505992787520781 0 -0.00049461283720590038 -0.00078109874131568563 0 -0.00055307001538802778 -0.00065699082923946842 0 -0.00052123468887460111 -0.00094505992787520781 0 -0.00056536368224091398 -0.00080589507085065948 0 -0.00055307001538802778 -0.00065699082923946842 0 -0.00052123468887460111 -0.00094505992787520781 0 -0.00056536368224091398 -0.00080589507085065948 0 -0.00053389413682219228 -0.00094848766824041041 0 -0.00052123468887460111 -0.00094505992787520781 0 -0.00053389413682219228 -0.00094848766824041041 0 -0.00046364740254652392 -0.0011506884757981472 0 -0.00051048079957099828 -0.0010035994813286978 0 -0.00053389413682219228 -0.00094848766824041041 0 -0.00046364740254652392 -0.0011506884757981472 0 -0.00035834874006628536 -0.0013124831658664767 0 -0.00044014551707961271 -0.0011240492845807899 0 -0.00046364740254652392 -0.0011506884757981472 0 -0.00035834874006628536 -0.0013124831658664767 0 -0.00046364740254652392 -0.0011506884757981472 0 -0.00035521506151049487 -0.0014230345756320569 0 -0.00046364740254652392 -0.0011506884757981472 0 -0.00035521506151049487 -0.0014230345756320569 0 -0.00042898062182468444 -0.0012304803253015862 0 -0.00035834874006628536 -0.0013124831658664767 0 -0.00016748382800259521 -0.0017084184571243455 0 -0.00035521506151049487 -0.0014230345756320569 0 -0.00016748382800259521 -0.0017084184571243455 0 -0.00035521506151049487 -0.0014230345756320569 0 -0.00026767598657365398 -0.0017307763064320009 0 -0.00035521506151049487 -0.0014230345756320569 0 -0.00042898062182468444 -0.0012304803253015862 0 -0.00026767598657365398 -0.0017307763064320009 0 -0.00042898062182468444 -0.0012304803253015862 0 -0.00026767598657365398 -0.0017307763064320009 0 -0.00035062507597273139 -0.0013339649566862226 0 -0.00013282435950378354 -0.0022095257630925839 0 -0.00026767598657365398 -0.0017307763064320009 0 -0.00035062507597273139 -0.0013339649566862226 0 -0.00035062507597273139 -0.0013339649566862226 0 -0.00049461283720590038 -0.00078109874131568563 0 -0.00040899056403505648 -0.0006157618732789441 0 -0.00042898062182468444 -0.0012304803253015862 0 -0.00035062507597273139 -0.0013339649566862226 0 -0.00049461283720590038 -0.00078109874131568563 0 -0.00049461283720590038 -0.00078109874131568563 0 -0.00040899056403505648 -0.0006157618732789441 0 -0.00048169755469131952 -0.00042672740431192466 0 -0.00040899056403505648 -0.0006157618732789441 0 -0.00027092208817586569 -0.00098057580589331673 0 -0.00032832448126568443 -0.00018597630687011791 0 -0.00035062507597273139 -0.0013339649566862226 0 -0.00040899056403505648 -0.0006157618732789441 0 -0.00027092208817586569 -0.00098057580589331673 0 -0.00027092208817586569 -0.00098057580589331673 0 -0.00018538119719375122 -0.0003832539799165386 0 -0.00032832448126568443 -0.00018597630687011791 0 -0.00017459805127932382 -0.0019929258322109976 0 -0.00035062507597273139 -0.0013339649566862226 0 -0.00027092208817586569 -0.00098057580589331673 0 -0.00017459805127932382 -0.0019929258322109976 0 -0.00013282435950378354 -0.0022095257630925839 0 -0.00035062507597273139 -0.0013339649566862226 0 -0.00017459805127932382 -0.0019929258322109976 0 -0.00027092208817586569 -0.00098057580589331673 0 -2.4161306427738159e-07 -0.0015377761375514366 0 -0.00027092208817586569 -0.00098057580589331673 0 -2.4161306427738159e-07 -0.0015377761375514366 0 -0.00018538119719375122 -0.0003832539799165386 0 -2.4161306427738159e-07 -0.0015377761375514366 0 -0.00018538119719375122 -0.0003832539799165386 0 -6.9991390697504737e-07 0.0002809559807418515 0 -6.9991390697504737e-07 0.0002809559807418515 0 -0.00022301115182958169 0.00039165661296598655 0 1.2399241440854544e-07 0.0021000331090668383 0 -0.00018538119719375122 -0.0003832539799165386 0 -6.9991390697504737e-07 0.0002809559807418515 0 -0.00022301115182958169 0.00039165661296598655 0 -0.00018538119719375122 -0.0003832539799165386 0 -0.00022301115182958169 0.00039165661296598655 0 -0.00032832448126568443 -0.00018597630687011791 0 -0.00022301115182958169 0.00039165661296598655 0 1.2399241440854544e-07 0.0021000331090668383 0 3.9899378715411216e-05 0.0020657700133963389 0 -0.00029005858189504337 0.00072207295813640521 0 -0.00027715096763623209 0.0019977293491843743 0 -0.00022301115182958169 0.00039165661296598655 0 -0.0004530666470080994 0.0010894216394352302 0 -0.00061525380383723838 0.0019436675522398275 0 -0.0004530666470080994 0.0010894216394352302 0 -0.00061525380383723838 0.0019436675522398275 0 -0.00050780667082510301 0.0016364895827775873 0 -0.00022301115182958169 0.00039165661296598655 0 -0.0004530666470080994 0.0010894216394352302 0 -0.00041162780179492231 0.000506496349771657 0 -0.0004530666470080994 0.0010894216394352302 0 -0.0004442119109600232 0.00090487798754497039 0 -0.00041162780179492231 0.000506496349771657 0 -0.0004530666470080994 0.0010894216394352302 0 -0.00050780667082510301 0.0016364895827775873 0 -0.00045941833003323491 0.0013006717454051569 0 -0.0004530666470080994 0.0010894216394352302 0 -0.0004442119109600232 0.00090487798754497039 0 -0.00045941833003323491 0.0013006717454051569 0 -0.0004442119109600232 0.00090487798754497039 0 -0.00041860773237393199 0.00097631683289202268 0 -0.00044500618505673953 0.00047663816096840022 0 -0.0004442119109600232 0.00090487798754497039 0 -0.00041860773237393199 0.00097631683289202268 0 -0.00045941833003323491 0.0013006717454051569 0 -0.0004442119109600232 0.00090487798754497039 0 -0.00041162780179492231 0.000506496349771657 0 -0.00044500618505673953 0.00047663816096840022 0 -0.00041162780179492231 0.000506496349771657 0 -0.00044463512941660506 -3.0151958878265627e-05 0 -0.00044500618505673953 0.00047663816096840022 0 -0.00041162780179492231 0.000506496349771657 0 -0.00032832448126568443 -0.00018597630687011791 0 -0.00044463512941660506 -3.0151958878265627e-05 0 -0.00040899056403505648 -0.0006157618732789441 0 -0.00032832448126568443 -0.00018597630687011791 0 -0.00044463512941660506 -3.0151958878265627e-05 0 -0.00022301115182958169 0.00039165661296598655 0 -0.00041162780179492231 0.000506496349771657 0 -0.00032832448126568443 -0.00018597630687011791 0 -5.232299840832254e-05 0.0032215033226320228 0 -7.6862968524474047e-07 0.0039189442569231908 0 -0.00029626261900867563 0.0026696498321057646 0 -5.232299840832254e-05 0.0032215033226320228 0 -0.00029626261900867563 0.0026696498321057646 0 -0.00030024789597646236 0.0020760770036611629 0 1.2399241440854544e-07 0.0021000331090668383 0 1.6756283922768442e-07 0.0039191846860963204 0 3.9899378715411216e-05 0.0020657700133963389 0 -7.6862968524474047e-07 0.0039189442569231908 0 -0.00029626261900867563 0.0026696498321057646 0 -0.00061525380383723838 0.0019436675522398275 0 1.3322085633339434e-08 0.0039189511332119401 0 -0.00027715096763623209 0.0019977293491843743 0 -0.00029626261900867563 0.0026696498321057646 0 -0.00044866201461194133 0.0020435442826163158 0 -0.00061525380383723838 0.0019436675522398275 0 -0.00029626261900867563 0.0026696498321057646 0 -0.00044866201461194133 0.0020435442826163158 0 -0.00030024789597646236 0.0020760770036611629 0 -0.00044866201461194133 0.0020435442826163158 0 -0.00061525380383723838 0.0019436675522398275 0 -0.00050780667082510301 0.0016364895827775873 0 -0.00044866201461194133 0.0020435442826163158 0 -0.00050780667082510301 0.0016364895827775873 0 -0.00042933086952078156 0.0017303206773243117 0 -0.00042933086952078156 0.0017303206773243117 0 -0.00045941833003323491 0.0013006717454051569 0 -0.00034938218618853846 0.0013506164990215157 0 -0.00050780667082510301 0.0016364895827775873 0 -0.00042933086952078156 0.0017303206773243117 0 -0.00045941833003323491 0.0013006717454051569 0 -0.00041860773237393199 0.00097631683289202268 0 -0.00045941833003323491 0.0013006717454051569 0 -0.00034938218618853846 0.0013506164990215157 0 -0.00041860773237393199 0.00097631683289202268 0 -0.00034938218618853846 0.0013506164990215157 0 -0.0003606479052794996 0.0008190162604854945 0 -0.00034938218618853846 0.0013506164990215157 0 -0.00020839551955428956 0.0016109908797702272 0 -0.00021559527778611921 0.0012246504049669362 0 -0.00034938218618853846 0.0013506164990215157 0 -0.00030024789597646236 0.0020760770036611629 0 -0.00020839551955428956 0.0016109908797702272 0 -0.00044866201461194133 0.0020435442826163158 0 -0.00042933086952078156 0.0017303206773243117 0 -0.00030024789597646236 0.0020760770036611629 0 -0.00042933086952078156 0.0017303206773243117 0 -0.00034938218618853846 0.0013506164990215157 0 -0.00030024789597646236 0.0020760770036611629 0 -5.232299840832254e-05 0.0032215033226320228 0 -0.00030024789597646236 0.0020760770036611629 0 -0.00010316543906397557 0.0021524809020167755 0 -0.00030024789597646236 0.0020760770036611629 0 -0.00020839551955428956 0.0016109908797702272 0 -0.00010316543906397557 0.0021524809020167755 0 -0.00020839551955428956 0.0016109908797702272 0 -0.00010316543906397557 0.0021524809020167755 0 -3.8473732551983736e-05 0.0015501262117398559 0 -0.00010316543906397557 0.0021524809020167755 0 -3.8473732551983736e-05 0.0015501262117398559 0 0.00020149902656844504 0.0024277492728343531 0 -5.232299840832254e-05 0.0032215033226320228 0 -0.00010316543906397557 0.0021524809020167755 0 0.00020149902656844504 0.0024277492728343531 0 -0.00015831369466297763 0.0009755295633122156 0 -0.00053732342943237847 0.0011419366597341231 0 -0.00082438621581984711 0.00086656491688826432 0 -3.8473732551983736e-05 0.0015501262117398559 0 -0.00015831369466297763 0.0009755295633122156 0 0.00014354785459584204 0.0015722718047971687 0 -0.00019433525213275691 0.0010729522647215453 0 -0.00053261720470265802 0.0013271355891579749 0 -0.00053732342943237847 0.0011419366597341231 0 -0.0009623205904889518 0.0013125148120922479 0 -0.00082438621581984711 0.00086656491688826432 0 -3.8473732551983736e-05 0.0015501262117398559 0 0.00014354785459584204 0.0015722718047971687 0 0.00020149902656844504 0.0024277492728343531 0 -0.00020839551955428956 0.0016109908797702272 0 -3.8473732551983736e-05 0.0015501262117398559 0 -0.00021559527778611921 0.0012246504049669362 0 -3.8473732551983736e-05 0.0015501262117398559 0 -0.00015831369466297763 0.0009755295633122156 0 -0.00021559527778611921 0.0012246504049669362 0 -0.00015831369466297763 0.0009755295633122156 0 -0.00028884040590496465 0.0011541471643637309 0 -0.00053732342943237847 0.0011419366597341231 0 -0.00015831369466297763 0.0009755295633122156 0 -5.6076403577202423e-06 0.00078211047838171459 0 -0.00028884040590496465 0.0011541471643637309 0 -5.6076403577202423e-06 0.00078211047838171459 0 -0.000153534453472804 0.00090762693849466352 0 -0.00024439479580881006 0.00064593851454952005 0 -0.00015831369466297763 0.0009755295633122156 0 -5.6076403577202423e-06 0.00078211047838171459 0 -0.000153534453472804 0.00090762693849466352 0 -0.00015831369466297763 0.0009755295633122156 0 -0.000153534453472804 0.00090762693849466352 0 -0.00021559527778611921 0.0012246504049669362 0 -0.00034938218618853846 0.0013506164990215157 0 -0.00021559527778611921 0.0012246504049669362 0 -0.00026452733264367435 0.00097394756801906935 0 -0.000153534453472804 0.00090762693849466352 0 -0.00021559527778611921 0.0012246504049669362 0 -0.00026452733264367435 0.00097394756801906935 0 -0.0003606479052794996 0.0008190162604854945 0 -0.00024439479580881006 0.00064593851454952005 0 -0.00037542952428707462 0.00048774760755591364 0 -0.0003606479052794996 0.0008190162604854945 0 -0.00026452733264367435 0.00097394756801906935 0 -0.00024439479580881006 0.00064593851454952005 0 -0.00034938218618853846 0.0013506164990215157 0 -0.0003606479052794996 0.0008190162604854945 0 -0.00026452733264367435 0.00097394756801906935 0 -5.6076403577202423e-06 0.00078211047838171459 0 -0.00024439479580881006 0.00064593851454952005 0 -0.00023348931136537581 0.00014436210459429865 0 -0.000153534453472804 0.00090762693849466352 0 -0.00026452733264367435 0.00097394756801906935 0 -0.00024439479580881006 0.00064593851454952005 0 -0.00023348931136537581 0.00014436210459429865 0 -0.00043848837619512091 -0.00033739859068837808 0 3.62987458450679e-05 -0.00044073645043188055 0 -5.6076403577202423e-06 0.00078211047838171459 0 -0.00023348931136537581 0.00014436210459429865 0 3.62987458450679e-05 -0.00044073645043188055 0 -5.6076403577202423e-06 0.00078211047838171459 0 -0.00017554661847646747 0.0015095544728061241 0 0.00032424946660182324 0.0020022466423821779 0 4.46331957526495e-05 0.00077836432536764063 0 0.00015208686144681067 0.00075549822775032214 0 -0.00024439479580881006 0.00064593851454952005 0 -0.00023348931136537581 0.00014436210459429865 0 -0.00038466101127786716 0.00016068955595667078 0 -5.6076403577202423e-06 0.00078211047838171459 0 -0.00028884040590496465 0.0011541471643637309 0 -0.00017554661847646747 0.0015095544728061241 0 -0.00028884040590496465 0.0011541471643637309 0 -0.00054935069594768619 0.0015092797256889539 0 -0.00053732342943237847 0.0011419366597341231 0 -0.00028884040590496465 0.0011541471643637309 0 -0.00017554661847646747 0.0015095544728061241 0 -0.00054935069594768619 0.0015092797256889539 0 -0.00017554661847646747 0.0015095544728061241 0 -0.00054935069594768619 0.0015092797256889539 0 -0.00046007112644713498 0.0019580124767097158 0 -0.00017554661847646747 0.0015095544728061241 0 0.00032424946660182324 0.0020022466423821779 0 -0.00046007112644713498 0.0019580124767097158 0 -0.00054935069594768619 0.0015092797256889539 0 -0.0009623205904889518 0.0013125148120922479 0 -0.0009373092173910444 0.0018321406572614979 0 -0.00054935069594768619 0.0015092797256889539 0 -0.00046007112644713498 0.0019580124767097158 0 -0.0009373092173910444 0.0018321406572614979 0 -0.00054935069594768619 0.0015092797256889539 0 -0.00053732342943237847 0.0011419366597341231 0 -0.0009623205904889518 0.0013125148120922479 0 -0.00048340639752136747 -1.7571145639509006e-05 0 -0.00052456333359641484 -0.00038993563848134288 0 -0.00048515351515466003 -0.00011959933215277195 0 -0.00048340639752136747 -1.7571145639509006e-05 0 -0.00052456333359641484 -0.00038993563848134288 0 -0.00048169755469131952 -0.00042672740431192466 0 -0.00049461283720590038 -0.00078109874131568563 0 -0.00052456333359641484 -0.00038993563848134288 0 -0.00048169755469131952 -0.00042672740431192466 0 -0.00040899056403505648 -0.0006157618732789441 0 -0.00048169755469131952 -0.00042672740431192466 0 -0.00044463512941660506 -3.0151958878265627e-05 0 -0.00048340639752136747 -1.7571145639509006e-05 0 -0.00044463512941660506 -3.0151958878265627e-05 0 -0.00044500618505673953 0.00047663816096840022 0 -0.00048340639752136747 -1.7571145639509006e-05 0 -0.00048169755469131952 -0.00042672740431192466 0 -0.00044463512941660506 -3.0151958878265627e-05 0 -0.00048340639752136747 -1.7571145639509006e-05 0 -0.00044500618505673953 0.00047663816096840022 0 -0.0004442346077516203 0.00019899960250700083 0 -0.0003606479052794996 0.0008190162604854945 0 -0.00044500618505673953 0.00047663816096840022 0 -0.00037542952428707462 0.00048774760755591364 0 -0.00041860773237393199 0.00097631683289202268 0 -0.0003606479052794996 0.0008190162604854945 0 -0.00044500618505673953 0.00047663816096840022 0 -0.00044500618505673953 0.00047663816096840022 0 -0.00037542952428707462 0.00048774760755591364 0 -0.0004442346077516203 0.00019899960250700083 0 -0.00024439479580881006 0.00064593851454952005 0 -0.00037542952428707462 0.00048774760755591364 0 -0.00038466101127786716 0.00016068955595667078 0 -0.00037542952428707462 0.00048774760755591364 0 -0.0004442346077516203 0.00019899960250700083 0 -0.00038466101127786716 0.00016068955595667078 0 -0.00048340639752136747 -1.7571145639509006e-05 0 -0.0004442346077516203 0.00019899960250700083 0 -0.00048515351515466003 -0.00011959933215277195 0 -0.0004442346077516203 0.00019899960250700083 0 -0.00048515351515466003 -0.00011959933215277195 0 -0.00038466101127786716 0.00016068955595667078 0 -0.00048515351515466003 -0.00011959933215277195 0 -0.00043848837619512091 -0.00033739859068837808 0 -0.00053416354558580238 -0.0004204070667613519 0 -0.00048515351515466003 -0.00011959933215277195 0 -0.00038466101127786716 0.00016068955595667078 0 -0.00043848837619512091 -0.00033739859068837808 0 -0.00023348931136537581 0.00014436210459429865 0 -0.00038466101127786716 0.00016068955595667078 0 -0.00043848837619512091 -0.00033739859068837808 0 -0.00043848837619512091 -0.00033739859068837808 0 -0.00053416354558580238 -0.0004204070667613519 0 -0.00056477493296717561 -0.00064685153157086593 0 -0.00052456333359641484 -0.00038993563848134288 0 -0.00048515351515466003 -0.00011959933215277195 0 -0.00053416354558580238 -0.0004204070667613519 0 -0.00049461283720590038 -0.00078109874131568563 0 -0.00052456333359641484 -0.00038993563848134288 0 -0.00055307001538802778 -0.00065699082923946842 0 -0.00052456333359641484 -0.00038993563848134288 0 -0.00053416354558580238 -0.0004204070667613519 0 -0.00055307001538802778 -0.00065699082923946842 0 -0.00053416354558580238 -0.0004204070667613519 0 -0.00055307001538802778 -0.00065699082923946842 0 -0.00056477493296717561 -0.00064685153157086593 0 -0.00056536368224091398 -0.00080589507085065948 0 -0.00055307001538802778 -0.00065699082923946842 0 -0.00056477493296717561 -0.00064685153157086593 0 -0.00058059894277255771 -0.00084698171932548331 0 -0.00056477493296717561 -0.00064685153157086593 0 -0.00056293276273762342 -0.00074761094311538083 0 -0.00056477493296717561 -0.00064685153157086593 0 -0.00056293276273762342 -0.00074761094311538083 0 -0.00048137954406356339 -0.00067182370677617783 0 -0.00043848837619512091 -0.00033739859068837808 0 -0.00056477493296717561 -0.00064685153157086593 0 -0.00048137954406356339 -0.00067182370677617783 0 -0.00056293276273762342 -0.00074761094311538083 0 -0.00046002306639751297 -0.00088881590776093266 0 -0.00048137954406356339 -0.00067182370677617783 0 -0.00060498400743747623 -0.00079474246773896266 0 -0.00056293276273762342 -0.00074761094311538083 0 -0.00046002306639751297 -0.00088881590776093266 0 0.00014821813778053574 -0.0028784958730311691 0 0.00051637505136001109 -0.0030832856946120045 0 0.0010353982291323139 -0.0050073705553212722 0 0.0010452132814179722 -0.0049642910814872007 0 0.00087653716432946761 -0.0049254713113984954 0 0.00090903588776787959 -0.0051004674256597297 0 0.00081925621654194169 -0.0050615973409894382 0 0.00086554735444993841 -0.0050462435644992275 0 0.0010363479735628247 -0.0051938667309864225 0 0.00051637505136001109 -0.0030832856946120045 0 -0.00046002306639751297 -0.00088881590776093266 0 -0.000281916699265032 -0.00069374491367661033 0 -8.0469675067932074e-05 -0.00091962324668264398 0 0.00051637505136001109 -0.0030832856946120045 0 0.00013920178489142812 0.0012595904778471014 0 0.0007118702408125668 -0.00096820668969564737 0 -0.00021663067108853917 -0.00097111497820993951 0 -0.00016073598174942951 -0.00062800984544688211 0 0.00051637505136001109 -0.0030832856946120045 0 -5.2145905707322661e-05 -4.728174944458599e-05 0 -0.00043848837619512091 -0.00033739859068837808 0 -0.000281916699265032 -0.00069374491367661033 0 3.62987458450679e-05 -0.00044073645043188055 0 -0.00046002306639751297 -0.00088881590776093266 0 -0.000281916699265032 -0.00069374491367661033 0 -0.00048137954406356339 -0.00067182370677617783 0 -0.00043848837619512091 -0.00033739859068837808 0 -0.000281916699265032 -0.00069374491367661033 0 -0.00048137954406356339 -0.00067182370677617783 0 0.00032424946660182324 0.0020022466423821779 0 -0.00034092901477245015 0.0025639658819117872 0 0.00049065787590871115 0.0030371854158636516 0 0.00015208686144681067 0.00075549822775032214 0 0.00013920178489142812 0.0012595904778471014 0 -0.000281916699265032 -0.00069374491367661033 0 3.62987458450679e-05 -0.00044073645043188055 0 -8.0469675067932074e-05 -0.00091962324668264398 0 -0.00034092901477245015 0.0025639658819117872 0 -0.0011721607991941503 0.003039639659579642 0 -0.00088660025052734342 0.0023296474344354913 0 -0.00046007112644713498 0.0019580124767097158 0 -0.00088660025052734342 0.0023296474344354913 0 -0.0009373092173910444 0.0018321406572614979 0 0.00032424946660182324 0.0020022466423821779 0 -0.00046007112644713498 0.0019580124767097158 0 -0.00034092901477245015 0.0025639658819117872 0 -0.00046007112644713498 0.0019580124767097158 0 -0.00034092901477245015 0.0025639658819117872 0 -0.00088660025052734342 0.0023296474344354913 0 -0.00034092901477245015 0.0025639658819117872 0 -0.00034220479970109634 0.003030574621704587 0 -0.0011721607991941503 0.003039639659579642 0 -0.00050012379750292654 0.0036711766918926317 0 -0.0024440418785537216 0.0080670860370856655 0 -0.0009597661189454155 0.0042284543806879937 0 -0.001489280324467117 0.0048645115334274474 0 -0.0023059666322586495 0.0042231125477038998 0 -0.0009597661189454155 0.0042284543806879937 0 -0.001489280324467117 0.0048645115334274474 0 -0.00073604069112296548 0.0052700639287860613 0 -0.0009597661189454155 0.0042284543806879937 0 -0.00026738945497977931 0.00464510639345925 0 -0.00073604069112296548 0.0052700639287860613 0 -0.00050012379750292654 0.0036711766918926317 0 0.00013920178489142812 0.0012595904778471014 0 -0.0009597661189454155 0.0042284543806879937 0 0.00039290495084634905 0.0042298082639374845 0 -0.00026738945497977931 0.00464510639345925 0 -0.00034092901477245015 0.0025639658819117872 0 -0.00034220479970109634 0.003030574621704587 0 0.00049065787590871115 0.0030371854158636516 0 0.00039290495084634905 0.0042298082639374845 0 -0.00026738945497977931 0.00464510639345925 0 0.00048554088293340056 0.004792271155773296 0 0.00013920178489142812 0.0012595904778471014 0 -5.2145905707322661e-05 -4.728174944458599e-05 0 -0.001462027166644738 0.0027328608670117772 0 -0.0013140023611752062 0.002478884869853776 0 -0.0015549765660196112 0.0023214160617742981 0 -5.2145905707322661e-05 -4.728174944458599e-05 0 -0.00044161585331810825 -0.0017398793517969871 0 -0.00026738945497977931 0.00464510639345925 0 0.00048554088293340056 0.004792271155773296 0 -0.00073604069112296548 0.0052700639287860613 0 -5.2145905707322661e-05 -4.728174944458599e-05 0 -0.00088465438559835708 0.0039249597212882353 0 -0.001462027166644738 0.0027328608670117772 0 -0.0013140023611752062 0.002478884869853776 0 -0.0011632594262417208 0.0026401121468106366 0 -0.0013140023611752062 0.002478884869853776 0 -0.0011632594262417208 0.0026401121468106366 0 -0.0011785760866241707 0.0024678256076856937 0 -0.00088465438559835708 0.0039249597212882353 0 -0.002405224181908566 0.0079590334463174543 0 -0.001489280324467117 0.0048645115334274474 0 -0.00073604069112296548 0.0052700639287860613 0 -0.001952898330989125 0.0057367118192223013 0 -0.0011632594262417208 0.0026401121468106366 0 -0.0011785760866241707 0.0024678256076856937 0 -0.0009871298889849616 0.0025479285624605262 0 -0.0011632594262417208 0.0026401121468106366 0 -0.0009871298889849616 0.0025479285624605262 0 -0.00093613186192787574 0.0025834035233752526 0 -0.0009871298889849616 0.0025479285624605262 0 -0.00099968227317743922 0.0023730862820260804 0 -0.00093613186192787574 0.0025834035233752526 0 -0.0023823195489063786 0.0065247774602781505 0 -0.002405224181908566 0.0079590334463174543 0 -0.0011785760866241707 0.0024678256076856937 0 -0.0009871298889849616 0.0025479285624605262 0 -0.0012573453860102262 0.0021802046262530735 0 -0.0009871298889849616 0.0025479285624605262 0 -0.00099968227317743922 0.0023730862820260804 0 -0.001188153921425396 0.002430260277076999 0 -0.0010517574526878167 0.0024660651199991056 0 -0.0011731422683572352 0.0025025730556120208 0 -0.0015549765660196112 0.0023214160617742981 0 -0.0012573453860102262 0.0021802046262530735 0 -0.0016358462333710289 0.0018236092231582884 0 -0.0013140023611752062 0.002478884869853776 0 -0.0011785760866241707 0.0024678256076856937 0 -0.0012573453860102262 0.0021802046262530735 0 -0.0013140023611752062 0.002478884869853776 0 -0.0015549765660196112 0.0023214160617742981 0 -0.0012573453860102262 0.0021802046262530735 0 -0.00044161585331810825 -0.0017398793517969871 0 -0.0006808231635442272 -0.00035461435165973795 0 0.00082371040761469662 -0.0050007250090474504 0 0.00078624573180015626 -0.0049288124845205906 0 0.00085105768729295368 -0.0049733419363419901 0 0.00077898133754447771 -0.0049713833278706735 0 0.00082371040761469662 -0.0050007250090474504 0 0.00078624573180015626 -0.0049288124845205906 0 0.00082371040761469662 -0.0050007250090474504 0 0.00087836832170757261 -0.0050221885898319284 0 0.00085105768729295368 -0.0049733419363419901 0 0.00082371040761469662 -0.0050007250090474504 0 0.00087836832170757261 -0.0050221885898319284 0 0.00086554735444993841 -0.0050462435644992275 0 0.00081925621654194169 -0.0050615973409894382 0 0.00082371040761469662 -0.0050007250090474504 0 0.00086554735444993841 -0.0050462435644992275 0 0.00076364453839487616 -0.0050120422514751267 0 0.00077898133754447771 -0.0049713833278706735 0 0.00082371040761469662 -0.0050007250090474504 0 0.00081925621654194169 -0.0050615973409894382 0 0.00076364453839487616 -0.0050120422514751267 0 0.00082371040761469662 -0.0050007250090474504 0 -0.002799222459944154 0.011977153032616837 0 -0.0025641223472189453 0.011975850419737706 0 -0.002599110847598343 0.011596533150461942 0 -0.002799222459944154 0.011977153032616837 0 -0.0025641223472189453 0.011975850419737706 0 -0.0025861589453666286 0.012200370502538719 0 -0.0025641223472189453 0.011975850419737706 0 -0.0022618913016135699 0.012161214840129846 0 -0.0025861589453666286 0.012200370502538719 0 -0.0025641223472189453 0.011975850419737706 0 -0.0022618913016135699 0.012161214840129846 0 -0.0022928536333132916 0.011712759966914583 0 -0.0022928536333132916 0.011712759966914583 0 -0.002599110847598343 0.011596533150461942 0 -0.0025346363394153182 0.011248996101960481 0 -0.0025641223472189453 0.011975850419737706 0 -0.0022928536333132916 0.011712759966914583 0 -0.002599110847598343 0.011596533150461942 0 -0.002599110847598343 0.011596533150461942 0 -0.0030932807391879065 0.011652541477742659 0 -0.002938254904132197 0.011266247225182779 0 -0.002799222459944154 0.011977153032616837 0 -0.002599110847598343 0.011596533150461942 0 -0.0029405226477567628 0.011771009720670893 0 -0.0024537907685208329 0.011488390919974913 0 -0.0033727793480485828 0.012129353653752735 0 -0.0030932807391879065 0.011652541477742659 0 -0.0033197454964475704 0.011363460153431279 0 -0.002938254904132197 0.011266247225182779 0 -0.0030932807391879065 0.011652541477742659 0 -0.0033197454964475704 0.011363460153431279 0 -0.0035545937988047064 0.011764962077702786 0 -0.0036798290654786233 0.011311772270000945 0 -0.0033197454964475704 0.011363460153431279 0 -0.0035545937988047064 0.011764962077702786 0 -0.0033727793480485828 0.012129353653752735 0 -0.002405224181908566 0.0079590334463174543 0 -0.0029405226477567628 0.011771009720670893 0 -0.0032637151046857678 0.011867849685797027 0 -0.0030347898279824096 0.012004080438679753 0 -0.0032637151046857678 0.011867849685797027 0 -0.0030347898279824096 0.012004080438679753 0 -0.0031984444965233666 0.012170460353287586 0 -0.001489280324467117 0.0048645115334274474 0 -0.001952898330989125 0.0057367118192223013 0 -0.0023059666322586495 0.0042231125477038998 0 -0.002405224181908566 0.0079590334463174543 0 -0.0024440418785537216 0.0080670860370856655 0 -0.002799222459944154 0.011977153032616837 0 -0.0029405226477567628 0.011771009720670893 0 -0.0030347898279824096 0.012004080438679753 0 -0.002799222459944154 0.011977153032616837 0 -0.0030347898279824096 0.012004080438679753 0 -0.0028993853401371298 0.012219661719156579 0 -0.0031372129341633789 0.012288754970367738 0 -0.0024440418785537216 0.0080670860370856655 0 -0.0030347898279824096 0.012004080438679753 0 -0.0028993853401371298 0.012219661719156579 0 -0.0031984444965233666 0.012170460353287586 0 -0.0028993853401371298 0.012219661719156579 0 -0.0031316410628856369 0.012169331368896388 0 -0.0030953546133528987 0.012341162460615215 0 -0.0024440418785537216 0.0080670860370856655 0 -0.0015266414927784593 0.0081553352376261424 0 -0.0015266414927784593 0.0081553352376261424 0 -0.00049476876879924598 0.0078394760112825857 0 0.00034175553040985868 0.013901129608850329 0 0.00033040114807847583 0.013933893326727148 0 0.00035018284799450213 0.013885344938096088 0 -0.0012600216481213 0.0023734745942025331 0 -0.0009373092173910444 0.0018321406572614979 0 -0.0013848950536560678 0.0015922156751376304 0 -0.0007451953996523399 0.0053211204361683561 0 -0.0015266414927784593 0.0081553352376261424 0 -0.0011721607991941503 0.003039639659579642 0 -0.00088660025052734342 0.0023296474344354913 0 -0.0013218768708811043 0.0023956444405097825 0 -0.00088660025052734342 0.0023296474344354913 0 -0.0012600216481213 0.0023734745942025331 0 -0.0009373092173910444 0.0018321406572614979 0 -0.0028993853401371298 0.012219661719156579 0 -0.0030953546133528987 0.012341162460615215 0 -0.0027085604134793389 0.012401464855826945 0 0.00033040114807847583 0.013933893326727148 0 0.00030505966319912864 0.014013981375676603 0 0.00031576790071832322 0.013932987550943042 0 0.00034175553040985868 0.013901129608850329 0 0.00033040114807847583 0.013933893326727148 0 0.00030505966319912864 0.014013981375676603 0 -0.0015266414927784593 0.0081553352376261424 0 -0.0012171282825716638 0.013833142920539675 0 0.00030505966319912864 0.014013981375676603 0 0.00026594170410135514 0.014002121263452827 0 0.00031576790071832322 0.013932987550943042 0 -0.0028993853401371298 0.012219661719156579 0 -0.0027085604134793389 0.012401464855826945 0 -0.0025861589453666286 0.012200370502538719 0 -0.002799222459944154 0.011977153032616837 0 -0.0028993853401371298 0.012219661719156579 0 -0.0025861589453666286 0.012200370502538719 0 -0.0027085604134793389 0.012401464855826945 0 -0.0025861589453666286 0.012200370502538719 0 -0.002228959429732261 0.012468159706127776 0 -0.0022618913016135699 0.012161214840129846 0 -0.0025861589453666286 0.012200370502538719 0 -0.002228959429732261 0.012468159706127776 0 0.00030505966319912864 0.014013981375676603 0 0.00026594170410135514 0.014002121263452827 0 0.00021997791990318585 0.014167246152753383 0 -0.0012171282825716638 0.013833142920539675 0 -0.00099817108835106101 0.013240947696340854 0 0.00026594170410135514 0.014002121263452827 0 0.00031576790071832322 0.013932987550943042 0 0.00029831629002547913 0.013886417075803431 0 0.00013619993350162885 0.009641441240227179 0 -9.3354093543725067e-05 0.009399514862027886 0 -0.00014261976237166373 0.010144237543742657 0 0.00026594170410135514 0.014002121263452827 0 0.00029831629002547913 0.013886417075803431 0 0.00021963354442414284 0.013905183249857265 0 0.00029500733831151543 0.012291441923503498 0 -2.2714651554272367e-05 0.012002603269178066 0 -0.0009623205904889518 0.0013125148120922479 0 -0.0013848950536560678 0.0015922156751376304 0 -0.0015155513272632488 0.00088527736311028258 0 -0.00049476876879924598 0.0078394760112825857 0 0.00060895126201663586 0.0066949724672056435 0 -0.0009623205904889518 0.0013125148120922479 0 -0.0009373092173910444 0.0018321406572614979 0 -0.0013848950536560678 0.0015922156751376304 0 0.00031576790071832322 0.013932987550943042 0 0.00035018284799450213 0.013885344938096088 0 0.0003509433735478239 0.013830726959816603 0 0.00033040114807847583 0.013933893326727148 0 0.00031576790071832322 0.013932987550943042 0 0.00035018284799450213 0.013885344938096088 0 0.00031576790071832322 0.013932987550943042 0 0.00029831629002547913 0.013886417075803431 0 0.0003509433735478239 0.013830726959816603 0 0.00013619993350162885 0.009641441240227179 0 0.0013620265769729932 0.0095713165667524955 0 0.001084646049351784 0.0084934364771165911 0 0.00029500733831151543 0.012291441923503498 0 0.00060895126201663586 0.0066949724672056435 0 0.00095886328702818031 0.0017288312972200193 0 0.00014354785459584204 0.0015722718047971687 0 0.00020149902656844504 0.0024277492728343531 0 0.00060895126201663586 0.0066949724672056435 0 -0.00053261720470265802 0.0013271355891579749 0 -0.0009623205904889518 0.0013125148120922479 0 -0.0015155513272632488 0.00088527736311028258 0 -0.00082438621581984711 0.00086656491688826432 0 0.00020149902656844504 0.0024277492728343531 0 0.0010833827622673672 0.0032733305133450215 0 0.00022827365468174141 0.0039761742414158325 0 0.00095886328702818031 0.0017288312972200193 0 0.00020149902656844504 0.0024277492728343531 0 0.0010833827622673672 0.0032733305133450215 0 -5.232299840832254e-05 0.0032215033226320228 0 0.00020149902656844504 0.0024277492728343531 0 0.00022827365468174141 0.0039761742414158325 0 0.00060895126201663586 0.0066949724672056435 0 0.00093410479019758244 0.0056806096514390595 0 0.0010833827622673672 0.0032733305133450215 0 2.6211461538817145e-06 0.0061950489850047408 0 0.00022827365468174141 0.0039761742414158325 0 0.001084646049351784 0.0084934364771165911 0 3.0628094982873513e-06 0.006201144057021003 0 3.5260656162386732e-05 0.0084243650436239808 0 0.00093410479019758244 0.0056806096514390595 0 5.5343892448958952e-07 0.0061973174309350046 0 -5.232299840832254e-05 0.0032215033226320228 0 -7.6862968524474047e-07 0.0039189442569231908 0 -1.7805977309463379e-07 0.005058343215908194 0 2.6211461538817145e-06 0.0061950489850047408 0 0.00022827365468174141 0.0039761742414158325 0 -1.7805977309463379e-07 0.005058343215908194 0 -5.232299840832254e-05 0.0032215033226320228 0 0.00022827365468174141 0.0039761742414158325 0 -1.7805977309463379e-07 0.005058343215908194 0 0.00013619993350162885 0.009641441240227179 0 0.001084646049351784 0.0084934364771165911 0 3.5260656162386732e-05 0.0084243650436239808 0 0.00013619993350162885 0.009641441240227179 0 -9.3354093543725067e-05 0.009399514862027886 0 3.5260656162386732e-05 0.0084243650436239808 0 3.0628094982873513e-06 0.006201144057021003 0 3.5260656162386732e-05 0.0084243650436239808 0 -1.1694498293024534e-06 0.0082782312838708388 0 -9.3354093543725067e-05 0.009399514862027886 0 3.5260656162386732e-05 0.0084243650436239808 0 -1.1694498293024534e-06 0.0082782312838708388 0 -9.3354093543725067e-05 0.009399514862027886 0 -1.1694498293024534e-06 0.0082782312838708388 0 -9.0727230151061174e-05 0.010386761622793308 0 -1.1694498293024534e-06 0.0082782312838708388 0 -9.0727230151061174e-05 0.010386761622793308 0 1.4461500799193808e-07 0.010359205800745274 0 -9.0727230151061174e-05 0.010386761622793308 0 -0.00014261976237166373 0.010144237543742657 0 -2.832512620878846e-05 0.011512484208482745 0 -9.3354093543725067e-05 0.009399514862027886 0 -9.0727230151061174e-05 0.010386761622793308 0 -0.00014261976237166373 0.010144237543742657 0 -9.0727230151061174e-05 0.010386761622793308 0 -1.0819866082018065e-05 0.012057742167117367 0 -2.832512620878846e-05 0.011512484208482745 0 -9.0727230151061174e-05 0.010386761622793308 0 1.4461500799193808e-07 0.010359205800745274 0 -1.0819866082018065e-05 0.012057742167117367 0 1.4461500799193808e-07 0.010359205800745274 0 -1.8645412879694725e-07 0.012439345882205622 0 -1.0819866082018065e-05 0.012057742167117367 0 -1.8645412879694725e-07 0.012439345882205622 0 -1.0819866082018065e-05 0.012057742167117367 0 -0.00017984554306367759 0.014084849354141143 0 -1.0819866082018065e-05 0.012057742167117367 0 -0.00016360705803569015 0.013670567700128455 0 -0.00017984554306367759 0.014084849354141143 0 -1.0819866082018065e-05 0.012057742167117367 0 -0.00016360705803569015 0.013670567700128455 0 -2.832512620878846e-05 0.011512484208482745 0 -0.00016360705803569015 0.013670567700128455 0 -7.3183026016005926e-05 0.014237806367503089 0 8.0255050255273409e-05 0.013856295381235485 0 -0.0002720814538596992 0.01345747753552929 0 -7.8430336605748055e-05 0.01273644315573101 0 -0.00016360705803569015 0.013670567700128455 0 -0.00030535903593897836 0.014540741656148094 0 -0.00040087925307545819 0.014548681113486317 0 -0.00016360705803569015 0.013670567700128455 0 -7.3183026016005926e-05 0.014237806367503089 0 -0.00040087925307545819 0.014548681113486317 0 -7.3183026016005926e-05 0.014237806367503089 0 0.00014962426189961701 0.014092425674422213 0 8.0255050255273409e-05 0.013856295381235485 0 0.00026594170410135514 0.014002121263452827 0 0.00014962426189961701 0.014092425674422213 0 0.00021963354442414284 0.013905183249857265 0 -2.2714651554272367e-05 0.012002603269178066 0 -7.8430336605748055e-05 0.01273644315573101 0 0.00014962426189961701 0.014092425674422213 0 0.00021963354442414284 0.013905183249857265 0 8.0255050255273409e-05 0.013856295381235485 0 0.00014519197462209811 0.016870086319992292 0 1.6933423321390456e-07 0.016600276049270699 0 -3.1769471081593202e-05 0.018172564456919435 0 1.6933423321390456e-07 0.016600276049270699 0 -7.9415480820358515e-05 0.015682553687406269 0 -3.2394788756948079e-07 0.014520040419591379 0 0.00014519197462209811 0.016870086319992292 0 1.6933423321390456e-07 0.016600276049270699 0 -7.9415480820358515e-05 0.015682553687406269 0 -7.9415480820358515e-05 0.015682553687406269 0 -3.2394788756948079e-07 0.014520040419591379 0 -0.00017984554306367759 0.014084849354141143 0 -1.8645412879694725e-07 0.012439345882205622 0 -3.2394788756948079e-07 0.014520040419591379 0 -0.00017984554306367759 0.014084849354141143 0 -7.9415480820358515e-05 0.015682553687406269 0 -0.00017984554306367759 0.014084849354141143 0 -0.00030535903593897836 0.014540741656148094 0 -0.00016360705803569015 0.013670567700128455 0 -0.00017984554306367759 0.014084849354141143 0 -0.00030535903593897836 0.014540741656148094 0 -0.00030535903593897836 0.014540741656148094 0 -0.00040087925307545819 0.014548681113486317 0 -0.00033390298655848217 0.014969558035393642 0 -0.00033390298655848217 0.014969558035393642 0 -5.2902492626353229e-06 0.015653896642468655 0 -5.7906292168891434e-05 0.014708408044796199 0 -7.9415480820358515e-05 0.015682553687406269 0 -0.00033390298655848217 0.014969558035393642 0 -5.2902492626353229e-06 0.015653896642468655 0 -7.9415480820358515e-05 0.015682553687406269 0 -0.00030535903593897836 0.014540741656148094 0 -0.00033390298655848217 0.014969558035393642 0 -7.9415480820358515e-05 0.015682553687406269 0 -5.2902492626353229e-06 0.015653896642468655 0 0.00055597939620837726 0.017041075539902948 0 0.00014519197462209811 0.016870086319992292 0 -7.9415480820358515e-05 0.015682553687406269 0 0.00055597939620837726 0.017041075539902948 0 -5.2902492626353229e-06 0.015653896642468655 0 0.00055597939620837726 0.017041075539902948 0 0.00080922772837601991 0.014874452852953687 0 0.00055597939620837726 0.017041075539902948 0 0.00092582031197099455 0.019202746548092904 0 -2.3278551533935683e-07 0.018738226509332993 0 0.00063685249572954902 0.017060702242807636 0 0.00080474746213340942 0.016971914046752801 0 0.00014519197462209811 0.016870086319992292 0 0.00055597939620837726 0.017041075539902948 0 -3.1769471081593202e-05 0.018172564456919435 0 0.00075508336239723227 0.017016835292918961 0 0.00080474746213340942 0.016971914046752801 0 0.00080994693093399371 0.020052412652753416 0 0.00059745780242208052 0.019901678084145058 0 0.00092582031197099455 0.019202746548092904 0 0.00061947048929248674 0.013469673393070083 0 0.00080922772837601991 0.014874452852953687 0 0.00044471668473585634 0.013583017813298379 0 0.00045202638904384072 0.020111360248009965 0 0.00059745780242208052 0.019901678084145058 0 0.00062014078966084966 0.020140688501618931 0 0.00045202638904384072 0.020111360248009965 0 0.00059745780242208052 0.019901678084145058 0 0.00026074812528063118 0.019802117690758823 0 0.00080994693093399371 0.020052412652753416 0 0.00059745780242208052 0.019901678084145058 0 0.00062014078966084966 0.020140688501618931 0 0.00059745780242208052 0.019901678084145058 0 0.00092582031197099455 0.019202746548092904 0 0.00026074812528063118 0.019802117690758823 0 0.00092582031197099455 0.019202746548092904 0 -2.3278551533935683e-07 0.018738226509332993 0 0.00026074812528063118 0.019802117690758823 0 0.00080922772837601991 0.014874452852953687 0 -5.7906292168891434e-05 0.014708408044796199 0 0.00044471668473585634 0.013583017813298379 0 -5.2902492626353229e-06 0.015653896642468655 0 0.00080922772837601991 0.014874452852953687 0 -5.7906292168891434e-05 0.014708408044796199 0 0.00045138407726667932 0.013576930726527279 0 -0.00047917578434345263 0.013641269957631093 0 0.00044471668473585634 0.013583017813298379 0 -0.00069442757372148239 0.012988881632971152 0 -0.0002427238599293338 0.012757889602532818 0 -5.7906292168891434e-05 0.014708408044796199 0 0.00044471668473585634 0.013583017813298379 0 -0.00041526781363944763 0.014310582318668408 0 0.00061947048929248674 0.013469673393070083 0 0.00044471668473585634 0.013583017813298379 0 0.00026893328699264 0.013001238029848768 0 -0.00033390298655848217 0.014969558035393642 0 -5.7906292168891434e-05 0.014708408044796199 0 -0.00041526781363944763 0.014310582318668408 0 -0.00040087925307545819 0.014548681113486317 0 -0.00033390298655848217 0.014969558035393642 0 -0.00041526781363944763 0.014310582318668408 0 -0.00040087925307545819 0.014548681113486317 0 -0.00041526781363944763 0.014310582318668408 0 -0.00033941671976471413 0.014506223788825932 0 -0.00069442757372148239 0.012988881632971152 0 -0.00087923554117750301 0.012248921037860993 0 -0.0012754312575720432 0.012713617478936536 0 -0.00047917578434345263 0.013641269957631093 0 -0.00079744246773031345 0.013599687950983921 0 -0.00087923554117750301 0.012248921037860993 0 -0.0011314062458217988 0.011749444530627122 0 -0.00073251608768986546 0.01170120591888801 0 -0.00087923554117750301 0.012248921037860993 0 -0.00045693975680536345 0.011961122369653908 0 -0.00037799527813815699 0.01228864058758225 0 -0.00087923554117750301 0.012248921037860993 0 -0.00045693975680536345 0.011961122369653908 0 -0.00073251608768986546 0.01170120591888801 0 -0.00045693975680536345 0.011961122369653908 0 -0.00037799527813815699 0.01228864058758225 0 -0.00011760695673650271 0.01211549027222073 0 -0.00069442757372148239 0.012988881632971152 0 -0.00087923554117750301 0.012248921037860993 0 -0.0002427238599293338 0.012757889602532818 0 -0.00087923554117750301 0.012248921037860993 0 -0.00037799527813815699 0.01228864058758225 0 -0.0002427238599293338 0.012757889602532818 0 0.00061947048929248674 0.013469673393070083 0 0.00026893328699264 0.013001238029848768 0 0.00032055403584332507 0.01233653117904175 0 -0.0002427238599293338 0.012757889602532818 0 0.00026893328699264 0.013001238029848768 0 6.2370956378939274e-05 0.012753350605481158 0 0.00044471668473585634 0.013583017813298379 0 -0.0002427238599293338 0.012757889602532818 0 0.00026893328699264 0.013001238029848768 0 0.00026893328699264 0.013001238029848768 0 6.2370956378939274e-05 0.012753350605481158 0 0.00012984483854591562 0.01258130554568021 0 6.2370956378939274e-05 0.012753350605481158 0 0.00012984483854591562 0.01258130554568021 0 -7.4693832641242587e-05 0.012470482253182978 0 0.00026893328699264 0.013001238029848768 0 0.00012984483854591562 0.01258130554568021 0 0.00032055403584332507 0.01233653117904175 0 0.00012984483854591562 0.01258130554568021 0 0.00032055403584332507 0.01233653117904175 0 6.5327248259361642e-05 0.012331396126619916 0 0.00012984483854591562 0.01258130554568021 0 -7.4693832641242587e-05 0.012470482253182978 0 6.5327248259361642e-05 0.012331396126619916 0 -0.00037799527813815699 0.01228864058758225 0 -0.0002427238599293338 0.012757889602532818 0 -7.4693832641242587e-05 0.012470482253182978 0 -0.0002427238599293338 0.012757889602532818 0 6.2370956378939274e-05 0.012753350605481158 0 -7.4693832641242587e-05 0.012470482253182978 0 -0.00037799527813815699 0.01228864058758225 0 -7.4693832641242587e-05 0.012470482253182978 0 -0.00011760695673650271 0.01211549027222073 0 -7.4693832641242587e-05 0.012470482253182978 0 -0.00011760695673650271 0.01211549027222073 0 6.5327248259361642e-05 0.012331396126619916 0 2.1381207369742835e-05 0.011960752882879922 0 0.00030551939105626422 0.012209712433562885 0 8.881811484887683e-05 0.011683958909036431 0 -0.00011760695673650271 0.01211549027222073 0 2.1381207369742835e-05 0.011960752882879922 0 -0.000278028217061867 0.011729451437168645 0 -0.00045693975680536345 0.011961122369653908 0 -0.00011760695673650271 0.01211549027222073 0 -0.000278028217061867 0.011729451437168645 0 2.1381207369742835e-05 0.011960752882879922 0 0.00010649610514445178 0.012193371553487743 0 0.00030551939105626422 0.012209712433562885 0 -0.00011760695673650271 0.01211549027222073 0 2.1381207369742835e-05 0.011960752882879922 0 0.00010649610514445178 0.012193371553487743 0 -0.00011760695673650271 0.01211549027222073 0 0.00010649610514445178 0.012193371553487743 0 6.5327248259361642e-05 0.012331396126619916 0 0.00032055403584332507 0.01233653117904175 0 0.00010649610514445178 0.012193371553487743 0 6.5327248259361642e-05 0.012331396126619916 0 0.00032055403584332507 0.01233653117904175 0 0.00010649610514445178 0.012193371553487743 0 0.00030551939105626422 0.012209712433562885 0 0.0006810467714107064 0.020406234249445841 0 0.00060412864345833566 0.020402526157290459 0 0.00057334903450711745 0.02047808558790392 0 0.0006810467714107064 0.020406234249445841 0 0.00057334903450711745 0.02047808558790392 0 0.00055148516356605458 0.020670315277778895 0 0.00015988964085923685 0.015015503018009347 0 -6.2763775906526429e-05 0.011302066003980956 0 0.00050859257976176918 0.013884040878033998 0 0.00015988964085923685 0.015015503018009347 0 0.0006810467714107064 0.020406234249445841 0 0.00060412864345833566 0.020402526157290459 0 0.00063124248944998863 0.02034443226354701 0 0.00060412864345833566 0.020402526157290459 0 0.00057334903450711745 0.02047808558790392 0 0.00052146791195289348 0.020373455834959125 0 0.00057334903450711745 0.02047808558790392 0 0.00052146791195289348 0.020373455834959125 0 0.00047276124507779214 0.020520461824517115 0 0.00060412864345833566 0.020402526157290459 0 0.00052146791195289348 0.020373455834959125 0 0.00063124248944998863 0.02034443226354701 0 0.00052146791195289348 0.020373455834959125 0 0.00055237476057114882 0.020254705359377435 0 0.00036344583172924445 0.020282005429410006 0 0.00075508336239723227 0.017016835292918961 0 0.00015988964085923685 0.015015503018009347 0 0.00052146791195289348 0.020373455834959125 0 0.00060396960214234802 0.020297235795323939 0 0.00055237476057114882 0.020254705359377435 0 0.00080994693093399371 0.020052412652753416 0 0.0006810467714107064 0.020406234249445841 0 0.00066191531908307876 0.020250647124430164 0 0.00061947048929248674 0.013469673393070083 0 0.00032055403584332507 0.01233653117904175 0 0.00039533661572480506 0.01211744572106432 0 0.00060396960214234802 0.020297235795323939 0 0.00066191531908307876 0.020250647124430164 0 0.00055237476057114882 0.020254705359377435 0 0.00052146791195289348 0.020373455834959125 0 0.00060396960214234802 0.020297235795323939 0 0.00063124248944998863 0.02034443226354701 0 0.0006810467714107064 0.020406234249445841 0 0.00063124248944998863 0.02034443226354701 0 0.00066191531908307876 0.020250647124430164 0 0.00060396960214234802 0.020297235795323939 0 0.00063124248944998863 0.02034443226354701 0 0.00066191531908307876 0.020250647124430164 0 0.00080994693093399371 0.020052412652753416 0 0.00066191531908307876 0.020250647124430164 0 0.00062014078966084966 0.020140688501618931 0 0.00045202638904384072 0.020111360248009965 0 0.00062014078966084966 0.020140688501618931 0 0.00055237476057114882 0.020254705359377435 0 0.00066191531908307876 0.020250647124430164 0 0.00062014078966084966 0.020140688501618931 0 0.00055237476057114882 0.020254705359377435 0 -0.0022618913016135699 0.012161214840129846 0 -0.0017487681207036059 0.012550055665208126 0 -0.0020113446626860891 0.012038734138169976 0 -0.0022618913016135699 0.012161214840129846 0 -0.0017487681207036059 0.012550055665208126 0 -0.002228959429732261 0.012468159706127776 0 -0.00086570390252770318 0.013467484694338424 0 -0.00099817108835106101 0.013240947696340854 0 0.00014962426189961701 0.014092425674422213 0 2.6352037190253231e-05 0.014361886412029987 0 0.00021997791990318585 0.014167246152753383 0 0.00026594170410135514 0.014002121263452827 0 0.00014962426189961701 0.014092425674422213 0 0.00021997791990318585 0.014167246152753383 0 -7.3183026016005926e-05 0.014237806367503089 0 0.00014962426189961701 0.014092425674422213 0 2.6352037190253231e-05 0.014361886412029987 0 -7.3183026016005926e-05 0.014237806367503089 0 2.6352037190253231e-05 0.014361886412029987 0 -0.00033941671976471413 0.014506223788825932 0 -7.3183026016005926e-05 0.014237806367503089 0 -0.00040087925307545819 0.014548681113486317 0 -0.00033941671976471413 0.014506223788825932 0 -0.00086570390252770318 0.013467484694338424 0 -0.00079744246773031345 0.013599687950983921 0 -0.0017487681207036059 0.012550055665208126 0 -0.0012754312575720432 0.012713617478936536 0 -0.0017455852199170369 0.012167363772684367 0 -0.00087923554117750301 0.012248921037860993 0 -0.0015324448936251229 0.011878030164630654 0 -0.0011314062458217988 0.011749444530627122 0 -0.00087923554117750301 0.012248921037860993 0 -0.0012754312575720432 0.012713617478936536 0 -0.0015324448936251229 0.011878030164630654 0 -0.0012754312575720432 0.012713617478936536 0 -0.0015324448936251229 0.011878030164630654 0 -0.0017455852199170369 0.012167363772684367 0 -0.0015324448936251229 0.011878030164630654 0 -0.0019476480932046473 0.011719643949117028 0 -0.0017455852199170369 0.012167363772684367 0 -0.0017487681207036059 0.012550055665208126 0 -0.0017455852199170369 0.012167363772684367 0 -0.0020113446626860891 0.012038734138169976 0 -0.0019476480932046473 0.011719643949117028 0 -0.0017455852199170369 0.012167363772684367 0 -0.0020113446626860891 0.012038734138169976 0 -0.0022618913016135699 0.012161214840129846 0 -0.0022928536333132916 0.011712759966914583 0 -0.0020113446626860891 0.012038734138169976 0 -0.0022928536333132916 0.011712759966914583 0 -0.0019476480932046473 0.011719643949117028 0 -0.0020113446626860891 0.012038734138169976 0 -0.0022928536333132916 0.011712759966914583 0 -0.0019476480932046473 0.011719643949117028 0 -0.0022051793296574704 0.011283859148772597 0 -0.0019476480932046473 0.011719643949117028 0 -0.0022051793296574704 0.011283859148772597 0 -0.0019388232107986931 0.011286642783518749 0 -0.0021801305771709748 0.011281260739085974 0 -0.0018484520169977483 0.011175905736376873 0 -0.0022051793296574704 0.011283859148772597 0 -0.0020663377740836688 0.010879843385549143 0 -0.0017667191125585653 0.011075313203592436 0 -0.0020663377740836688 0.010879843385549143 0 -0.0018054423846614476 0.010670710032015363 0 -0.0017667191125585653 0.011075313203592436 0 -0.0020663377740836688 0.010879843385549143 0 -0.0018054423846614476 0.010670710032015363 0 -0.0021694180828208884 0.010539249547989439 0 -0.0018054423846614476 0.010670710032015363 0 -0.0017667191125585653 0.011075313203592436 0 -0.0013791583926357224 0.01092115434495358 0 -0.0018484520169977483 0.011175905736376873 0 -0.0015864842464115734 0.011105640645440727 0 -0.0015324448936251229 0.011878030164630654 0 -0.0019388232107986931 0.011286642783518749 0 -0.0016075969785123369 0.011187486259799 0 -0.0015324448936251229 0.011878030164630654 0 -0.0019476480932046473 0.011719643949117028 0 -0.0019388232107986931 0.011286642783518749 0 -0.0015324448936251229 0.011878030164630654 0 -0.001374631382582489 0.011522538773238441 0 -0.0016924835408844512 0.011338985830530489 0 -0.0015487968176506801 0.011910646295042649 0 -0.0015864842464115734 0.011105640645440727 0 -0.0015324448936251229 0.011878030164630654 0 -0.0011314062458217988 0.011749444530627122 0 -0.001374631382582489 0.011522538773238441 0 -0.0011314062458217988 0.011749444530627122 0 -0.001374631382582489 0.011522538773238441 0 -0.00098089798802619525 0.011388975913053273 0 -0.001374631382582489 0.011522538773238441 0 -0.0012891719185054555 0.011170827943001421 0 -0.00098089798802619525 0.011388975913053273 0 -0.0012277200292102788 0.010824460829574729 0 -0.0016031720596689403 0.010956770784089775 0 -0.0014776554754537072 0.010688293482470692 0 -0.001270694182708495 0.011004444780527868 0 -0.0015864842464115734 0.011105640645440727 0 -0.001374631382582489 0.011522538773238441 0 -0.0012891719185054555 0.011170827943001421 0 -0.0016924835408844512 0.011338985830530489 0 -0.0014776554754537072 0.010688293482470692 0 -0.001530286033924887 0.010217606242023187 0 -0.0017110875998037408 0.010493073719653054 0 -0.0014776554754537072 0.010688293482470692 0 -0.001194251422781996 0.010504032723679894 0 -0.001530286033924887 0.010217606242023187 0 -0.0016031720596689403 0.010956770784089775 0 -0.0014776554754537072 0.010688293482470692 0 -0.0017110875998037408 0.010493073719653054 0 -0.0012277200292102788 0.010824460829574729 0 -0.001194251422781996 0.010504032723679894 0 -0.00087989030680680667 0.010742531597351432 0 -0.0012277200292102788 0.010824460829574729 0 -0.0014776554754537072 0.010688293482470692 0 -0.001194251422781996 0.010504032723679894 0 -0.001194251422781996 0.010504032723679894 0 -0.00096097754399360907 0.010380787138721094 0 -0.0012579845220023239 0.010157641574697469 0 -0.001194251422781996 0.010504032723679894 0 -0.001530286033924887 0.010217606242023187 0 -0.0012579845220023239 0.010157641574697469 0 -0.0018940422888268529 0.010022392672577804 0 -0.0015582728658516329 0.010332986638173565 0 -0.0017564377976573647 0.0099498774497369519 0 -0.0018940422888268529 0.010022392672577804 0 -0.0019352689333521219 0.010337225628934193 0 -0.0015582728658516329 0.010332986638173565 0 -0.0016279554016283284 0.010380678254947819 0 -0.0017446953183525009 0.01000208124789408 0 -0.001530286033924887 0.010217606242023187 0 -0.0017110875998037408 0.010493073719653054 0 -0.0017564377976573647 0.0099498774497369519 0 -0.0018940422888268529 0.010022392672577804 0 -0.0019352689333521219 0.010337225628934193 0 -0.0022775935340469703 0.010148554671836245 0 -0.0019352689333521219 0.010337225628934193 0 -0.0021694180828208884 0.010539249547989439 0 -0.0022775935340469703 0.010148554671836245 0 -0.0018054423846614476 0.010670710032015363 0 -0.0019352689333521219 0.010337225628934193 0 -0.0021694180828208884 0.010539249547989439 0 -0.0018054423846614476 0.010670710032015363 0 -0.0019352689333521219 0.010337225628934193 0 -0.0015582728658516329 0.010332986638173565 0 -0.0015864842464115734 0.011105640645440727 0 -0.0016279554016283284 0.010380678254947819 0 -0.0018054423846614476 0.010670710032015363 0 -0.0013791583926357224 0.01092115434495358 0 -0.0015582728658516329 0.010332986638173565 0 2.4188329486262502e-05 0.011112445836613206 0 0.00015535757207521474 0.011490995154899899 0 7.2923655128501449e-05 0.010945436807766338 0 2.4188329486262502e-05 0.011112445836613206 0 0.00015535757207521474 0.011490995154899899 0 -0.00012936860758329971 0.011284794518675067 0 2.4188329486262502e-05 0.011112445836613206 0 -0.00012936860758329971 0.011284794518675067 0 -0.000172517088458301 0.010976284494560571 0 0.00015535757207521474 0.011490995154899899 0 -0.0001968027185952375 0.011789997896769204 0 -0.00012936860758329971 0.011284794518675067 0 0.00057334903450711745 0.02047808558790392 0 0.00055148516356605458 0.020670315277778895 0 0.00047276124507779214 0.020520461824517115 0 -0.00013877005157965144 0.012408356340592126 0 0.00015535757207521474 0.011490995154899899 0 -0.0001968027185952375 0.011789997896769204 0 0.00015988964085923685 0.015015503018009347 0 0.00030637606483773763 0.016376956846430243 0 8.881811484887683e-05 0.011683958909036431 0 -0.00026992543928234614 0.011434301121296864 0 -0.00012936860758329971 0.011284794518675067 0 -6.2763775906526429e-05 0.011302066003980956 0 -9.9575030601991598e-05 0.011506170006078696 0 2.1381207369742835e-05 0.011960752882879922 0 8.881811484887683e-05 0.011683958909036431 0 -0.000278028217061867 0.011729451437168645 0 8.881811484887683e-05 0.011683958909036431 0 -0.000278028217061867 0.011729451437168645 0 -0.00026992543928234614 0.011434301121296864 0 -0.000278028217061867 0.011729451437168645 0 -0.00026992543928234614 0.011434301121296864 0 -0.00055921740947206409 0.011372382192802842 0 -0.00026992543928234614 0.011434301121296864 0 -0.00038877979263897086 0.011117141966673903 0 -0.00055921740947206409 0.011372382192802842 0 -0.00026992543928234614 0.011434301121296864 0 -0.00012936860758329971 0.011284794518675067 0 -0.00038877979263897086 0.011117141966673903 0 -0.00012936860758329971 0.011284794518675067 0 -0.00038877979263897086 0.011117141966673903 0 -0.000172517088458301 0.010976284494560571 0 -0.00038877979263897086 0.011117141966673903 0 -0.00055921740947206409 0.011372382192802842 0 -0.00086147207341131962 0.010976825450600677 0 -0.00045693975680536345 0.011961122369653908 0 -0.000278028217061867 0.011729451437168645 0 -0.00073251608768986546 0.01170120591888801 0 -0.000278028217061867 0.011729451437168645 0 -0.00055921740947206409 0.011372382192802842 0 -0.00073251608768986546 0.01170120591888801 0 -0.00055921740947206409 0.011372382192802842 0 -0.00073251608768986546 0.01170120591888801 0 -0.00098089798802619525 0.011388975913053273 0 -0.0011314062458217988 0.011749444530627122 0 -0.00073251608768986546 0.01170120591888801 0 -0.00098089798802619525 0.011388975913053273 0 -0.0012891719185054555 0.011170827943001421 0 -0.00098089798802619525 0.011388975913053273 0 -0.00086147207341131962 0.010976825450600677 0 -0.00055921740947206409 0.011372382192802842 0 -0.00098089798802619525 0.011388975913053273 0 -0.00086147207341131962 0.010976825450600677 0 -0.001270694182708495 0.011004444780527868 0 -0.0008514761715111835 0.01085754358950407 0 -0.001194251422781996 0.010504032723679894 0 -0.00087989030680680667 0.010742531597351432 0 -0.00096097754399360907 0.010380787138721094 0 -0.00087989030680680667 0.010742531597351432 0 -0.00096097754399360907 0.010380787138721094 0 -0.00072193661831136181 0.010509726862249354 0 -0.00096097754399360907 0.010380787138721094 0 -0.00072193661831136181 0.010509726862249354 0 -0.00074729611313296019 0.010254628642888175 0 -0.00072193661831136181 0.010509726862249354 0 -0.00074729611313296019 0.010254628642888175 0 -0.00050440755907591166 0.010417577565082263 0 -0.00072193661831136181 0.010509726862249354 0 -0.00046775470336140576 0.010751020590158908 0 -0.00050440755907591166 0.010417577565082263 0 -0.00087989030680680667 0.010742531597351432 0 -0.00072193661831136181 0.010509726862249354 0 -0.00046775470336140576 0.010751020590158908 0 -0.0008514761715111835 0.01085754358950407 0 -0.00048845409413812723 0.010750442081165932 0 -0.00038877979263897086 0.011117141966673903 0 -0.00086147207341131962 0.010976825450600677 0 -0.00046775470336140576 0.010751020590158908 0 -0.00038877979263897086 0.011117141966673903 0 -0.000172517088458301 0.010976284494560571 0 -0.00046775470336140576 0.010751020590158908 0 -0.000172517088458301 0.010976284494560571 0 -0.00046775470336140576 0.010751020590158908 0 -0.00024068869881633395 0.010616096612960438 0 -0.00050440755907591166 0.010417577565082263 0 -0.00024068869881633395 0.010616096612960438 0 -0.00030012765258034135 0.010225204439003337 0 -0.00046775470336140576 0.010751020590158908 0 -0.00050440755907591166 0.010417577565082263 0 -0.00024068869881633395 0.010616096612960438 0 -0.00024068869881633395 0.010616096612960438 0 -2.0713173689199582e-05 0.010454485783624377 0 7.7307331534350764e-05 0.010910563318289483 0 -0.00024068869881633395 0.010616096612960438 0 -2.0713173689199582e-05 0.010454485783624377 0 -0.00030012765258034135 0.010225204439003337 0 -0.000172517088458301 0.010976284494560571 0 -0.00024068869881633395 0.010616096612960438 0 7.7307331534350764e-05 0.010910563318289483 0 2.4188329486262502e-05 0.011112445836613206 0 -0.000172517088458301 0.010976284494560571 0 7.7307331534350764e-05 0.010910563318289483 0 2.4188329486262502e-05 0.011112445836613206 0 7.7307331534350764e-05 0.010910563318289483 0 7.2923655128501449e-05 0.010945436807766338 0 -0.00025584880246806859 0.0097586119507363719 0 -6.6867403464447665e-05 0.0097784172583210791 0 -0.00011559234185524725 0.0095929578388963977 0 -0.00025584880246806859 0.0097586119507363719 0 -0.00010497457886486357 0.0099404715758989511 0 -0.00024834851367909109 0.010014708072323289 0 -0.00025584880246806859 0.0097586119507363719 0 -0.00010497457886486357 0.0099404715758989511 0 -6.6867403464447665e-05 0.0097784172583210791 0 -0.00010497457886486357 0.0099404715758989511 0 -9.4552490612615067e-05 0.010153434410788822 0 2.5428045792351025e-05 0.01007199728062055 0 -0.00010497457886486357 0.0099404715758989511 0 -9.4552490612615067e-05 0.010153434410788822 0 -0.00024834851367909109 0.010014708072323289 0 -2.0713173689199582e-05 0.010454485783624377 0 -9.4552490612615067e-05 0.010153434410788822 0 2.5247758464321358e-05 0.01022176525003648 0 -9.4552490612615067e-05 0.010153434410788822 0 2.5247758464321358e-05 0.01022176525003648 0 2.5428045792351025e-05 0.01007199728062055 0 -9.4552490612615067e-05 0.010153434410788822 0 -0.00024834851367909109 0.010014708072323289 0 -0.00030012765258034135 0.010225204439003337 0 -2.0713173689199582e-05 0.010454485783624377 0 -9.4552490612615067e-05 0.010153434410788822 0 -0.00030012765258034135 0.010225204439003337 0 -0.00024834851367909109 0.010014708072323289 0 -0.00030012765258034135 0.010225204439003337 0 -0.00042216374015050049 0.009947410591017801 0 -0.00030012765258034135 0.010225204439003337 0 -0.0005263970976567263 0.010125971436018613 0 -0.00042216374015050049 0.009947410591017801 0 -0.00050440755907591166 0.010417577565082263 0 -0.00030012765258034135 0.010225204439003337 0 -0.0005263970976567263 0.010125971436018613 0 -0.0005263970976567263 0.010125971436018613 0 -0.00042216374015050049 0.009947410591017801 0 -0.00059573443166811987 0.0099016036521958357 0 -0.00042216374015050049 0.009947410591017801 0 -0.00048262347564645501 0.0097662436773348592 0 -0.00059573443166811987 0.0099016036521958357 0 -0.00025584880246806859 0.0097586119507363719 0 -0.00042216374015050049 0.009947410591017801 0 -0.00048262347564645501 0.0097662436773348592 0 -0.00025584880246806859 0.0097586119507363719 0 -0.00024834851367909109 0.010014708072323289 0 -0.00042216374015050049 0.009947410591017801 0 -0.00025584880246806859 0.0097586119507363719 0 -0.00048262347564645501 0.0097662436773348592 0 -0.00047646943567895947 0.0095784991632073702 0 -0.00048262347564645501 0.0097662436773348592 0 -0.0006519207708253718 0.009704286184915735 0 -0.00047646943567895947 0.0095784991632073702 0 -0.00048262347564645501 0.0097662436773348592 0 -0.0006519207708253718 0.009704286184915735 0 -0.00059573443166811987 0.0099016036521958357 0 -0.0006519207708253718 0.009704286184915735 0 -0.00078309007060017779 0.0098593866713223791 0 -0.00084713305483706178 0.0096503799040034248 0 -0.00078309007060017779 0.0098593866713223791 0 -0.00059573443166811987 0.0099016036521958357 0 -0.00070608637638426184 0.010034301058676578 0 -0.0006519207708253718 0.009704286184915735 0 -0.00078309007060017779 0.0098593866713223791 0 -0.00059573443166811987 0.0099016036521958357 0 -0.0005263970976567263 0.010125971436018613 0 -0.00059573443166811987 0.0099016036521958357 0 -0.00070608637638426184 0.010034301058676578 0 -0.00074729611313296019 0.010254628642888175 0 -0.0005263970976567263 0.010125971436018613 0 -0.00070608637638426184 0.010034301058676578 0 -0.00074729611313296019 0.010254628642888175 0 -0.00050440755907591166 0.010417577565082263 0 -0.0005263970976567263 0.010125971436018613 0 -0.00074729611313296019 0.010254628642888175 0 -0.00070608637638426184 0.010034301058676578 0 -0.00094485274171481407 0.010057680749068836 0 -0.00078309007060017779 0.0098593866713223791 0 -0.00070608637638426184 0.010034301058676578 0 -0.00094485274171481407 0.010057680749068836 0 -0.00096097754399360907 0.010380787138721094 0 -0.00094485274171481407 0.010057680749068836 0 -0.0012579845220023239 0.010157641574697469 0 -0.00096097754399360907 0.010380787138721094 0 -0.00074729611313296019 0.010254628642888175 0 -0.00094485274171481407 0.010057680749068836 0 -0.00094485274171481407 0.010057680749068836 0 -0.00095300666614365646 0.0098218642376232176 0 -0.0011788859672457954 0.0098590315502186717 0 -0.00078309007060017779 0.0098593866713223791 0 -0.00094485274171481407 0.010057680749068836 0 -0.00095300666614365646 0.0098218642376232176 0 -0.00095300666614365646 0.0098218642376232176 0 -0.0010116994763835817 0.0096388479239092485 0 -0.00084713305483706178 0.0096503799040034248 0 -0.00078309007060017779 0.0098593866713223791 0 -0.00095300666614365646 0.0098218642376232176 0 -0.00084713305483706178 0.0096503799040034248 0 -0.00095300666614365646 0.0098218642376232176 0 -0.0010116994763835817 0.0096388479239092485 0 -0.0011788859672457954 0.0098590315502186717 0 -0.0010116994763835817 0.0096388479239092485 0 -0.0009177828926883627 0.0095845234497524013 0 -0.00094303464975367549 0.0094848797931422202 0 -0.0010116994763835817 0.0096388479239092485 0 -0.00084713305483706178 0.0096503799040034248 0 -0.0009177828926883627 0.0095845234497524013 0 -0.00084713305483706178 0.0096503799040034248 0 -0.00084126767891127619 0.0095395827477303477 0 -0.0009177828926883627 0.0095845234497524013 0 -0.00084126767891127619 0.0095395827477303477 0 -0.0009177828926883627 0.0095845234497524013 0 -0.00089679338885521561 0.0095316640681844273 0 -0.0009177828926883627 0.0095845234497524013 0 -0.00089679338885521561 0.0095316640681844273 0 -0.00094303464975367549 0.0094848797931422202 0 -0.00084126767891127619 0.0095395827477303477 0 -0.00094303464975367549 0.0094848797931422202 0 -0.00074359036217794966 0.0095056327890917398 0 -0.00084126767891127619 0.0095395827477303477 0 -0.00089679338885521561 0.0095316640681844273 0 -0.00094303464975367549 0.0094848797931422202 0 -0.0019961142113619572 0.01012612582567568 0 -0.0017270208181666205 0.0092125941182053979 0 -0.0027491718717815058 0.0089466845762592485 0 -0.0010199616366100967 0.0062897199827648062 0 -0.0017460775064814104 0.0050931479525047748 0 -0.0017270208181666205 0.0092125941182053979 0 -0.00086813435386216972 0.0096063930194739498 0 -0.0012754820442296868 0.0086110960593422017 0 -0.0019961142113619572 0.01012612582567568 0 -0.0017270208181666205 0.0092125941182053979 0 -0.00086813435386216972 0.0096063930194739498 0 -0.00086813435386216972 0.0096063930194739498 0 -0.00049688240455101511 0.0088226761694434989 0 -0.0012754820442296868 0.0086110960593422017 0 -0.0006519207708253718 0.009704286184915735 0 -0.00074359036217794966 0.0095056327890917398 0 -0.00047646943567895947 0.0095784991632073702 0 -0.00063505053888604664 0.009375694856155253 0 -0.00074359036217794966 0.0095056327890917398 0 -0.00047646943567895947 0.0095784991632073702 0 -0.00094303464975367549 0.0094848797931422202 0 -0.00063505053888604664 0.009375694856155253 0 -0.00074359036217794966 0.0095056327890917398 0 -0.0010199616366100967 0.0062897199827648062 0 -0.0010308723941684732 0.0098183240601379465 0 -0.00084713305483706178 0.0096503799040034248 0 -0.00084126767891127619 0.0095395827477303477 0 -0.00074359036217794966 0.0095056327890917398 0 -0.0006519207708253718 0.009704286184915735 0 -0.00084713305483706178 0.0096503799040034248 0 -0.00074359036217794966 0.0095056327890917398 0 -0.00047646943567895947 0.0095784991632073702 0 -0.00042598314007878815 0.0094223095139780808 0 -0.00026295082262586702 0.0095006822449413362 0 -0.00063505053888604664 0.009375694856155253 0 -0.00047646943567895947 0.0095784991632073702 0 -0.00042598314007878815 0.0094223095139780808 0 -0.00086813435386216972 0.0096063930194739498 0 -0.00033151338993342097 0.00922609637045433 0 -0.00049688240455101511 0.0088226761694434989 0 -0.0010308723941684732 0.0098183240601379465 0 -0.00023968834319159567 0.0091805608317160163 0 -0.00063505053888604664 0.009375694856155253 0 -0.00042598314007878815 0.0094223095139780808 0 -0.00033151338993342097 0.00922609637045433 0 -0.00033151338993342097 0.00922609637045433 0 -0.00018759450553333643 0.0094011320659403898 0 -0.00020291925682815193 0.009290734105524192 0 -0.00033151338993342097 0.00922609637045433 0 -0.00018759450553333643 0.0094011320659403898 0 -0.00026295082262586702 0.0095006822449413362 0 -0.00042598314007878815 0.0094223095139780808 0 -0.00033151338993342097 0.00922609637045433 0 -0.00026295082262586702 0.0095006822449413362 0 -0.00025584880246806859 0.0097586119507363719 0 -0.00047646943567895947 0.0095784991632073702 0 -0.00026295082262586702 0.0095006822449413362 0 -0.00025584880246806859 0.0097586119507363719 0 -0.00026295082262586702 0.0095006822449413362 0 -0.00011559234185524725 0.0095929578388963977 0 -0.00018759450553333643 0.0094011320659403898 0 -0.00026295082262586702 0.0095006822449413362 0 -0.00011559234185524725 0.0095929578388963977 0 -0.00070043457249263554 0.0016367329320308079 0 -0.00061889259973469692 0.0015566555277918294 0 -0.00065523747745534981 0.0014732147851344555 0 -0.00070043457249263554 0.0016367329320308079 0 -0.00084190588816389399 0.0015794552111219162 0 -0.00095001055098539288 0.0017855998478810574 0 -0.00070043457249263554 0.0016367329320308079 0 -0.00084190588816389399 0.0015794552111219162 0 -0.00073466536830192348 0.001503241293945146 0 -0.0011595796863707118 0.0058810951992772295 0 -0.0022424371741004826 0.0045777167790690713 0 -0.0012913119784957537 0.010849479275669673 0 -0.0022424371741004826 0.0045777167790690713 0 -0.0018940422888268529 0.010022392672577804 0 -0.0017834506043429414 0.0097686847042098169 0 -0.0021105774599100126 0.0098524109608346486 0 -0.0018940422888268529 0.010022392672577804 0 -0.0017834506043429414 0.0097686847042098169 0 -0.0017564377976573647 0.0099498774497369519 0 -0.0017834506043429414 0.0097686847042098169 0 -0.0017564377976573647 0.0099498774497369519 0 -0.0014993932417699295 0.0099041732459957798 0 -0.001530286033924887 0.010217606242023187 0 -0.0017564377976573647 0.0099498774497369519 0 -0.0014993932417699295 0.0099041732459957798 0 -0.001530286033924887 0.010217606242023187 0 -0.0014993932417699295 0.0099041732459957798 0 -0.0012579845220023239 0.010157641574697469 0 -0.00094485274171481407 0.010057680749068836 0 -0.0012579845220023239 0.010157641574697469 0 -0.0011788859672457954 0.0098590315502186717 0 -0.0014993932417699295 0.0099041732459957798 0 -0.0012579845220023239 0.010157641574697469 0 -0.0011788859672457954 0.0098590315502186717 0 -0.0010116994763835817 0.0096388479239092485 0 -0.0011788859672457954 0.0098590315502186717 0 -0.0013729341469971667 0.0096317101546844145 0 -0.0017834506043429414 0.0097686847042098169 0 -0.0014993932417699295 0.0099041732459957798 0 -0.0013729341469971667 0.0096317101546844145 0 -0.0011595796863707118 0.0058810951992772295 0 -0.00093361749523451808 0.0054575703520041317 0 -0.0014993932417699295 0.0099041732459957798 0 -0.0011788859672457954 0.0098590315502186717 0 -0.0013729341469971667 0.0096317101546844145 0 -0.00061889259973469692 0.0015566555277918294 0 -0.00062480449525221117 0.0015059876397046227 0 -0.00065523747745534981 0.0014732147851344555 0 -0.0010116994763835817 0.0096388479239092485 0 -0.00094303464975367549 0.0094848797931422202 0 -0.0013729341469971667 0.0096317101546844145 0 -0.00058480189742305332 0.0015642829013401262 0 -0.00061889259973469692 0.0015566555277918294 0 -0.00062480449525221117 0.0015059876397046227 0 -0.0010199616366100967 0.0062897199827648062 0 -0.00093361749523451808 0.0054575703520041317 0 -0.00062480449525221117 0.0015059876397046227 0 -0.00062124377954124097 0.0014909811550966397 0 -0.00064786091429345149 0.0014486564149519385 0 -0.00058480189742305332 0.0015642829013401262 0 -0.00062480449525221117 0.0015059876397046227 0 -0.00062124377954124097 0.0014909811550966397 0 -0.00062480449525221117 0.0015059876397046227 0 -0.00065523747745534981 0.0014732147851344555 0 -0.00064786091429345149 0.0014486564149519385 0 -0.0006627067802708167 0.0013717998485528863 0 -0.00065523747745534981 0.0014732147851344555 0 -0.00073325764075286718 0.001408253369532391 0 -0.0006627067802708167 0.0013717998485528863 0 -0.00065523747745534981 0.0014732147851344555 0 -0.00064786091429345149 0.0014486564149519385 0 -0.00070043457249263554 0.0016367329320308079 0 -0.00065523747745534981 0.0014732147851344555 0 -0.00073466536830192348 0.001503241293945146 0 -0.00065523747745534981 0.0014732147851344555 0 -0.00073325764075286718 0.001408253369532391 0 -0.00073466536830192348 0.001503241293945146 0 -0.00084190588816389399 0.0015794552111219162 0 -0.00073466536830192348 0.001503241293945146 0 -0.00086166318474142651 0.0014307415315049081 0 -0.00073325764075286718 0.001408253369532391 0 -0.00073466536830192348 0.001503241293945146 0 -0.00086166318474142651 0.0014307415315049081 0 -0.0006627067802708167 0.0013717998485528863 0 -0.00073325764075286718 0.001408253369532391 0 -0.00076122865776102444 0.0012917153276119926 0 -0.00073325764075286718 0.001408253369532391 0 -0.00076122865776102444 0.0012917153276119926 0 -0.00086166318474142651 0.0014307415315049081 0 -0.0006627067802708167 0.0013717998485528863 0 -0.00076122865776102444 0.0012917153276119926 0 -0.00072508044900452975 0.0012046271042038925 0 -0.00085266568432811041 0.0015888525653951632 0 -0.00084686861986978676 0.00067414203580445453 0 -0.00080017270373058729 0.001252698024408688 0 -0.00086166318474142651 0.0014307415315049081 0 -0.00085630449333103055 0.0012210799760415192 0 -0.0011195420652242536 0.0013942213788480148 0 -0.00086166318474142651 0.0014307415315049081 0 -0.0010399046249157501 0.0010410449082324537 0 -0.00076122865776102444 0.0012917153276119926 0 -0.00080017270373058729 0.001252698024408688 0 -0.00086166318474142651 0.0014307415315049081 0 -0.0012127749655159196 0.0013692605612933622 0 -0.0011195420652242536 0.0013942213788480148 0 -0.0010399046249157501 0.0010410449082324537 0 -0.0013191752334439006 0.00011952828612299562 0 -0.00084686861986978676 0.00067414203580445453 0 -0.00069584741922504908 -0.00075571619107451052 0 -0.00059622762171693613 -0.00045646323655704836 0 -0.00090174467686132036 -0.00035851544329740161 0 -0.0011963003623262365 0.0013698710228609234 0 -0.001181041893205097 0.0015110661990482732 0 -0.0013147687030553438 0.0015730650805832985 0 -0.0013191752334439006 0.00011952828612299562 0 -0.0019098428508842848 -0.00075895387299946431 0 -0.0013191752334439006 0.00011952828612299562 0 -0.0010591138109718921 0.00057371121140357506 0 -0.0011195420652242536 0.0013942213788480148 0 -0.0010100929984034671 0.0015628753977421392 0 -0.001181041893205097 0.0015110661990482732 0 -0.0011963003623262365 0.0013698710228609234 0 -0.0011195420652242536 0.0013942213788480148 0 -0.001181041893205097 0.0015110661990482732 0 -0.0011195420652242536 0.0013942213788480148 0 -0.00086166318474142651 0.0014307415315049081 0 -0.0010100929984034671 0.0015628753977421392 0 -0.00084190588816389399 0.0015794552111219162 0 -0.0010100929984034671 0.0015628753977421392 0 -0.00095001055098539288 0.0017855998478810574 0 -0.00084190588816389399 0.0015794552111219162 0 -0.00086166318474142651 0.0014307415315049081 0 -0.0010100929984034671 0.0015628753977421392 0 -0.0010100929984034671 0.0015628753977421392 0 -0.001129309603481814 0.0016856519499680873 0 -0.00095001055098539288 0.0017855998478810574 0 -0.0010100929984034671 0.0015628753977421392 0 -0.001181041893205097 0.0015110661990482732 0 -0.001129309603481814 0.0016856519499680873 0 -0.001181041893205097 0.0015110661990482732 0 -0.001129309603481814 0.0016856519499680873 0 -0.0013147687030553438 0.0015730650805832985 0 -0.0033719590179677383 -0.0021915501599194293 0 -0.0025573912280641548 -0.0026104188118570358 0 -0.0023866525421117647 -0.0016260047713190535 0 -0.0026102062906140345 -0.00039985730889209966 0 -0.0019098428508842848 -0.00075895387299946431 0 -0.0022424371741004826 0.0045777167790690713 0 -0.0029509269082178004 0.0031072343996853577 0 -0.0033719590179677383 -0.0021915501599194293 0 -0.0043160277924293644 -0.0026801374786175436 0 -0.0028167786186747931 -0.0034283345239140826 0 -0.0033719590179677383 -0.0021915501599194293 0 -0.0025573912280641548 -0.0026104188118570358 0 -0.0028167786186747931 -0.0034283345239140826 0 -0.0026102062906140345 -0.00039985730889209966 0 -0.0022424371741004826 0.0045777167790690713 0 -0.0008428275407170087 -0.0027598110775308962 0 -0.00093443358254021466 -0.0041171668350010546 0 -0.00072209164908092183 -0.002685544778149643 0 -0.0010144631822147873 -0.0032391970872789138 0 -0.00075272107193784254 -0.0040066675150586817 0 -0.0011746341045111085 -0.0029165518607138191 0 -0.0014084439077010403 -0.0026294588559805003 0 -0.0011206281397775565 -0.0026609164615158084 0 -0.0014084439077010403 -0.0026294588559805003 0 -0.0011206281397775565 -0.0026609164615158084 0 -0.0010926395498913179 -0.002397435332208498 0 -0.0011206281397775565 -0.0026609164615158084 0 -0.00072209164908092183 -0.002685544778149643 0 -0.0010926395498913179 -0.002397435332208498 0 -0.0011746341045111085 -0.0029165518607138191 0 -0.0011206281397775565 -0.0026609164615158084 0 -0.00072209164908092183 -0.002685544778149643 0 -0.0011746341045111085 -0.0029165518607138191 0 -0.00072209164908092183 -0.002685544778149643 0 -0.0010144631822147873 -0.0032391970872789138 0 -0.0011746341045111085 -0.0029165518607138191 0 -0.0014084439077010403 -0.0026294588559805003 0 -0.0016318657346078601 -0.0031836240612260892 0 -0.0010144631822147873 -0.0032391970872789138 0 -0.0016318657346078601 -0.0031836240612260892 0 -0.0010632828499763409 -0.0038401139426150642 0 -0.0011746341045111085 -0.0029165518607138191 0 -0.0010144631822147873 -0.0032391970872789138 0 -0.0016318657346078601 -0.0031836240612260892 0 -0.0016896670882425536 -0.0034152940990210818 0 -0.0019098428508842848 -0.00075895387299946431 0 -0.0016318657346078601 -0.0031836240612260892 0 -0.0025573912280641548 -0.0026104188118570358 0 -0.0023866525421117647 -0.0016260047713190535 0 -0.0016318657346078601 -0.0031836240612260892 0 -0.0025573912280641548 -0.0026104188118570358 0 -0.0028167786186747931 -0.0034283345239140826 0 -0.0014084439077010403 -0.0026294588559805003 0 -0.0016318657346078601 -0.0031836240612260892 0 -0.0023077378217298676 -0.0018833582901675303 0 -0.0014084439077010403 -0.0026294588559805003 0 -0.0023077378217298676 -0.0018833582901675303 0 -0.0014679884722060548 -0.0021139908793916203 0 -0.0019098428508842848 -0.00075895387299946431 0 -0.0012785475584142913 -0.001491324570228416 0 -0.0014679884722060548 -0.0021139908793916203 0 -0.0010817485099822431 -0.0018851564428895994 0 -0.0010280742489564502 -0.0011868359252135566 0 -0.0023077378217298676 -0.0018833582901675303 0 -0.0014679884722060548 -0.0021139908793916203 0 -0.0010280742489564502 -0.0011868359252135566 0 -0.0008428275407170087 -0.0027598110775308962 0 -0.00085236201971025021 -0.0014433502742490002 0 -0.00072209164908092183 -0.002685544778149643 0 -0.0008264475031286233 -0.0015082890493102906 0 -0.0010817485099822431 -0.0018851564428895994 0 -0.0014084439077010403 -0.0026294588559805003 0 -0.0014679884722060548 -0.0021139908793916203 0 -0.0010926395498913179 -0.002397435332208498 0 -0.0014679884722060548 -0.0021139908793916203 0 -0.0010926395498913179 -0.002397435332208498 0 -0.0010817485099822431 -0.0018851564428895994 0 -0.00072209164908092183 -0.002685544778149643 0 -0.0010926395498913179 -0.002397435332208498 0 -0.0010817485099822431 -0.0018851564428895994 0 -0.0008264475031286233 -0.0015082890493102906 0 -0.0010817485099822431 -0.0018851564428895994 0 -0.0010280742489564502 -0.0011868359252135566 0 -0.00085236201971025021 -0.0014433502742490002 0 -0.00049716039923724056 -0.00070542544018631814 0 -0.0010280742489564502 -0.0011868359252135566 0 -0.0016690083866315588 -0.00074234228383936564 0 -0.00091135294946203106 -0.00052919229687943591 0 -0.0008264475031286233 -0.0015082890493102906 0 -0.0010280742489564502 -0.0011868359252135566 0 -0.00091135294946203106 -0.00052919229687943591 0 -0.0023863346501625973 -0.00091047463076435772 0 -0.0019853415400648755 -0.0016927373712938771 0 -0.0016690083866315588 -0.00074234228383936564 0 -0.0019853415400648755 -0.0016927373712938771 0 -0.0010280742489564502 -0.0011868359252135566 0 -0.0016690083866315588 -0.00074234228383936564 0 -0.0013191752334439006 0.00011952828612299562 0 -0.0011013947558592551 -0.00071710996520713618 0 -0.00069584741922504908 -0.00075571619107451052 0 -0.00040305200103523249 -0.00069322958432581252 0 -0.00059622762171693613 -0.00045646323655704836 0 -0.00040305200103523249 -0.00069322958432581252 0 -0.00033931149880632092 -0.00043536055865570642 0 -0.00059622762171693613 -0.00045646323655704836 0 -0.00040305200103523249 -0.00069322958432581252 0 -0.00033931149880632092 -0.00043536055865570642 0 -0.00011179109583451806 -0.0006268871955193736 0 -0.0011013947558592551 -0.00071710996520713618 0 -0.00049716039923724056 -0.00070542544018631814 0 -0.00049716039923724056 -0.00070542544018631814 0 -7.4434273232691815e-05 -0.00023384276810169575 0 -0.00033931149880632092 -0.00043536055865570642 0 -0.00011179109583451806 -0.0006268871955193736 0 -0.00012900940827518658 -0.00021293423066526726 0 -6.1579758727742459e-05 -0.000680696021227243 0 8.9369192941486739e-05 -0.00047504960423031467 0 -9.9053990159868609e-05 -0.00028873098700220361 0 -0.00049716039923724056 -0.00070542544018631814 0 9.212736857809828e-05 -0.00064986082869228985 0 -6.1579758727742459e-05 -0.000680696021227243 0 8.9369192941486739e-05 -0.00047504960423031467 0 0.00030294111622454029 -0.00058690789884568236 0 9.212736857809828e-05 -0.00064986082869228985 0 0.00055758683681126947 -0.00055137775159352887 0 8.9369192941486739e-05 -0.00047504960423031467 0 0.00030294111622454029 -0.00058690789884568236 0 0.00042800170305161975 -0.0003490395809473165 0 0.00030294111622454029 -0.00058690789884568236 0 0.0005940403603899735 -0.00055124641946873365 0 0.00042800170305161975 -0.0003490395809473165 0 -0.00013423874727056591 -0.00069572452594748315 0 -0.00023441072888416469 -0.0013023654113978726 0 0.00058372094778474199 -0.0011712525248471651 0 -0.00085326724864805321 -0.0014983000415760075 0 -0.00089216063363850627 -0.00086711761791132599 0 -0.00023441072888416469 -0.0013023654113978726 0 -0.00089216063363850627 -0.00086711761791132599 0 -0.00013423874727056591 -0.00069572452594748315 0 -0.00023441072888416469 -0.0013023654113978726 0 1.4544085894522406e-05 -0.0025904023616164906 0 -0.00012811847426111425 -0.0027546924771384689 0 -0.00072386979872175316 -0.0045331212476656469 0 -0.00078542497366032116 -0.0043188192342558203 0 -0.00093974903773166255 -0.0045646276447883849 0 0.00094341948679225974 -0.0005211630349994499 0 0.0005940403603899735 -0.00055124641946873365 0 0.00058372094778474199 -0.0011712525248471651 0 -0.00013423874727056591 -0.00069572452594748315 0 0.0005940403603899735 -0.00055124641946873365 0 0.00058372094778474199 -0.0011712525248471651 0 -0.00072386979872175316 -0.0045331212476656469 0 -0.00093974903773166255 -0.0045646276447883849 0 -0.00086644591044563346 -0.0047009878921962685 0 -0.0010570521167583649 -0.0048854954741967098 0 -0.00068829291181596124 -0.0037428952519952649 0 -0.00012811847426111425 -0.0027546924771384689 0 -0.00068829291181596124 -0.0037428952519952649 0 -0.00093974903773166255 -0.0045646276447883849 0 -0.00086644591044563346 -0.0047009878921962685 0 -0.0010610986302168831 -0.0047176199276252832 0 -0.0010255260797587442 -0.0047485463407277518 0 -0.0011544261940270696 -0.0048223499759020762 0 -0.0011387068708114333 -0.0049427823026116724 0 -0.0010255260797587442 -0.0047485463407277518 0 -0.0011582148908429477 -0.0047879420344645093 0 -0.0011544261940270696 -0.0048223499759020762 0 -0.0008236810192557135 -0.0050430827160475433 0 -0.0010255260797587442 -0.0047485463407277518 0 -0.0011387068708114333 -0.0049427823026116724 0 -0.00080923260981672935 -0.0021421400412243359 0 -0.00085326724864805321 -0.0014983000415760075 0 -3.5538845826838478e-05 -0.0019589494645474007 0 -0.00085326724864805321 -0.0014983000415760075 0 -0.00023441072888416469 -0.0013023654113978726 0 -3.5538845826838478e-05 -0.0019589494645474007 0 -0.00023441072888416469 -0.0013023654113978726 0 0.00058372094778474199 -0.0011712525248471651 0 -3.5538845826838478e-05 -0.0019589494645474007 0 -0.00068829291181596124 -0.0037428952519952649 0 -0.00099831845145497821 -0.004271204152181427 0 -0.0011582148908429477 -0.0047879420344645093 0 -0.0011316792747465244 -0.0047665621903107535 0 -0.0010539134438751119 -0.0047481015053666073 0 -0.0011582148908429477 -0.0047879420344645093 0 -0.0011544261940270696 -0.0048223499759020762 0 -0.0011316792747465244 -0.0047665621903107535 0 -0.0011316792747465244 -0.0047665621903107535 0 -0.0010539134438751119 -0.0047481015053666073 0 -0.0011232851732946301 -0.0046551220325107079 0 -0.0011544261940270696 -0.0048223499759020762 0 -0.0011316792747465244 -0.0047665621903107535 0 -0.0011232851732946301 -0.0046551220325107079 0 -0.00097665910973834271 -0.0036034097271851594 0 -0.00067986195281084414 -0.003538546036070388 0 -0.00081808430376542184 -0.0037017290300114612 0 -0.00097665910973834271 -0.0036034097271851594 0 -0.00081808430376542184 -0.0037017290300114612 0 -0.00095704446798751993 -0.0038681497103465919 0 -0.0008428275407170087 -0.0027598110775308962 0 -0.00068829291181596124 -0.0037428952519952649 0 -0.00099831845145497821 -0.004271204152181427 0 -0.00093443358254021466 -0.0041171668350010546 0 -0.00099790726962359182 -0.0042582412306453521 0 -0.00092309798705774251 -0.0043461664925253263 0 -0.0012014326551633202 -0.0041820248654950301 0 -0.0010539134438751119 -0.0047481015053666073 0 -0.00093491262022296737 -0.0044019780107428562 0 -0.0010165545206668753 -0.0044670898325117067 0 -0.0010165545206668753 -0.0044670898325117067 0 -0.0011232851732946301 -0.0046551220325107079 0 -0.00092309798705774251 -0.0043461664925253263 0 -0.0014597128496746778 -0.0065433197929805056 0 -0.0019405905643746747 0.0013617530589790769 0 -0.00099790726962359182 -0.0042582412306453521 0 -0.0010165545206668753 -0.0044670898325117067 0 -0.00092309798705774251 -0.0043461664925253263 0 -0.00093491262022296737 -0.0044019780107428562 0 -0.00099790726962359182 -0.0042582412306453521 0 -0.0010165545206668753 -0.0044670898325117067 0 -0.00093443358254021466 -0.0041171668350010546 0 -0.00093752571653582843 -0.0041849374068291039 0 -0.0010539134438751119 -0.0047481015053666073 0 -0.0010165545206668753 -0.0044670898325117067 0 -0.0011232851732946301 -0.0046551220325107079 0 -0.0011544261940270696 -0.0048223499759020762 0 -0.0011232851732946301 -0.0046551220325107079 0 -0.0011182381741737051 -0.0047568386262385005 0 -0.0011232851732946301 -0.0046551220325107079 0 -0.0011182381741737051 -0.0047568386262385005 0 -0.0010955930266060745 -0.0047044826687117286 0 -0.0011182381741737051 -0.0047568386262385005 0 -0.0010955930266060745 -0.0047044826687117286 0 -0.0011739278377305077 -0.0046326578584764255 0 -0.0019405905643746747 0.0013617530589790769 0 -0.0011206490153807449 -0.0027003866084676091 0 -0.0039115471962109767 0.010246495123219431 0 -0.0038063271726394891 0.010799250676480365 0 -0.0035120909371253711 0.010499513668140602 0 -0.0019405905643746747 0.0013617530589790769 0 -0.0024349513452052458 0.0031733284345285854 0 -0.0008236810192557135 -0.0050430827160475433 0 -0.0011387068708114333 -0.0049427823026116724 0 -0.00093712327416459336 -0.0053113844608785868 0 -0.0011544261940270696 -0.0048223499759020762 0 -0.0011182381741737051 -0.0047568386262385005 0 -0.0011387068708114333 -0.0049427823026116724 0 -0.0011182381741737051 -0.0047568386262385005 0 -0.0011387068708114333 -0.0049427823026116724 0 -0.0011739278377305077 -0.0046326578584764255 0 -0.0012351070158814949 -0.0059622131072358349 0 -0.0011206490153807449 -0.0027003866084676091 0 -0.0011387068708114333 -0.0049427823026116724 0 -0.00093712327416459336 -0.0053113844608785868 0 -0.0012474369077026079 -0.0055164701010929655 0 -0.00093712327416459336 -0.0053113844608785868 0 -0.0009534381212404474 -0.0056259173968273204 0 -0.0012474369077026079 -0.0055164701010929655 0 -0.0014667925234252508 -0.0027972330358208312 0 -0.00044464288788893423 -0.0032283230078071139 0 -0.00020846632748943055 -0.0017673483730830911 0 -0.0014921872302899319 0.0018697733500514918 0 -0.001429180423319159 0.0022376017184666617 0 -0.0012610931392159394 0.0020279003342363743 0 -0.0011206490153807449 -0.0027003866084676091 0 -0.0006808231635442272 -0.00035461435165973795 0 -0.00048464759146982179 -0.0049489461366800085 0 -0.0011206490153807449 -0.0027003866084676091 0 -0.00048464759146982179 -0.0049489461366800085 0 -0.0006808231635442272 -0.00035461435165973795 0 0.00083881898812210364 -0.004915461731306317 0 0.00078624573180015626 -0.0049288124845205906 0 0.00085105768729295368 -0.0049733419363419901 0 0.00090729112380838982 -0.0049764737882095032 0 0.00083881898812210364 -0.004915461731306317 0 0.00085105768729295368 -0.0049733419363419901 0 -0.0019405905643746747 0.0013617530589790769 0 -0.0023256072648707975 0.0073406738513773885 0 -0.0011260987343273824 0.0017397002004906602 0 -0.0010528218488739167 0.0020718925258725773 0 -0.0012610931392159394 0.0020279003342363743 0 -0.0011260987343273824 0.0017397002004906602 0 -0.0014921872302899319 0.0018697733500514918 0 -0.0012610931392159394 0.0020279003342363743 0 -0.0010528218488739167 0.0020718925258725773 0 -0.0012610931392159394 0.0020279003342363743 0 -0.0012065917208762575 0.0022143753385736216 0 -0.001188153921425396 0.002430260277076999 0 -0.001429180423319159 0.0022376017184666617 0 -0.0012065917208762575 0.0022143753385736216 0 -0.0011731422683572352 0.0025025730556120208 0 -0.0006808231635442272 -0.00035461435165973795 0 -0.001429180423319159 0.0022376017184666617 0 -0.0012610931392159394 0.0020279003342363743 0 -0.0012065917208762575 0.0022143753385736216 0 -0.00099968227317743922 0.0023730862820260804 0 -0.0010528218488739167 0.0020718925258725773 0 -0.0012065917208762575 0.0022143753385736216 0 -0.00099968227317743922 0.0023730862820260804 0 -0.001188153921425396 0.002430260277076999 0 -0.0012065917208762575 0.0022143753385736216 0 -0.0023823195489063786 0.0065247774602781505 0 -0.0023256072648707975 0.0073406738513773885 0 -0.0036798290654786233 0.011311772270000945 0 -0.0033197454964475704 0.011363460153431279 0 -0.0033073956903199638 0.010968461797909591 0 -0.0036798290654786233 0.011311772270000945 0 -0.0038063271726394891 0.010799250676480365 0 -0.0033073956903199638 0.010968461797909591 0 -0.0033073956903199638 0.010968461797909591 0 -0.0035120909371253711 0.010499513668140602 0 -0.0030845299522276161 0.010452579892199132 0 -0.0038063271726394891 0.010799250676480365 0 -0.0033073956903199638 0.010968461797909591 0 -0.0035120909371253711 0.010499513668140602 0 -0.0033073956903199638 0.010968461797909591 0 -0.002816545137168345 0.010857593800339625 0 -0.0030845299522276161 0.010452579892199132 0 -0.0033197454964475704 0.011363460153431279 0 -0.0033073956903199638 0.010968461797909591 0 -0.002938254904132197 0.011266247225182779 0 -0.0033073956903199638 0.010968461797909591 0 -0.002938254904132197 0.011266247225182779 0 -0.002816545137168345 0.010857593800339625 0 -0.002599110847598343 0.011596533150461942 0 -0.002938254904132197 0.011266247225182779 0 -0.0025346363394153182 0.011248996101960481 0 -0.002938254904132197 0.011266247225182779 0 -0.0025346363394153182 0.011248996101960481 0 -0.002816545137168345 0.010857593800339625 0 -0.0022928536333132916 0.011712759966914583 0 -0.0022051793296574704 0.011283859148772597 0 -0.0025346363394153182 0.011248996101960481 0 -0.0022051793296574704 0.011283859148772597 0 -0.0025346363394153182 0.011248996101960481 0 -0.0024211334687839212 0.010870184285614903 0 -0.0022051793296574704 0.011283859148772597 0 -0.0020663377740836688 0.010879843385549143 0 -0.0024211334687839212 0.010870184285614903 0 -0.0020663377740836688 0.010879843385549143 0 -0.0024211334687839212 0.010870184285614903 0 -0.0021694180828208884 0.010539249547989439 0 -0.0025346363394153182 0.011248996101960481 0 -0.0024211334687839212 0.010870184285614903 0 -0.002816545137168345 0.010857593800339625 0 -0.0024211334687839212 0.010870184285614903 0 -0.002816545137168345 0.010857593800339625 0 -0.0026125141769078476 0.010455491091158958 0 -0.0026125141769078476 0.010455491091158958 0 -0.0028403665142629343 0.0098883987470545567 0 -0.0030845299522276161 0.010452579892199132 0 -0.002816545137168345 0.010857593800339625 0 -0.0026125141769078476 0.010455491091158958 0 -0.0030845299522276161 0.010452579892199132 0 -0.0024211334687839212 0.010870184285614903 0 -0.0026125141769078476 0.010455491091158958 0 -0.0021694180828208884 0.010539249547989439 0 -0.0026125141769078476 0.010455491091158958 0 -0.0021694180828208884 0.010539249547989439 0 -0.0022775935340469703 0.010148554671836245 0 -0.0018940422888268529 0.010022392672577804 0 -0.0023000589494269331 0.0096981354123731479 0 -0.0022775935340469703 0.010148554671836245 0 -0.0023000589494269331 0.0096981354123731479 0 -0.0022775935340469703 0.010148554671836245 0 -0.0028403665142629343 0.0098883987470545567 0 -0.0026125141769078476 0.010455491091158958 0 -0.0022775935340469703 0.010148554671836245 0 -0.0028403665142629343 0.0098883987470545567 0 -0.0029509269082178004 0.0031072343996853577 0 -0.0024349513452052458 0.0031733284345285854 0 -0.0016318657346078601 -0.0031836240612260892 0 -0.0028167786186747931 -0.0034283345239140826 0 -0.0012014326551633202 -0.0041820248654950301 0 -0.0028403665142629343 0.0098883987470545567 0 -0.0033674688337786366 0.010072275538882179 0 -0.0030845299522276161 0.010452579892199132 0 -0.0016318657346078601 -0.0031836240612260892 0 -0.0010632828499763409 -0.0038401139426150642 0 -0.0012014326551633202 -0.0041820248654950301 0 -0.0010144631822147873 -0.0032391970872789138 0 -0.00075272107193784254 -0.0040066675150586817 0 -0.0010632828499763409 -0.0038401139426150642 0 -0.00099790726962359182 -0.0042582412306453521 0 -0.0010313712658027139 -0.0042161632692122985 0 -0.0012014326551633202 -0.0041820248654950301 0 -0.0010632828499763409 -0.0038401139426150642 0 -0.0010313712658027139 -0.0042161632692122985 0 -0.0012014326551633202 -0.0041820248654950301 0 -0.00075272107193784254 -0.0040066675150586817 0 -0.0010632828499763409 -0.0038401139426150642 0 -0.0010313712658027139 -0.0042161632692122985 0 -0.00093443358254021466 -0.0041171668350010546 0 -0.00094905425829021122 -0.0041353626783312203 0 -0.00099867216901044641 -0.0041904019374979055 0 -0.00099790726962359182 -0.0042582412306453521 0 -0.0010313712658027139 -0.0042161632692122985 0 -0.0033674688337786366 0.010072275538882179 0 -0.0035120909371253711 0.010499513668140602 0 -0.0030845299522276161 0.010452579892199132 0 -0.0039115471962109767 0.010246495123219431 0 -0.0033674688337786366 0.010072275538882179 0 -0.0035120909371253711 0.010499513668140602 0 1.8201765820076196e-07 0.035000033402697195 0 -6.1295591684687139e-08 0.034999979312119629 0 4.8955564732313842e-06 0.034999509027932495 0 1.5203031518757595e-05 0.034997880985418339 0 1.8201765820076196e-07 0.035000033402697195 0 4.8955564732313842e-06 0.034999509027932495 0 3.2974191264935422e-05 0.03499257478954735 0 1.5203031518757595e-05 0.034997880985418339 0 1.8201765820076196e-07 0.035000033402697195 0 0.00012782492929809821 0.033098580799341311 0 5.5992837120419047e-05 0.034287984676355326 0 0.00050392613860573065 0.032243713419218126 0 0.00032773899515736938 0.033094439600513781 0 0.0010200838424740009 0.033367652892441972 0 3.5729256762760653e-05 0.034990298511483553 0 3.2974191264935422e-05 0.03499257478954735 0 1.5203031518757595e-05 0.034997880985418339 0 0.00050392613860573065 0.032243713419218126 0 0.00032773899515736938 0.033094439600513781 0 9.5139917925917322e-05 0.033412044062804278 0 0.00012782492929809821 0.033098580799341311 0 0.00083162746465274525 0.028940027559165811 0 0.00012782492929809821 0.033098580799341311 0 -6.2956486196776943e-07 0.033335685387010094 0 0.00043142544891398339 0.033503938643134737 0 9.5139917925917322e-05 0.033412044062804278 0 0.00032786868842916495 0.034018500645218303 0 0.00043142544891398339 0.033503938643134737 0 0.00032773899515736938 0.033094439600513781 0 9.5139917925917322e-05 0.033412044062804278 0 0.0011677360497940568 0.032894776100708227 0 0.00010936989626063087 0.029455174041538822 0 0.00043142544891398339 0.033503938643134737 0 0.00032773899515736938 0.033094439600513781 0 0.00087704792522572757 0.033394362195040238 0 0.00043142544891398339 0.033503938643134737 0 0.00087704792522572757 0.033394362195040238 0 0.00032786868842916495 0.034018500645218303 0 0.00010936989626063087 0.029455174041538822 0 -0.00062822577449287028 0.025375953704326028 0 0.00024610270517316682 0.025509002916187535 0 0.00011743360072886464 0.025543972033212695 0 0.00010154199934654201 0.025408909149742379 0 0.00011743360072886464 0.025543972033212695 0 0.00021907931132033733 0.025646357437336793 0 5.7174423381217575e-05 0.025634946076631415 0 0.00024610270517316682 0.025509002916187535 0 0.00011743360072886464 0.025543972033212695 0 0.00021907931132033733 0.025646357437336793 0 0.00010936989626063087 0.029455174041538822 0 0.00083162746465274525 0.028940027559165811 0 0.00050392613860573065 0.032243713419218126 0 0.0010200838424740009 0.033367652892441972 0 0.0012534281457059295 0.032065492733032039 0 0.00046470929109669736 0.031298865173430813 0 0.0005013298687239115 0.03109731005667675 0 0.00041028057484809882 0.031121673707712801 0 0.00032359942011896695 0.031338874429810731 0 0.00046470929109669736 0.031298865173430813 0 0.00041028057484809882 0.031121673707712801 0 0.00083162746465274525 0.028940027559165811 0 0.00059986184840259648 0.029224009177398664 0 0.0007804163660187068 0.026906361210108497 0 0.00073630199266616961 0.027183852014446227 0 0.00036853228010793563 0.026978538448834941 0 0.00083162746465274525 0.028940027559165811 0 0.00022282594921961053 0.025931781212171216 0 0.00048646241047006598 0.027292067507996627 0 0.00073630199266616961 0.027183852014446227 0 0.00076672529979694465 0.027479182880505812 0 0.00048646241047006598 0.027292067507996627 0 0.00073630199266616961 0.027183852014446227 0 0.00036853228010793563 0.026978538448834941 0 0.00027998252690295618 0.032974139114601834 0 0.0002778039354086703 0.03315240478046081 0 0.0005013298687239115 0.03109731005667675 0 0.00041028057484809882 0.031121673707712801 0 0.00049855212796504934 0.030917361978690789 0 0.00059986184840259648 0.029224009177398664 0 0.00070525028793063879 0.028959653541419876 0 9.5047442741974931e-05 0.034947039762428314 0 1.8201765820076196e-07 0.035000033402697195 0 -6.3789550666886041e-05 0.034663762067283437 0 3.2974191264935422e-05 0.03499257478954735 0 9.5047442741974931e-05 0.034947039762428314 0 1.8201765820076196e-07 0.035000033402697195 0 4.5185708621695111e-05 0.03498979202522385 0 3.2974191264935422e-05 0.03499257478954735 0 9.5047442741974931e-05 0.034947039762428314 0 0.00012782492929809821 0.033098580799341311 0 0.00027998252690295618 0.032974139114601834 0 1.8201765820076196e-07 0.035000033402697195 0 -6.3789550666886041e-05 0.034663762067283437 0 -1.3195694519907959e-06 0.034996810565819478 0 9.5047442741974931e-05 0.034947039762428314 0 -6.3789550666886041e-05 0.034663762067283437 0 0.00022865651408471966 0.034714154890367395 0 -6.3789550666886041e-05 0.034663762067283437 0 -0.00012802379944146567 0.034256408377965751 0 0.0001016484719084464 0.034421555878534855 0 -6.3789550666886041e-05 0.034663762067283437 0 0.0001016484719084464 0.034421555878534855 0 0.00022865651408471966 0.034714154890367395 0 -1.3195694519907959e-06 0.034996810565819478 0 -0.00012802379944146567 0.034256408377965751 0 2.3639267232924686e-06 0.031169959682016864 0 -6.3789550666886041e-05 0.034663762067283437 0 -1.3195694519907959e-06 0.034996810565819478 0 -0.00012802379944146567 0.034256408377965751 0 -0.00012802379944146567 0.034256408377965751 0 2.3639267232924686e-06 0.031169959682016864 0 0.00048846341721306462 0.033092326391172898 0 2.5638219656769223e-06 0.031160434625327728 0 7.2966213583568982e-05 0.030454002408998475 0 0.0005642439401564416 0.029769418636699588 0 3.2766814923112456e-07 0.031163906389828695 0 0.00040042804575940314 0.031604097075566738 0 7.2966213583568982e-05 0.030454002408998475 0 0.00088070038719367588 0.028738201611257147 0 4.3605202678339708e-05 0.029171382501607345 0 7.2966213583568982e-05 0.030454002408998475 0 0.00044056735523291822 0.029665671397507833 0 0.0005642439401564416 0.029769418636699588 0 0.00015562535882589435 0.0303369945622823 0 0.00072123602802967449 0.029000013399596621 0 -0.00012802379944146567 0.034256408377965751 0 0.00044208578313022874 0.034100262238477723 0 0.0001016484719084464 0.034421555878534855 0 -0.00012802379944146567 0.034256408377965751 0 0.00048846341721306462 0.033092326391172898 0 0.00044208578313022874 0.034100262238477723 0 0.00072123602802967449 0.029000013399596621 0 0.00059102376796106939 0.030598235217699814 0 0.00090226331839899753 0.027977883966441443 0 0.00030385312590779751 0.027842137883116784 0 0.00040796778145844897 0.028345383702792128 0 0.00044056735523291822 0.029665671397507833 0 0.0005642439401564416 0.029769418636699588 0 0.00064866431455874968 0.029089977055848339 0 0.00040042804575940314 0.031604097075566738 0 0.00059102376796106939 0.030598235217699814 0 0.00088070038719367588 0.028738201611257147 0 0.00040796778145844897 0.028345383702792128 0 4.3605202678339708e-05 0.029171382501607345 0 0.00088070038719367588 0.028738201611257147 0 0.00090226331839899753 0.027977883966441443 0 0.00040796778145844897 0.028345383702792128 0 0.00059102376796106939 0.030598235217699814 0 0.00070525028793063879 0.028959653541419876 0 0.00054785591287574101 0.027590297913365827 0 0.00090226331839899753 0.027977883966441443 0 0.00076672529979694465 0.027479182880505812 0 0.00054785591287574101 0.027590297913365827 0 0.00090226331839899753 0.027977883966441443 0 0.00030385312590779751 0.027842137883116784 0 0.00059748481308097149 0.03070546008465656 0 0.00054503956954714261 0.030905498602287352 0 0.00049855212796504934 0.030917361978690789 0 0.00044208578313022874 0.034100262238477723 0 0.0001016484719084464 0.034421555878534855 0 0.00022865651408471966 0.034714154890367395 0 0.00059102376796106939 0.030598235217699814 0 0.0002778039354086703 0.03315240478046081 0 0.0005013298687239115 0.03109731005667675 0 0.00054503956954714261 0.030905498602287352 0 0.00049855212796504934 0.030917361978690789 0 0.00048646241047006598 0.027292067507996627 0 0.00054785591287574101 0.027590297913365827 0 0.00027435643973718234 0.027443911745205867 0 0.00048646241047006598 0.027292067507996627 0 0.00054785591287574101 0.027590297913365827 0 0.00076672529979694465 0.027479182880505812 0 0.00048646241047006598 0.027292067507996627 0 0.00027435643973718234 0.027443911745205867 0 9.3289822142711583e-05 0.027284139856891772 0 0.00027435643973718234 0.027443911745205867 0 -9.7544865877786748e-05 0.027507712223895215 0 9.3289822142711583e-05 0.027284139856891772 0 -9.7544865877786748e-05 0.027507712223895215 0 -7.4541772826485875e-05 0.027314145897355788 0 9.3289822142711583e-05 0.027284139856891772 0 0.00027435643973718234 0.027443911745205867 0 -9.7544865877786748e-05 0.027507712223895215 0 0.00030385312590779751 0.027842137883116784 0 0.00054785591287574101 0.027590297913365827 0 0.00027435643973718234 0.027443911745205867 0 0.00030385312590779751 0.027842137883116784 0 -9.7544865877786748e-05 0.027507712223895215 0 0.00030385312590779751 0.027842137883116784 0 -2.6551169439618125e-05 0.02829621808288639 0 0.00030385312590779751 0.027842137883116784 0 0.00040796778145844897 0.028345383702792128 0 -2.6551169439618125e-05 0.02829621808288639 0 0.00040796778145844897 0.028345383702792128 0 -2.6551169439618125e-05 0.02829621808288639 0 4.3605202678339708e-05 0.029171382501607345 0 -9.7544865877786748e-05 0.027507712223895215 0 -2.6551169439618125e-05 0.02829621808288639 0 -0.00017100436337048398 0.027415981344612084 0 -2.6551169439618125e-05 0.02829621808288639 0 -1.1558843779275652e-06 0.029083127185770948 0 -0.00017100436337048398 0.027415981344612084 0 -2.6551169439618125e-05 0.02829621808288639 0 -1.1558843779275652e-06 0.029083127185770948 0 4.3605202678339708e-05 0.029171382501607345 0 2.5638219656769223e-06 0.031160434625327728 0 7.2966213583568982e-05 0.030454002408998475 0 -1.1558843779275652e-06 0.029083127185770948 0 7.2966213583568982e-05 0.030454002408998475 0 -1.1558843779275652e-06 0.029083127185770948 0 4.3605202678339708e-05 0.029171382501607345 0 4.9993786876319141e-07 0.027001869172551082 0 -0.00017100436337048398 0.027415981344612084 0 0.00044379788439915033 0.025254318955438632 0 -1.1558843779275652e-06 0.029083127185770948 0 4.9993786876319141e-07 0.027001869172551082 0 -0.00017100436337048398 0.027415981344612084 0 -0.00017100436337048398 0.027415981344612084 0 -0.00014611878838931814 0.027073320879443419 0 0.00044379788439915033 0.025254318955438632 0 -0.00014611878838931814 0.027073320879443419 0 0.00026455084907322395 0.027264495660638471 0 0.00044379788439915033 0.025254318955438632 0 -9.7544865877786748e-05 0.027507712223895215 0 -0.00017100436337048398 0.027415981344612084 0 -0.00014611878838931814 0.027073320879443419 0 -9.7544865877786748e-05 0.027507712223895215 0 -0.00014611878838931814 0.027073320879443419 0 -7.4541772826485875e-05 0.027314145897355788 0 0.00076258152312448711 0.024740074857102768 0 0.00016314584754526036 0.024186734710648378 0 -0.00014611878838931814 0.027073320879443419 0 -7.4541772826485875e-05 0.027314145897355788 0 0.00026455084907322395 0.027264495660638471 0 -7.4541772826485875e-05 0.027314145897355788 0 0.00026455084907322395 0.027264495660638471 0 4.6987104570650281e-06 0.027312982255292419 0 0.0012877947015453718 0.022233602240843302 0 0.00082745141428958516 0.020999096635344411 0 0.00094275752898179523 0.020972515950287852 0 0.0005295690466360928 0.023806149566584816 0 0.00016314584754526036 0.024186734710648378 0 0.00082745141428958516 0.020999096635344411 0 0.00081219150104604014 0.020987527722469038 0 0.00065698284576348601 0.020915596368566602 0 0.00081219150104604014 0.020987527722469038 0 0.00058172310401320346 0.020817672613846299 0 0.00046382942175302597 0.020697467125139077 0 0.00081219150104604014 0.020987527722469038 0 0.00065698284576348601 0.020915596368566602 0 0.00058172310401320346 0.020817672613846299 0 0.00016314584754526036 0.024186734710648378 0 0.00015816783659698691 0.022975271006187466 0 0.00058172310401320346 0.020817672613846299 0 0.00048014184603629133 0.020731750733525414 0 0.00045925979209916848 0.020782198975528913 0 -0.00022484439009836963 0.025623923572016191 0 -9.3861496225462469e-05 0.025627191171454494 0 -0.00020794812576166547 0.025511252950544256 0 0.00016314584754526036 0.024186734710648378 0 -0.00013882620712763627 0.026732062153232025 0 -7.4541772826485875e-05 0.027314145897355788 0 4.6987104570650281e-06 0.027312982255292419 0 -6.4642582839734438e-07 0.027150435102722238 0 9.3289822142711583e-05 0.027284139856891772 0 0.00036853228010793563 0.026978538448834941 0 -6.4642582839734438e-07 0.027150435102722238 0 -7.4541772826485875e-05 0.027314145897355788 0 9.3289822142711583e-05 0.027284139856891772 0 -6.4642582839734438e-07 0.027150435102722238 0 0.00048646241047006598 0.027292067507996627 0 9.3289822142711583e-05 0.027284139856891772 0 0.00036853228010793563 0.026978538448834941 0 0.00022282594921961053 0.025931781212171216 0 -0.00013882620712763627 0.026732062153232025 0 5.7174423381217575e-05 0.025634946076631415 0 -9.3861496225462469e-05 0.025627191171454494 0 -3.9939784062816414e-05 0.025492896431859997 0 0.00011743360072886464 0.025543972033212695 0 5.7174423381217575e-05 0.025634946076631415 0 -3.9939784062816414e-05 0.025492896431859997 0 -3.9939784062816414e-05 0.025492896431859997 0 -3.5310379816665667e-05 0.025321837124098575 0 0.00010154199934654201 0.025408909149742379 0 0.00011743360072886464 0.025543972033212695 0 -3.9939784062816414e-05 0.025492896431859997 0 0.00010154199934654201 0.025408909149742379 0 -3.9939784062816414e-05 0.025492896431859997 0 -0.00019251874221363412 0.025381738428264078 0 -3.5310379816665667e-05 0.025321837124098575 0 -3.9939784062816414e-05 0.025492896431859997 0 -0.00019251874221363412 0.025381738428264078 0 -0.00020794812576166547 0.025511252950544256 0 -9.3861496225462469e-05 0.025627191171454494 0 -3.9939784062816414e-05 0.025492896431859997 0 -0.00020794812576166547 0.025511252950544256 0 0.00023364776280237679 0.020986866267272867 0 0.00039765712641542434 0.020776460862635415 0 0.00036435820686270189 0.021168510048380929 0 8.5551596871393315e-05 0.023098833741648176 0 0.00015816783659698691 0.022975271006187466 0 0.00023364776280237679 0.020986866267272867 0 0.00039765712641542434 0.020776460862635415 0 0.00046382942175302597 0.020697467125139077 0 0.00039765712641542434 0.020776460862635415 0 0.00022829999982237794 0.020718698966523109 0 0.00024595741612843427 0.020717530414491789 0 0.00029780190334219981 0.020711169750717014 0 0.00039765712641542434 0.020776460862635415 0 0.00024595741612843427 0.020717530414491789 0 0.00036348772590925503 0.020859755744260355 0 0.0003409741911328144 0.02079718020194514 0 0.00029780190334219981 0.020711169750717014 0 0.00016095486749531207 0.020693740635104901 0 0.00024595741612843427 0.020717530414491789 0 0.00029780190334219981 0.020711169750717014 0 0.00039765712641542434 0.020776460862635415 0 0.00039120797149043445 0.020705251988624537 0 0.00039765712641542434 0.020776460862635415 0 0.00048014184603629133 0.020731750733525414 0 0.00046382942175302597 0.020697467125139077 0 0.00039765712641542434 0.020776460862635415 0 0.00048014184603629133 0.020731750733525414 0 0.00039120797149043445 0.020705251988624537 0 0.00058172310401320346 0.020817672613846299 0 0.00048014184603629133 0.020731750733525414 0 0.00046382942175302597 0.020697467125139077 0 -0.00018325300309622556 0.020580040848701828 0 -0.00017310020698310389 0.020637557910616645 0 -0.00017498084135883645 0.020487365227870868 0 0.00030740433320734713 0.020732426799213884 0 0.00035377192953382238 0.02066591428666012 0 -4.9920741999871305e-05 0.020732298373019355 0 8.9874494803738266e-05 0.020644907138200268 0 -0.00012085057047161238 0.020618972226949028 0 0.00030740433320734713 0.020732426799213884 0 0.00039120797149043445 0.020705251988624537 0 0.00045925979209916848 0.020782198975528913 0 0.00048014184603629133 0.020731750733525414 0 0.00039120797149043445 0.020705251988624537 0 0.00045925979209916848 0.020782198975528913 0 0.00030740433320734713 0.020732426799213884 0 0.00039120797149043445 0.020705251988624537 0 0.00035377192953382238 0.02066591428666012 0 0.00029780190334219981 0.020711169750717014 0 0.00039120797149043445 0.020705251988624537 0 0.00035377192953382238 0.02066591428666012 0 8.9874494803738266e-05 0.020644907138200268 0 0.00016891616504029975 0.020672583541365915 0 0.00029780190334219981 0.020711169750717014 0 0.00035377192953382238 0.02066591428666012 0 0.00016095486749531207 0.020693740635104901 0 -0.00017310020698310389 0.020637557910616645 0 -8.7654586103369151e-05 0.020642789146865823 0 0.00016095486749531207 0.020693740635104901 0 -0.00017310020698310389 0.020637557910616645 0 -0.00015123084073890959 0.020623680312789702 0 -8.7654586103369151e-05 0.020642789146865823 0 -0.00018325300309622556 0.020580040848701828 0 -0.00017310020698310389 0.020637557910616645 0 -0.00015123084073890959 0.020623680312789702 0 -0.00018325300309622556 0.020580040848701828 0 -0.0002008584435851478 0.020577358657964503 0 -0.00019339248036690144 0.020506708587028657 0 -0.0002008584435851478 0.020577358657964503 0 -0.00018837048397794245 0.020477536247148428 0 -8.1092193266194242e-05 0.020613017471551191 0 -0.0002008584435851478 0.020577358657964503 0 -0.00018837048397794245 0.020477536247148428 0 -0.00019339248036690144 0.020506708587028657 0 -0.00018837048397794245 0.020477536247148428 0 -0.00019339248036690144 0.020506708587028657 0 -0.00023545872430181394 0.02045389304371328 0 -0.00019339248036690144 0.020506708587028657 0 -0.00017498084135883645 0.020487365227870868 0 -0.00023545872430181394 0.02045389304371328 0 -0.00018325300309622556 0.020580040848701828 0 -0.00019339248036690144 0.020506708587028657 0 -0.00017498084135883645 0.020487365227870868 0 -0.00017498084135883645 0.020487365227870868 0 -0.00023545872430181394 0.02045389304371328 0 -0.00031694194375027731 0.020622677538307571 0 -0.00012085057047161238 0.020618972226949028 0 -0.00030718095076749506 0.020639211699914988 0 -4.9920741999871305e-05 0.020732298373019355 0 0.00016127572637516244 0.021057915013598195 0 -0.00018738944223658049 0.021129635225331591 0 -4.9920741999871305e-05 0.020732298373019355 0 -0.00031694194375027731 0.020622677538307571 0 -0.00018738944223658049 0.021129635225331591 0 -4.9920741999871305e-05 0.020732298373019355 0 0.00016127572637516244 0.021057915013598195 0 0.00023525834885211637 0.020828764937170303 0 0.00030740433320734713 0.020732426799213884 0 -4.9920741999871305e-05 0.020732298373019355 0 0.00023525834885211637 0.020828764937170303 0 0.00016127572637516244 0.021057915013598195 0 0.00023525834885211637 0.020828764937170303 0 0.00050056364741188721 0.020939616665398696 0 0.00065698284576348601 0.020915596368566602 0 0.00058172310401320346 0.020817672613846299 0 0.00045925979209916848 0.020782198975528913 0 0.00030740433320734713 0.020732426799213884 0 0.00023525834885211637 0.020828764937170303 0 0.00045925979209916848 0.020782198975528913 0 0.00023525834885211637 0.020828764937170303 0 0.00045925979209916848 0.020782198975528913 0 0.00050056364741188721 0.020939616665398696 0 0.00065698284576348601 0.020915596368566602 0 0.00045925979209916848 0.020782198975528913 0 0.00050056364741188721 0.020939616665398696 0 0.00082745141428958516 0.020999096635344411 0 0.00065698284576348601 0.020915596368566602 0 0.00050056364741188721 0.020939616665398696 0 0.0012877947015453718 0.022233602240843302 0 0.00082745141428958516 0.020999096635344411 0 0.00055671261735663923 0.021352835843939207 0 0.00082745141428958516 0.020999096635344411 0 0.00050056364741188721 0.020939616665398696 0 0.00055671261735663923 0.021352835843939207 0 0.00016127572637516244 0.021057915013598195 0 0.00050056364741188721 0.020939616665398696 0 0.00055671261735663923 0.021352835843939207 0 0.0012877947015453718 0.022233602240843302 0 0.00055671261735663923 0.021352835843939207 0 6.5814383140571641e-05 0.021935200741124806 0 0.00016127572637516244 0.021057915013598195 0 0.00055671261735663923 0.021352835843939207 0 6.5814383140571641e-05 0.021935200741124806 0 0.00016127572637516244 0.021057915013598195 0 6.5814383140571641e-05 0.021935200741124806 0 -0.00018738944223658049 0.021129635225331591 0 6.5814383140571641e-05 0.021935200741124806 0 -8.6393817753036725e-05 0.023540325412902376 0 -0.00030185786965046974 0.021803958337936701 0 0.00076258152312448711 0.024740074857102768 0 0.00048503516898995206 0.025243412213611614 0 0.0012877947015453718 0.022233602240843302 0 6.5814383140571641e-05 0.021935200741124806 0 0.00044379788439915033 0.025254318955438632 0 6.5814383140571641e-05 0.021935200741124806 0 0.00044379788439915033 0.025254318955438632 0 -8.6393817753036725e-05 0.023540325412902376 0 0.00044379788439915033 0.025254318955438632 0 -8.6393817753036725e-05 0.023540325412902376 0 3.0092674925973757e-07 0.024922018060838713 0 4.9993786876319141e-07 0.027001869172551082 0 0.00044379788439915033 0.025254318955438632 0 3.0092674925973757e-07 0.024922018060838713 0 -4.7031402672847499e-07 0.022841272810890201 0 -0.0002041870527608334 0.022003625645882197 0 -3.979982432379049e-07 0.020760983200563601 0 -8.6393817753036725e-05 0.023540325412902376 0 3.0092674925973757e-07 0.024922018060838713 0 -4.7031402672847499e-07 0.022841272810890201 0 -8.6393817753036725e-05 0.023540325412902376 0 -4.7031402672847499e-07 0.022841272810890201 0 -0.0002041870527608334 0.022003625645882197 0 -8.6393817753036725e-05 0.023540325412902376 0 -0.0002041870527608334 0.022003625645882197 0 -0.00030185786965046974 0.021803958337936701 0 -0.0002041870527608334 0.022003625645882197 0 -0.00030185786965046974 0.021803958337936701 0 -0.0003255154100745904 0.020739327609717348 0 -0.00030185786965046974 0.021803958337936701 0 -0.00040707720993128822 0.020526132876272613 0 -0.0003255154100745904 0.020739327609717348 0 6.5814383140571641e-05 0.021935200741124806 0 -0.00030185786965046974 0.021803958337936701 0 -0.00018738944223658049 0.021129635225331591 0 -0.00030185786965046974 0.021803958337936701 0 -0.00018738944223658049 0.021129635225331591 0 -0.00040707720993128822 0.020526132876272613 0 -0.00031694194375027731 0.020622677538307571 0 -0.00018738944223658049 0.021129635225331591 0 -0.00040707720993128822 0.020526132876272613 0 -0.00040707720993128822 0.020526132876272613 0 -0.00031646524753359322 0.019592232745662276 0 -0.00030008650343285966 0.02005570804841721 0 -0.00040707720993128822 0.020526132876272613 0 -0.0003255154100745904 0.020739327609717348 0 -0.00031646524753359322 0.019592232745662276 0 -0.0003255154100745904 0.020739327609717348 0 -0.00017526814928336693 0.019554641117771811 0 -0.00031646524753359322 0.019592232745662276 0 -0.0002041870527608334 0.022003625645882197 0 -0.0003255154100745904 0.020739327609717348 0 -3.979982432379049e-07 0.020760983200563601 0 -0.0003255154100745904 0.020739327609717348 0 -0.00017526814928336693 0.019554641117771811 0 -3.979982432379049e-07 0.020760983200563601 0 -0.00017526814928336693 0.019554641117771811 0 -3.979982432379049e-07 0.020760983200563601 0 -2.0022281766003455e-07 0.018680506641628448 0 1.6933423321390456e-07 0.016600276049270699 0 -2.0022281766003455e-07 0.018680506641628448 0 -3.1769471081593202e-05 0.018172564456919435 0 -0.00017526814928336693 0.019554641117771811 0 -2.0022281766003455e-07 0.018680506641628448 0 -3.1769471081593202e-05 0.018172564456919435 0 0.00055597939620837726 0.017041075539902948 0 -3.1769471081593202e-05 0.018172564456919435 0 -2.3278551533935683e-07 0.018738226509332993 0 -0.00017526814928336693 0.019554641117771811 0 -3.1769471081593202e-05 0.018172564456919435 0 -0.00031646524753359322 0.019592232745662276 0 -3.1769471081593202e-05 0.018172564456919435 0 -0.00031646524753359322 0.019592232745662276 0 -2.3278551533935683e-07 0.018738226509332993 0 -0.00031646524753359322 0.019592232745662276 0 -2.3278551533935683e-07 0.018738226509332993 0 -0.0001547310728501094 0.019592880511861699 0 -2.3278551533935683e-07 0.018738226509332993 0 0.00026074812528063118 0.019802117690758823 0 -0.0001547310728501094 0.019592880511861699 0 0.00026074812528063118 0.019802117690758823 0 -1.3436194874212471e-05 0.02008984895305678 0 -0.0001547310728501094 0.019592880511861699 0 0.00026074812528063118 0.019802117690758823 0 0.00022571562475047735 0.020142382416681766 0 -1.3436194874212471e-05 0.02008984895305678 0 0.00045202638904384072 0.020111360248009965 0 0.00026074812528063118 0.019802117690758823 0 0.00022571562475047735 0.020142382416681766 0 -1.3436194874212471e-05 0.02008984895305678 0 -0.00030008650343285966 0.02005570804841721 0 -4.2848010883179016e-05 0.020350573690879507 0 -1.3436194874212471e-05 0.02008984895305678 0 -0.0001547310728501094 0.019592880511861699 0 -0.00030008650343285966 0.02005570804841721 0 -0.00031646524753359322 0.019592232745662276 0 -0.0001547310728501094 0.019592880511861699 0 -0.00030008650343285966 0.02005570804841721 0 -0.00031694194375027731 0.020622677538307571 0 -0.00040707720993128822 0.020526132876272613 0 -0.00030008650343285966 0.02005570804841721 0 -0.00023545872430181394 0.02045389304371328 0 -0.00031694194375027731 0.020622677538307571 0 -0.00025587617019643961 0.020333187252121371 0 -0.00031694194375027731 0.020622677538307571 0 -0.00030008650343285966 0.02005570804841721 0 -0.00025587617019643961 0.020333187252121371 0 -0.00030008650343285966 0.02005570804841721 0 -0.00025587617019643961 0.020333187252121371 0 -4.2848010883179016e-05 0.020350573690879507 0 -0.00025587617019643961 0.020333187252121371 0 -4.2848010883179016e-05 0.020350573690879507 0 -9.8101583662982096e-05 0.020469906653452465 0 -0.00018837048397794245 0.020477536247148428 0 -0.00023545872430181394 0.02045389304371328 0 -0.00025587617019643961 0.020333187252121371 0 -0.00018837048397794245 0.020477536247148428 0 -0.00025587617019643961 0.020333187252121371 0 -9.8101583662982096e-05 0.020469906653452465 0 -9.8101583662982096e-05 0.020469906653452465 0 7.5086358237748391e-05 0.020583103942048504 0 -8.1092193266194242e-05 0.020613017471551191 0 -0.00018837048397794245 0.020477536247148428 0 -9.8101583662982096e-05 0.020469906653452465 0 -8.1092193266194242e-05 0.020613017471551191 0 -4.2848010883179016e-05 0.020350573690879507 0 -9.8101583662982096e-05 0.020469906653452465 0 7.5086358237748391e-05 0.020583103942048504 0 -4.2848010883179016e-05 0.020350573690879507 0 0.0001987650870957089 0.020519033492565304 0 7.5086358237748391e-05 0.020583103942048504 0 0.0001987650870957089 0.020519033492565304 0 0.00031880511388807591 0.020443801575361992 0 0.0001549098591086835 0.02032098998918401 0 0.00047276124507779214 0.020520461824517115 0 0.00031880511388807591 0.020443801575361992 0 0.00038679550707149644 0.020619966324744009 0 0.0001987650870957089 0.020519033492565304 0 0.00031880511388807591 0.020443801575361992 0 0.00038679550707149644 0.020619966324744009 0 0.00052146791195289348 0.020373455834959125 0 0.00047276124507779214 0.020520461824517115 0 0.00031880511388807591 0.020443801575361992 0 0.00031880511388807591 0.020443801575361992 0 0.00036344583172924445 0.020282005429410006 0 0.0001549098591086835 0.02032098998918401 0 0.00052146791195289348 0.020373455834959125 0 0.00031880511388807591 0.020443801575361992 0 0.00036344583172924445 0.020282005429410006 0 0.00045202638904384072 0.020111360248009965 0 0.00022571562475047735 0.020142382416681766 0 0.00036344583172924445 0.020282005429410006 0 0.00045202638904384072 0.020111360248009965 0 0.00055237476057114882 0.020254705359377435 0 0.00036344583172924445 0.020282005429410006 0 0.00022571562475047735 0.020142382416681766 0 0.00036344583172924445 0.020282005429410006 0 0.0001549098591086835 0.02032098998918401 0 -4.2848010883179016e-05 0.020350573690879507 0 0.0001987650870957089 0.020519033492565304 0 0.0001549098591086835 0.02032098998918401 0 0.00022571562475047735 0.020142382416681766 0 -1.3436194874212471e-05 0.02008984895305678 0 0.0001549098591086835 0.02032098998918401 0 -1.3436194874212471e-05 0.02008984895305678 0 -4.2848010883179016e-05 0.020350573690879507 0 0.0001549098591086835 0.02032098998918401 0 0.00041116842319653636 0.020853424728952939 0 0.00044399641847221478 0.0207603545997514 0 0.00029156697297528486 0.02071389645964819 0 0.00029269328968437394 0.020842317878681915 0 0.00041116842319653636 0.020853424728952939 0 0.00036800174302614768 0.020947613107364038 0 0.00029269328968437394 0.020842317878681915 0 0.00041116842319653636 0.020853424728952939 0 0.00029156697297528486 0.02071389645964819 0 0.00041116842319653636 0.020853424728952939 0 0.00044399641847221478 0.0207603545997514 0 0.00054992607180734464 0.020915241258113847 0 0.00030637606483773763 0.016376956846430243 0 0.00032764819472460151 0.015902556335155155 0 0.00055148516356605458 0.020670315277778895 0 0.00044399641847221478 0.0207603545997514 0 0.00054992607180734464 0.020915241258113847 0 0.00044399641847221478 0.0207603545997514 0 0.00038679550707149644 0.020619966324744009 0 0.00029156697297528486 0.02071389645964819 0 0.00055148516356605458 0.020670315277778895 0 0.00047276124507779214 0.020520461824517115 0 0.00038679550707149644 0.020619966324744009 0 0.00055148516356605458 0.020670315277778895 0 0.00044399641847221478 0.0207603545997514 0 0.00038679550707149644 0.020619966324744009 0 0.0001987650870957089 0.020519033492565304 0 0.00038679550707149644 0.020619966324744009 0 0.00029156697297528486 0.02071389645964819 0 0.0001987650870957089 0.020519033492565304 0 0.00029156697297528486 0.02071389645964819 0 7.5086358237748391e-05 0.020583103942048504 0 7.5086358237748391e-05 0.020583103942048504 0 -8.1092193266194242e-05 0.020613017471551191 0 0.00014024129943423537 0.020768184876267165 0 0.00029156697297528486 0.02071389645964819 0 7.5086358237748391e-05 0.020583103942048504 0 0.00014024129943423537 0.020768184876267165 0 -1.1406566732532364e-05 0.020846725835758282 0 0.00014024129943423537 0.020768184876267165 0 0.0001287471346628956 0.020956391443245789 0 -8.1092193266194242e-05 0.020613017471551191 0 -1.1406566732532364e-05 0.020846725835758282 0 0.00014024129943423537 0.020768184876267165 0 0.00014024129943423537 0.020768184876267165 0 0.00024232029723407042 0.020937426047635679 0 0.0001287471346628956 0.020956391443245789 0 0.00029269328968437394 0.020842317878681915 0 0.00029156697297528486 0.02071389645964819 0 0.00014024129943423537 0.020768184876267165 0 0.00029269328968437394 0.020842317878681915 0 0.00014024129943423537 0.020768184876267165 0 0.00024232029723407042 0.020937426047635679 0 0.00029269328968437394 0.020842317878681915 0 0.00024232029723407042 0.020937426047635679 0 0.00036800174302614768 0.020947613107364038 0 0.00024232029723407042 0.020937426047635679 0 0.00022920629474593586 0.021077189996373629 0 0.0001287471346628956 0.020956391443245789 0 0.00024232029723407042 0.020937426047635679 0 0.00022920629474593586 0.021077189996373629 0 0.0003386561687214949 0.021080273357690811 0 0.00024232029723407042 0.020937426047635679 0 0.0003386561687214949 0.021080273357690811 0 0.00036800174302614768 0.020947613107364038 0 -1.1406566732532364e-05 0.020846725835758282 0 0.0001287471346628956 0.020956391443245789 0 0.00010418248346374472 0.021119301828429762 0 0.00022920629474593586 0.021077189996373629 0 0.0001287471346628956 0.020956391443245789 0 0.00010418248346374472 0.021119301828429762 0 0.00010418248346374472 0.021119301828429762 0 0.00034293115854809272 0.0212991762677112 0 8.5233550252844308e-05 0.021447092067983325 0 0.00022920629474593586 0.021077189996373629 0 0.00010418248346374472 0.021119301828429762 0 0.00034293115854809272 0.0212991762677112 0 0.0003386561687214949 0.021080273357690811 0 0.00034293115854809272 0.0212991762677112 0 0.00044407336930618667 0.021189464070789386 0 0.00022920629474593586 0.021077189996373629 0 0.0003386561687214949 0.021080273357690811 0 0.00034293115854809272 0.0212991762677112 0 0.00034293115854809272 0.0212991762677112 0 0.00051333310633721262 0.02128749964223757 0 0.00044407336930618667 0.021189464070789386 0 0.00061115710988933133 0.021257516339088948 0 0.00051414408718310645 0.021111686314489512 0 0.00054992607180734464 0.020915241258113847 0 0.00051333310633721262 0.02128749964223757 0 0.00051414408718310645 0.021111686314489512 0 0.00044407336930618667 0.021189464070789386 0 0.00051333310633721262 0.02128749964223757 0 0.00061115710988933133 0.021257516339088948 0 0.00051414408718310645 0.021111686314489512 0 0.00051414408718310645 0.021111686314489512 0 0.00044407336930618667 0.021189464070789386 0 0.00043127961788424395 0.021063015689042546 0 0.0003386561687214949 0.021080273357690811 0 0.00044407336930618667 0.021189464070789386 0 0.00043127961788424395 0.021063015689042546 0 0.00043127961788424395 0.021063015689042546 0 0.00046922001525634367 0.020965482334610843 0 0.00036800174302614768 0.020947613107364038 0 0.0003386561687214949 0.021080273357690811 0 0.00043127961788424395 0.021063015689042546 0 0.00036800174302614768 0.020947613107364038 0 0.00051414408718310645 0.021111686314489512 0 0.00043127961788424395 0.021063015689042546 0 0.00046922001525634367 0.020965482334610843 0 0.00051414408718310645 0.021111686314489512 0 0.00046922001525634367 0.020965482334610843 0 0.00054992607180734464 0.020915241258113847 0 0.00041116842319653636 0.020853424728952939 0 0.00046922001525634367 0.020965482334610843 0 0.00036800174302614768 0.020947613107364038 0 0.00041116842319653636 0.020853424728952939 0 0.00046922001525634367 0.020965482334610843 0 0.00054992607180734464 0.020915241258113847 0 6.0794565009976381e-05 0.010911339926845308 0 4.7801365244450121e-05 0.010777022130357422 0 -0.00016975069714115259 0.011317686081081284 0 7.2923655128501449e-05 0.010945436807766338 0 -6.4335189395574934e-05 0.011311478926469328 0 0.00021970338888626723 0.016306423345331257 0 0.00032764819472460151 0.015902556335155155 0 -2.0713173689199582e-05 0.010454485783624377 0 7.7307331534350764e-05 0.010910563318289483 0 0.00018558074946609443 0.010224802748511621 0 7.7307331534350764e-05 0.010910563318289483 0 7.2923655128501449e-05 0.010945436807766338 0 -6.4335189395574934e-05 0.011311478926469328 0 -2.0713173689199582e-05 0.010454485783624377 0 2.5247758464321358e-05 0.01022176525003648 0 0.00018558074946609443 0.010224802748511621 0 0.00018558074946609443 0.010224802748511621 0 9.0436562876716048e-05 0.0099527654693951969 0 0.00016017341204980926 0.009777422261165172 0 2.5247758464321358e-05 0.01022176525003648 0 0.00018558074946609443 0.010224802748511621 0 2.5428045792351025e-05 0.01007199728062055 0 4.7801365244450121e-05 0.010777022130357422 0 -3.7958550823984763e-05 0.010566260542842005 0 -0.00010497457886486357 0.0099404715758989511 0 2.5428045792351025e-05 0.01007199728062055 0 5.2021288091819015e-06 0.0099032112307390896 0 0.00018558074946609443 0.010224802748511621 0 9.0436562876716048e-05 0.0099527654693951969 0 2.5428045792351025e-05 0.01007199728062055 0 9.0436562876716048e-05 0.0099527654693951969 0 2.5428045792351025e-05 0.01007199728062055 0 5.2021288091819015e-06 0.0099032112307390896 0 0.00021970338888626723 0.016306423345331257 0 0.00024527328423989817 0.016542243030210426 0 -0.00016975069714115259 0.011317686081081284 0 -6.4335189395574934e-05 0.011311478926469328 0 -0.00023433426831564663 0.01137176552430709 0 0.00061115710988933133 0.021257516339088948 0 0.00052976812977841795 0.021454656594219627 0 0.00064935091636362261 0.021725764303585554 0 0.00051333310633721262 0.02128749964223757 0 0.00061115710988933133 0.021257516339088948 0 0.00052976812977841795 0.021454656594219627 0 -0.00016975069714115259 0.011317686081081284 0 -0.00023433426831564663 0.01137176552430709 0 -0.00014102180310407138 0.011361656794073105 0 -0.00023433426831564663 0.01137176552430709 0 -0.00014102180310407138 0.011361656794073105 0 -0.000135580871838982 0.010637510863498583 0 0.00016017341204980926 0.009777422261165172 0 6.2439861002349918e-05 0.0096888595180475452 0 7.4377992983592714e-05 0.0095955068482948026 0 5.2021288091819015e-06 0.0099032112307390896 0 6.0141646120663217e-05 0.0098013436636237468 0 -6.6867403464447665e-05 0.0097784172583210791 0 -0.00010497457886486357 0.0099404715758989511 0 5.2021288091819015e-06 0.0099032112307390896 0 -6.6867403464447665e-05 0.0097784172583210791 0 9.0436562876716048e-05 0.0099527654693951969 0 5.2021288091819015e-06 0.0099032112307390896 0 6.0141646120663217e-05 0.0098013436636237468 0 9.0436562876716048e-05 0.0099527654693951969 0 0.00016017341204980926 0.009777422261165172 0 6.0141646120663217e-05 0.0098013436636237468 0 0.00016017341204980926 0.009777422261165172 0 6.0141646120663217e-05 0.0098013436636237468 0 6.2439861002349918e-05 0.0096888595180475452 0 6.0141646120663217e-05 0.0098013436636237468 0 6.2439861002349918e-05 0.0096888595180475452 0 -2.1866232323358057e-06 0.0096901044442665313 0 6.0141646120663217e-05 0.0098013436636237468 0 -2.1866232323358057e-06 0.0096901044442665313 0 -6.6867403464447665e-05 0.0097784172583210791 0 -2.1866232323358057e-06 0.0096901044442665313 0 -6.6867403464447665e-05 0.0097784172583210791 0 -0.00011559234185524725 0.0095929578388963977 0 -2.1866232323358057e-06 0.0096901044442665313 0 -0.00011559234185524725 0.0095929578388963977 0 -3.9984951504415586e-06 0.0095935832158353645 0 -0.00011559234185524725 0.0095929578388963977 0 -7.4867043394208528e-05 0.0094929969954053225 0 -3.9984951504415586e-06 0.0095935832158353645 0 -0.00018759450553333643 0.0094011320659403898 0 -0.00011559234185524725 0.0095929578388963977 0 -7.4867043394208528e-05 0.0094929969954053225 0 -7.4867043394208528e-05 0.0094929969954053225 0 -3.9984951504415586e-06 0.0095935832158353645 0 2.4965617618427182e-06 0.0095113168746263112 0 6.2439861002349918e-05 0.0096888595180475452 0 -2.1866232323358057e-06 0.0096901044442665313 0 -3.9984951504415586e-06 0.0095935832158353645 0 6.2439861002349918e-05 0.0096888595180475452 0 -3.9984951504415586e-06 0.0095935832158353645 0 7.4377992983592714e-05 0.0095955068482948026 0 -3.7958550823984763e-05 0.010566260542842005 0 -4.9062162692769452e-06 0.0100533779267576 0 0.00016017341204980926 0.009777422261165172 0 7.4377992983592714e-05 0.0095955068482948026 0 9.5789557761118664e-05 0.0094929226656825759 0 7.4377992983592714e-05 0.0095955068482948026 0 5.8110075258316761e-05 0.0095010860166678899 0 9.5789557761118664e-05 0.0094929226656825759 0 -3.9984951504415586e-06 0.0095935832158353645 0 7.4377992983592714e-05 0.0095955068482948026 0 2.4965617618427182e-06 0.0095113168746263112 0 7.4377992983592714e-05 0.0095955068482948026 0 5.8110075258316761e-05 0.0095010860166678899 0 2.4965617618427182e-06 0.0095113168746263112 0 5.8110075258316761e-05 0.0095010860166678899 0 2.4965617618427182e-06 0.0095113168746263112 0 8.2531691368759073e-06 0.009455389012542283 0 5.8110075258316761e-05 0.0095010860166678899 0 8.2531691368759073e-06 0.009455389012542283 0 5.9098152602626135e-05 0.0094609104310870544 0 5.8110075258316761e-05 0.0095010860166678899 0 5.9098152602626135e-05 0.0094609104310870544 0 9.5789557761118664e-05 0.0094929226656825759 0 5.9098152602626135e-05 0.0094609104310870544 0 -3.4268922483940653e-05 0.009377515019550706 0 1.4810938801204482e-05 0.0094001684806559425 0 8.2531691368759073e-06 0.009455389012542283 0 5.9098152602626135e-05 0.0094609104310870544 0 -3.4268922483940653e-05 0.009377515019550706 0 8.2531691368759073e-06 0.009455389012542283 0 -3.4268922483940653e-05 0.009377515019550706 0 -8.6152569243972473e-05 0.0093907960935421583 0 -8.6152569243972473e-05 0.0093907960935421583 0 -0.00020291925682815193 0.009290734105524192 0 -0.00013377987268343408 0.0092544208008802659 0 -3.4268922483940653e-05 0.009377515019550706 0 -8.6152569243972473e-05 0.0093907960935421583 0 -0.00013377987268343408 0.0092544208008802659 0 -0.00018759450553333643 0.0094011320659403898 0 -8.6152569243972473e-05 0.0093907960935421583 0 -0.00020291925682815193 0.009290734105524192 0 -0.00018759450553333643 0.0094011320659403898 0 -7.4867043394208528e-05 0.0094929969954053225 0 -8.6152569243972473e-05 0.0093907960935421583 0 -7.4867043394208528e-05 0.0094929969954053225 0 2.4965617618427182e-06 0.0095113168746263112 0 -8.6152569243972473e-05 0.0093907960935421583 0 2.4965617618427182e-06 0.0095113168746263112 0 8.2531691368759073e-06 0.009455389012542283 0 -8.6152569243972473e-05 0.0093907960935421583 0 0.00037401491011940339 0.022532307409090464 0 0.00059134726544938425 0.022285935689817855 0 0.00040829677953941327 0.022829165101935216 0 0.00040239097266020387 0.02234813537620238 0 0.00037401491011940339 0.022532307409090464 0 0.00059134726544938425 0.022285935689817855 0 0.00040239097266020387 0.02234813537620238 0 0.00025372507190040252 0.022457448196455409 0 0.00037401491011940339 0.022532307409090464 0 0.00040239097266020387 0.02234813537620238 0 0.00025372507190040252 0.022457448196455409 0 0.00031802042382181957 0.022200990441683263 0 0.00025372507190040252 0.022457448196455409 0 0.00037401491011940339 0.022532307409090464 0 0.0002259684366768682 0.022738508848589252 0 5.9098152602626135e-05 0.0094609104310870544 0 9.5789557761118664e-05 0.0094929226656825759 0 0.00011835834036396956 0.0095416439219297555 0 0.00010893620182761242 0.010488365801049027 0 -0.000135580871838982 0.010637510863498583 0 0.00011835834036396956 0.0095416439219297555 0 0.0003379349017800769 0.016382584208837484 0 0.00032338361447824146 0.016152336284899278 0 -4.9062162692769452e-06 0.0100533779267576 0 0.00013229130031278694 0.0095634491030942414 0 0.00059134726544938425 0.022285935689817855 0 0.0004504410467290231 0.022140129084188217 0 0.00050591806233762828 0.02196696053320682 0 0.00064935091636362261 0.021725764303585554 0 0.00059134726544938425 0.022285935689817855 0 0.00050591806233762828 0.02196696053320682 0 0.00024527328423989817 0.016542243030210426 0 0.0003379349017800769 0.016382584208837484 0 -0.00014102180310407138 0.011361656794073105 0 0.00010893620182761242 0.010488365801049027 0 -0.000135580871838982 0.010637510863498583 0 0.00040239097266020387 0.02234813537620238 0 0.00059134726544938425 0.022285935689817855 0 0.0004504410467290231 0.022140129084188217 0 0.0004504410467290231 0.022140129084188217 0 0.00050591806233762828 0.02196696053320682 0 0.00030593233027664915 0.021909920638524861 0 0.0004504410467290231 0.022140129084188217 0 0.00031802042382181957 0.022200990441683263 0 0.00030593233027664915 0.021909920638524861 0 0.00040239097266020387 0.02234813537620238 0 0.0004504410467290231 0.022140129084188217 0 0.00031802042382181957 0.022200990441683263 0 0.00025372507190040252 0.022457448196455409 0 0.00031802042382181957 0.022200990441683263 0 0.00016595704021016289 0.022178737781087553 0 0.00031802042382181957 0.022200990441683263 0 0.00030593233027664915 0.021909920638524861 0 0.00016595704021016289 0.022178737781087553 0 0.00030593233027664915 0.021909920638524861 0 0.00038640695477058909 0.021575496766029233 0 8.5233550252844308e-05 0.021447092067983325 0 0.00064935091636362261 0.021725764303585554 0 0.00050591806233762828 0.02196696053320682 0 0.00048678080035465573 0.021762975707057479 0 0.00050591806233762828 0.02196696053320682 0 0.00030593233027664915 0.021909920638524861 0 0.00048678080035465573 0.021762975707057479 0 0.00048678080035465573 0.021762975707057479 0 0.00051324955344084916 0.021627124779919016 0 0.00038640695477058909 0.021575496766029233 0 0.00030593233027664915 0.021909920638524861 0 0.00048678080035465573 0.021762975707057479 0 0.00038640695477058909 0.021575496766029233 0 0.00052976812977841795 0.021454656594219627 0 0.00064935091636362261 0.021725764303585554 0 0.00051324955344084916 0.021627124779919016 0 0.00064935091636362261 0.021725764303585554 0 0.00048678080035465573 0.021762975707057479 0 0.00051324955344084916 0.021627124779919016 0 0.00034293115854809272 0.0212991762677112 0 0.00052976812977841795 0.021454656594219627 0 0.00038640695477058909 0.021575496766029233 0 0.00052976812977841795 0.021454656594219627 0 0.00051324955344084916 0.021627124779919016 0 0.00038640695477058909 0.021575496766029233 0 0.00034293115854809272 0.0212991762677112 0 0.00051333310633721262 0.02128749964223757 0 0.00052976812977841795 0.021454656594219627 0 0.00034293115854809272 0.0212991762677112 0 0.00038640695477058909 0.021575496766029233 0 8.5233550252844308e-05 0.021447092067983325 0 8.5233550252844308e-05 0.021447092067983325 0 -0.00019043455794622431 0.021419523540640771 0 -2.0844500916088179e-05 0.021979438907416389 0 -0.00019043455794622431 0.021419523540640771 0 -2.0844500916088179e-05 0.021979438907416389 0 -0.00037703531524648951 0.021992512282345038 0 0.00030593233027664915 0.021909920638524861 0 8.5233550252844308e-05 0.021447092067983325 0 -2.0844500916088179e-05 0.021979438907416389 0 -2.0844500916088179e-05 0.021979438907416389 0 0.00016595704021016289 0.022178737781087553 0 3.030592221482822e-05 0.022407146583767856 0 0.00030593233027664915 0.021909920638524861 0 -2.0844500916088179e-05 0.021979438907416389 0 0.00016595704021016289 0.022178737781087553 0 -2.0844500916088179e-05 0.021979438907416389 0 -0.00025444845769436136 0.022350794272172504 0 3.030592221482822e-05 0.022407146583767856 0 -2.0844500916088179e-05 0.021979438907416389 0 -0.00025444845769436136 0.022350794272172504 0 -0.00037703531524648951 0.021992512282345038 0 -0.00025444845769436136 0.022350794272172504 0 -0.00012368057208126217 0.022659708200575647 0 3.030592221482822e-05 0.022407146583767856 0 -0.00012368057208126217 0.022659708200575647 0 8.1646828835770942e-05 0.022627599188738929 0 3.030592221482822e-05 0.022407146583767856 0 0.00025372507190040252 0.022457448196455409 0 8.1646828835770942e-05 0.022627599188738929 0 0.0002259684366768682 0.022738508848589252 0 0.00025372507190040252 0.022457448196455409 0 0.00016595704021016289 0.022178737781087553 0 3.030592221482822e-05 0.022407146583767856 0 0.00025372507190040252 0.022457448196455409 0 8.1646828835770942e-05 0.022627599188738929 0 3.030592221482822e-05 0.022407146583767856 0 -0.00049666374050466133 0.022701646385770845 0 -0.0010298651316922862 0.022911940045400099 0 -0.00063721230243609078 0.02309106231639043 0 -0.00049666374050466133 0.022701646385770845 0 -0.00089893146628527401 0.022492247292507955 0 -0.0010298651316922862 0.022911940045400099 0 -0.00025444845769436136 0.022350794272172504 0 -0.00012368057208126217 0.022659708200575647 0 -0.00049666374050466133 0.022701646385770845 0 -0.00012368057208126217 0.022659708200575647 0 -0.00049666374050466133 0.022701646385770845 0 -0.0002378028741068624 0.023043669151442792 0 -0.00025444845769436136 0.022350794272172504 0 -0.00049666374050466133 0.022701646385770845 0 -0.00054593982264824288 0.022340745995470299 0 -0.00025444845769436136 0.022350794272172504 0 -0.00054593982264824288 0.022340745995470299 0 -0.00037703531524648951 0.021992512282345038 0 -0.00049666374050466133 0.022701646385770845 0 -0.00054593982264824288 0.022340745995470299 0 -0.00089893146628527401 0.022492247292507955 0 -0.00054593982264824288 0.022340745995470299 0 -0.00089893146628527401 0.022492247292507955 0 -0.00084335442466753285 0.021958230813120021 0 -0.00054593982264824288 0.022340745995470299 0 -0.00084335442466753285 0.021958230813120021 0 -0.00037703531524648951 0.021992512282345038 0 -0.0003756179580081141 0.021989746286525978 0 -0.00065577950305211331 0.021447875231181156 0 -0.00084335442466753285 0.021958230813120021 0 -0.00037703531524648951 0.021992512282345038 0 -0.00057925069279416753 0.021607420915362732 0 -0.00019043455794622431 0.021419523540640771 0 -0.00037703531524648951 0.021992512282345038 0 -0.00064917534764145251 0.021375527902666967 0 -0.00084335442466753285 0.021958230813120021 0 -0.00057925069279416753 0.021607420915362732 0 -0.00096660382150024653 0.021521926588847169 0 -0.00065577950305211331 0.021447875231181156 0 -0.00056878893529165237 0.02113111590590841 0 -0.00057925069279416753 0.021607420915362732 0 -0.00079112639019088369 0.021142394271682876 0 -0.00096660382150024653 0.021521926588847169 0 -0.00064917534764145251 0.021375527902666967 0 -0.00090283245556923165 0.020768034769649175 0 -0.00072591373022697634 0.020723917236538714 0 -0.00056878893529165237 0.02113111590590841 0 -0.00039118821780676063 0.020855990919915079 0 -0.00015885447493262165 0.020681444188634459 0 -0.00011283453409882181 0.020646088009810427 0 -0.00015287420773427745 0.020677415003421979 0 -0.00031477918978266691 0.020919478456103768 0 -0.00043525962444065469 0.020948078438773839 0 -0.00026979283566458428 0.021020061545462473 0 -0.00039118821780676063 0.020855990919915079 0 -0.00011545223370346042 0.021090427663969354 0 -0.00032852005890701176 0.022134012715740951 0 -0.00036755696122954198 0.022046619249117314 0 -0.00052918580844680217 0.022086636810600257 0 -0.00056878893529165237 0.02113111590590841 0 -0.00011545223370346042 0.021090427663969354 0 -0.00039118821780676063 0.020855990919915079 0 -0.00026178765313632018 0.020878351785598576 0 -0.00021440454666340393 0.020707996859744681 0 -0.00020094048237664488 0.020733416075682555 0 -0.00022603212134731084 0.020935504819784491 0 -0.00020094048237664488 0.020733416075682555 0 -0.00022603212134731084 0.020935504819784491 0 -0.0001532618568654496 0.020757520472269426 0 -0.00015885447493262165 0.020681444188634459 0 -0.00020094048237664488 0.020733416075682555 0 -0.00015287420773427745 0.020677415003421979 0 -0.00039118821780676063 0.020855990919915079 0 -0.00022383451205572758 0.020785999230024436 0 -0.00019043455794622431 0.021419523540640771 0 -0.00064917534764145251 0.021375527902666967 0 -0.00022603212134731084 0.020935504819784491 0 -0.00064917534764145251 0.021375527902666967 0 -0.00072591373022697634 0.020723917236538714 0 -0.00022603212134731084 0.020935504819784491 0 -0.00019043455794622431 0.021419523540640771 0 1.5816652988948336e-05 0.020874572590457031 0 -0.00022603212134731084 0.020935504819784491 0 0.00010418248346374472 0.021119301828429762 0 8.5233550252844308e-05 0.021447092067983325 0 -0.00017553403692701164 0.021005864421399931 0 8.5233550252844308e-05 0.021447092067983325 0 -0.00019043455794622431 0.021419523540640771 0 1.5816652988948336e-05 0.020874572590457031 0 7.3495915107245935e-05 0.021406403113403583 0 -7.8910462742054068e-05 0.020947870752894452 0 -1.1406566732532364e-05 0.020846725835758282 0 0.00010418248346374472 0.021119301828429762 0 -0.00017553403692701164 0.021005864421399931 0 1.5816652988948336e-05 0.020874572590457031 0 -0.00022603212134731084 0.020935504819784491 0 -0.0001532618568654496 0.020757520472269426 0 -7.8910462742054068e-05 0.020947870752894452 0 -0.00017545317251368639 0.020660838432329416 0 1.5816652988948336e-05 0.020874572590457031 0 -0.0001532618568654496 0.020757520472269426 0 -0.00010695846321866349 0.020633037128171716 0 -0.0001532618568654496 0.020757520472269426 0 -0.00010695846321866349 0.020633037128171716 0 -0.00016001935922692304 0.020676817670612729 0 -1.1406566732532364e-05 0.020846725835758282 0 -0.00017553403692701164 0.021005864421399931 0 -0.00025473407632001878 0.020673294789815354 0 -8.1092193266194242e-05 0.020613017471551191 0 -1.1406566732532364e-05 0.020846725835758282 0 -0.00025473407632001878 0.020673294789815354 0 -0.0002008584435851478 0.020577358657964503 0 -8.1092193266194242e-05 0.020613017471551191 0 -0.00025473407632001878 0.020673294789815354 0 -0.00018325300309622556 0.020580040848701828 0 -0.0002008584435851478 0.020577358657964503 0 -0.00025473407632001878 0.020673294789815354 0 -0.00018419802091589675 0.020590080362677867 0 -0.00017545317251368639 0.020660838432329416 0 -0.00018325300309622556 0.020580040848701828 0 -0.00010695846321866349 0.020633037128171716 0 -0.00015123084073890959 0.020623680312789702 0 -0.00010695846321866349 0.020633037128171716 0 -0.00015123084073890959 0.020623680312789702 0 -0.00016001935922692304 0.020676817670612729 0 -0.00015123084073890959 0.020623680312789702 0 -0.00012242909921237816 0.02064335924156524 0 -0.00016001935922692304 0.020676817670612729 0 -0.00015123084073890959 0.020623680312789702 0 -8.7654586103369151e-05 0.020642789146865823 0 -0.00012242909921237816 0.02064335924156524 0 -8.7654586103369151e-05 0.020642789146865823 0 -3.3481581057814487e-05 0.020637322697346843 0 0.00016095486749531207 0.020693740635104901 0 -3.3481581057814487e-05 0.020637322697346843 0 -0.00012242909921237816 0.02064335924156524 0 -8.8426637310510406e-05 0.020641980331189941 0 -8.7654586103369151e-05 0.020642789146865823 0 -3.3481581057814487e-05 0.020637322697346843 0 -0.00012242909921237816 0.02064335924156524 0 -0.00011283453409882181 0.020646088009810427 0 -8.8426637310510406e-05 0.020641980331189941 0 7.3970865360298574e-07 0.020621723320308399 0 -0.00012242909921237816 0.02064335924156524 0 -8.8426637310510406e-05 0.020641980331189941 0 -0.00015287420773427745 0.020677415003421979 0 -0.00011545223370346042 0.021090427663969354 0 0.00014100228554932051 0.020694904584865125 0 -3.3481581057814487e-05 0.020637322697346843 0 -8.8426637310510406e-05 0.020641980331189941 0 7.3970865360298574e-07 0.020621723320308399 0 -0.00011283453409882181 0.020646088009810427 0 -8.8426637310510406e-05 0.020641980331189941 0 -0.00015287420773427745 0.020677415003421979 0 -0.00020094048237664488 0.020733416075682555 0 -0.00015287420773427745 0.020677415003421979 0 -0.00016001935922692304 0.020676817670612729 0 -0.00020094048237664488 0.020733416075682555 0 -0.0001532618568654496 0.020757520472269426 0 -0.00016001935922692304 0.020676817670612729 0 -0.00012242909921237816 0.02064335924156524 0 -0.00015287420773427745 0.020677415003421979 0 -0.00016001935922692304 0.020676817670612729 0 4.8365305035791177e-05 0.021657777272319659 0 0.00030221687916503744 0.021769108054197579 0 0.00036435820686270189 0.021168510048380929 0 -0.0010355357212854463 0.023109646918173452 0 -0.00066685596198691986 0.023265085347584039 0 -0.00075495268748594125 0.024129863451919559 0 -0.00061807957252422345 0.024016481740318788 0 -0.00025695480906479399 0.022084161441360353 0 -0.00036755696122954198 0.022046619249117314 0 -0.00065031418084567723 0.021929417432836461 0 -0.00052918580844680217 0.022086636810600257 0 -0.00011545223370346042 0.021090427663969354 0 -0.00025695480906479399 0.022084161441360353 0 0.00032925229714398903 0.020917800353347622 0 0.00019931152837161925 0.020859062550926347 0 0.00028347639674895043 0.020800420954069098 0 7.3970865360298574e-07 0.020621723320308399 0 0.00016095486749531207 0.020693740635104901 0 0.00024595741612843427 0.020717530414491789 0 -0.00025695480906479399 0.022084161441360353 0 0.0003409741911328144 0.02079718020194514 0 0.00028347639674895043 0.020800420954069098 0 0.00022829999982237794 0.020718698966523109 0 0.00024595741612843427 0.020717530414491789 0 0.00014100228554932051 0.020694904584865125 0 0.00022502047989723625 0.020746112391752846 0 0.00019931152837161925 0.020859062550926347 0 0.00028347639674895043 0.020800420954069098 0 0.00022829999982237794 0.020718698966523109 0 -3.3481581057814487e-05 0.020637322697346843 0 7.3970865360298574e-07 0.020621723320308399 0 0.00016095486749531207 0.020693740635104901 0 0.00023364776280237679 0.020986866267272867 0 4.8365305035791177e-05 0.021657777272319659 0 0.00036435820686270189 0.021168510048380929 0 8.5551596871393315e-05 0.023098833741648176 0 -0.00061807957252422345 0.024016481740318788 0 -0.00019251874221363412 0.025381738428264078 0 -0.00017209662218675126 0.025239993099496837 0 -3.5310379816665667e-05 0.025321837124098575 0 -0.0012363569616801004 0.02611550333713825 0 -0.0010137374347588849 0.025975495855203482 0 -0.00094415019387394483 0.026278901400546662 0 -0.00056408897937695033 0.025970271095437307 0 -0.00062822577449287028 0.025375953704326028 0 -0.0012028820956432398 0.025841742239293888 0 -0.0010362007611192667 0.0257480622550273 0 -0.0010137374347588849 0.025975495855203482 0 -0.0012363569616801004 0.02611550333713825 0 -0.0012028820956432398 0.025841742239293888 0 -0.0010137374347588849 0.025975495855203482 0 -0.0015226752497374126 0.025966681178704949 0 -0.0012363569616801004 0.02611550333713825 0 -0.0013675096366169454 0.025844108774760358 0 -0.0012363569616801004 0.02611550333713825 0 -0.0013675096366169454 0.025844108774760358 0 -0.0012028820956432398 0.025841742239293888 0 -0.00061807957252422345 0.024016481740318788 0 -0.00056408897937695033 0.025970271095437307 0 -0.0013675096366169454 0.025844108774760358 0 -0.0013026146804121167 0.025749121918335807 0 -0.0014574910897123727 0.025638564955189336 0 -0.0013026146804121167 0.025749121918335807 0 -0.0012004646560806881 0.025689239794330507 0 -0.0014574910897123727 0.025638564955189336 0 -0.0013026146804121167 0.025749121918335807 0 -0.0012028820956432398 0.025841742239293888 0 -0.0012004646560806881 0.025689239794330507 0 -0.0013675096366169454 0.025844108774760358 0 -0.0013026146804121167 0.025749121918335807 0 -0.0012028820956432398 0.025841742239293888 0 -0.0012028820956432398 0.025841742239293888 0 -0.0012004646560806881 0.025689239794330507 0 -0.0010362007611192667 0.0257480622550273 0 -0.0012004646560806881 0.025689239794330507 0 -0.0010362007611192667 0.0257480622550273 0 -0.0010918978444762115 0.02555145912622207 0 -0.000538018245717096 0.025145538126614582 0 -0.0010259788210755817 0.024970499345211141 0 -0.00073093115589128793 0.0247209535338009 0 -0.000538018245717096 0.025145538126614582 0 -0.00073093115589128793 0.0247209535338009 0 -0.00051398162069149359 0.025237943627708887 0 -0.00080237423005057051 0.025416093434281768 0 -0.0016098595318161761 0.025153261314735286 0 -0.000538018245717096 0.025145538126614582 0 -0.0010259788210755817 0.024970499345211141 0 -0.0015583480953826399 0.02537542572963878 0 -0.0012004646560806881 0.025689239794330507 0 -0.0010918978444762115 0.02555145912622207 0 -0.0014574910897123727 0.025638564955189336 0 -0.0010259788210755817 0.024970499345211141 0 -0.001501349315248016 0.025120351408942962 0 -0.0015583480953826399 0.02537542572963878 0 -0.0010259788210755817 0.024970499345211141 0 -0.001501349315248016 0.025120351408942962 0 -0.0013784302950543457 0.024713752137091625 0 -0.001501349315248016 0.025120351408942962 0 -0.0019415560946923122 0.025432620459998397 0 -0.0018912458297792954 0.024704076760502323 0 -0.00099001147251406179 0.023225622435340806 0 -0.0016530780922246824 0.023225098403628523 0 -0.001501349315248016 0.025120351408942962 0 -0.0015515142614339857 0.02534506719206089 0 -0.0019415560946923122 0.025432620459998397 0 -0.0015765648305071443 0.02518502878358498 0 -0.0016098595318161761 0.025153261314735286 0 -0.0010355357212854463 0.023109646918173452 0 -0.0012860789978328335 0.02426351407004226 0 -0.00075495268748594125 0.024129863451919559 0 -0.00061807957252422345 0.024016481740318788 0 -0.0016098595318161761 0.025153261314735286 0 -0.0015226752497374126 0.025966681178704949 0 -0.0013675096366169454 0.025844108774760358 0 -0.0014574910897123727 0.025638564955189336 0 -0.0016098595318161761 0.025153261314735286 0 -0.00099001147251406179 0.023225622435340806 0 -0.00032852005890701176 0.022134012715740951 0 -0.00068260931138712565 0.022230382067350257 0 -0.00052918580844680217 0.022086636810600257 0 -0.00065031418084567723 0.021929417432836461 0 -0.00068260931138712565 0.022230382067350257 0 -0.00052918580844680217 0.022086636810600257 0 -0.00025695480906479399 0.022084161441360353 0 -0.00099001147251406179 0.023225622435340806 0 -0.00056878893529165237 0.02113111590590841 0 -0.00099001147251406179 0.023225622435340806 0 -0.0012523784059377048 0.021258017414361129 0 -0.00096660382150024653 0.021521926588847169 0 -0.0013150533487966889 0.021683324489283656 0 -0.00079112639019088369 0.021142394271682876 0 -0.0012523784059377048 0.021258017414361129 0 -0.00096660382150024653 0.021521926588847169 0 -0.00084335442466753285 0.021958230813120021 0 -0.00096660382150024653 0.021521926588847169 0 -0.0013150533487966889 0.021683324489283656 0 -0.0016530780922246824 0.023225098403628523 0 -0.0015863776671796402 0.023017236151209101 0 -0.001501349315248016 0.025120351408942962 0 -0.0018912458297792954 0.024704076760502323 0 -0.0013784302950543457 0.024713752137091625 0 -0.0018912458297792954 0.024704076760502323 0 -0.0014097987809518282 0.02422163294478466 0 -0.0013784302950543457 0.024713752137091625 0 -0.0018028953751517123 0.023868538396762853 0 -0.0011578110784176412 0.023576304686897087 0 -0.0014097987809518282 0.02422163294478466 0 -0.0018912458297792954 0.024704076760502323 0 -0.0018028953751517123 0.023868538396762853 0 -0.0014097987809518282 0.02422163294478466 0 -0.00084335442466753285 0.021958230813120021 0 -0.0013150533487966889 0.021683324489283656 0 -0.0014062430594027468 0.022160939228623413 0 -0.00089893146628527401 0.022492247292507955 0 -0.00084335442466753285 0.021958230813120021 0 -0.0014062430594027468 0.022160939228623413 0 -0.00089893146628527401 0.022492247292507955 0 -0.0014062430594027468 0.022160939228623413 0 -0.0015004420885942145 0.022904575314858139 0 -0.0015863776671796402 0.023017236151209101 0 -0.0015271335448666097 0.022928068665864745 0 -0.0018028953751517123 0.023868538396762853 0 -0.0015004420885942145 0.022904575314858139 0 -0.0011578110784176412 0.023576304686897087 0 -0.0015004420885942145 0.022904575314858139 0 -0.0010298651316922862 0.022911940045400099 0 -0.0013986440462185603 0.023025365591976328 0 -0.0015004420885942145 0.022904575314858139 0 -0.0015649320646666048 0.022897758735942287 0 -0.0013986440462185603 0.023025365591976328 0 -0.00089893146628527401 0.022492247292507955 0 -0.0015004420885942145 0.022904575314858139 0 -0.0010298651316922862 0.022911940045400099 0 -0.00083555847110714204 0.023359716468286287 0 -0.00056960680867032228 0.023486809354084995 0 -0.00068250644592075858 0.023372890834360498 0 -0.00083555847110714204 0.023359716468286287 0 -0.00079456768613754482 0.023570097095411281 0 -0.00056960680867032228 0.023486809354084995 0 -0.0012103257816582997 0.023258205600598124 0 -0.0011773999883199721 0.02354872150802893 0 -0.0015004420885942145 0.022904575314858139 0 -0.0015649320646666048 0.022897758735942287 0 -0.0011578110784176412 0.023576304686897087 0 -0.00083555847110714204 0.023359716468286287 0 -0.0011578110784176412 0.023576304686897087 0 -0.00079456768613754482 0.023570097095411281 0 -0.0011578110784176412 0.023576304686897087 0 -0.00079456768613754482 0.023570097095411281 0 -0.00090373662862861112 0.024081094340071926 0 -0.00090373662862861112 0.024081094340071926 0 -0.00073093115589128793 0.0247209535338009 0 -0.00034625893612218081 0.024104709968235761 0 -0.00079456768613754482 0.023570097095411281 0 -0.00090373662862861112 0.024081094340071926 0 -0.00034625893612218081 0.024104709968235761 0 -0.0011578110784176412 0.023576304686897087 0 -0.00090373662862861112 0.024081094340071926 0 -0.0014097987809518282 0.02422163294478466 0 -0.00090373662862861112 0.024081094340071926 0 -0.0014097987809518282 0.02422163294478466 0 -0.0010622150715061611 0.024532487797352447 0 -0.0014097987809518282 0.02422163294478466 0 -0.0010622150715061611 0.024532487797352447 0 -0.0013784302950543457 0.024713752137091625 0 -0.0010259788210755817 0.024970499345211141 0 -0.0010622150715061611 0.024532487797352447 0 -0.00073093115589128793 0.0247209535338009 0 -0.0010259788210755817 0.024970499345211141 0 -0.0010622150715061611 0.024532487797352447 0 -0.0013784302950543457 0.024713752137091625 0 -0.00090373662862861112 0.024081094340071926 0 -0.0010622150715061611 0.024532487797352447 0 -0.00073093115589128793 0.0247209535338009 0 -0.00073093115589128793 0.0247209535338009 0 -0.00034625893612218081 0.024104709968235761 0 -0.00051398162069149359 0.025237943627708887 0 -0.00058359253038970218 0.025593134601031031 0 -0.00067692010952050336 0.025486032521715617 0 -0.00051398162069149359 0.025237943627708887 0 -0.00058359253038970218 0.025593134601031031 0 -0.00033997364076660105 0.02587258302836987 0 -0.00051398162069149359 0.025237943627708887 0 -0.00037579828213680117 0.025006880657074997 0 -0.0004749181593928184 0.02522266714828553 0 -0.0007449922575871828 0.025828296327850681 0 -0.00088820245095171568 0.025632076019611139 0 -0.00067692010952050336 0.025486032521715617 0 -0.00058359253038970218 0.025593134601031031 0 -0.0007449922575871828 0.025828296327850681 0 -0.00067692010952050336 0.025486032521715617 0 -0.0007449922575871828 0.025828296327850681 0 -0.00033997364076660105 0.02587258302836987 0 -0.00077783630250766905 0.026321086782715438 0 -0.00058359253038970218 0.025593134601031031 0 -0.0007449922575871828 0.025828296327850681 0 -0.00033997364076660105 0.02587258302836987 0 -0.00079456768613754482 0.023570097095411281 0 -0.00034625893612218081 0.024104709968235761 0 -0.00056960680867032228 0.023486809354084995 0 -0.00033997364076660105 0.02587258302836987 0 -0.00033948490733923741 0.026410980480494284 0 -0.00077783630250766905 0.026321086782715438 0 -0.00037579828213680117 0.025006880657074997 0 -0.00044876725055146823 0.024966000808059666 0 -0.00033948490733923741 0.026410980480494284 0 -0.00077783630250766905 0.026321086782715438 0 -0.00080151370420246078 0.026886625256753772 0 -0.00033948490733923741 0.026410980480494284 0 -0.00039592248740568211 0.026933613534899536 0 -0.00080151370420246078 0.026886625256753772 0 -0.00044876725055146823 0.024966000808059666 0 -0.00053494512690935845 0.025150234973013674 0 4.7944184848570541e-07 0.034984951404530153 0 1.3217251776797307e-08 0.034999981141583002 0 -1.981789287703869e-08 0.03499992569938979 0 -0.00077783630250766905 0.026321086782715438 0 -0.0012768778231305651 0.026694860564779526 0 -0.00080151370420246078 0.026886625256753772 0 -0.00077783630250766905 0.026321086782715438 0 -0.0012768778231305651 0.026694860564779526 0 -0.0011480529125599626 0.026115194611617185 0 -0.00060875317759119822 0.030495653803602824 0 -0.0005718241058808506 0.030624867214888836 0 1.3217251776797307e-08 0.034999981141583002 0 1.0338792428363038e-05 0.034978415796608826 0 -1.5966810993732584e-08 0.034999916940014385 0 4.7944184848570541e-07 0.034984951404530153 0 1.3217251776797307e-08 0.034999981141583002 0 1.0338792428363038e-05 0.034978415796608826 0 1.0338792428363038e-05 0.034978415796608826 0 -1.5966810993732584e-08 0.034999916940014385 0 5.7009154074848639e-05 0.034982939520418296 0 -0.0007449922575871828 0.025828296327850681 0 -0.0011480529125599626 0.026115194611617185 0 -0.00088820245095171568 0.025632076019611139 0 -0.0005718241058808506 0.030624867214888836 0 -0.00040842882568378156 0.030312687662366309 0 -0.0007449922575871828 0.025828296327850681 0 -0.00077783630250766905 0.026321086782715438 0 -0.0011480529125599626 0.026115194611617185 0 -1.5966810993732584e-08 0.034999916940014385 0 5.7009154074848639e-05 0.034982939520418296 0 1.6517694368130836e-07 0.035000201679534382 0 5.7009154074848639e-05 0.034982939520418296 0 1.6517694368130836e-07 0.035000201679534382 0 0.00019558174749871392 0.034971930181067222 0 1.6517694368130836e-07 0.035000201679534382 0 -3.2267575815276238e-07 0.034999288278467766 0 0.00019558174749871392 0.034971930181067222 0 -3.2267575815276238e-07 0.034999288278467766 0 0.00019558174749871392 0.034971930181067222 0 0.0001770564827174455 0.034755354184986813 0 -0.00088820245095171568 0.025632076019611139 0 -0.0006117444670393923 0.025680530149803316 0 -0.00067692010952050336 0.025486032521715617 0 -0.00040842882568378156 0.030312687662366309 0 -0.00020639658907134801 0.030304053533592591 0 -0.0006117444670393923 0.025680530149803316 0 -0.00067692010952050336 0.025486032521715617 0 -0.00073403976189034847 0.025653323587474217 0 -0.00067692010952050336 0.025486032521715617 0 -0.00086681224943723205 0.025649604098004809 0 -0.00073403976189034847 0.025653323587474217 0 -0.0010918978444762115 0.02555145912622207 0 -0.00067692010952050336 0.025486032521715617 0 -0.00086681224943723205 0.025649604098004809 0 -0.00080237423005057051 0.025416093434281768 0 -0.00067406659807405205 0.025440346407584951 0 -0.000538018245717096 0.025145538126614582 0 -0.00067692010952050336 0.025486032521715617 0 -0.00051398162069149359 0.025237943627708887 0 -0.0010362007611192667 0.0257480622550273 0 -0.0010918978444762115 0.02555145912622207 0 -0.00086681224943723205 0.025649604098004809 0 -0.0010362007611192667 0.0257480622550273 0 -0.00080202106582877796 0.025812587598905239 0 -0.0010137374347588849 0.025975495855203482 0 -0.0010362007611192667 0.0257480622550273 0 -0.00086681224943723205 0.025649604098004809 0 -0.00080202106582877796 0.025812587598905239 0 -0.0006117444670393923 0.025680530149803316 0 -0.00073403976189034847 0.025653323587474217 0 -0.00080202106582877796 0.025812587598905239 0 -0.00086681224943723205 0.025649604098004809 0 -0.00073403976189034847 0.025653323587474217 0 -0.00080202106582877796 0.025812587598905239 0 -0.0006117444670393923 0.025680530149803316 0 -0.00080202106582877796 0.025812587598905239 0 -0.00057686373868720813 0.026075126419241548 0 -0.00080202106582877796 0.025812587598905239 0 -0.00079426998639125276 0.026116344176548852 0 -0.00057686373868720813 0.026075126419241548 0 -0.00080202106582877796 0.025812587598905239 0 -0.0010137374347588849 0.025975495855203482 0 -0.00079426998639125276 0.026116344176548852 0 -0.0010137374347588849 0.025975495855203482 0 -0.00094415019387394483 0.026278901400546662 0 -0.00079426998639125276 0.026116344176548852 0 -0.00061678099267776208 0.0264620424820186 0 -0.00079426998639125276 0.026116344176548852 0 -0.00057686373868720813 0.026075126419241548 0 -0.00061678099267776208 0.0264620424820186 0 -0.00094415019387394483 0.026278901400546662 0 -0.00079426998639125276 0.026116344176548852 0 0.00087704792522572757 0.033394362195040238 0 0.00032786868842916495 0.034018500645218303 0 0.00057549154522475231 0.034455930326476585 0 0.00010936989626063087 0.029455174041538822 0 -1.5258161102906071e-05 0.030351203978216171 0 5.5992837120419047e-05 0.034287984676355326 0 -1.3244029165985488e-05 0.034616261125072663 0 0.00032786868842916495 0.034018500645218303 0 -7.3350744138414985e-05 0.034301937480739932 0 0.0001770564827174455 0.034755354184986813 0 9.5139917925917322e-05 0.033412044062804278 0 0.00032786868842916495 0.034018500645218303 0 -7.3350744138414985e-05 0.034301937480739932 0 -3.2267575815276238e-07 0.034999288278467766 0 -7.3350744138414985e-05 0.034301937480739932 0 0.0001770564827174455 0.034755354184986813 0 -3.1448302962528638e-08 0.034999876942518847 0 -1.3244029165985488e-05 0.034616261125072663 0 0.00032786868842916495 0.034018500645218303 0 0.0001770564827174455 0.034755354184986813 0 0.00057549154522475231 0.034455930326476585 0 -0.00020639658907134801 0.030304053533592591 0 -1.5258161102906071e-05 0.030351203978216171 0 0.00019558174749871392 0.034971930181067222 0 0.0001770564827174455 0.034755354184986813 0 0.00057549154522475231 0.034455930326476585 0 -3.2511192789930078e-05 0.034963400597770436 0 -1.5500930722090432e-05 0.034938224907226478 0 -8.1146111627879044e-05 0.034907890809252648 0 -3.2511192789930078e-05 0.034963400597770436 0 -8.1146111627879044e-05 0.034907890809252648 0 -7.8439093988715152e-05 0.034955431249960589 0 -3.2511192789930078e-05 0.034963400597770436 0 -2.0559170623279298e-08 0.034999954036124832 0 -1.8046782935576048e-05 0.034983888121564034 0 -3.2511192789930078e-05 0.034963400597770436 0 -2.0559170623279298e-08 0.034999954036124832 0 -1.5500930722090432e-05 0.034938224907226478 0 -2.0559170623279298e-08 0.034999954036124832 0 -1.5500930722090432e-05 0.034938224907226478 0 4.4798989813692588e-08 0.034999762999108147 0 -1.5500930722090432e-05 0.034938224907226478 0 -3.3686072472643401e-05 0.034824617753200761 0 4.4798989813692588e-08 0.034999762999108147 0 -1.5500930722090432e-05 0.034938224907226478 0 -8.1146111627879044e-05 0.034907890809252648 0 -3.3686072472643401e-05 0.034824617753200761 0 -0.00017207963159142703 0.034925424332625618 0 -8.1146111627879044e-05 0.034907890809252648 0 -0.00028750000434169052 0.034710018910567984 0 -8.1146111627879044e-05 0.034907890809252648 0 -0.00028750000434169052 0.034710018910567984 0 -3.3686072472643401e-05 0.034824617753200761 0 -0.0012738953129031311 0.030131911058523198 0 -0.0019700275041045186 0.029649524338034305 0 -0.0014981954461924553 0.031895495203089319 0 -0.0012738953129031311 0.030131911058523198 0 -0.00059912744824579614 0.030079066294108295 0 -0.0014981954461924553 0.031895495203089319 0 -0.0010785423916117984 0.032249957346098562 0 -0.0008432294025946767 0.033298272437283193 0 -0.0019700275041045186 0.029649524338034305 0 -0.0012146921517623061 0.028738930732128142 0 -0.0010123358439785809 0.029418310200110591 0 -0.0012738953129031311 0.030131911058523198 0 -0.0019700275041045186 0.029649524338034305 0 -0.0010123358439785809 0.029418310200110591 0 -0.00017207963159142703 0.034925424332625618 0 -8.1146111627879044e-05 0.034907890809252648 0 -7.8439093988715152e-05 0.034955431249960589 0 -0.00017207963159142703 0.034925424332625618 0 -7.8439093988715152e-05 0.034955431249960589 0 -7.2834559538674699e-05 0.034967005925105613 0 -0.0010785423916117984 0.032249957346098562 0 -0.0011005942032034058 0.031997550811769866 0 -7.8439093988715152e-05 0.034955431249960589 0 -7.2834559538674699e-05 0.034967005925105613 0 -4.4257843778966904e-05 0.034974435709910587 0 -0.0019700275041045186 0.029649524338034305 0 -0.0012146921517623061 0.028738930732128142 0 -0.0021394941408128727 0.028451051934637695 0 -0.00084487223443031748 0.028590704066511392 0 -0.0015493849934501722 0.027614054055152149 0 -0.0012146921517623061 0.028738930732128142 0 -0.0018972501855549007 0.028159318535453632 0 -0.0021394941408128727 0.028451051934637695 0 -0.00067880747626474739 0.028174115248355329 0 -0.00074316062302932093 0.027801334470139633 0 -0.00059028051662928177 0.027780781927216908 0 -0.00074316062302932093 0.027801334470139633 0 -0.00059028051662928177 0.027780781927216908 0 -0.00064910113239535002 0.027654397621336216 0 -0.0018972501855549007 0.028159318535453632 0 -0.0021394941408128727 0.028451051934637695 0 -0.0022819015201666704 0.027701206127969606 0 -7.2834559538674699e-05 0.034967005925105613 0 -4.1754943661604804e-05 0.034970470523179975 0 -2.9992419931755859e-05 0.034951285644890633 0 -0.0011005942032034058 0.031997550811769866 0 -0.00089727498718732786 0.029955726390080439 0 -7.2834559538674699e-05 0.034967005925105613 0 -4.1754943661604804e-05 0.034970470523179975 0 -4.4257843778966904e-05 0.034974435709910587 0 -4.1754943661604804e-05 0.034970470523179975 0 -2.5820166965643717e-05 0.034980440542491921 0 -2.7858517649426775e-05 0.034969283782471702 0 -4.1754943661604804e-05 0.034970470523179975 0 -2.5820166965643717e-05 0.034980440542491921 0 -4.4257843778966904e-05 0.034974435709910587 0 -2.5820166965643717e-05 0.034980440542491921 0 -4.4257843778966904e-05 0.034974435709910587 0 -1.8046782935576048e-05 0.034983888121564034 0 -3.2511192789930078e-05 0.034963400597770436 0 -4.4257843778966904e-05 0.034974435709910587 0 -1.8046782935576048e-05 0.034983888121564034 0 -3.2511192789930078e-05 0.034963400597770436 0 -7.8439093988715152e-05 0.034955431249960589 0 -4.4257843778966904e-05 0.034974435709910587 0 -2.0559170623279298e-08 0.034999954036124832 0 -1.8046782935576048e-05 0.034983888121564034 0 1.3091276386047658e-08 0.035000003032864428 0 -2.5820166965643717e-05 0.034980440542491921 0 1.3091276386047658e-08 0.035000003032864428 0 -1.5466239983593436e-05 0.034981557564654459 0 -2.5820166965643717e-05 0.034980440542491921 0 -1.8046782935576048e-05 0.034983888121564034 0 1.3091276386047658e-08 0.035000003032864428 0 1.3091276386047658e-08 0.035000003032864428 0 -1.364041086984887e-07 0.034999853921074756 0 -1.5466239983593436e-05 0.034981557564654459 0 -1.364041086984887e-07 0.034999853921074756 0 -1.5466239983593436e-05 0.034981557564654459 0 1.0629098964736453e-07 0.034940786575600305 0 -1.8007210922097871e-05 0.034961448900366822 0 1.0629098964736453e-07 0.034940786575600305 0 -2.9992419931755859e-05 0.034951285644890633 0 -1.5466239983593436e-05 0.034981557564654459 0 -1.8007210922097871e-05 0.034961448900366822 0 1.0629098964736453e-07 0.034940786575600305 0 -4.1754943661604804e-05 0.034970470523179975 0 -2.7858517649426775e-05 0.034969283782471702 0 -2.9992419931755859e-05 0.034951285644890633 0 -2.7858517649426775e-05 0.034969283782471702 0 -1.8007210922097871e-05 0.034961448900366822 0 -2.9992419931755859e-05 0.034951285644890633 0 -2.5820166965643717e-05 0.034980440542491921 0 -1.5466239983593436e-05 0.034981557564654459 0 -2.7858517649426775e-05 0.034969283782471702 0 -1.5466239983593436e-05 0.034981557564654459 0 -2.7858517649426775e-05 0.034969283782471702 0 -1.8007210922097871e-05 0.034961448900366822 0 -0.00085717045653918393 0.02761158149677034 0 -0.0010639497213433798 0.027484820299523226 0 -0.00079066610031533837 0.027484108724241268 0 -0.00085717045653918393 0.02761158149677034 0 -0.0010639497213433798 0.027484820299523226 0 -0.00082154569441746648 0.027701051521993036 0 -0.00050130510760948161 0.031197006429098305 0 -0.00089727498718732786 0.029955726390080439 0 -0.0010639497213433798 0.027484820299523226 0 -0.00083018182438965435 0.027291560170273566 0 -0.00079066610031533837 0.027484108724241268 0 -1.364041086984887e-07 0.034999853921074756 0 1.0629098964736453e-07 0.034940786575600305 0 -3.7113091862981837e-05 0.034864802069399049 0 -9.0571936146836914e-10 0.035000005180526636 0 -2.5670681702620597e-09 0.034999983923265497 0 -1.0845007668546873e-06 0.034996621823263213 0 -6.8564842817229472e-08 0.035003467648423804 0 -0.00065831116292993101 0.03268257715313444 0 -2.5670681702620597e-09 0.034999983923265497 0 -1.0845007668546873e-06 0.034996621823263213 0 4.4600226218546654e-10 0.034999992902435148 0 -0.0010639497213433798 0.027484820299523226 0 -0.001344841503079237 0.027225655618420785 0 -0.0010613049764650667 0.027128426667067031 0 -0.00050130510760948161 0.031197006429098305 0 -0.00065831116292993101 0.03268257715313444 0 -0.00065831116292993101 0.03268257715313444 0 5.9962413018959701e-07 0.034999060590674057 0 -0.0010639497213433798 0.027484820299523226 0 -0.0010613049764650667 0.027128426667067031 0 -0.00083018182438965435 0.027291560170273566 0 -0.0010613049764650667 0.027128426667067031 0 -0.00080151370420246078 0.026886625256753772 0 -0.00083018182438965435 0.027291560170273566 0 -0.0012768778231305651 0.026694860564779526 0 -0.0010613049764650667 0.027128426667067031 0 -0.00080151370420246078 0.026886625256753772 0 4.7944184848570541e-07 0.034984951404530153 0 -4.1222495221682741e-06 0.034990353109005265 0 -1.981789287703869e-08 0.03499992569938979 0 -0.0012768778231305651 0.026694860564779526 0 -0.001344841503079237 0.027225655618420785 0 -0.0010613049764650667 0.027128426667067031 0 -0.00060875317759119822 0.030495653803602824 0 -0.00065831116292993101 0.03268257715313444 0 -0.00039592248740568211 0.026933613534899536 0 -0.00080151370420246078 0.026886625256753772 0 -0.00062806039732196716 0.027195458776009419 0 -0.00080151370420246078 0.026886625256753772 0 -0.00062806039732196716 0.027195458776009419 0 -0.00083018182438965435 0.027291560170273566 0 -0.00062806039732196716 0.027195458776009419 0 -0.00083018182438965435 0.027291560170273566 0 -0.00068091137792699143 0.027393817670736755 0 -0.00068250644592075858 0.023372890834360498 0 -0.0007653330802025463 0.0234218344607579 0 -0.000722685752223715 0.023379762750861129 0 -0.00039592248740568211 0.026933613534899536 0 -0.00062806039732196716 0.027195458776009419 0 -0.00051023394072871727 0.027388847186261615 0 -0.00053494512690935845 0.025150234973013674 0 -0.00069847916013451069 0.02542100380944198 0 -0.00062806039732196716 0.027195458776009419 0 -0.00051023394072871727 0.027388847186261615 0 -0.00068091137792699143 0.027393817670736755 0 -0.0007653330802025463 0.0234218344607579 0 -0.00073528997829110142 0.023426665200675344 0 -0.000722685752223715 0.023379762750861129 0 -0.0007653330802025463 0.0234218344607579 0 -0.00077310321742683828 0.023460343362860261 0 -0.00073528997829110142 0.023426665200675344 0 -0.00051023394072871727 0.027388847186261615 0 -0.00068091137792699143 0.027393817670736755 0 -0.00068315648198097214 0.02755137338556712 0 -0.00069847916013451069 0.02542100380944198 0 -0.0009033162861115105 0.026042927800783718 0 -0.00051023394072871727 0.027388847186261615 0 -0.00055446921947299754 0.027492452950012545 0 -0.00068315648198097214 0.02755137338556712 0 -0.00083018182438965435 0.027291560170273566 0 -0.00079066610031533837 0.027484108724241268 0 -0.00068091137792699143 0.027393817670736755 0 -0.00079066610031533837 0.027484108724241268 0 -0.00068091137792699143 0.027393817670736755 0 -0.00068315648198097214 0.02755137338556712 0 -0.00079066610031533837 0.027484108724241268 0 -0.00068315648198097214 0.02755137338556712 0 -0.00077289048303429391 0.027598579042553022 0 -0.00085717045653918393 0.02761158149677034 0 -0.00079066610031533837 0.027484108724241268 0 -0.00077289048303429391 0.027598579042553022 0 -0.00074316062302932093 0.027801334470139633 0 -0.0008251134230601359 0.02764846722886808 0 -0.00073429602269323613 0.027648628638935014 0 -0.0015493849934501722 0.027614054055152149 0 -0.00089727498718732786 0.029955726390080439 0 -0.0008251134230601359 0.02764846722886808 0 -0.00077289048303429391 0.027598579042553022 0 -0.00073429602269323613 0.027648628638935014 0 -0.00085717045653918393 0.02761158149677034 0 -0.0008251134230601359 0.02764846722886808 0 -0.00077289048303429391 0.027598579042553022 0 -0.001186129241045715 0.028250295867627926 0 -0.00089727498718732786 0.029955726390080439 0 -0.00068315648198097214 0.02755137338556712 0 -0.00077289048303429391 0.027598579042553022 0 -0.00073429602269323613 0.027648628638935014 0 -0.00055446921947299754 0.027492452950012545 0 -0.00068315648198097214 0.02755137338556712 0 -0.00064910113239535002 0.027654397621336216 0 -0.00064547697523127353 0.027346021462675927 0 -0.00064910113239535002 0.027654397621336216 0 -0.00035151656389339445 0.027533744683405408 0 -0.00059028051662928177 0.027780781927216908 0 -0.00064910113239535002 0.027654397621336216 0 -0.00035151656389339445 0.027533744683405408 0 -0.0009033162861115105 0.026042927800783718 0 -0.00065876094958947583 0.028064552805165718 0 -0.00068315648198097214 0.02755137338556712 0 -0.00073429602269323613 0.027648628638935014 0 -0.00064910113239535002 0.027654397621336216 0 -0.00074316062302932093 0.027801334470139633 0 -0.00073429602269323613 0.027648628638935014 0 -0.00064910113239535002 0.027654397621336216 0 -0.00084704084977241234 0.025617699135714961 0 -0.00039801915420020122 0.028482899559060904 0 -0.00028025596891051658 0.027299358640474999 0 0.00020063433932348326 0.027642299347162089 0 -0.00038924496328791337 0.02786274483788679 0 -0.0026392245879994407 0.024743138655861023 0 -0.0019975084895229919 0.024529891776599838 0 -0.0020090992788253941 0.025354239006284231 0 -0.00084704084977241234 0.025617699135714961 0 -0.00097599235627866549 0.026513877199530213 0 -0.0026392245879994407 0.024743138655861023 0 -0.0019975084895229919 0.024529891776599838 0 -0.0021836664742049504 0.023583235936155508 0 -0.0019975084895229919 0.024529891776599838 0 -0.0021836664742049504 0.023583235936155508 0 -0.0014280488376992809 0.024098538907905885 0 -0.00070287822220413897 0.023511991252735433 0 -0.00073528997829110142 0.023426665200675344 0 -0.0007251087829903643 0.023385284821030618 0 -0.00084704084977241234 0.025617699135714961 0 -0.001530571911209914 0.02319190798512754 0 -0.0009033162861115105 0.026042927800783718 0 -0.00084704084977241234 0.025617699135714961 0 -0.00077310321742683828 0.023460343362860261 0 -0.00070287822220413897 0.023511991252735433 0 -0.00073528997829110142 0.023426665200675344 0 -0.00073528997829110142 0.023426665200675344 0 -0.000722685752223715 0.023379762750861129 0 -0.0007251087829903643 0.023385284821030618 0 -0.0021836664742049504 0.023583235936155508 0 -0.0015335778117825907 0.023406028415981033 0 -0.0014280488376992809 0.024098538907905885 0 -0.0012103257816582997 0.023258205600598124 0 -0.001530571911209914 0.02319190798512754 0 -0.0015649320646666048 0.022897758735942287 0 -0.0021836664742049504 0.023583235936155508 0 -0.0015335778117825907 0.023406028415981033 0 -0.0015649320646666048 0.022897758735942287 0 -0.0013986440462185603 0.023025365591976328 0 -0.0015335778117825907 0.023406028415981033 0 -0.00083555847110714204 0.023359716468286287 0 -0.000722685752223715 0.023379762750861129 0 -0.0007251087829903643 0.023385284821030618 0 -0.00083555847110714204 0.023359716468286287 0 -0.00068250644592075858 0.023372890834360498 0 -0.000722685752223715 0.023379762750861129 0 -0.0010349668479006724 0.023218570799812651 0 -0.00063972367736105573 0.023397695409087867 0 -0.00063721230243609078 0.02309106231639043 0 -0.0010298651316922862 0.022911940045400099 0 -0.0010349668479006724 0.023218570799812651 0 -0.0013986440462185603 0.023025365591976328 0 -0.0010298651316922862 0.022911940045400099 0 -0.0010349668479006724 0.023218570799812651 0 -0.00063721230243609078 0.02309106231639043 0 -0.0010349668479006724 0.023218570799812651 0 -0.0013986440462185603 0.023025365591976328 0 -0.0015335778117825907 0.023406028415981033 0 -0.0015335778117825907 0.023406028415981033 0 -0.00092824744670512579 0.023637233497980081 0 -0.0014280488376992809 0.024098538907905885 0 -0.0010349668479006724 0.023218570799812651 0 -0.0015335778117825907 0.023406028415981033 0 -0.00092824744670512579 0.023637233497980081 0 -0.0010349668479006724 0.023218570799812651 0 -0.00092824744670512579 0.023637233497980081 0 -0.00063972367736105573 0.023397695409087867 0 -0.00092824744670512579 0.023637233497980081 0 -0.00029364316654389972 0.023804307111286328 0 -0.00063972367736105573 0.023397695409087867 0 -0.00092824744670512579 0.023637233497980081 0 -0.00099021307603798948 0.024821541104167417 0 -0.00029364316654389972 0.023804307111286328 0 -0.0019975084895229919 0.024529891776599838 0 -0.0014280488376992809 0.024098538907905885 0 -0.00099021307603798948 0.024821541104167417 0 -0.00092824744670512579 0.023637233497980081 0 -0.0014280488376992809 0.024098538907905885 0 -0.00099021307603798948 0.024821541104167417 0 -0.0019975084895229919 0.024529891776599838 0 -0.00099021307603798948 0.024821541104167417 0 -0.0020090992788253941 0.025354239006284231 0 -0.00099021307603798948 0.024821541104167417 0 0.00050737012610397529 0.025567925878321868 0 -0.00029364316654389972 0.023804307111286328 0 -0.00012275605560396047 0.026287515526642925 0 5.6223912564928246e-05 0.027373669657729818 0 -0.0012327462944221725 0.02624042176747347 0 -0.00099021307603798948 0.024821541104167417 0 -0.00012275605560396047 0.026287515526642925 0 0.00050737012610397529 0.025567925878321868 0 -0.00099021307603798948 0.024821541104167417 0 -0.00012275605560396047 0.026287515526642925 0 -0.0012327462944221725 0.02624042176747347 0 5.6223912564928246e-05 0.027373669657729818 0 0.00018695097056962165 0.027667033817265672 0 0.00029038575967765736 0.027867445077740097 0 3.3367933194024653e-05 0.027368767045427168 0 -0.00041577996137347623 0.027046350826619353 0 5.6223912564928246e-05 0.027373669657729818 0 0.00018695097056962165 0.027667033817265672 0 0.00018735588297401061 0.027686095428038494 0 5.6223912564928246e-05 0.027373669657729818 0 0.00018735588297401061 0.027686095428038494 0 0.00032096927296760197 0.027652803124577973 0 0.00018695097056962165 0.027667033817265672 0 0.00024791541056155191 0.027881824305700131 0 0.00029038575967765736 0.027867445077740097 0 0.00024791541056155191 0.027881824305700131 0 0.00029038575967765736 0.027867445077740097 0 0.00025279383047690596 0.027960952988431723 0 0.00018695097056962165 0.027667033817265672 0 0.00024791541056155191 0.027881824305700131 0 0.00018735588297401061 0.027686095428038494 0 -0.00099021307603798948 0.024821541104167417 0 -0.0012327462944221725 0.02624042176747347 0 -0.0020090992788253941 0.025354239006284231 0 -0.00041577996137347623 0.027046350826619353 0 -0.00097599235627866549 0.026513877199530213 0 0.00029038575967765736 0.027867445077740097 0 0.00020063433932348326 0.027642299347162089 0 0.00025279383047690596 0.027960952988431723 0 0.00020063433932348326 0.027642299347162089 0 0.00025279383047690596 0.027960952988431723 0 3.5892246242350987e-05 0.02799532183493527 0 0.00020063433932348326 0.027642299347162089 0 -0.00038924496328791337 0.02786274483788679 0 3.5892246242350987e-05 0.02799532183493527 0 -0.00059028051662928177 0.027780781927216908 0 -0.00035151656389339445 0.027533744683405408 0 -0.00038924496328791337 0.02786274483788679 0 -0.00067880747626474739 0.028174115248355329 0 -0.00059028051662928177 0.027780781927216908 0 -0.00038924496328791337 0.02786274483788679 0 -0.00084487223443031748 0.028590704066511392 0 -0.000257286708889409 0.029333044935159633 0 -0.00067880747626474739 0.028174115248355329 0 -0.00013356068957689866 0.028634314197411779 0 -0.00021000212263574527 0.029415521723289536 0 -0.00067880747626474739 0.028174115248355329 0 -0.00038924496328791337 0.02786274483788679 0 -0.00022130944822080991 0.028173884175012466 0 -0.00038924496328791337 0.02786274483788679 0 -0.00022130944822080991 0.028173884175012466 0 3.5892246242350987e-05 0.02799532183493527 0 -0.00022130944822080991 0.028173884175012466 0 -0.00013356068957689866 0.028634314197411779 0 0.00026999926818955107 0.028338669647088366 0 -0.00067880747626474739 0.028174115248355329 0 -0.00022130944822080991 0.028173884175012466 0 -0.00013356068957689866 0.028634314197411779 0 0.00024791541056155191 0.027881824305700131 0 0.00025279383047690596 0.027960952988431723 0 0.00026999926818955107 0.028338669647088366 0 0.00025279383047690596 0.027960952988431723 0 3.5892246242350987e-05 0.02799532183493527 0 0.00026999926818955107 0.028338669647088366 0 -0.00022130944822080991 0.028173884175012466 0 3.5892246242350987e-05 0.02799532183493527 0 0.00026999926818955107 0.028338669647088366 0 0.00030379436489492881 0.028359431558941328 0 0.00074471987485730598 0.028671852672423115 0 0.00026999926818955107 0.028338669647088366 0 0.00037223957429339529 0.02917483752068617 0 0.0014183366809427675 0.029783793885040776 0 0.00037223957429339529 0.02917483752068617 0 0.00060810526318619566 0.029780597700863286 0 0.0014183366809427675 0.029783793885040776 0 -0.00013356068957689866 0.028634314197411779 0 0.00026999926818955107 0.028338669647088366 0 0.00037223957429339529 0.02917483752068617 0 -0.00013356068957689866 0.028634314197411779 0 0.00037223957429339529 0.02917483752068617 0 -0.00021000212263574527 0.029415521723289536 0 0.00037223957429339529 0.02917483752068617 0 0.00060810526318619566 0.029780597700863286 0 -0.00021000212263574527 0.029415521723289536 0 -0.0012146921517623061 0.028738930732128142 0 -0.0010123358439785809 0.029418310200110591 0 -0.00021000212263574527 0.029415521723289536 0 0.00060810526318619566 0.029780597700863286 0 -0.00021000212263574527 0.029415521723289536 0 -0.00059912744824579614 0.030079066294108295 0 -0.0012738953129031311 0.030131911058523198 0 -0.0010123358439785809 0.029418310200110591 0 -0.00059912744824579614 0.030079066294108295 0 -0.0010123358439785809 0.029418310200110591 0 -0.00021000212263574527 0.029415521723289536 0 -0.00059912744824579614 0.030079066294108295 0 -0.00059912744824579614 0.030079066294108295 0 -0.00017885652675128798 0.031749157936808201 0 -0.0014981954461924553 0.031895495203089319 0 -0.00059912744824579614 0.030079066294108295 0 -0.00017885652675128798 0.031749157936808201 0 0.00090790332040796139 0.031870778478207816 0 0.00060810526318619566 0.029780597700863286 0 -0.00059912744824579614 0.030079066294108295 0 0.0008427493630967591 0.030465193161614574 0 -0.00056371367832312106 0.030125359762337083 0 0.0007943495050898628 0.03112073487565209 0 0.00060810526318619566 0.029780597700863286 0 0.0008427493630967591 0.030465193161614574 0 0.0014183366809427675 0.029783793885040776 0 0.0008427493630967591 0.030465193161614574 0 0.0015047240212965553 0.030373774921410152 0 0.0014183366809427675 0.029783793885040776 0 0.0003591997705674397 0.027743157891256792 0 0.00031756373962038651 0.027733922456218182 0 0.00023450451440610264 0.027745573274388941 0 0.0012632973196025656 0.029492774554136226 0 0.00074471987485730598 0.028671852672423115 0 0.0015047240212965553 0.030373774921410152 0 0.001926012971265997 0.030444486019412478 0 0.0014183366809427675 0.029783793885040776 0 0.0003591997705674397 0.027743157891256792 0 0.00031756373962038651 0.027733922456218182 0 0.00036352565487435875 0.02773538224958675 0 0.00031756373962038651 0.027733922456218182 0 0.00018735588297401061 0.027686095428038494 0 0.00023450451440610264 0.027745573274388941 0 0.00031756373962038651 0.027733922456218182 0 0.00018735588297401061 0.027686095428038494 0 0.00032096927296760197 0.027652803124577973 0 0.00024791541056155191 0.027881824305700131 0 0.00018735588297401061 0.027686095428038494 0 0.00023450451440610264 0.027745573274388941 0 0.00024791541056155191 0.027881824305700131 0 0.00026999926818955107 0.028338669647088366 0 0.00023450451440610264 0.027745573274388941 0 -0.00030387144841652 0.02277517525111793 0 -0.00020901987473013542 0.022511945536322676 0 -0.00014857648424633393 0.022960200953147485 0 0.00039046339155432614 0.024477762042172165 0 0.00084617170159063005 0.014805178052205391 0 -0.00030387144841652 0.02277517525111793 0 -0.00020901987473013542 0.022511945536322676 0 -0.00048619929070450478 0.022656313729259015 0 -0.00030387144841652 0.02277517525111793 0 -0.00048619929070450478 0.022656313729259015 0 -0.00039246400630243186 0.022935949029968202 0 0.00032096927296760197 0.027652803124577973 0 0.00041890973803615478 0.027704459901557638 0 0.00073558796930878461 0.027411832045930781 0 0.00041890973803615478 0.027704459901557638 0 0.00048024072594465313 0.02775987765314232 0 0.00073558796930878461 0.027411832045930781 0 0.00039046339155432614 0.024477762042172165 0 0.00026587468566963889 0.025277810618233084 0 0.00031756373962038651 0.027733922456218182 0 0.00032096927296760197 0.027652803124577973 0 0.00041890973803615478 0.027704459901557638 0 -0.00030297067832937532 0.026469420489415113 0 0.00039046339155432614 0.024477762042172165 0 0.00041890973803615478 0.027704459901557638 0 0.00039669633338604749 0.027734994505403798 0 0.00048024072594465313 0.02775987765314232 0 0.00031756373962038651 0.027733922456218182 0 0.00041890973803615478 0.027704459901557638 0 0.00039669633338604749 0.027734994505403798 0 0.00031756373962038651 0.027733922456218182 0 0.00039669633338604749 0.027734994505403798 0 0.00036352565487435875 0.02773538224958675 0 0.0003591997705674397 0.027743157891256792 0 0.00036352565487435875 0.02773538224958675 0 0.00037226478402340726 0.02769604042545934 0 0.00039669633338604749 0.027734994505403798 0 0.00036352565487435875 0.02773538224958675 0 0.00037226478402340726 0.02769604042545934 0 0.00039669633338604749 0.027734994505403798 0 0.00034441511459177535 0.027643629203472731 0 0.00037226478402340726 0.02769604042545934 0 0.00039046339155432614 0.024477762042172165 0 0.0014662533335509085 0.016828989231046056 0 0.0006043111186729474 0.018258146690913805 0 0.0010999646392440771 0.017945012971760561 0 0.00071891182895639965 0.018790590442295738 0 0.00084617170159063005 0.014805178052205391 0 0.0014662533335509085 0.016828989231046056 0 0.0010338596722559068 0.0075018091493409657 0 0.0010688909732679997 0.0079497122379340313 0 0.0013631756357382464 0.0074027786671997864 0 0.00039669633338604749 0.027734994505403798 0 0.00036963829389403941 0.027727543446975901 0 0.00034441511459177535 0.027643629203472731 0 0.0010338596722559068 0.0075018091493409657 0 0.00079577394471731918 0.0076105119943564257 0 0.0010688909732679997 0.0079497122379340313 0 0.0010338596722559068 0.0075018091493409657 0 0.00079577394471731918 0.0076105119943564257 0 0.00087385046440440687 0.0073161922051399892 0 0.00079577394471731918 0.0076105119943564257 0 0.0006527256155891176 0.0073912533220287522 0 0.00044610812086000567 0.0075813811310603526 0 0.00079577394471731918 0.0076105119943564257 0 0.00044610812086000567 0.0075813811310603526 0 0.00057515756163809191 0.0078372773474845343 0 0.0006527256155891176 0.0073912533220287522 0 0.00044610812086000567 0.0075813811310603526 0 0.00039990076002338208 0.007313023267607837 0 0.00079577394471731918 0.0076105119943564257 0 0.0006527256155891176 0.0073912533220287522 0 0.00087385046440440687 0.0073161922051399892 0 0.00057515756163809191 0.0078372773474845343 0 0.00066217900161703717 0.0081226407200845618 0 0.0003230406194530781 0.0080330846097928597 0 0.00057515756163809191 0.0078372773474845343 0 0.0010688909732679997 0.0079497122379340313 0 0.00066217900161703717 0.0081226407200845618 0 0.00079577394471731918 0.0076105119943564257 0 0.00057515756163809191 0.0078372773474845343 0 0.0010688909732679997 0.0079497122379340313 0 0.00084617170159063005 0.014805178052205391 0 0.00044078766664329438 0.011214232780480223 0 -0.00063159332075155353 0.023027874601275648 0 -0.00038980674345046973 0.023243143705724514 0 -0.00039246400630243186 0.022935949029968202 0 0.00053195199273769881 0.014426315481072569 0 0.00028147586287405113 0.014996351889214199 0 1.14897842461833e-05 0.014724507421740009 0 0.00084617170159063005 0.014805178052205391 0 -0.00053715624112508746 0.020085306340093888 0 -0.00048619929070450478 0.022656313729259015 0 -0.00063159332075155353 0.023027874601275648 0 -0.00039246400630243186 0.022935949029968202 0 0.00028147586287405113 0.014996351889214199 0 1.14897842461833e-05 0.014724507421740009 0 -0.00051859684592426441 0.015013409559303787 0 0.00044078766664329438 0.011214232780480223 0 -0.00013852799328249591 0.010028820575456406 0 0.00028147586287405113 0.014996351889214199 0 2.6456251554462209e-05 0.015572324398827874 0 -0.00051859684592426441 0.015013409559303787 0 -0.00010732880242137121 0.017411144523286921 0 -0.00013852799328249591 0.010028820575456406 0 -0.00053715624112508746 0.020085306340093888 0 -0.00010732880242137121 0.017411144523286921 0 -0.00063159332075155353 0.023027874601275648 0 -0.00038980674345046973 0.023243143705724514 0 -0.00073810105624963582 0.0233196016537488 0 -0.00038980674345046973 0.023243143705724514 0 -0.00039246400630243186 0.022935949029968202 0 -0.00014857648424633393 0.022960200953147485 0 -0.00030387144841652 0.02277517525111793 0 -0.00039246400630243186 0.022935949029968202 0 -0.00014857648424633393 0.022960200953147485 0 5.6223912564928246e-05 0.027373669657729818 0 0.00032096927296760197 0.027652803124577973 0 0.00073558796930878461 0.027411832045930781 0 -0.00012275605560396047 0.026287515526642925 0 5.6223912564928246e-05 0.027373669657729818 0 0.00073558796930878461 0.027411832045930781 0 -0.00038980674345046973 0.023243143705724514 0 -0.00014857648424633393 0.022960200953147485 0 -0.0001519030454190445 0.02338257108224729 0 0.00026587468566963889 0.025277810618233084 0 0.00013326718369701507 0.024448546281032213 0 -0.00012275605560396047 0.026287515526642925 0 0.00073558796930878461 0.027411832045930781 0 0.00050737012610397529 0.025567925878321868 0 0.00013326718369701507 0.024448546281032213 0 -0.00020852363672342139 0.023860274779002211 0 -0.0001519030454190445 0.02338257108224729 0 -0.00033063209306791907 0.023600647045194909 0 -0.00029364316654389972 0.023804307111286328 0 -0.00038980674345046973 0.023243143705724514 0 -0.00033063209306791907 0.023600647045194909 0 -0.00043510849934471154 0.023602132999441552 0 -0.00038980674345046973 0.023243143705724514 0 -0.0001519030454190445 0.02338257108224729 0 -0.00033063209306791907 0.023600647045194909 0 -0.00057208338718108388 0.023103033142688134 0 -5.9429805438110098e-07 0.024422908720677764 0 -0.00033063209306791907 0.023600647045194909 0 -0.00037000755464916806 0.023452894739700175 0 -0.00043510849934471154 0.023602132999441552 0 -0.00037000755464916806 0.023452894739700175 0 -0.00019922670773481305 0.023266707250752871 0 -0.00014758143381899452 0.023324925619623866 0 -0.00033063209306791907 0.023600647045194909 0 -0.00029364316654389972 0.023804307111286328 0 -0.00037000755464916806 0.023452894739700175 0 -0.00029364316654389972 0.023804307111286328 0 -0.00063972367736105573 0.023397695409087867 0 -0.00037000755464916806 0.023452894739700175 0 -0.00063972367736105573 0.023397695409087867 0 -0.00037000755464916806 0.023452894739700175 0 -0.00063721230243609078 0.02309106231639043 0 -0.00037000755464916806 0.023452894739700175 0 -0.00019922670773481305 0.023266707250752871 0 -0.0002378028741068624 0.023043669151442792 0 -0.00037000755464916806 0.023452894739700175 0 -0.0002378028741068624 0.023043669151442792 0 -0.00063721230243609078 0.02309106231639043 0 -0.00049666374050466133 0.022701646385770845 0 -0.0002378028741068624 0.023043669151442792 0 -0.00063721230243609078 0.02309106231639043 0 3.091333536529396e-05 0.022866633087222234 0 0.00015302190122134924 0.022968185136192823 0 0.0002259684366768682 0.022738508848589252 0 8.1646828835770942e-05 0.022627599188738929 0 3.091333536529396e-05 0.022866633087222234 0 0.0002259684366768682 0.022738508848589252 0 -0.00012368057208126217 0.022659708200575647 0 8.1646828835770942e-05 0.022627599188738929 0 3.091333536529396e-05 0.022866633087222234 0 -0.00012368057208126217 0.022659708200575647 0 -0.0002378028741068624 0.023043669151442792 0 3.091333536529396e-05 0.022866633087222234 0 -0.0002378028741068624 0.023043669151442792 0 3.091333536529396e-05 0.022866633087222234 0 -4.3973415694485785e-05 0.023154281298056936 0 -0.00019922670773481305 0.023266707250752871 0 -0.0002378028741068624 0.023043669151442792 0 -4.3973415694485785e-05 0.023154281298056936 0 -4.3973415694485785e-05 0.023154281298056936 0 0.00015302190122134924 0.022968185136192823 0 0.00016627689010864058 0.023201746065382247 0 3.091333536529396e-05 0.022866633087222234 0 -4.3973415694485785e-05 0.023154281298056936 0 0.00015302190122134924 0.022968185136192823 0 0.00016627689010864058 0.023201746065382247 0 -0.00014758143381899452 0.023324925619623866 0 3.5747038644071377e-05 0.023376210946098243 0 -4.3973415694485785e-05 0.023154281298056936 0 0.00016627689010864058 0.023201746065382247 0 -0.00014758143381899452 0.023324925619623866 0 -0.00019922670773481305 0.023266707250752871 0 -4.3973415694485785e-05 0.023154281298056936 0 -0.00014758143381899452 0.023324925619623866 0 -0.00038980674345046973 0.023243143705724514 0 -0.00043510849934471154 0.023602132999441552 0 -0.00073810105624963582 0.0233196016537488 0 -5.9429805438110098e-07 0.024422908720677764 0 -0.00010732880242137121 0.017411144523286921 0 0.00027933608007140636 0.0091151277038079154 0 0.00035645713382870644 0.0089379864586702357 0 0.00017531802799685369 0.0089043998921285086 0 0.0003194051704971086 0.015880955323446529 0 -0.00010732880242137121 0.017411144523286921 0 0.00017531802799685369 0.0089043998921285086 0 0.00011528091827970668 0.0090313501109405784 0 -8.2549441932106468e-05 0.0089055606959519713 0 0.00017531802799685369 0.0089043998921285086 0 -8.2549441932106468e-05 0.0089055606959519713 0 -2.8631762470158646e-05 0.0087626764902221724 0 0.00011528091827970668 0.0090313501109405784 0 -2.2674474998477078e-05 0.0091032455500421779 0 -8.2549441932106468e-05 0.0089055606959519713 0 0.00027933608007140636 0.0091151277038079154 0 0.00011528091827970668 0.0090313501109405784 0 0.00014757299259331015 0.0091762314176802775 0 0.00027933608007140636 0.0091151277038079154 0 0.00017531802799685369 0.0089043998921285086 0 0.00011528091827970668 0.0090313501109405784 0 0.0003194051704971086 0.015880955323446529 0 0.00032338361447824146 0.016152336284899278 0 0.00015302190122134924 0.022968185136192823 0 0.00016627689010864058 0.023201746065382247 0 0.00040829677953941327 0.022829165101935216 0 0.00027933608007140636 0.0091151277038079154 0 0.00014757299259331015 0.0091762314176802775 0 0.0002921949578857332 0.0093122955915070013 0 0.00011528091827970668 0.0090313501109405784 0 0.00014757299259331015 0.0091762314176802775 0 -2.2674474998477078e-05 0.0091032455500421779 0 0.00014757299259331015 0.0091762314176802775 0 2.0860697408278646e-05 0.009259722729304384 0 -2.2674474998477078e-05 0.0091032455500421779 0 0.00014757299259331015 0.0091762314176802775 0 2.0860697408278646e-05 0.009259722729304384 0 0.00010575455971380131 0.0093320208056598027 0 0.00014757299259331015 0.0091762314176802775 0 0.00010575455971380131 0.0093320208056598027 0 0.0002921949578857332 0.0093122955915070013 0 0.00010575455971380131 0.0093320208056598027 0 0.00011835834036396956 0.0095416439219297555 0 0.0002921949578857332 0.0093122955915070013 0 5.9098152602626135e-05 0.0094609104310870544 0 4.6637609244452875e-05 0.0094125423873133406 0 0.00011835834036396956 0.0095416439219297555 0 0.00010893620182761242 0.010488365801049027 0 0.00011835834036396956 0.0095416439219297555 0 0.0002921949578857332 0.0093122955915070013 0 0.00010575455971380131 0.0093320208056598027 0 4.6637609244452875e-05 0.0094125423873133406 0 0.00011835834036396956 0.0095416439219297555 0 2.0860697408278646e-05 0.009259722729304384 0 0.00010575455971380131 0.0093320208056598027 0 4.6637609244452875e-05 0.0094125423873133406 0 0.00037401491011940339 0.022532307409090464 0 0.0002259684366768682 0.022738508848589252 0 0.00040829677953941327 0.022829165101935216 0 0.00015302190122134924 0.022968185136192823 0 0.0002259684366768682 0.022738508848589252 0 0.00040829677953941327 0.022829165101935216 0 -0.00013377987268343408 0.0092544208008802659 0 -0.00028792517342223585 0.0091405459214585899 0 -0.00025487904545203787 0.0090513310450085378 0 -0.00020291925682815193 0.009290734105524192 0 -0.00013377987268343408 0.0092544208008802659 0 -0.00028792517342223585 0.0091405459214585899 0 -3.4268922483940653e-05 0.009377515019550706 0 -0.00013377987268343408 0.0092544208008802659 0 -3.2355596785965404e-05 0.0093212526395282016 0 -3.4268922483940653e-05 0.009377515019550706 0 1.4810938801204482e-05 0.0094001684806559425 0 -3.2355596785965404e-05 0.0093212526395282016 0 4.6637609244452875e-05 0.0094125423873133406 0 1.4810938801204482e-05 0.0094001684806559425 0 -3.2355596785965404e-05 0.0093212526395282016 0 5.9098152602626135e-05 0.0094609104310870544 0 4.6637609244452875e-05 0.0094125423873133406 0 1.4810938801204482e-05 0.0094001684806559425 0 2.0860697408278646e-05 0.009259722729304384 0 4.6637609244452875e-05 0.0094125423873133406 0 -3.2355596785965404e-05 0.0093212526395282016 0 2.0860697408278646e-05 0.009259722729304384 0 -3.2355596785965404e-05 0.0093212526395282016 0 -9.7770534795349438e-05 0.0091901191413420839 0 -0.00013377987268343408 0.0092544208008802659 0 -3.2355596785965404e-05 0.0093212526395282016 0 -9.7770534795349438e-05 0.0091901191413420839 0 -9.7770534795349438e-05 0.0091901191413420839 0 -2.2674474998477078e-05 0.0091032455500421779 0 -0.00025487904545203787 0.0090513310450085378 0 2.0860697408278646e-05 0.009259722729304384 0 -9.7770534795349438e-05 0.0091901191413420839 0 -2.2674474998477078e-05 0.0091032455500421779 0 -0.00028792517342223585 0.0091405459214585899 0 -0.00025487904545203787 0.0090513310450085378 0 -0.00044244043760009619 0.0090158973439391377 0 -0.00013377987268343408 0.0092544208008802659 0 -9.7770534795349438e-05 0.0091901191413420839 0 -0.00025487904545203787 0.0090513310450085378 0 -0.00025487904545203787 0.0090513310450085378 0 -0.00040283162909866539 0.0087568538617599397 0 -0.00050590464166318087 0.0089023401240973105 0 -0.00025487904545203787 0.0090513310450085378 0 -8.2549441932106468e-05 0.0089055606959519713 0 -0.00040283162909866539 0.0087568538617599397 0 -2.2674474998477078e-05 0.0091032455500421779 0 -0.00025487904545203787 0.0090513310450085378 0 -8.2549441932106468e-05 0.0089055606959519713 0 -8.2549441932106468e-05 0.0089055606959519713 0 -0.00040283162909866539 0.0087568538617599397 0 -2.8631762470158646e-05 0.0087626764902221724 0 -0.00047328984956315258 0.0088525152881773501 0 4.3453389677399017e-05 0.0083656635406759543 0 -0.00040283162909866539 0.0087568538617599397 0 -0.00044905798534235978 0.0083899106301312878 0 -0.00015019024866763669 0.0084796575352184475 0 -0.00040283162909866539 0.0087568538617599397 0 -0.00044905798534235978 0.0083899106301312878 0 -0.00061156719670617753 0.0085123484738553676 0 -0.00044905798534235978 0.0083899106301312878 0 -0.00071752097040378166 0.0082988991792533329 0 -0.00061156719670617753 0.0085123484738553676 0 -0.00044905798534235978 0.0083899106301312878 0 -0.0004618226025555529 0.0081800709727065588 0 -0.00031543077415948902 0.0082521863623561571 0 -0.00044905798534235978 0.0083899106301312878 0 -0.00059020107490741203 0.0082164718037521338 0 -0.0004618226025555529 0.0081800709727065588 0 -0.00044905798534235978 0.0083899106301312878 0 -0.00059020107490741203 0.0082164718037521338 0 -0.00071752097040378166 0.0082988991792533329 0 -0.00059020107490741203 0.0082164718037521338 0 -0.00060541493328778015 0.0080354442453417826 0 -0.00070326110659551307 0.0081390173144333302 0 -0.00059020107490741203 0.0082164718037521338 0 -0.0004618226025555529 0.0081800709727065588 0 -0.00060541493328778015 0.0080354442453417826 0 -0.00060541493328778015 0.0080354442453417826 0 -0.00037993446433250388 0.0080412564443545845 0 -0.00051022768901191808 0.0078551231357603113 0 -0.0004618226025555529 0.0081800709727065588 0 -0.00060541493328778015 0.0080354442453417826 0 -0.00037993446433250388 0.0080412564443545845 0 -0.00060541493328778015 0.0080354442453417826 0 -0.0007897030863484631 0.0079870735215484528 0 -0.00070326110659551307 0.0081390173144333302 0 -0.00060541493328778015 0.0080354442453417826 0 -0.00075322654480636318 0.0077785550238663346 0 -0.0007897030863484631 0.0079870735215484528 0 -0.00037993446433250388 0.0080412564443545845 0 -0.00014566479392409866 0.00813341909669189 0 -0.00029356849621397694 0.0079110479395585586 0 -0.00014566479392409866 0.00813341909669189 0 -0.00014147118624321719 0.0078610979462008911 0 -0.00029356849621397694 0.0079110479395585586 0 -0.00037993446433250388 0.0080412564443545845 0 -0.00031543077415948902 0.0082521863623561571 0 -0.00014566479392409866 0.00813341909669189 0 -0.0004618226025555529 0.0081800709727065588 0 -0.00037993446433250388 0.0080412564443545845 0 -0.00031543077415948902 0.0082521863623561571 0 -0.00031543077415948902 0.0082521863623561571 0 -0.00015019024866763669 0.0084796575352184475 0 -0.00014566479392409866 0.00813341909669189 0 -0.00044905798534235978 0.0083899106301312878 0 -0.00031543077415948902 0.0082521863623561571 0 -0.00015019024866763669 0.0084796575352184475 0 4.3453389677399017e-05 0.0083656635406759543 0 -0.00013852799328249591 0.010028820575456406 0 -0.00015019024866763669 0.0084796575352184475 0 0.00023187928907153458 0.0082578229576901543 0 8.1924328815262043e-05 0.0081098395140232083 0 0.00017531802799685369 0.0089043998921285086 0 -2.8631762470158646e-05 0.0087626764902221724 0 0.0001954829223113322 0.0087346968830643353 0 0.00035645713382870644 0.0089379864586702357 0 0.00017531802799685369 0.0089043998921285086 0 0.0001954829223113322 0.0087346968830643353 0 0.00066217900161703717 0.0081226407200845618 0 0.00026932099902324177 0.0083181945388331856 0 0.0003230406194530781 0.0080330846097928597 0 -0.00013852799328249591 0.010028820575456406 0 -0.00026020442183715255 0.0082537739445746033 0 0.00026932099902324177 0.0083181945388331856 0 0.0003230406194530781 0.0080330846097928597 0 8.1924328815262043e-05 0.0081098395140232083 0 0.0003230406194530781 0.0080330846097928597 0 8.1924328815262043e-05 0.0081098395140232083 0 9.5793316418770819e-05 0.0078641318440599035 0 -0.00015019024866763669 0.0084796575352184475 0 -0.00014566479392409866 0.00813341909669189 0 8.1924328815262043e-05 0.0081098395140232083 0 -0.00014566479392409866 0.00813341909669189 0 8.1924328815262043e-05 0.0081098395140232083 0 -0.00014147118624321719 0.0078610979462008911 0 8.1924328815262043e-05 0.0081098395140232083 0 -0.00014147118624321719 0.0078610979462008911 0 9.5793316418770819e-05 0.0078641318440599035 0 9.5793316418770819e-05 0.0078641318440599035 0 0.00021345093723195525 0.0076203405601016376 0 -1.9943795060002574e-06 0.0075812550321071211 0 -0.00014147118624321719 0.0078610979462008911 0 9.5793316418770819e-05 0.0078641318440599035 0 -1.9943795060002574e-06 0.0075812550321071211 0 -0.00014147118624321719 0.0078610979462008911 0 -1.9943795060002574e-06 0.0075812550321071211 0 -0.0002538924812252191 0.0075202722074515079 0 0.00057515756163809191 0.0078372773474845343 0 0.0003230406194530781 0.0080330846097928597 0 0.00029797646441633003 0.0078270487663279088 0 0.0003230406194530781 0.0080330846097928597 0 9.5793316418770819e-05 0.0078641318440599035 0 0.00029797646441633003 0.0078270487663279088 0 9.5793316418770819e-05 0.0078641318440599035 0 0.00029797646441633003 0.0078270487663279088 0 0.00021345093723195525 0.0076203405601016376 0 0.00044610812086000567 0.0075813811310603526 0 0.00057515756163809191 0.0078372773474845343 0 0.00029797646441633003 0.0078270487663279088 0 0.00044610812086000567 0.0075813811310603526 0 0.00021345093723195525 0.0076203405601016376 0 0.00019395575365955162 0.007386069540920563 0 0.00044610812086000567 0.0075813811310603526 0 0.00029797646441633003 0.0078270487663279088 0 0.00021345093723195525 0.0076203405601016376 0 0.00021345093723195525 0.0076203405601016376 0 0.00019395575365955162 0.007386069540920563 0 -1.9943795060002574e-06 0.0075812550321071211 0 0.00044610812086000567 0.0075813811310603526 0 0.00019395575365955162 0.007386069540920563 0 0.00039990076002338208 0.007313023267607837 0 0.00019395575365955162 0.007386069540920563 0 -1.9943795060002574e-06 0.0075812550321071211 0 -0.00010824246368011051 0.0072331324882960934 0 -1.9943795060002574e-06 0.0075812550321071211 0 -0.0002538924812252191 0.0075202722074515079 0 -0.00010824246368011051 0.0072331324882960934 0 -0.0002538924812252191 0.0075202722074515079 0 -0.0003847756159744846 0.007226631245892459 0 -0.00010824246368011051 0.0072331324882960934 0 -0.0002538924812252191 0.0075202722074515079 0 -0.00050940928047402134 0.0074404713442691572 0 -0.00038557969943722357 0.0077102900443094483 0 -0.0002538924812252191 0.0075202722074515079 0 -0.00050940928047402134 0.0074404713442691572 0 -0.0003847756159744846 0.007226631245892459 0 -0.00050940928047402134 0.0074404713442691572 0 -0.00065336357076624287 0.0070732860707136847 0 -0.0003847756159744846 0.007226631245892459 0 -0.00050940928047402134 0.0074404713442691572 0 -0.00079780394808994599 0.0074194934703228051 0 -0.00065336357076624287 0.0070732860707136847 0 -0.00050940928047402134 0.0074404713442691572 0 -0.00079780394808994599 0.0074194934703228051 0 -0.0005896831132023993 0.0076427323441129553 0 -0.0005896831132023993 0.0076427323441129553 0 -0.00051022768901191808 0.0078551231357603113 0 -0.00038557969943722357 0.0077102900443094483 0 -0.00079780394808994599 0.0074194934703228051 0 -0.0005896831132023993 0.0076427323441129553 0 -0.00075322654480636318 0.0077785550238663346 0 -0.00060541493328778015 0.0080354442453417826 0 -0.00075322654480636318 0.0077785550238663346 0 -0.00051022768901191808 0.0078551231357603113 0 -0.0005896831132023993 0.0076427323441129553 0 -0.00075322654480636318 0.0077785550238663346 0 -0.00051022768901191808 0.0078551231357603113 0 -0.00051022768901191808 0.0078551231357603113 0 -0.00029356849621397694 0.0079110479395585586 0 -0.00038557969943722357 0.0077102900443094483 0 -0.00037993446433250388 0.0080412564443545845 0 -0.00051022768901191808 0.0078551231357603113 0 -0.00029356849621397694 0.0079110479395585586 0 -0.00014147118624321719 0.0078610979462008911 0 -0.00029356849621397694 0.0079110479395585586 0 -0.00038557969943722357 0.0077102900443094483 0 -0.00014147118624321719 0.0078610979462008911 0 -0.0002538924812252191 0.0075202722074515079 0 -0.00038557969943722357 0.0077102900443094483 0 -0.00050940928047402134 0.0074404713442691572 0 -0.0005896831132023993 0.0076427323441129553 0 -0.00038557969943722357 0.0077102900443094483 0 -0.00045518302273404317 0.0065830053131426198 0 -0.00070551827153177182 0.0066663175995421882 0 -0.0003963770584362328 0.0069061553964528703 0 -0.00045518302273404317 0.0065830053131426198 0 -0.0003963770584362328 0.0069061553964528703 0 -0.00012785219265106269 0.0068729458641531372 0 -0.00045518302273404317 0.0065830053131426198 0 -0.00070551827153177182 0.0066663175995421882 0 -0.00078667565260836885 0.0062854257978504175 0 -0.00070551827153177182 0.0066663175995421882 0 -0.0010772298974383409 0.0063711088334400048 0 -0.0010340564695345629 0.0069162377398594996 0 -0.00070551827153177182 0.0066663175995421882 0 -0.00078667565260836885 0.0062854257978504175 0 -0.0010772298974383409 0.0063711088334400048 0 -0.00079780394808994599 0.0074194934703228051 0 -0.00065336357076624287 0.0070732860707136847 0 -0.0010340564695345629 0.0069162377398594996 0 -0.00070551827153177182 0.0066663175995421882 0 -0.00065336357076624287 0.0070732860707136847 0 -0.0010340564695345629 0.0069162377398594996 0 -0.00070551827153177182 0.0066663175995421882 0 -0.00065336357076624287 0.0070732860707136847 0 -0.0003963770584362328 0.0069061553964528703 0 -0.00065336357076624287 0.0070732860707136847 0 -0.0003963770584362328 0.0069061553964528703 0 -0.0003847756159744846 0.007226631245892459 0 -0.0003963770584362328 0.0069061553964528703 0 -0.0003847756159744846 0.007226631245892459 0 -0.00010824246368011051 0.0072331324882960934 0 0.00019395575365955162 0.007386069540920563 0 -0.00010824246368011051 0.0072331324882960934 0 0.00019698341600846668 0.007070768753833028 0 -0.00010824246368011051 0.0072331324882960934 0 0.00019698341600846668 0.007070768753833028 0 -0.00012785219265106269 0.0068729458641531372 0 -0.0003963770584362328 0.0069061553964528703 0 -0.00010824246368011051 0.0072331324882960934 0 -0.00012785219265106269 0.0068729458641531372 0 0.00039990076002338208 0.007313023267607837 0 0.00019698341600846668 0.007070768753833028 0 0.0005081515852391515 0.0071257397180113143 0 0.00019395575365955162 0.007386069540920563 0 0.00039990076002338208 0.007313023267607837 0 0.00019698341600846668 0.007070768753833028 0 0.00019698341600846668 0.007070768753833028 0 0.00038232594041568693 0.0068593642124032952 0 0.0005081515852391515 0.0071257397180113143 0 8.9173111820266203e-05 0.0067448552779412032 0 -0.00016977558973941723 0.0064816844092852191 0 0.00026881008551040569 0.0065146847955124942 0 0.00019698341600846668 0.007070768753833028 0 0.00038232594041568693 0.0068593642124032952 0 8.9173111820266203e-05 0.0067448552779412032 0 0.00038232594041568693 0.0068593642124032952 0 8.9173111820266203e-05 0.0067448552779412032 0 0.00026881008551040569 0.0065146847955124942 0 0.00038232594041568693 0.0068593642124032952 0 0.00026881008551040569 0.0065146847955124942 0 0.00056390285637244271 0.006726510905876522 0 8.9173111820266203e-05 0.0067448552779412032 0 -0.00012785219265106269 0.0068729458641531372 0 -0.00016977558973941723 0.0064816844092852191 0 -0.00045518302273404317 0.0065830053131426198 0 -0.00012785219265106269 0.0068729458641531372 0 -0.00016977558973941723 0.0064816844092852191 0 0.00019698341600846668 0.007070768753833028 0 8.9173111820266203e-05 0.0067448552779412032 0 -0.00012785219265106269 0.0068729458641531372 0 -0.00016977558973941723 0.0064816844092852191 0 -0.00033580778765904739 0.0060606126153270289 0 -0.00050503677708965374 0.0062689068728405068 0 -0.00016977558973941723 0.0064816844092852191 0 8.3496093327316959e-05 0.0061850263867357135 0 -0.00033580778765904739 0.0060606126153270289 0 -0.00016977558973941723 0.0064816844092852191 0 8.3496093327316959e-05 0.0061850263867357135 0 0.00026881008551040569 0.0065146847955124942 0 8.3496093327316959e-05 0.0061850263867357135 0 0.00026881008551040569 0.0065146847955124942 0 0.00050386567020366225 0.0062903081950006741 0 8.3496093327316959e-05 0.0061850263867357135 0 0.0003805707803513797 0.0058579796961317834 0 -0.00011881047639670732 0.0058611472213203168 0 8.3496093327316959e-05 0.0061850263867357135 0 0.0003805707803513797 0.0058579796961317834 0 0.00050386567020366225 0.0062903081950006741 0 8.3496093327316959e-05 0.0061850263867357135 0 -0.00033580778765904739 0.0060606126153270289 0 -0.00011881047639670732 0.0058611472213203168 0 -0.00033580778765904739 0.0060606126153270289 0 -0.00011881047639670732 0.0058611472213203168 0 -0.00045711794697225229 0.0058000317804348892 0 -0.00033580778765904739 0.0060606126153270289 0 -0.00045711794697225229 0.0058000317804348892 0 -0.00075089033329019681 0.0059278563116327678 0 -0.00033580778765904739 0.0060606126153270289 0 -0.00075089033329019681 0.0059278563116327678 0 -0.00050503677708965374 0.0062689068728405068 0 -0.00045711794697225229 0.0058000317804348892 0 -0.00075089033329019681 0.0059278563116327678 0 -0.00078553527699916001 0.0056290699024570444 0 -0.00075089033329019681 0.0059278563116327678 0 -0.00050503677708965374 0.0062689068728405068 0 -0.00078667565260836885 0.0062854257978504175 0 -0.00045518302273404317 0.0065830053131426198 0 -0.00050503677708965374 0.0062689068728405068 0 -0.00078667565260836885 0.0062854257978504175 0 -0.00045518302273404317 0.0065830053131426198 0 -0.00016977558973941723 0.0064816844092852191 0 -0.00050503677708965374 0.0062689068728405068 0 -0.00078667565260836885 0.0062854257978504175 0 -0.0010772298974383409 0.0063711088334400048 0 -0.0011078655267014168 0.0059467702898424743 0 -0.00075089033329019681 0.0059278563116327678 0 -0.00078667565260836885 0.0062854257978504175 0 -0.0011078655267014168 0.0059467702898424743 0 -0.00075089033329019681 0.0059278563116327678 0 -0.0011749699386707161 0.0056036024299162606 0 -0.00078553527699916001 0.0056290699024570444 0 -0.00075089033329019681 0.0059278563116327678 0 -0.0011749699386707161 0.0056036024299162606 0 -0.0011078655267014168 0.0059467702898424743 0 -0.0010674999738673097 0.0054787038906180608 0 -0.0011749699386707161 0.0056036024299162606 0 -0.0013059675853289501 0.0054129821316576216 0 -0.0010674999738673097 0.0054787038906180608 0 -0.0011749699386707161 0.0056036024299162606 0 -0.00078553527699916001 0.0056290699024570444 0 -0.0010674999738673097 0.0054787038906180608 0 -0.00078553527699916001 0.0056290699024570444 0 -0.00096354833044075738 0.0052297946196952884 0 -0.00045711794697225229 0.0058000317804348892 0 -0.00078553527699916001 0.0056290699024570444 0 -0.00025037856431809697 0.0054721013444858696 0 -0.00078553527699916001 0.0056290699024570444 0 -0.00096354833044075738 0.0052297946196952884 0 -0.00025037856431809697 0.0054721013444858696 0 -0.00096584564715216335 0.0068578882473795512 0 -0.00049914846488813085 0.0070986304877434826 0 -0.00099977892081225391 0.0084371072107018771 0 -0.00084454675566803601 0.0084540251825763173 0 -0.00072988175268886505 0.0087448687864700014 0 -0.0010674999738673097 0.0054787038906180608 0 -0.00096354833044075738 0.0052297946196952884 0 -0.0013059675853289501 0.0054129821316576216 0 -0.00096354833044075738 0.0052297946196952884 0 -0.0013059675853289501 0.0054129821316576216 0 -0.0013933597944418943 0.0053827174495015926 0 -0.0010567512184985264 0.0081541015357834909 0 -0.0010519519634659307 0.0078836995201413147 0 -0.0012393759228180462 0.007943350949191642 0 -0.00096354833044075738 0.0052297946196952884 0 -0.0013933597944418943 0.0053827174495015926 0 -0.0016302487081394717 0.0054828341363743188 0 -0.00096584564715216335 0.0068578882473795512 0 -0.0013554151428743415 0.0067434885231516051 0 -0.00099977892081225391 0.0084371072107018771 0 -0.0010567512184985264 0.0081541015357834909 0 -0.0012393759228180462 0.007943350949191642 0 -0.0010567512184985264 0.0081541015357834909 0 -0.00095367432146175322 0.0083229704872853534 0 -0.0010519519634659307 0.0078836995201413147 0 -0.00099977892081225391 0.0084371072107018771 0 -0.00084454675566803601 0.0084540251825763173 0 -0.00095367432146175322 0.0083229704872853534 0 -0.00084454675566803601 0.0084540251825763173 0 -0.00095367432146175322 0.0083229704872853534 0 -0.00066842274270786949 0.0084322174935316744 0 -0.00099977892081225391 0.0084371072107018771 0 -0.0010567512184985264 0.0081541015357834909 0 -0.00095367432146175322 0.0083229704872853534 0 -0.00095367432146175322 0.0083229704872853534 0 -0.00088977418238632346 0.0081268149830514575 0 -0.00069404833796099302 0.0084615063722488417 0 -0.00095367432146175322 0.0083229704872853534 0 -0.00088977418238632346 0.0081268149830514575 0 -0.0010519519634659307 0.0078836995201413147 0 -0.00088977418238632346 0.0081268149830514575 0 -0.00072687945441808123 0.0081181596785552795 0 -0.00092446750353506304 0.0078568780979963726 0 -0.00088977418238632346 0.0081268149830514575 0 -0.0010519519634659307 0.0078836995201413147 0 -0.00092446750353506304 0.0078568780979963726 0 -0.0010519519634659307 0.0078836995201413147 0 -0.0010869839394970996 0.0076468021715004227 0 -0.00092446750353506304 0.0078568780979963726 0 -0.0010519519634659307 0.0078836995201413147 0 -0.0011563599398112276 0.0076180277534503068 0 -0.0010869839394970996 0.0076468021715004227 0 -0.0010519519634659307 0.0078836995201413147 0 -0.0011563599398112276 0.0076180277534503068 0 -0.0012393759228180462 0.007943350949191642 0 -0.00043182728160756401 0.0084440522798198813 0 -0.00011921817087881112 0.0088703464810259598 0 -4.9908681592530108e-05 0.0083076077807720632 0 -0.00043182728160756401 0.0084440522798198813 0 -0.00043044044311651736 0.0088598236950245286 0 -0.00011921817087881112 0.0088703464810259598 0 -0.00043182728160756401 0.0084440522798198813 0 -0.00072687945441808123 0.0081181596785552795 0 -0.00044103936095454951 0.0080882016514763552 0 -0.00043182728160756401 0.0084440522798198813 0 -0.00072687945441808123 0.0081181596785552795 0 -0.00069404833796099302 0.0084615063722488417 0 -0.00088977418238632346 0.0081268149830514575 0 -0.00072687945441808123 0.0081181596785552795 0 -0.00069404833796099302 0.0084615063722488417 0 -0.00043182728160756401 0.0084440522798198813 0 -0.00069404833796099302 0.0084615063722488417 0 -0.00043044044311651736 0.0088598236950245286 0 -0.00095367432146175322 0.0083229704872853534 0 -0.00060454056946310805 0.0088541583256780722 0 -0.00061935209113150489 0.0092125438482175935 0 -0.00090540595017603949 0.0084313428172389723 0 -0.00064569299892078247 0.0087532208595794848 0 -0.00069404833796099302 0.0084615063722488417 0 -0.00060454056946310805 0.0088541583256780722 0 -0.00043044044311651736 0.0088598236950245286 0 -0.00095367432146175322 0.0083229704872853534 0 -0.00069404833796099302 0.0084615063722488417 0 -0.00060454056946310805 0.0088541583256780722 0 -0.00060454056946310805 0.0088541583256780722 0 -0.00049478351701071207 0.0092126370632861568 0 -0.00061935209113150489 0.0092125438482175935 0 -0.00060454056946310805 0.0088541583256780722 0 -0.00043044044311651736 0.0088598236950245286 0 -0.00049478351701071207 0.0092126370632861568 0 -0.00043044044311651736 0.0088598236950245286 0 -0.00010537382593033389 0.009393341362549993 0 -0.00049478351701071207 0.0092126370632861568 0 -0.00043044044311651736 0.0088598236950245286 0 -0.00011921817087881112 0.0088703464810259598 0 -0.00010537382593033389 0.009393341362549993 0 -0.00049478351701071207 0.0092126370632861568 0 -0.00019071669384172269 0.009529624922318302 0 -0.00061935209113150489 0.0092125438482175935 0 -0.00013465923644670697 0.0094435193375657731 0 -0.00064569299892078247 0.0087532208595794848 0 -0.00010537382593033389 0.009393341362549993 0 -0.00049478351701071207 0.0092126370632861568 0 -5.4796740320738451e-05 0.0099271584399816849 0 -0.00019201229418343443 0.0086667640438631375 0 -0.00066842274270786949 0.0084322174935316744 0 -0.00072988175268886505 0.0087448687864700014 0 -0.0004241042474732407 0.0093499964214288113 0 -0.00013465923644670697 0.0094435193375657731 0 -0.00084454675566803601 0.0084540251825763173 0 -0.00066842274270786949 0.0084322174935316744 0 -0.00072988175268886505 0.0087448687864700014 0 -0.00011881047639670732 0.0058611472213203168 0 -0.00045711794697225229 0.0058000317804348892 0 -0.00025037856431809697 0.0054721013444858696 0 0.00014090164269382725 0.0076614243521449825 0 -0.00049914846488813085 0.0070986304877434826 0 0.0003805707803513797 0.0058579796961317834 0 -0.00011881047639670732 0.0058611472213203168 0 -0.00025037856431809697 0.0054721013444858696 0 -0.00021525840337985094 0.0092081853033076522 0 -0.00019201229418343443 0.0086667640438631375 0 -0.00072988175268886505 0.0087448687864700014 0 -5.4796740320738451e-05 0.0099271584399816849 0 0.00028916732429345624 0.010035002658056458 0 0.00023441505045797777 0.0099479589626340521 0 -0.00013465923644670697 0.0094435193375657731 0 0.00021953760097278264 0.0099900650077761281 0 2.4427907207038779e-05 0.0098091219327772587 0 8.8639420160762522e-05 0.0098732897991860285 0 9.561987337621741e-05 0.0098606831070829019 0 -0.00021525840337985094 0.0092081853033076522 0 -0.00019201229418343443 0.0086667640438631375 0 0.00033369483581878017 0.0090940947762779608 0 -0.00013465923644670697 0.0094435193375657731 0 0.00034065315596596698 0.0096286243969730193 0 0.00028916732429345624 0.010035002658056458 0 0.00019822548635366113 0.01000807521632999 0 9.9574913304725486e-05 0.0098901932816139633 0 0.00021953760097278264 0.0099900650077761281 0 8.9148571885433155e-05 0.0098819601608984217 0 8.8639420160762522e-05 0.0098732897991860285 0 9.561987337621741e-05 0.0098606831070829019 0 9.4990635184193475e-05 0.0098745464587893968 0 0.00028916732429345624 0.010035002658056458 0 0.00027173616293605822 0.010022874624530992 0 0.00023441505045797777 0.0099479589626340521 0 0.00028916732429345624 0.010035002658056458 0 0.00027173616293605822 0.010022874624530992 0 0.00019822548635366113 0.01000807521632999 0 0.00027173616293605822 0.010022874624530992 0 0.00024506210133248932 0.010122665395963624 0 0.00019822548635366113 0.01000807521632999 0 0.00029309673955012769 0.0099606602470174877 0 0.00024387669116780864 0.0095683320360059696 0 0.00029621831565876269 0.010078158468580824 0 0.00027173616293605822 0.010022874624530992 0 0.00029309673955012769 0.0099606602470174877 0 0.00024506210133248932 0.010122665395963624 0 0.00027173616293605822 0.010022874624530992 0 0.00029309673955012769 0.0099606602470174877 0 0.00023441505045797777 0.0099479589626340521 0 0.00029309673955012769 0.0099606602470174877 0 0.00029621831565876269 0.010078158468580824 0 0.00024506210133248932 0.010122665395963624 0 -5.4796740320738451e-05 0.0099271584399816849 0 0.00023441505045797777 0.0099479589626340521 0 0.00016628804013243918 0.0097693963976444725 0 0.00029309673955012769 0.0099606602470174877 0 0.00023441505045797777 0.0099479589626340521 0 0.00016628804013243918 0.0097693963976444725 0 0.00029309673955012769 0.0099606602470174877 0 0.00016628804013243918 0.0097693963976444725 0 0.00024387669116780864 0.0095683320360059696 0 -0.00010537382593033389 0.009393341362549993 0 0.00016628804013243918 0.0097693963976444725 0 0.00024387669116780864 0.0095683320360059696 0 -0.00010537382593033389 0.009393341362549993 0 -5.4796740320738451e-05 0.0099271584399816849 0 0.00016628804013243918 0.0097693963976444725 0 -0.00011921817087881112 0.0088703464810259598 0 0.00024387669116780864 0.0095683320360059696 0 0.00023171604528123986 0.008738137404564042 0 -0.00011921817087881112 0.0088703464810259598 0 -0.00010537382593033389 0.009393341362549993 0 0.00024387669116780864 0.0095683320360059696 0 0.00024387669116780864 0.0095683320360059696 0 0.00029621831565876269 0.010078158468580824 0 0.00025654108156332667 0.010185103586332001 0 0.00025251905739379717 0.0095952505000969357 0 0.00041485594252981775 0.009555855663339519 0 0.00024387669116780864 0.0095683320360059696 0 0.00071635438248918647 0.0088347403649108175 0 0.00023171604528123986 0.008738137404564042 0 0.00071635438248918647 0.0088347403649108175 0 0.00023171604528123986 0.008738137404564042 0 0.0004063943674189178 0.0082915931749447582 0 0.00071635438248918647 0.0088347403649108175 0 0.00077060379632200196 0.00848819218601371 0 0.0004063943674189178 0.0082915931749447582 0 0.00023171604528123986 0.008738137404564042 0 -4.9908681592530108e-05 0.0083076077807720632 0 0.0004063943674189178 0.0082915931749447582 0 -0.00011921817087881112 0.0088703464810259598 0 0.00023171604528123986 0.008738137404564042 0 -4.9908681592530108e-05 0.0083076077807720632 0 0.00010936229256448632 0.012319244323681285 0 -0.0004655406542001698 0.010944297546648097 0 -0.00064812021463891522 0.01193599193520096 0 0.00010936229256448632 0.012319244323681285 0 -0.0006028285601970331 0.012850034475920079 0 -0.00064812021463891522 0.01193599193520096 0 0.00025654108156332667 0.010185103586332001 0 0.00036233684714328228 0.010211771340952164 0 0.0004232315472050426 0.010108847598190468 0 0.00071635438248918647 0.0088347403649108175 0 0.00077060379632200196 0.00848819218601371 0 0.001068743171532281 0.008436627287978761 0 0.00048859458878736789 0.010160992029290094 0 0.00036233684714328228 0.010211771340952164 0 0.0004232315472050426 0.010108847598190468 0 0.00041485594252981775 0.009555855663339519 0 0.00090472997422908407 0.0090173925944775548 0 0.00048859458878736789 0.010160992029290094 0 0.00036233684714328228 0.010211771340952164 0 0.00032526867487650345 0.010470725530853039 0 0.00029621831565876269 0.010078158468580824 0 0.00025654108156332667 0.010185103586332001 0 0.00032526867487650345 0.010470725530853039 0 0.00025654108156332667 0.010185103586332001 0 0.00036233684714328228 0.010211771340952164 0 0.00032526867487650345 0.010470725530853039 0 0.00010936229256448632 0.012319244323681285 0 0.00032526867487650345 0.010470725530853039 0 -0.0004655406542001698 0.010944297546648097 0 0.00032526867487650345 0.010470725530853039 0 -0.0004655406542001698 0.010944297546648097 0 -8.6455006260872651e-05 0.010299529715578053 0 0.00014008841015139664 0.011438083710085256 0 0.00039927463590652945 0.010499292187693588 0 -0.0004655406542001698 0.010944297546648097 0 -8.6455006260872651e-05 0.010299529715578053 0 -0.0008592056144371826 0.010169919309571543 0 -8.6455006260872651e-05 0.010299529715578053 0 -1.9264317431115065e-05 0.0099869610016912608 0 -0.0008592056144371826 0.010169919309571543 0 0.00032526867487650345 0.010470725530853039 0 -8.6455006260872651e-05 0.010299529715578053 0 0.00024506210133248932 0.010122665395963624 0 -8.6455006260872651e-05 0.010299529715578053 0 0.00024506210133248932 0.010122665395963624 0 -1.9264317431115065e-05 0.0099869610016912608 0 0.00029621831565876269 0.010078158468580824 0 0.00032526867487650345 0.010470725530853039 0 0.00024506210133248932 0.010122665395963624 0 0.00024506210133248932 0.010122665395963624 0 0.00019822548635366113 0.01000807521632999 0 -1.9264317431115065e-05 0.0099869610016912608 0 0.00019822548635366113 0.01000807521632999 0 -1.9264317431115065e-05 0.0099869610016912608 0 9.9574913304725486e-05 0.0098901932816139633 0 -1.9264317431115065e-05 0.0099869610016912608 0 -0.00023409099808838828 0.0098768783578532873 0 -0.0008592056144371826 0.010169919309571543 0 -0.00023409099808838828 0.0098768783578532873 0 -4.3651715876197086e-05 0.009892693356563181 0 1.7887864961474349e-05 0.0098553139389300926 0 -1.9264317431115065e-05 0.0099869610016912608 0 -0.00023409099808838828 0.0098768783578532873 0 -4.3651715876197086e-05 0.009892693356563181 0 -0.00023409099808838828 0.0098768783578532873 0 6.4983435425069745e-06 0.0098311073032182096 0 1.7887864961474349e-05 0.0098553139389300926 0 0.00060145313834061712 0.022370997401693671 0 0.00017338862574776989 0.018934252922976156 0 0.0014963667934363859 0.033912311057779289 0 0.0014815323203609513 0.033581021145948353 0 0.0019108824425812499 0.033282468885969807 0 0.0014815323203609513 0.033581021145948353 0 0.0016880058481632159 0.0332477849174794 0 0.0019108824425812499 0.033282468885969807 0 0.0016880058481632159 0.0332477849174794 0 0.0019108824425812499 0.033282468885969807 0 0.0017314047615136527 0.033130815673041727 0 -0.0015330346100645694 0.020291089997083189 0 -0.00030020518459939442 0.018099826261988472 0 0.0035473069298369696 0.0217253494639407 0 0.00017338862574776989 0.018934252922976156 0 0.0017564359955151094 0.027229057513412251 0 0.0014815323203609513 0.033581021145948353 0 0.0016880058481632159 0.0332477849174794 0 0.0015215148042097139 0.033370427714943453 0 0.0016880058481632159 0.0332477849174794 0 0.0015215148042097139 0.033370427714943453 0 0.0015921469073187108 0.033190809929837563 0 0.0017131511159852086 0.010806277637565259 0 0.0018359635600383463 0.010595914463260674 0 0.0010175359302075186 0.0097180979841027058 0 0.00080847658639418118 0.014150667369693747 0 0.00066802066427765943 0.0073171640387470101 0 0.0017131511159852086 0.010806277637565259 0 0.0010175359302075186 0.0097180979841027058 0 0.00057591337414396641 0.009891167030871539 0 0.0014835629877070192 0.0067250515969760243 0 0.00093944734212010671 0.0062823060781597526 0 0.0011673616382646907 0.0065677308433675936 0 0.0014835629877070192 0.0067250515969760243 0 0.0011673616382646907 0.0065677308433675936 0 0.0012463025319028175 0.0066983736578987993 0 0.00080847658639418118 0.014150667369693747 0 0.00017338862574776989 0.018934252922976156 0 6.4983435425069745e-06 0.0098311073032182096 0 1.7887864961474349e-05 0.0098553139389300926 0 9.4349859078221986e-05 0.0098670156401212059 0 0.00017338862574776989 0.018934252922976156 0 6.1910790900139795e-05 0.0087398382877852693 0 5.2621872311719538e-05 0.009870797265123436 0 1.7887864961474349e-05 0.0098553139389300926 0 9.4349859078221986e-05 0.0098670156401212059 0 5.2621872311719538e-05 0.009870797265123436 0 9.9574913304725486e-05 0.0098901932816139633 0 9.4349859078221986e-05 0.0098670156401212059 0 -4.3651715876197086e-05 0.009892693356563181 0 5.2621872311719538e-05 0.009870797265123436 0 1.7887864961474349e-05 0.0098553139389300926 0 -1.9264317431115065e-05 0.0099869610016912608 0 -4.3651715876197086e-05 0.009892693356563181 0 9.9574913304725486e-05 0.0098901932816139633 0 -4.3651715876197086e-05 0.009892693356563181 0 5.2621872311719538e-05 0.009870797265123436 0 9.9574913304725486e-05 0.0098901932816139633 0 9.561987337621741e-05 0.0098606831070829019 0 9.9574913304725486e-05 0.0098901932816139633 0 9.4990635184193475e-05 0.0098745464587893968 0 8.8639420160762522e-05 0.0098732897991860285 0 9.4990635184193475e-05 0.0098745464587893968 0 9.4349859078221986e-05 0.0098670156401212059 0 9.9574913304725486e-05 0.0098901932816139633 0 9.4990635184193475e-05 0.0098745464587893968 0 9.4349859078221986e-05 0.0098670156401212059 0 0.00033369483581878017 0.0090940947762779608 0 0.0010175359302075186 0.0097180979841027058 0 0.00057591337414396641 0.009891167030871539 0 0.00034065315596596698 0.0096286243969730193 0 6.1910790900139795e-05 0.0087398382877852693 0 0.00014090164269382725 0.0076614243521449825 0 0.00066802066427765943 0.0073171640387470101 0 -0.00021525840337985094 0.0092081853033076522 0 0.00033369483581878017 0.0090940947762779608 0 0.00057591337414396641 0.009891167030871539 0 0.0003805707803513797 0.0058579796961317834 0 0.00050386567020366225 0.0062903081950006741 0 0.00093944734212010671 0.0062823060781597526 0 0.00050386567020366225 0.0062903081950006741 0 0.00078425400662684454 0.0064832770259383166 0 0.00093944734212010671 0.0062823060781597526 0 0.00050386567020366225 0.0062903081950006741 0 0.00078425400662684454 0.0064832770259383166 0 0.00055970638069084949 0.0064933281536122935 0 0.00055970638069084949 0.0064933281536122935 0 0.00056390285637244271 0.006726510905876522 0 0.00075596338947414826 0.0066509186379320557 0 0.00078425400662684454 0.0064832770259383166 0 0.00055970638069084949 0.0064933281536122935 0 0.00075596338947414826 0.0066509186379320557 0 0.00026881008551040569 0.0065146847955124942 0 0.00050386567020366225 0.0062903081950006741 0 0.00055970638069084949 0.0064933281536122935 0 0.00026881008551040569 0.0065146847955124942 0 0.00055970638069084949 0.0064933281536122935 0 0.00056390285637244271 0.006726510905876522 0 0.00093944734212010671 0.0062823060781597526 0 0.0009913754193698358 0.006519368347259755 0 0.0011673616382646907 0.0065677308433675936 0 0.00078425400662684454 0.0064832770259383166 0 0.00093944734212010671 0.0062823060781597526 0 0.0009913754193698358 0.006519368347259755 0 0.00078425400662684454 0.0064832770259383166 0 0.00095447627076325882 0.0066593104706289914 0 0.00075596338947414826 0.0066509186379320557 0 0.00078425400662684454 0.0064832770259383166 0 0.00095447627076325882 0.0066593104706289914 0 0.0009913754193698358 0.006519368347259755 0 0.00095447627076325882 0.0066593104706289914 0 0.0009913754193698358 0.006519368347259755 0 0.001081163959637954 0.0066614613235798639 0 0.0009913754193698358 0.006519368347259755 0 0.0011673616382646907 0.0065677308433675936 0 0.001081163959637954 0.0066614613235798639 0 0.0011673616382646907 0.0065677308433675936 0 0.001081163959637954 0.0066614613235798639 0 0.0012463025319028175 0.0066983736578987993 0 0.001081163959637954 0.0066614613235798639 0 0.0010681431218669743 0.0067999981431609968 0 0.0011780162343212896 0.0067578056036633844 0 0.0010681431218669743 0.0067999981431609968 0 0.0011474657551964009 0.0069467371643030587 0 0.0012107216876231291 0.0068574904605745021 0 0.0010681431218669743 0.0067999981431609968 0 0.0011780162343212896 0.0067578056036633844 0 0.0012107216876231291 0.0068574904605745021 0 0.0010681431218669743 0.0067999981431609968 0 0.00089580993123845128 0.0068069707504843377 0 0.0010147448170037393 0.0069127296954073787 0 0.00095447627076325882 0.0066593104706289914 0 0.001081163959637954 0.0066614613235798639 0 0.0010681431218669743 0.0067999981431609968 0 0.00095447627076325882 0.0066593104706289914 0 0.00089580993123845128 0.0068069707504843377 0 0.00075596338947414826 0.0066509186379320557 0 0.00095447627076325882 0.0066593104706289914 0 0.0010681431218669743 0.0067999981431609968 0 0.00089580993123845128 0.0068069707504843377 0 0.00089580993123845128 0.0068069707504843377 0 0.00075596338947414826 0.0066509186379320557 0 0.0007486081856042337 0.0068337326759211874 0 0.00089580993123845128 0.0068069707504843377 0 0.0007486081856042337 0.0068337326759211874 0 0.00087085360305666536 0.0070423616101195543 0 0.00089580993123845128 0.0068069707504843377 0 0.0010147448170037393 0.0069127296954073787 0 0.00087085360305666536 0.0070423616101195543 0 0.0010395253604190526 0.0070382436655729175 0 0.0010147448170037393 0.0069127296954073787 0 0.00087085360305666536 0.0070423616101195543 0 0.0010395253604190526 0.0070382436655729175 0 0.0011451940994209829 0.007073571202595926 0 0.0011474657551964009 0.0069467371643030587 0 0.0010395253604190526 0.0070382436655729175 0 0.0011474657551964009 0.0069467371643030587 0 0.0010147448170037393 0.0069127296954073787 0 0.0010681431218669743 0.0067999981431609968 0 0.0011474657551964009 0.0069467371643030587 0 0.0010147448170037393 0.0069127296954073787 0 0.00056390285637244271 0.006726510905876522 0 0.00075596338947414826 0.0066509186379320557 0 0.0007486081856042337 0.0068337326759211874 0 0.00064380227274705298 0.0069735196796987132 0 0.0007486081856042337 0.0068337326759211874 0 0.00087085360305666536 0.0070423616101195543 0 0.00056390285637244271 0.006726510905876522 0 0.00064380227274705298 0.0069735196796987132 0 0.0007486081856042337 0.0068337326759211874 0 0.00038232594041568693 0.0068593642124032952 0 0.00056390285637244271 0.006726510905876522 0 0.00064380227274705298 0.0069735196796987132 0 0.00038232594041568693 0.0068593642124032952 0 0.00064380227274705298 0.0069735196796987132 0 0.0005081515852391515 0.0071257397180113143 0 0.00064380227274705298 0.0069735196796987132 0 0.00071800636647606139 0.0071760429096075122 0 0.00087085360305666536 0.0070423616101195543 0 0.00064380227274705298 0.0069735196796987132 0 0.0005081515852391515 0.0071257397180113143 0 0.00071800636647606139 0.0071760429096075122 0 0.0006527256155891176 0.0073912533220287522 0 0.0005081515852391515 0.0071257397180113143 0 0.00071800636647606139 0.0071760429096075122 0 0.0006527256155891176 0.0073912533220287522 0 0.00071800636647606139 0.0071760429096075122 0 0.00087385046440440687 0.0073161922051399892 0 0.0006527256155891176 0.0073912533220287522 0 0.00039990076002338208 0.007313023267607837 0 0.0005081515852391515 0.0071257397180113143 0 0.0010395253604190526 0.0070382436655729175 0 0.0010649726013981279 0.0072160678185477925 0 0.00087085360305666536 0.0070423616101195543 0 0.0010395253604190526 0.0070382436655729175 0 0.0011451940994209829 0.007073571202595926 0 0.0010649726013981279 0.0072160678185477925 0 0.0010649726013981279 0.0072160678185477925 0 0.00087085360305666536 0.0070423616101195543 0 0.00087385046440440687 0.0073161922051399892 0 0.00071800636647606139 0.0071760429096075122 0 0.00087085360305666536 0.0070423616101195543 0 0.00087385046440440687 0.0073161922051399892 0 0.0010338596722559068 0.0075018091493409657 0 0.0010649726013981279 0.0072160678185477925 0 0.00087385046440440687 0.0073161922051399892 0 0.0013631756357382464 0.0074027786671997864 0 0.001304516658155867 0.0069901859716859612 0 0.0012672374171652765 0.0070493955363417401 0 0.0010338596722559068 0.0075018091493409657 0 0.0010649726013981279 0.0072160678185477925 0 0.0013631756357382464 0.0074027786671997864 0 0.0014662533335509085 0.016828989231046056 0 0.0011483868546526047 0.010754407947173444 0 0.0014382477010260802 0.017799997773355506 0 0.0015114455151076086 0.018209096208799638 0 0.0013873722573922507 0.018181411717285073 0 0.0011451940994209829 0.007073571202595926 0 0.0013631756357382464 0.0074027786671997864 0 0.0012672374171652765 0.0070493955363417401 0 0.0011451940994209829 0.007073571202595926 0 0.0010649726013981279 0.0072160678185477925 0 0.0013631756357382464 0.0074027786671997864 0 0.0014662533335509085 0.016828989231046056 0 0.0013915992493463475 0.026530856971369157 0 0.0014382477010260802 0.017799997773355506 0 0.0012766165883212335 0.018142778594721014 0 0.0013873722573922507 0.018181411717285073 0 0.001926012971265997 0.030444486019412478 0 0.0019995664121061759 0.030661301812694931 0 0.0021969918223984069 0.030720308857330316 0 0.00034441511459177535 0.027643629203472731 0 0.00037226478402340726 0.02769604042545934 0 0.00037446854869065295 0.02761474099477337 0 0.0012632973196025656 0.029492774554136226 0 0.0013915992493463475 0.026530856971369157 0 0.0003591997705674397 0.027743157891256792 0 0.00037226478402340726 0.02769604042545934 0 0.00037446854869065295 0.02761474099477337 0 0.0019995664121061759 0.030661301812694931 0 0.0021969918223984069 0.030720308857330316 0 0.0020378400973562858 0.030730487712693676 0 0.0021969918223984069 0.030720308857330316 0 0.0020378400973562858 0.030730487712693676 0 0.0021329973574896279 0.030833395077071713 0 0.0012766165883212335 0.018142778594721014 0 0.0011698849687487663 0.018384860897257171 0 0.0012916846337054514 0.018233409022708626 0 0.0013915992493463475 0.026530856971369157 0 0.0021152187912156107 0.024251541462572787 0 0.0020063828790830109 0.030787119690651146 0 0.0020378400973562858 0.030730487712693676 0 0.0021329973574896279 0.030833395077071713 0 0.0028232939868154403 0.030169967181838623 0 0.0017564359955151094 0.027229057513412251 0 0.0015925253479462421 0.033051510450001272 0 0.0015921469073187108 0.033190809929837563 0 0.0017122403017070906 0.03319015291907372 0 0.0037687139473060677 0.028845553516672048 0 0.00056183383099131599 0.026774317863259053 0 0.00096838847866470188 0.025865360606733515 0 0.0028232939868154403 0.030169967181838623 0 0.0021152187912156107 0.024251541462572787 0 0.0016880058481632159 0.0332477849174794 0 0.0015921469073187108 0.033190809929837563 0 0.0017122403017070906 0.03319015291907372 0 -0.0015330346100645694 0.020291089997083189 0 0.0029053237650039621 0.023161420736667847 0 0.0035473069298369696 0.0217253494639407 0 0.0011698849687487663 0.018384860897257171 0 0.0013415919916164995 0.018309669106337526 0 0.0012916846337054514 0.018233409022708626 0 0.0021152187912156107 0.024251541462572787 0 0.0017564359955151094 0.027229057513412251 0 0.001115443079603533 0.029424405120207258 0 0.0017564359955151094 0.027229057513412251 0 0.00080847658639418118 0.014150667369693747 0 0.0021152187912156107 0.024251541462572787 0 0.00080847658639418118 0.014150667369693747 0 0.0011483868546526047 0.010754407947173444 0 0.0014835629877070192 0.0067250515969760243 0 0.0013040899300640282 0.0069049368458145403 0 0.0013218671548150987 0.0069939628023341178 0 0.0013562762765194313 0.018480881933086234 0 0.0013415919916164995 0.018309669106337526 0 0.0015114455151076086 0.018209096208799638 0 0.0013562762765194313 0.018480881933086234 0 0.0011698849687487663 0.018384860897257171 0 0.0013415919916164995 0.018309669106337526 0 0.0014835629877070192 0.0067250515969760243 0 0.0013288267763945144 0.0067685194329714076 0 0.0013040899300640282 0.0069049368458145403 0 0.0014835629877070192 0.0067250515969760243 0 0.0013288267763945144 0.0067685194329714076 0 0.0012463025319028175 0.0066983736578987993 0 0.0013288267763945144 0.0067685194329714076 0 0.0012463025319028175 0.0066983736578987993 0 0.0012523860508907492 0.0067904431721917584 0 0.001081163959637954 0.0066614613235798639 0 0.0012463025319028175 0.0066983736578987993 0 0.0011780162343212896 0.0067578056036633844 0 0.0012463025319028175 0.0066983736578987993 0 0.0012523860508907492 0.0067904431721917584 0 0.0011780162343212896 0.0067578056036633844 0 0.0012523860508907492 0.0067904431721917584 0 0.0012107216876231291 0.0068574904605745021 0 0.0013040899300640282 0.0069049368458145403 0 0.0012523860508907492 0.0067904431721917584 0 0.0011780162343212896 0.0067578056036633844 0 0.0012107216876231291 0.0068574904605745021 0 0.0012107216876231291 0.0068574904605745021 0 0.0013040899300640282 0.0069049368458145403 0 0.0012360512372171781 0.0069341298236982448 0 0.0013288267763945144 0.0067685194329714076 0 0.0012523860508907492 0.0067904431721917584 0 0.0013040899300640282 0.0069049368458145403 0 0.0013126429734908623 0.0069813831843661325 0 0.0012360512372171781 0.0069341298236982448 0 0.0012090130608331483 0.0070023415299471361 0 0.00097923339443512381 0.0094752833707222872 0 0.0011483868546526047 0.010754407947173444 0 0.0013040899300640282 0.0069049368458145403 0 0.0013126429734908623 0.0069813831843661325 0 0.0012360512372171781 0.0069341298236982448 0 0.0011474657551964009 0.0069467371643030587 0 0.0012107216876231291 0.0068574904605745021 0 0.0012360512372171781 0.0069341298236982448 0 0.0011474657551964009 0.0069467371643030587 0 0.0012360512372171781 0.0069341298236982448 0 0.0012090130608331483 0.0070023415299471361 0 0.0011451940994209829 0.007073571202595926 0 0.0011474657551964009 0.0069467371643030587 0 0.0012090130608331483 0.0070023415299471361 0 0.0011451940994209829 0.007073571202595926 0 0.0012090130608331483 0.0070023415299471361 0 0.0012672374171652765 0.0070493955363417401 0 0.0013126429734908623 0.0069813831843661325 0 0.0012090130608331483 0.0070023415299471361 0 0.0012672374171652765 0.0070493955363417401 0 0.0011483868546526047 0.010754407947173444 0 0.0015195066883489049 0.009769409047741871 0 0.0012766165883212335 0.018142778594721014 0 0.0013873722573922507 0.018181411717285073 0 0.0012916846337054514 0.018233409022708626 0 0.0013415919916164995 0.018309669106337526 0 0.0013873722573922507 0.018181411717285073 0 0.0012916846337054514 0.018233409022708626 0 0.0013415919916164995 0.018309669106337526 0 0.0015114455151076086 0.018209096208799638 0 0.0013873722573922507 0.018181411717285073 0 0.0011199856437116957 0.033237291881622583 0 0.0014137910112736003 0.032778845454948087 0 0.00078441142018952255 0.03306645984632782 0 0.0011199856437116957 0.033237291881622583 0 0.00078441142018952255 0.03306645984632782 0 0.00062853325526604953 0.033671889561016244 0 0.0020063828790830109 0.030787119690651146 0 0.0020378400973562858 0.030730487712693676 0 0.0017490536934727571 0.030744071398019192 0 0.0011199856437116957 0.033237291881622583 0 0.0014003372284931022 0.033122332705109787 0 0.0013708200115337109 0.033367034204375243 0 0.0015925253479462421 0.033051510450001272 0 0.0015921469073187108 0.033190809929837563 0 0.0014003372284931022 0.033122332705109787 0 0.0015921469073187108 0.033190809929837563 0 0.0014003372284931022 0.033122332705109787 0 0.0013708200115337109 0.033367034204375243 0 0.0015925253479462421 0.033051510450001272 0 0.0014003372284931022 0.033122332705109787 0 0.0014137910112736003 0.032778845454948087 0 0.0028232939868154403 0.030169967181838623 0 0.0015945856405706795 0.031705035829544807 0 0.0011199856437116957 0.033237291881622583 0 0.0014003372284931022 0.033122332705109787 0 0.0014137910112736003 0.032778845454948087 0 0.0019995664121061759 0.030661301812694931 0 0.0020378400973562858 0.030730487712693676 0 0.0017490536934727571 0.030744071398019192 0 0.001926012971265997 0.030444486019412478 0 0.0019995664121061759 0.030661301812694931 0 0.0017490536934727571 0.030744071398019192 0 0.0015047240212965553 0.030373774921410152 0 0.001926012971265997 0.030444486019412478 0 0.0017490536934727571 0.030744071398019192 0 0.00090790332040796139 0.031870778478207816 0 0.0014137910112736003 0.032778845454948087 0 0.00078441142018952255 0.03306645984632782 0 0.0008427493630967591 0.030465193161614574 0 0.0015047240212965553 0.030373774921410152 0 0.0017490536934727571 0.030744071398019192 0 0.0007943495050898628 0.03112073487565209 0 0.0015945856405706795 0.031705035829544807 0 -0.00017885652675128798 0.031749157936808201 0 0.00090790332040796139 0.031870778478207816 0 0.00015943710966391614 0.032957571394416831 0 0.00090790332040796139 0.031870778478207816 0 0.00015943710966391614 0.032957571394416831 0 0.00078441142018952255 0.03306645984632782 0 0.00015943710966391614 0.032957571394416831 0 -0.00036147924982363492 0.033933608449931756 0 -0.0014981954461924553 0.031895495203089319 0 -0.00017885652675128798 0.031749157936808201 0 0.00015943710966391614 0.032957571394416831 0 -0.0014981954461924553 0.031895495203089319 0 0.00015943710966391614 0.032957571394416831 0 -0.00036147924982363492 0.033933608449931756 0 0.00062853325526604953 0.033671889561016244 0 0.00015943710966391614 0.032957571394416831 0 0.00078441142018952255 0.03306645984632782 0 0.00062853325526604953 0.033671889561016244 0 -0.00036147924982363492 0.033933608449931756 0 0.00062853325526604953 0.033671889561016244 0 0.00030232243629708011 0.034191163768898851 0 -0.00036147924982363492 0.033933608449931756 0 0.00030232243629708011 0.034191163768898851 0 -8.3647775120458982e-05 0.034319027105773864 0 0.00030232243629708011 0.034191163768898851 0 0.00018819034720261266 0.034477924141820666 0 -8.3647775120458982e-05 0.034319027105773864 0 0.00062853325526604953 0.033671889561016244 0 0.00030232243629708011 0.034191163768898851 0 0.00094379404990254745 0.034045670919942241 0 0.0011199856437116957 0.033237291881622583 0 0.00062853325526604953 0.033671889561016244 0 0.0010807788158028928 0.033627355533677995 0 0.00062853325526604953 0.033671889561016244 0 0.00094379404990254745 0.034045670919942241 0 0.0010807788158028928 0.033627355533677995 0 0.0014815323203609513 0.033581021145948353 0 0.0010807788158028928 0.033627355533677995 0 0.0013708200115337109 0.033367034204375243 0 0.0014815323203609513 0.033581021145948353 0 0.0015215148042097139 0.033370427714943453 0 0.0013708200115337109 0.033367034204375243 0 0.0015215148042097139 0.033370427714943453 0 0.0015921469073187108 0.033190809929837563 0 0.0013708200115337109 0.033367034204375243 0 0.0011199856437116957 0.033237291881622583 0 0.0010807788158028928 0.033627355533677995 0 0.0013708200115337109 0.033367034204375243 0 0.0014963667934363859 0.033912311057779289 0 0.0014815323203609513 0.033581021145948353 0 0.00094379404990254745 0.034045670919942241 0 0.0014815323203609513 0.033581021145948353 0 0.00094379404990254745 0.034045670919942241 0 0.0010807788158028928 0.033627355533677995 0 0.00060145313834061712 0.022370997401693671 0 8.148046800950871e-05 0.022186541266054221 0 0.0014963667934363859 0.033912311057779289 0 0.00094379404990254745 0.034045670919942241 0 0.00099895921129002324 0.034358994751753517 0 0.00094379404990254745 0.034045670919942241 0 0.00099895921129002324 0.034358994751753517 0 0.00055797474805278208 0.034425411286084485 0 0.00030232243629708011 0.034191163768898851 0 0.00094379404990254745 0.034045670919942241 0 0.00055797474805278208 0.034425411286084485 0 0.00099895921129002324 0.034358994751753517 0 0.00056184941197636145 0.034573815265566091 0 0.00055797474805278208 0.034425411286084485 0 8.148046800950871e-05 0.022186541266054221 0 -0.00071877643449079628 0.022951086128485274 0 -0.0004655406542001698 0.010944297546648097 0 -0.0019836297456083123 0.011284888221391735 0 -0.00064812021463891522 0.01193599193520096 0 -0.0004655406542001698 0.010944297546648097 0 -0.0008592056144371826 0.010169919309571543 0 -0.0019836297456083123 0.011284888221391735 0 0.00056184941197636145 0.034573815265566091 0 0.00042700131492674754 0.034620223185735703 0 0.00055797474805278208 0.034425411286084485 0 -0.0019836297456083123 0.011284888221391735 0 -0.0013405026050630762 0.012549811563364948 0 -0.0022195854580635108 0.013192789897840779 0 -0.0019836297456083123 0.011284888221391735 0 -0.003369350524074491 0.013160970602053398 0 -0.0022195854580635108 0.013192789897840779 0 -0.00071877643449079628 0.022951086128485274 0 -0.0015570779391605241 0.023807580015773828 0 -0.0019836297456083123 0.011284888221391735 0 -0.0013405026050630762 0.012549811563364948 0 -0.00064812021463891522 0.01193599193520096 0 -0.0013405026050630762 0.012549811563364948 0 -0.0006028285601970331 0.012850034475920079 0 -0.00064812021463891522 0.01193599193520096 0 0.00030084461893665587 0.03466351771075267 0 0.00042832265870439205 0.034607430589671667 0 0.00020128122794430293 0.034775950372337633 0 0.00042832265870439205 0.034607430589671667 0 0.00042700131492674754 0.034620223185735703 0 0.00022877739301556529 0.034426483558585359 0 0.00030084461893665587 0.03466351771075267 0 0.00042832265870439205 0.034607430589671667 0 0.00042700131492674754 0.034620223185735703 0 0.00056184941197636145 0.034573815265566091 0 0.00042700131492674754 0.034620223185735703 0 0.00022877739301556529 0.034426483558585359 0 0.00030084461893665587 0.03466351771075267 0 0.00042700131492674754 0.034620223185735703 0 0.00022700866847335315 0.034617843746504458 0 0.00030084461893665587 0.03466351771075267 0 0.00022700866847335315 0.034617843746504458 0 0.00016757321130347357 0.034704944036617683 0 0.00042700131492674754 0.034620223185735703 0 0.00022700866847335315 0.034617843746504458 0 0.00018819034720261266 0.034477924141820666 0 0.00042700131492674754 0.034620223185735703 0 0.00055797474805278208 0.034425411286084485 0 0.00018819034720261266 0.034477924141820666 0 0.00030232243629708011 0.034191163768898851 0 0.00055797474805278208 0.034425411286084485 0 0.00018819034720261266 0.034477924141820666 0 0.00018819034720261266 0.034477924141820666 0 -8.1997471172807972e-05 0.034530159267491582 0 -8.3647775120458982e-05 0.034319027105773864 0 -8.1997471172807972e-05 0.034530159267491582 0 7.2399982453700922e-05 0.03461322204686261 0 -8.3411454783268571e-05 0.034621357903542628 0 0.00018819034720261266 0.034477924141820666 0 -8.1997471172807972e-05 0.034530159267491582 0 7.2399982453700922e-05 0.03461322204686261 0 0.00022700866847335315 0.034617843746504458 0 0.00018819034720261266 0.034477924141820666 0 7.2399982453700922e-05 0.03461322204686261 0 0.00022700866847335315 0.034617843746504458 0 0.00016757321130347357 0.034704944036617683 0 7.2399982453700922e-05 0.03461322204686261 0 0.00016757321130347357 0.034704944036617683 0 7.2399982453700922e-05 0.03461322204686261 0 4.2971380265331551e-05 0.034806791738205757 0 7.2399982453700922e-05 0.03461322204686261 0 4.2971380265331551e-05 0.034806791738205757 0 -8.3411454783268571e-05 0.034621357903542628 0 3.4584689042099195e-05 0.034814907550986825 0 -2.7596451437754605e-05 0.034785695163332617 0 4.2971380265331551e-05 0.034806791738205757 0 9.4538136683229881e-06 0.034927652930551237 0 5.1408422424731438e-05 0.034926752379239846 0 4.2971380265331551e-05 0.034806791738205757 0 0.00020128122794430293 0.034775950372337633 0 0.00012836548297611865 0.034892648916816683 0 0.00016757321130347357 0.034704944036617683 0 4.2971380265331551e-05 0.034806791738205757 0 0.00020128122794430293 0.034775950372337633 0 0.00030084461893665587 0.03466351771075267 0 0.00016757321130347357 0.034704944036617683 0 0.00020128122794430293 0.034775950372337633 0 1.9143806344457926e-08 0.034999897956016081 0 9.4538136683229881e-06 0.034927652930551237 0 -1.6861302520551878e-08 0.034999954647604505 0 4.2971380265331551e-05 0.034806791738205757 0 9.4538136683229881e-06 0.034927652930551237 0 6.8364122659123123e-06 0.034941389610256002 0 9.4538136683229881e-06 0.034927652930551237 0 6.8364122659123123e-06 0.034941389610256002 0 7.0678327269000096e-06 0.034972242260050114 0 1.9143806344457926e-08 0.034999897956016081 0 7.0678327269000096e-06 0.034972242260050114 0 1.0812154013106213e-08 0.034999974682510017 0 1.9143806344457926e-08 0.034999897956016081 0 9.4538136683229881e-06 0.034927652930551237 0 7.0678327269000096e-06 0.034972242260050114 0 7.0678327269000096e-06 0.034972242260050114 0 1.0812154013106213e-08 0.034999974682510017 0 1.0201809307430457e-06 0.034993197595685005 0 6.8364122659123123e-06 0.034941389610256002 0 7.0678327269000096e-06 0.034972242260050114 0 1.0201809307430457e-06 0.034993197595685005 0 -8.1997471172807972e-05 0.034530159267491582 0 -8.3411454783268571e-05 0.034621357903542628 0 -7.0476487686246862e-05 0.034618771089317567 0 -2.7596451437754605e-05 0.034785695163332617 0 -4.3320418344877842e-05 0.034810429812486735 0 -8.1997471172807972e-05 0.034530159267491582 0 -7.0476487686246862e-05 0.034618771089317567 0 -8.405062371132778e-05 0.034698491883532342 0 -4.3320418344877842e-05 0.034810429812486735 0 -1.556175867302765e-08 0.03499990899757395 0 1.0812154013106213e-08 0.034999974682510017 0 1.0201809307430457e-06 0.034993197595685005 0 -5.0910256521833505e-09 0.035000005205408267 0 -7.0476487686246862e-05 0.034618771089317567 0 4.072386326975048e-08 0.034999052721891161 0 -8.405062371132778e-05 0.034698491883532342 0 4.072386326975048e-08 0.034999052721891161 0 -4.3436280738852198e-05 0.03477083677797569 0 -8.405062371132778e-05 0.034698491883532342 0 4.072386326975048e-08 0.034999052721891161 0 -4.197036237215237e-08 0.034999809511444616 0 -4.3436280738852198e-05 0.03477083677797569 0 -4.3436280738852198e-05 0.03477083677797569 0 -0.00011305302650158152 0.03450936583903981 0 -8.7531099487663184e-05 0.03451865037830712 0 -4.3436280738852198e-05 0.03477083677797569 0 -8.405062371132778e-05 0.034698491883532342 0 -0.00011305302650158152 0.03450936583903981 0 -8.1997471172807972e-05 0.034530159267491582 0 -8.405062371132778e-05 0.034698491883532342 0 -0.00011305302650158152 0.03450936583903981 0 -8.1997471172807972e-05 0.034530159267491582 0 -8.3647775120458982e-05 0.034319027105773864 0 -0.00011305302650158152 0.03450936583903981 0 -0.00036147924982363492 0.033933608449931756 0 -8.3647775120458982e-05 0.034319027105773864 0 -0.00017899267886681023 0.034282047876171264 0 -8.3647775120458982e-05 0.034319027105773864 0 -0.00017899267886681023 0.034282047876171264 0 -0.00011305302650158152 0.03450936583903981 0 -0.00017899267886681023 0.034282047876171264 0 -0.00011305302650158152 0.03450936583903981 0 -8.7531099487663184e-05 0.03451865037830712 0 -0.00036147924982363492 0.033933608449931756 0 -8.7531099487663184e-05 0.03451865037830712 0 -0.00028750000434169052 0.034710018910567984 0 -0.00036147924982363492 0.033933608449931756 0 -0.00017899267886681023 0.034282047876171264 0 -8.7531099487663184e-05 0.03451865037830712 0 -0.00044696965696077291 0.033891583998172194 0 -0.0008432294025946767 0.033298272437283193 0 -8.7531099487663184e-05 0.03451865037830712 0 -0.00028750000434169052 0.034710018910567984 0 -3.3686072472643401e-05 0.034824617753200761 0 -8.7531099487663184e-05 0.03451865037830712 0 -3.3686072472643401e-05 0.034824617753200761 0 -1.5585452561701961e-05 0.034818590421615114 0 -3.3686072472643401e-05 0.034824617753200761 0 4.4798989813692588e-08 0.034999762999108147 0 -1.5585452561701961e-05 0.034818590421615114 0 -4.197036237215237e-08 0.034999809511444616 0 4.4798989813692588e-08 0.034999762999108147 0 -1.5585452561701961e-05 0.034818590421615114 0 -4.197036237215237e-08 0.034999809511444616 0 -4.3436280738852198e-05 0.03477083677797569 0 -1.5585452561701961e-05 0.034818590421615114 0 -4.3436280738852198e-05 0.03477083677797569 0 -8.7531099487663184e-05 0.03451865037830712 0 -1.5585452561701961e-05 0.034818590421615114 0 0.00019055586174245622 0.0013886438811140688 0 -0.00031024155918488389 0.0012174574049438206 0 -0.00031359532467069957 0.0015856115927671106 0 0.00018652031424788189 0.0014222073708578117 0 -7.3517629607611958e-05 0.001599433816754014 0 0.00019055586174245622 0.0013886438811140688 0 5.616774042026526e-05 0.00097986187431421613 0 -0.00031024155918488389 0.0012174574049438206 0 5.616774042026526e-05 0.00097986187431421613 0 -0.00031024155918488389 0.0012174574049438206 0 -0.00030537538257263414 0.00087621058205825163 0 -0.00031024155918488389 0.0012174574049438206 0 -0.00030537538257263414 0.00087621058205825163 0 -0.00045150027569278921 0.0010446596868545128 0 -0.00031024155918488389 0.0012174574049438206 0 -0.00056063295512282462 0.0012567776852049303 0 -0.00048278402713094733 0.0014752220969122449 0 -0.00031024155918488389 0.0012174574049438206 0 -0.00056063295512282462 0.0012567776852049303 0 -0.00045150027569278921 0.0010446596868545128 0 -0.00056063295512282462 0.0012567776852049303 0 -0.00070102426963987419 0.0011857178404684992 0 -0.00069738513300307797 0.0015288987257145901 0 -0.00056063295512282462 0.0012567776852049303 0 -0.00048278402713094733 0.0014752220969122449 0 -0.00069738513300307797 0.0015288987257145901 0 -0.00048278402713094733 0.0014752220969122449 0 -0.00056264232182663524 0.0017728770441819987 0 -0.00069738513300307797 0.0015288987257145901 0 -0.00031024155918488389 0.0012174574049438206 0 -0.00048278402713094733 0.0014752220969122449 0 -0.00031359532467069957 0.0015856115927671106 0 -0.00048278402713094733 0.0014752220969122449 0 -0.00056264232182663524 0.0017728770441819987 0 -0.00031359532467069957 0.0015856115927671106 0 -0.00038942911288624072 0.0018093546902650066 0 -7.3517629607611958e-05 0.001599433816754014 0 -0.00018707442542618442 0.0018131165110434444 0 0.00018320141799796144 0.0019954451032965707 0 0.00015117624700573769 0.0016347421503083936 0 -0.00018707442542618442 0.0018131165110434444 0 -0.00046197384792715657 0.0023772674223686264 0 -3.4016611069944171e-05 0.0024128756990717715 0 -0.00018707442542618442 0.0018131165110434444 0 0.00018320141799796144 0.0019954451032965707 0 -3.4016611069944171e-05 0.0024128756990717715 0 0.00018320141799796144 0.0019954451032965707 0 0.00015117624700573769 0.0016347421503083936 0 0.00036551906211596588 0.0017876940262891564 0 0.00019055586174245622 0.0013886438811140688 0 0.00015117624700573769 0.0016347421503083936 0 0.00036551906211596588 0.0017876940262891564 0 0.00036551906211596588 0.0017876940262891564 0 0.00060243010751287549 0.0016454787358388084 0 0.00044765180612774905 0.0014487439071463049 0 0.00044765180612774905 0.0014487439071463049 0 0.00066678702271857546 0.0012106209083295905 0 0.00039572898353353199 0.0010811241614795994 0 0.00060243010751287549 0.0016454787358388084 0 0.00044765180612774905 0.0014487439071463049 0 0.00066678702271857546 0.0012106209083295905 0 0.00019055586174245622 0.0013886438811140688 0 0.00036551906211596588 0.0017876940262891564 0 0.00044765180612774905 0.0014487439071463049 0 0.0010774553303052356 0.0014138321186651236 0 0.0007870769193021542 0.001418047090049787 0 0.00095370893678741158 0.001151630152577606 0 0.00060243010751287549 0.0016454787358388084 0 0.0007870769193021542 0.001418047090049787 0 0.00066678702271857546 0.0012106209083295905 0 0.0007870769193021542 0.001418047090049787 0 0.00066678702271857546 0.0012106209083295905 0 0.00095370893678741158 0.001151630152577606 0 0.00066678702271857546 0.0012106209083295905 0 0.00095370893678741158 0.001151630152577606 0 0.0008687339264263767 0.00080592456968241004 0 0.00066678702271857546 0.0012106209083295905 0 0.0008687339264263767 0.00080592456968241004 0 0.00063606755592285065 0.00076313446649705241 0 0.0010426691548593191 0.0003661138643589117 0 0.0008687339264263767 0.00080592456968241004 0 0.00082561889678568919 0.00034897320999813545 0 0.0008687339264263767 0.00080592456968241004 0 0.00063606755592285065 0.00076313446649705241 0 0.00082561889678568919 0.00034897320999813545 0 0.00019055586174245622 0.0013886438811140688 0 5.616774042026526e-05 0.00097986187431421613 0 0.00039572898353353199 0.0010811241614795994 0 0.00019055586174245622 0.0013886438811140688 0 0.00044765180612774905 0.0014487439071463049 0 0.00039572898353353199 0.0010811241614795994 0 0.00066678702271857546 0.0012106209083295905 0 0.00063606755592285065 0.00076313446649705241 0 0.00039572898353353199 0.0010811241614795994 0 0.00063606755592285065 0.00076313446649705241 0 0.00039572898353353199 0.0010811241614795994 0 0.00030456100850586362 0.00065858812922987245 0 5.616774042026526e-05 0.00097986187431421613 0 0.00039572898353353199 0.0010811241614795994 0 0.00030456100850586362 0.00065858812922987245 0 5.616774042026526e-05 0.00097986187431421613 0 0.00030456100850586362 0.00065858812922987245 0 5.1783521732326919e-05 0.0006018933806746855 0 0.00030456100850586362 0.00065858812922987245 0 0.00024402016513640351 0.00024645420837826859 0 5.1783521732326919e-05 0.0006018933806746855 0 0.00063606755592285065 0.00076313446649705241 0 0.00030456100850586362 0.00065858812922987245 0 0.00057377535037799918 0.00025671448370586227 0 0.00024402016513640351 0.00024645420837826859 0 0.00057377535037799918 0.00025671448370586227 0 0.00042044425021695915 -3.8913576342912839e-05 0 0.00030456100850586362 0.00065858812922987245 0 0.00024402016513640351 0.00024645420837826859 0 0.00057377535037799918 0.00025671448370586227 0 0.00024402016513640351 0.00024645420837826859 0 -0.0001122571612646744 0.00020108074817047896 0 5.1783521732326919e-05 0.0006018933806746855 0 0.00063606755592285065 0.00076313446649705241 0 0.00082561889678568919 0.00034897320999813545 0 0.00057377535037799918 0.00025671448370586227 0 0.00057377535037799918 0.00025671448370586227 0 0.00064158586376784953 -5.5722156907941873e-05 0 0.00042044425021695915 -3.8913576342912839e-05 0 0.00057377535037799918 0.00025671448370586227 0 0.00083468867991550041 -8.9619764617542184e-05 0 0.00064158586376784953 -5.5722156907941873e-05 0 0.00082561889678568919 0.00034897320999813545 0 0.00057377535037799918 0.00025671448370586227 0 0.00083468867991550041 -8.9619764617542184e-05 0 0.00099923597007455195 -1.4786924093504868e-05 0 0.00082561889678568919 0.00034897320999813545 0 0.00083468867991550041 -8.9619764617542184e-05 0 0.00083468867991550041 -8.9619764617542184e-05 0 0.00090870718664739483 -0.0002659759076870386 0 0.00073981700501397061 -0.00027311963579467304 0 0.00083468867991550041 -8.9619764617542184e-05 0 0.00064158586376784953 -5.5722156907941873e-05 0 0.00073981700501397061 -0.00027311963579467304 0 0.00064158586376784953 -5.5722156907941873e-05 0 0.00073981700501397061 -0.00027311963579467304 0 0.00042800170305161975 -0.0003490395809473165 0 0.0005940403603899735 -0.00055124641946873365 0 0.00073981700501397061 -0.00027311963579467304 0 0.00042800170305161975 -0.0003490395809473165 0 0.00094341948679225974 -0.0005211630349994499 0 0.0005940403603899735 -0.00055124641946873365 0 0.00073981700501397061 -0.00027311963579467304 0 0.00094341948679225974 -0.0005211630349994499 0 0.00090870718664739483 -0.0002659759076870386 0 0.00073981700501397061 -0.00027311963579467304 0 0.00024402016513640351 0.00024645420837826859 0 0.00017325877195688581 -0.00012913151470959387 0 0.00042044425021695915 -3.8913576342912839e-05 0 0.00024402016513640351 0.00024645420837826859 0 0.00017325877195688581 -0.00012913151470959387 0 -0.0001122571612646744 0.00020108074817047896 0 0.00017325877195688581 -0.00012913151470959387 0 0.00042044425021695915 -3.8913576342912839e-05 0 0.00042800170305161975 -0.0003490395809473165 0 0.00064158586376784953 -5.5722156907941873e-05 0 0.00042044425021695915 -3.8913576342912839e-05 0 0.00042800170305161975 -0.0003490395809473165 0 8.9369192941486739e-05 -0.00047504960423031467 0 0.00017325877195688581 -0.00012913151470959387 0 -9.9053990159868609e-05 -0.00028873098700220361 0 8.9369192941486739e-05 -0.00047504960423031467 0 0.00017325877195688581 -0.00012913151470959387 0 0.00042800170305161975 -0.0003490395809473165 0 -0.00012900940827518658 -0.00021293423066526726 0 -0.00049564373711350103 -0.00022466749284109604 0 -0.00040588688558373676 6.2379502021988357e-06 0 -0.00033931149880632092 -0.00043536055865570642 0 -0.00012900940827518658 -0.00021293423066526726 0 -0.00049564373711350103 -0.00022466749284109604 0 -0.00059622762171693613 -0.00045646323655704836 0 -0.00049564373711350103 -0.00022466749284109604 0 -0.00068348671845609537 -0.00026834064885506603 0 -0.00033931149880632092 -0.00043536055865570642 0 -0.00059622762171693613 -0.00045646323655704836 0 -0.00049564373711350103 -0.00022466749284109604 0 -0.00040588688558373676 6.2379502021988357e-06 0 -0.00057562881542850847 0.0003498342383473219 0 -0.00073777334733253518 -3.0125231410299767e-05 0 -0.00040588688558373676 6.2379502021988357e-06 0 -0.0001122571612646744 0.00020108074817047896 0 -0.00057562881542850847 0.0003498342383473219 0 -0.00049564373711350103 -0.00022466749284109604 0 -0.00040588688558373676 6.2379502021988357e-06 0 -0.00073777334733253518 -3.0125231410299767e-05 0 -0.00012900940827518658 -0.00021293423066526726 0 -0.00040588688558373676 6.2379502021988357e-06 0 -0.0001122571612646744 0.00020108074817047896 0 0.00017325877195688581 -0.00012913151470959387 0 -9.9053990159868609e-05 -0.00028873098700220361 0 -0.0001122571612646744 0.00020108074817047896 0 -7.4434273232691815e-05 -0.00023384276810169575 0 -0.00012471640964216316 0.00016698249008203583 0 -0.0001122571612646744 0.00020108074817047896 0 -0.00030537538257263414 0.00087621058205825163 0 5.1783521732326919e-05 0.0006018933806746855 0 -0.0001122571612646744 0.00020108074817047896 0 -0.00057562881542850847 0.0003498342383473219 0 -0.00030537538257263414 0.00087621058205825163 0 -0.00052333791283669341 0.00070290547331240617 0 -0.00034103415254952378 0.00087816664472974192 0 -0.00051566493744415484 0.0010059097162619711 0 -0.00030537538257263414 0.00087621058205825163 0 -0.00045150027569278921 0.0010446596868545128 0 5.616774042026526e-05 0.00097986187431421613 0 -0.00030537538257263414 0.00087621058205825163 0 5.1783521732326919e-05 0.0006018933806746855 0 -0.00058085883251107902 0.0010786956099530843 0 -0.00070045349586261797 0.0010869961179100847 0 -0.00070102426963987419 0.0011857178404684992 0 -0.00056063295512282462 0.0012567776852049303 0 -0.00058085883251107902 0.0010786956099530843 0 -0.00070102426963987419 0.0011857178404684992 0 -0.00056063295512282462 0.0012567776852049303 0 -0.00058085883251107902 0.0010786956099530843 0 -0.00045150027569278921 0.0010446596868545128 0 -0.00051566493744415484 0.0010059097162619711 0 -0.00058085883251107902 0.0010786956099530843 0 -0.00045150027569278921 0.0010446596868545128 0 -0.00051566493744415484 0.0010059097162619711 0 -0.00058085883251107902 0.0010786956099530843 0 -0.00063996884259504754 0.0010586062500071718 0 -0.00063996884259504754 0.0010586062500071718 0 -0.00070045349586261797 0.0010869961179100847 0 -0.00070697141150438973 0.0010867689157662186 0 -0.00058085883251107902 0.0010786956099530843 0 -0.00063996884259504754 0.0010586062500071718 0 -0.00070045349586261797 0.0010869961179100847 0 -0.00063996884259504754 0.0010586062500071718 0 -0.00070697141150438973 0.0010867689157662186 0 -0.0007068397468549426 0.0010893588240267211 0 -0.0007068397468549426 0.0010893588240267211 0 -0.00066723624835867551 0.0010728640617438281 0 -0.00076739930531747496 0.0011226644001317387 0 -0.00070697141150438973 0.0010867689157662186 0 -0.0007068397468549426 0.0010893588240267211 0 -0.00073883786841616819 0.0011151722865617158 0 -0.00070697141150438973 0.0010867689157662186 0 -0.00073883786841616819 0.0011151722865617158 0 -0.00073231964886082222 0.0011129960895020624 0 -0.00051566493744415484 0.0010059097162619711 0 -0.00063996884259504754 0.0010586062500071718 0 -0.00066723624835867551 0.0010728640617438281 0 -0.00052333791283669341 0.00070290547331240617 0 -0.00071220720543508417 0.00047806931548365273 0 -0.00063996884259504754 0.0010586062500071718 0 -0.0007068397468549426 0.0010893588240267211 0 -0.00066723624835867551 0.0010728640617438281 0 -0.00073777334733253518 -3.0125231410299767e-05 0 -0.00068348671845609537 -0.00026834064885506603 0 -0.00090174467686132036 -0.00035851544329740161 0 -0.00071220720543508417 0.00047806931548365273 0 -0.00084686861986978676 0.00067414203580445453 0 -0.00066723624835867551 0.0010728640617438281 0 -0.00076739930531747496 0.0011226644001317387 0 -0.00075716651907221705 0.0010983758361949084 0 -0.00059622762171693613 -0.00045646323655704836 0 -0.00068348671845609537 -0.00026834064885506603 0 -0.00090174467686132036 -0.00035851544329740161 0 -0.00049564373711350103 -0.00022466749284109604 0 -0.00073777334733253518 -3.0125231410299767e-05 0 -0.00068348671845609537 -0.00026834064885506603 0 -0.00073883786841616819 0.0011151722865617158 0 -0.00076739930531747496 0.0011226644001317387 0 -0.00075227052784170728 0.0011700276335621473 0 -0.0007068397468549426 0.0010893588240267211 0 -0.00073883786841616819 0.0011151722865617158 0 -0.00076739930531747496 0.0011226644001317387 0 -0.00089791188239564824 0.0011060513971225061 0 -0.00084686861986978676 0.00067414203580445453 0 -0.00080017270373058729 0.001252698024408688 0 -0.00076739930531747496 0.0011226644001317387 0 -0.00085630449333103055 0.0012210799760415192 0 -0.00080017270373058729 0.001252698024408688 0 -0.00076739930531747496 0.0011226644001317387 0 -0.00075227052784170728 0.0011700276335621473 0 -0.00076122865776102444 0.0012917153276119926 0 -0.00080017270373058729 0.001252698024408688 0 -0.00075227052784170728 0.0011700276335621473 0 -0.00076122865776102444 0.0012917153276119926 0 -0.00072508044900452975 0.0012046271042038925 0 -0.00075227052784170728 0.0011700276335621473 0 -0.00072508044900452975 0.0012046271042038925 0 -0.00075227052784170728 0.0011700276335621473 0 -0.00073231964886082222 0.0011129960895020624 0 -0.00073883786841616819 0.0011151722865617158 0 -0.00075227052784170728 0.0011700276335621473 0 -0.00073231964886082222 0.0011129960895020624 0 -0.00070045349586261797 0.0010869961179100847 0 -0.00070697141150438973 0.0010867689157662186 0 -0.00073231964886082222 0.0011129960895020624 0 -0.00073231964886082222 0.0011129960895020624 0 -0.00068885161745516369 0.0011342734360608973 0 -0.00075424689910274329 0.0011105418670999299 0 -0.00068885161745516369 0.0011342734360608973 0 -0.00078624635338321374 0.0011293756889216874 0 -0.00075424689910274329 0.0011105418670999299 0 -0.0006627067802708167 0.0013717998485528863 0 -0.00072508044900452975 0.0012046271042038925 0 -0.00068885161745516369 0.0011342734360608973 0 -0.0006627067802708167 0.0013717998485528863 0 -0.00062575549281028247 0.0014835139764690097 0 -0.00064786091429345149 0.0014486564149519385 0 -0.00071039322726465699 0.001490469804628677 0 -0.00053606195954685224 0.0010367687234541843 0 -0.00072508044900452975 0.0012046271042038925 0 -0.00073231964886082222 0.0011129960895020624 0 -0.00068885161745516369 0.0011342734360608973 0 -0.00062575549281028247 0.0014835139764690097 0 -0.00064786091429345149 0.0014486564149519385 0 -0.00066807967104631891 0.0014980616017103321 0 -0.0017460775064814104 0.0050931479525047748 0 -0.0021149939792019946 0.0047470296877093884 0 -0.00062124377954124097 0.0014909811550966397 0 -0.00064786091429345149 0.0014486564149519385 0 -0.00066807967104631891 0.0014980616017103321 0 -0.0027491718717815058 0.0089466845762592485 0 -0.0025966417836726769 0.0071150402132677849 0 -0.0035206208503210331 0.007585635254458563 0 -0.0025966417836726769 0.0071150402132677849 0 -0.0035206208503210331 0.007585635254458563 0 -0.0031401673956525712 0.0060589968437897773 0 -0.00062575549281028247 0.0014835139764690097 0 -0.00066807967104631891 0.0014980616017103321 0 -0.00065006889001242157 0.0015763306383787864 0 -0.00053606195954685224 0.0010367687234541843 0 -0.0015307995056461755 0.0025821972715605527 0 -0.0021149939792019946 0.0047470296877093884 0 -0.0015307995056461755 0.0025821972715605527 0 -0.00425537791038839 0.0061815106618057867 0 -0.0031401673956525712 0.0060589968437897773 0 -0.0037430903092743701 0.0048610282126166473 0 -0.0035206208503210331 0.007585635254458563 0 -0.00425537791038839 0.0061815106618057867 0 -0.0031401673956525712 0.0060589968437897773 0 -0.0015307995056461755 0.0025821972715605527 0 -0.0011046196796357305 0.00091689536233411902 0 -0.0025966417836726769 0.0071150402132677849 0 -0.0031401673956525712 0.0060589968437897773 0 -0.0021689178634815031 0.005785298229763901 0 -0.0031401673956525712 0.0060589968437897773 0 -0.0025303519187481055 0.0048211565091345913 0 -0.0037430903092743701 0.0048610282126166473 0 -0.0031401673956525712 0.0060589968437897773 0 -0.0025303519187481055 0.0048211565091345913 0 -0.0021689178634815031 0.005785298229763901 0 -0.0015036616486620636 0.0010805445414364585 0 -0.0011440526455252513 0.00096210679137892019 0 -0.0012918513433028717 0.0013814973545730512 0 -0.0015307995056461755 0.0025821972715605527 0 -0.0027383622012903341 0.0031886890054933785 0 -0.0013429862896072514 0.0006586073837407439 0 -0.0015036616486620636 0.0010805445414364585 0 -0.0011440526455252513 0.00096210679137892019 0 -0.00083618758026071129 0.0011686340908058826 0 -0.00077390377286193802 0.0011408383723378825 0 -0.00090426353672757405 0.0013033898569217116 0 -0.0011046196796357305 0.00091689536233411902 0 -0.00086760284109193599 0.0013345664581294397 0 -0.00077390377286193802 0.0011408383723378825 0 -0.00070102426963987419 0.0011857178404684992 0 -0.00090426353672757405 0.0013033898569217116 0 -0.00070045349586261797 0.0010869961179100847 0 -0.00077390377286193802 0.0011408383723378825 0 -0.00070102426963987419 0.0011857178404684992 0 -0.00070045349586261797 0.0010869961179100847 0 -0.00073231964886082222 0.0011129960895020624 0 -0.00075424689910274329 0.0011105418670999299 0 -0.00070045349586261797 0.0010869961179100847 0 -0.00077390377286193802 0.0011408383723378825 0 -0.00075424689910274329 0.0011105418670999299 0 -0.00078624635338321374 0.0011293756889216874 0 -0.00083618758026071129 0.0011686340908058826 0 -0.00075424689910274329 0.0011105418670999299 0 -0.00083618758026071129 0.0011686340908058826 0 -0.00077390377286193802 0.0011408383723378825 0 -0.00075424689910274329 0.0011105418670999299 0 -0.00044244043760009619 0.0090158973439391377 0 -0.00067889795301689731 0.0089322045263666161 0 -0.00050590464166318087 0.0089023401240973105 0 -0.00025487904545203787 0.0090513310450085378 0 -0.00044244043760009619 0.0090158973439391377 0 -0.00050590464166318087 0.0089023401240973105 0 -0.00033151338993342097 0.00922609637045433 0 -0.00020291925682815193 0.009290734105524192 0 -0.00042717638856199175 0.0090092614379237816 0 -0.00028792517342223585 0.0091405459214585899 0 -0.00044244043760009619 0.0090158973439391377 0 -0.00042717638856199175 0.0090092614379237816 0 -0.00020291925682815193 0.009290734105524192 0 -0.00028792517342223585 0.0091405459214585899 0 -0.00042717638856199175 0.0090092614379237816 0 -0.00042717638856199175 0.0090092614379237816 0 -0.00049688240455101511 0.0088226761694434989 0 -0.00067889795301689731 0.0089322045263666161 0 -0.00033151338993342097 0.00922609637045433 0 -0.00042717638856199175 0.0090092614379237816 0 -0.00049688240455101511 0.0088226761694434989 0 -0.00044244043760009619 0.0090158973439391377 0 -0.00042717638856199175 0.0090092614379237816 0 -0.00067889795301689731 0.0089322045263666161 0 -0.00048642183408005753 0.008736380708230327 0 -0.00047452162694619596 0.0078808803550652912 0 -0.0012754820442296868 0.0086110960593422017 0 -0.0017517249120779536 0.0077550429193340657 0 -0.00023239020657380739 0.006804255822020982 0 -0.0017517249120779536 0.0077550429193340657 0 -0.0012868199834687301 0.006216290302119962 0 -0.00023239020657380739 0.006804255822020982 0 -0.00049688240455101511 0.0088226761694434989 0 -0.0012754820442296868 0.0086110960593422017 0 -0.00023239020657380739 0.006804255822020982 0 -0.0017270208181666205 0.0092125941182053979 0 -0.0012754820442296868 0.0086110960593422017 0 -0.0017517249120779536 0.0077550429193340657 0 -0.0027491718717815058 0.0089466845762592485 0 -0.0025966417836726769 0.0071150402132677849 0 -0.0017517249120779536 0.0077550429193340657 0 -0.0017270208181666205 0.0092125941182053979 0 -0.0027491718717815058 0.0089466845762592485 0 -0.0017517249120779536 0.0077550429193340657 0 -0.0025966417836726769 0.0071150402132677849 0 -0.0017517249120779536 0.0077550429193340657 0 -0.0012868199834687301 0.006216290302119962 0 -0.0021689178634815031 0.005785298229763901 0 -0.0014388161501415948 0.0049743760372956266 0 -0.0012868199834687301 0.006216290302119962 0 -0.0025966417836726769 0.0071150402132677849 0 -0.0021689178634815031 0.005785298229763901 0 -0.0012868199834687301 0.006216290302119962 0 -0.0025303519187481055 0.0048211565091345913 0 -0.0021689178634815031 0.005785298229763901 0 -0.0014388161501415948 0.0049743760372956266 0 -0.0025303519187481055 0.0048211565091345913 0 -0.0014388161501415948 0.0049743760372956266 0 -0.0016621095897893438 0.0039512872003341273 0 -0.0014388161501415948 0.0049743760372956266 0 -0.00027371526769597384 0.0049138030576303064 0 -0.0010563150767021398 0.0041735026269315691 0 -0.0014388161501415948 0.0049743760372956266 0 -0.0012868199834687301 0.006216290302119962 0 -0.00027371526769597384 0.0049138030576303064 0 -0.0012868199834687301 0.006216290302119962 0 -0.00023239020657380739 0.006804255822020982 0 -0.00027371526769597384 0.0049138030576303064 0 -0.00047452162694619596 0.0078808803550652912 0 -0.00060772496200187966 0.0066660936491433828 0 -0.00067889795301689731 0.0089322045263666161 0 -0.00093672456983854896 0.0086106845682767646 0 -0.00068120665792347065 0.0086780399068352582 0 -0.00093672456983854896 0.0086106845682767646 0 -0.00068120665792347065 0.0086780399068352582 0 -0.0009018079158614595 0.0084795510969473201 0 -0.00040283162909866539 0.0087568538617599397 0 -0.00068120665792347065 0.0086780399068352582 0 -0.00061156719670617753 0.0085123484738553676 0 -0.00068120665792347065 0.0086780399068352582 0 -0.00079739447298444424 0.0084240264926013012 0 -0.0009018079158614595 0.0084795510969473201 0 -0.00068120665792347065 0.0086780399068352582 0 -0.00061156719670617753 0.0085123484738553676 0 -0.00079739447298444424 0.0084240264926013012 0 -0.00040283162909866539 0.0087568538617599397 0 -0.00068120665792347065 0.0086780399068352582 0 -0.00050590464166318087 0.0089023401240973105 0 -0.00067889795301689731 0.0089322045263666161 0 -0.00068120665792347065 0.0086780399068352582 0 -0.00050590464166318087 0.0089023401240973105 0 -0.0007897030863484631 0.0079870735215484528 0 -0.00094940852155742073 0.0080367869750862485 0 -0.00081246294289427298 0.0081468163699821936 0 -0.0007897030863484631 0.0079870735215484528 0 -0.00094940852155742073 0.0080367869750862485 0 -0.00099274020820005874 0.0078398090223270114 0 -0.00094940852155742073 0.0080367869750862485 0 -0.0010884440168397104 0.0079705768881413539 0 -0.00099274020820005874 0.0078398090223270114 0 -0.00094940852155742073 0.0080367869750862485 0 -0.00099616395183665723 0.0081378683767300581 0 -0.0010822952555381098 0.0080595332186792334 0 -0.00094940852155742073 0.0080367869750862485 0 -0.00091170232842114794 0.0081397144260132882 0 -0.00081246294289427298 0.0081468163699821936 0 -0.00094940852155742073 0.0080367869750862485 0 -0.00091170232842114794 0.0081397144260132882 0 -0.00099616395183665723 0.0081378683767300581 0 -0.00099616395183665723 0.0081378683767300581 0 -0.0008913895002572985 0.0082403722311961101 0 -0.0010359653674014316 0.0082059181991648369 0 -0.00091170232842114794 0.0081397144260132882 0 -0.00099616395183665723 0.0081378683767300581 0 -0.0008913895002572985 0.0082403722311961101 0 -0.00091170232842114794 0.0081397144260132882 0 -0.0008913895002572985 0.0082403722311961101 0 -0.00081246294289427298 0.0081468163699821936 0 -0.0008913895002572985 0.0082403722311961101 0 -0.00081246294289427298 0.0081468163699821936 0 -0.00071752097040378166 0.0082988991792533329 0 -0.00081246294289427298 0.0081468163699821936 0 -0.00070326110659551307 0.0081390173144333302 0 -0.00071752097040378166 0.0082988991792533329 0 -0.00059020107490741203 0.0082164718037521338 0 -0.00070326110659551307 0.0081390173144333302 0 -0.00071752097040378166 0.0082988991792533329 0 -0.0007897030863484631 0.0079870735215484528 0 -0.00081246294289427298 0.0081468163699821936 0 -0.00070326110659551307 0.0081390173144333302 0 -0.00071752097040378166 0.0082988991792533329 0 -0.00061156719670617753 0.0085123484738553676 0 -0.00079739447298444424 0.0084240264926013012 0 -0.0008913895002572985 0.0082403722311961101 0 -0.00071752097040378166 0.0082988991792533329 0 -0.00079739447298444424 0.0084240264926013012 0 -0.0008913895002572985 0.0082403722311961101 0 -0.00079739447298444424 0.0084240264926013012 0 -0.00096939503425651457 0.008321584377455454 0 -0.0008913895002572985 0.0082403722311961101 0 -0.00096939503425651457 0.008321584377455454 0 -0.0010359653674014316 0.0082059181991648369 0 -0.00093672456983854896 0.0086106845682767646 0 -0.0009018079158614595 0.0084795510969473201 0 -0.0010748197299869902 0.0083175663478880103 0 -0.00060772496200187966 0.0066660936491433828 0 -0.0010225465156889818 0.0062366989517671709 0 -0.00093672456983854896 0.0086106845682767646 0 -0.0010748197299869902 0.0083175663478880103 0 -0.0011870404252081318 0.0081718430156814525 0 -0.00027371526769597384 0.0049138030576303064 0 -0.00066376999133636264 0.0033900608644041111 0 -0.00079980677540852148 0.0039934142961884312 0 -0.00096939503425651457 0.008321584377455454 0 -0.0009018079158614595 0.0084795510969473201 0 -0.0010748197299869902 0.0083175663478880103 0 -0.00096939503425651457 0.008321584377455454 0 -0.0011103309516104891 0.0082333908639793674 0 -0.0010359653674014316 0.0082059181991648369 0 -0.00096939503425651457 0.008321584377455454 0 -0.0010748197299869902 0.0083175663478880103 0 -0.0011103309516104891 0.0082333908639793674 0 -0.00079739447298444424 0.0084240264926013012 0 -0.00096939503425651457 0.008321584377455454 0 -0.0009018079158614595 0.0084795510969473201 0 -0.00084681771939090756 0.0081762192646323718 0 -0.0010225465156889818 0.0062366989517671709 0 -0.0010748197299869902 0.0083175663478880103 0 -0.0012417512155056697 0.0081587915391730156 0 -0.0011103309516104891 0.0082333908639793674 0 -0.0012417512155056697 0.0081587915391730156 0 -0.0011842450511607905 0.0081424771642239959 0 -0.001161012930396397 0.008096872912996083 0 -0.0012417512155056697 0.0081587915391730156 0 -0.001161012930396397 0.008096872912996083 0 -0.0011879788889063183 0.0080207707290841108 0 -0.0012417512155056697 0.0081587915391730156 0 -0.0011842450511607905 0.0081424771642239959 0 -0.00113207947620044 0.0081806262457323076 0 -0.0012417512155056697 0.0081587915391730156 0 -0.0011103309516104891 0.0082333908639793674 0 -0.00113207947620044 0.0081806262457323076 0 -0.0011103309516104891 0.0082333908639793674 0 -0.00113207947620044 0.0081806262457323076 0 -0.0010359653674014316 0.0082059181991648369 0 -0.00113207947620044 0.0081806262457323076 0 -0.0010359653674014316 0.0082059181991648369 0 -0.0011057278699268874 0.008136014889627988 0 -0.00099616395183665723 0.0081378683767300581 0 -0.0011057278699268874 0.008136014889627988 0 -0.0010822952555381098 0.0080595332186792334 0 -0.00099616395183665723 0.0081378683767300581 0 -0.0010359653674014316 0.0082059181991648369 0 -0.0011057278699268874 0.008136014889627988 0 -0.0011057278699268874 0.008136014889627988 0 -0.001161012930396397 0.008096872912996083 0 -0.0010822952555381098 0.0080595332186792334 0 -0.0011842450511607905 0.0081424771642239959 0 -0.00113207947620044 0.0081806262457323076 0 -0.0011057278699268874 0.008136014889627988 0 -0.0011842450511607905 0.0081424771642239959 0 -0.0011057278699268874 0.008136014889627988 0 -0.001161012930396397 0.008096872912996083 0 -0.001161012930396397 0.008096872912996083 0 -0.0011879788889063183 0.0080207707290841108 0 -0.0010822952555381098 0.0080595332186792334 0 -0.0011879788889063183 0.0080207707290841108 0 -0.0010822952555381098 0.0080595332186792334 0 -0.0010884440168397104 0.0079705768881413539 0 -0.00094940852155742073 0.0080367869750862485 0 -0.0010822952555381098 0.0080595332186792334 0 -0.0010884440168397104 0.0079705768881413539 0 -0.0011879788889063183 0.0080207707290841108 0 -0.0010884440168397104 0.0079705768881413539 0 -0.0012330088682709183 0.007890800140882788 0 -0.0012417512155056697 0.0081587915391730156 0 -0.0011879788889063183 0.0080207707290841108 0 -0.0012330088682709183 0.007890800140882788 0 -0.00066376999133636264 0.0033900608644041111 0 -0.0015397060300561866 0.0029957413556579316 0 -0.0014743458045460688 0.0026111057138398803 0 -0.0015397060300561866 0.0029957413556579316 0 -0.0011560021138304426 0.0035459091004745361 0 -0.0016621095897893438 0.0039512872003341273 0 -0.00066376999133636264 0.0033900608644041111 0 -0.0015397060300561866 0.0029957413556579316 0 -0.0011560021138304426 0.0035459091004745361 0 -0.00066376999133636264 0.0033900608644041111 0 -0.0011560021138304426 0.0035459091004745361 0 -0.00079980677540852148 0.0039934142961884312 0 -0.0011560021138304426 0.0035459091004745361 0 -0.00079980677540852148 0.0039934142961884312 0 -0.0010563150767021398 0.0041735026269315691 0 -0.00027371526769597384 0.0049138030576303064 0 -0.00079980677540852148 0.0039934142961884312 0 -0.0010563150767021398 0.0041735026269315691 0 -0.0014388161501415948 0.0049743760372956266 0 -0.0010563150767021398 0.0041735026269315691 0 -0.0016621095897893438 0.0039512872003341273 0 -0.0011560021138304426 0.0035459091004745361 0 -0.0010563150767021398 0.0041735026269315691 0 -0.0016621095897893438 0.0039512872003341273 0 -0.0025303519187481055 0.0048211565091345913 0 -0.0016621095897893438 0.0039512872003341273 0 -0.0023036154532279024 0.0038807998839727191 0 -0.0016621095897893438 0.0039512872003341273 0 -0.0020116353721736408 0.003176805218556452 0 -0.0023036154532279024 0.0038807998839727191 0 -0.0015397060300561866 0.0029957413556579316 0 -0.0020116353721736408 0.003176805218556452 0 -0.0017738930381385745 0.0026277792500069693 0 -0.0015397060300561866 0.0029957413556579316 0 -0.0016621095897893438 0.0039512872003341273 0 -0.0020116353721736408 0.003176805218556452 0 -0.0017738930381385745 0.0026277792500069693 0 -0.0018006550740349932 0.0026198080461750303 0 -0.0020377250668100477 0.0024335712889039566 0 -0.0017738930381385745 0.0026277792500069693 0 -0.0018006550740349932 0.0026198080461750303 0 -0.0014743458045460688 0.0026111057138398803 0 -0.0020116353721736408 0.003176805218556452 0 -0.0017738930381385745 0.0026277792500069693 0 -0.0020377250668100477 0.0024335712889039566 0 -0.0018006550740349932 0.0026198080461750303 0 -0.0014743458045460688 0.0026111057138398803 0 -0.0019660393309078456 0.0027991480922711668 0 -0.0015184049410163836 0.0050376110400001872 0 -0.001911118534529908 0.0049123701337234404 0 -0.0015397060300561866 0.0029957413556579316 0 -0.0017738930381385745 0.0026277792500069693 0 -0.0014743458045460688 0.0026111057138398803 0 -0.0012417512155056697 0.0081587915391730156 0 -0.0015869221715157883 0.0075886566175460673 0 -0.0012330088682709183 0.007890800140882788 0 -0.0010225465156889818 0.0062366989517671709 0 -0.0015184049410163836 0.0050376110400001872 0 -0.0015869221715157883 0.0075886566175460673 0 -0.0011842534026368424 0.0076648772643109634 0 -0.0011611006753082021 0.0073600510936632198 0 -0.0010884440168397104 0.0079705768881413539 0 -0.0012330088682709183 0.007890800140882788 0 -0.00099274020820005874 0.0078398090223270114 0 -0.0012330088682709183 0.007890800140882788 0 -0.0011842534026368424 0.0076648772643109634 0 -0.00099274020820005874 0.0078398090223270114 0 -0.0015869221715157883 0.0075886566175460673 0 -0.0012330088682709183 0.007890800140882788 0 -0.0011842534026368424 0.0076648772643109634 0 -0.0015869221715157883 0.0075886566175460673 0 -0.0011611006753082021 0.0073600510936632198 0 -0.0014149556256379575 0.0069985076601446032 0 -0.0015869221715157883 0.0075886566175460673 0 -0.0014149556256379575 0.0069985076601446032 0 -0.0018748714205481176 0.0069434598921985528 0 -0.00079780394808994599 0.0074194934703228051 0 -0.0011611006753082021 0.0073600510936632198 0 -0.00097537306081368219 0.0076146785453046675 0 -0.00079780394808994599 0.0074194934703228051 0 -0.0011611006753082021 0.0073600510936632198 0 -0.0010340564695345629 0.0069162377398594996 0 -0.00079780394808994599 0.0074194934703228051 0 -0.00075322654480636318 0.0077785550238663346 0 -0.00097537306081368219 0.0076146785453046675 0 -0.0011842534026368424 0.0076648772643109634 0 -0.00097537306081368219 0.0076146785453046675 0 -0.00099274020820005874 0.0078398090223270114 0 -0.0011842534026368424 0.0076648772643109634 0 -0.0011611006753082021 0.0073600510936632198 0 -0.00097537306081368219 0.0076146785453046675 0 -0.00075322654480636318 0.0077785550238663346 0 -0.00097537306081368219 0.0076146785453046675 0 -0.00099274020820005874 0.0078398090223270114 0 -0.00075322654480636318 0.0077785550238663346 0 -0.0007897030863484631 0.0079870735215484528 0 -0.00099274020820005874 0.0078398090223270114 0 -0.0011078751289261401 0.0017446249762932699 0 -0.00069738513300307797 0.0015288987257145901 0 -0.00082666512657615253 0.0020924948280289096 0 -0.00070102426963987419 0.0011857178404684992 0 -0.00069738513300307797 0.0015288987257145901 0 -0.00090426353672757405 0.0013033898569217116 0 -0.0011078751289261401 0.0017446249762932699 0 -0.00069738513300307797 0.0015288987257145901 0 -0.00090426353672757405 0.0013033898569217116 0 -0.0011440526455252513 0.00096210679137892019 0 -0.00090426353672757405 0.0013033898569217116 0 -0.0012918513433028717 0.0013814973545730512 0 -0.0011078751289261401 0.0017446249762932699 0 -0.00090426353672757405 0.0013033898569217116 0 -0.0012918513433028717 0.0013814973545730512 0 -0.0027383622012903341 0.0031886890054933785 0 -0.0023658616048707753 0.0025691123873942336 0 -0.0015036616486620636 0.0010805445414364585 0 -0.0012918513433028717 0.0013814973545730512 0 -0.0017227419753479719 0.0015662363638749195 0 -0.0011078751289261401 0.0017446249762932699 0 -0.0012918513433028717 0.0013814973545730512 0 -0.0017227419753479719 0.0015662363638749195 0 -0.0025303519187481055 0.0048211565091345913 0 -0.0030846455271639397 0.0035723100627882147 0 -0.0023036154532279024 0.0038807998839727191 0 -0.0025303519187481055 0.0048211565091345913 0 -0.0037430903092743701 0.0048610282126166473 0 -0.0030846455271639397 0.0035723100627882147 0 -0.0020116353721736408 0.003176805218556452 0 -0.0030846455271639397 0.0035723100627882147 0 -0.0023036154532279024 0.0038807998839727191 0 -0.0023658616048707753 0.0025691123873942336 0 -0.0021439212003695461 0.0024843975920469624 0 -0.0017227419753479719 0.0015662363638749195 0 -0.0014173437796263393 0.0021786370438451621 0 -0.0020377250668100477 0.0024335712889039566 0 -0.0020116353721736408 0.003176805218556452 0 -0.0030846455271639397 0.0035723100627882147 0 -0.0020377250668100477 0.0024335712889039566 0 -0.0011078751289261401 0.0017446249762932699 0 -0.0017227419753479719 0.0015662363638749195 0 -0.0014173437796263393 0.0021786370438451621 0 -0.0014173437796263393 0.0021786370438451621 0 -0.0014073731137514054 0.0025038813994849338 0 -0.00082666512657615253 0.0020924948280289096 0 -0.0014173437796263393 0.0021786370438451621 0 -0.0020377250668100477 0.0024335712889039566 0 -0.0014073731137514054 0.0025038813994849338 0 -0.0018006550740349932 0.0026198080461750303 0 -0.0014073731137514054 0.0025038813994849338 0 -0.0013439655291823875 0.0029241233691721701 0 -0.0018006550740349932 0.0026198080461750303 0 -0.0020377250668100477 0.0024335712889039566 0 -0.0014073731137514054 0.0025038813994849338 0 -0.0014073731137514054 0.0025038813994849338 0 -0.00082666512657615253 0.0020924948280289096 0 -0.00090032678926896573 0.002729130094868444 0 -0.0011078751289261401 0.0017446249762932699 0 -0.0014173437796263393 0.0021786370438451621 0 -0.00082666512657615253 0.0020924948280289096 0 -0.00056264232182663524 0.0017728770441819987 0 -0.00069738513300307797 0.0015288987257145901 0 -0.00082666512657615253 0.0020924948280289096 0 -0.00038942911288624072 0.0018093546902650066 0 -0.00080887191901165439 0.0020477016225480733 0 -0.00018707442542618442 0.0018131165110434444 0 -0.00082666512657615253 0.0020924948280289096 0 -0.00046197384792715657 0.0023772674223686264 0 -0.00082666512657615253 0.0020924948280289096 0 -0.00046197384792715657 0.0023772674223686264 0 -0.00090032678926896573 0.002729130094868444 0 -0.00046197384792715657 0.0023772674223686264 0 -0.00041794048515007447 0.0030988813664005895 0 -0.00090032678926896573 0.002729130094868444 0 -0.00041794048515007447 0.0030988813664005895 0 -0.00090032678926896573 0.002729130094868444 0 -0.00091898759587006511 0.0034747210194421402 0 -0.0014073731137514054 0.0025038813994849338 0 -0.00090032678926896573 0.002729130094868444 0 -0.0013439655291823875 0.0029241233691721701 0 -0.0018006550740349932 0.0026198080461750303 0 -0.0013439655291823875 0.0029241233691721701 0 -0.0018156531189687547 0.0030770875532294076 0 -0.0013439655291823875 0.0029241233691721701 0 -0.0015574356683601084 0.0038892269061647825 0 -0.0018156531189687547 0.0030770875532294076 0 -0.0013439655291823875 0.0029241233691721701 0 -0.00091898759587006511 0.0034747210194421402 0 -0.0015574356683601084 0.0038892269061647825 0 -0.00090032678926896573 0.002729130094868444 0 -0.0013439655291823875 0.0029241233691721701 0 -0.00091898759587006511 0.0034747210194421402 0 -0.00091898759587006511 0.0034747210194421402 0 -0.0015574356683601084 0.0038892269061647825 0 -0.0010401982982450393 0.0043409714263075447 0 -0.00091898759587006511 0.0034747210194421402 0 -0.0010401982982450393 0.0043409714263075447 0 -0.00074013095986263477 0.0039815275145258112 0 -0.0010491240129582898 0.0044248905282922892 0 -0.001450780807857226 0.0049391106436937207 0 -0.0016292055159716553 0.0046023145430603724 0 -0.0010401982982450393 0.0043409714263075447 0 -0.0018746142024449748 0.0051891164404401311 0 -0.0015574356683601084 0.0038892269061647825 0 -0.0016292055159716553 0.0046023145430603724 0 -0.0010401982982450393 0.0043409714263075447 0 -0.0010401982982450393 0.0043409714263075447 0 -0.00074013095986263477 0.0039815275145258112 0 -0.00073624177084592464 0.0044331975585496786 0 -0.00074013095986263477 0.0039815275145258112 0 -0.00041102069615856803 0.0038537688350245547 0 -0.00073624177084592464 0.0044331975585496786 0 -0.00074013095986263477 0.0039815275145258112 0 -0.00041102069615856803 0.0038537688350245547 0 -0.00061483055313033181 0.0036049802501808416 0 -0.00041102069615856803 0.0038537688350245547 0 -0.00020178396193387278 0.0040657853469901629 0 -8.4789570637322331e-06 0.0034609235792674468 0 -0.00041794048515007447 0.0030988813664005895 0 -0.00041102069615856803 0.0038537688350245547 0 -0.00061483055313033181 0.0036049802501808416 0 -0.00041794048515007447 0.0030988813664005895 0 -0.00041102069615856803 0.0038537688350245547 0 -8.4789570637322331e-06 0.0034609235792674468 0 -0.00041794048515007447 0.0030988813664005895 0 -0.00091898759587006511 0.0034747210194421402 0 -0.00061483055313033181 0.0036049802501808416 0 -0.00091898759587006511 0.0034747210194421402 0 -0.00074013095986263477 0.0039815275145258112 0 -0.00061483055313033181 0.0036049802501808416 0 -0.0010772298974383409 0.0063711088334400048 0 -0.0010340564695345629 0.0069162377398594996 0 -0.0015139786803649879 0.0064529225742073126 0 -0.0011611006753082021 0.0073600510936632198 0 -0.0010340564695345629 0.0069162377398594996 0 -0.0014149556256379575 0.0069985076601446032 0 -0.0010340564695345629 0.0069162377398594996 0 -0.0014149556256379575 0.0069985076601446032 0 -0.0015139786803649879 0.0064529225742073126 0 -0.0014149556256379575 0.0069985076601446032 0 -0.0015139786803649879 0.0064529225742073126 0 -0.0018748714205481176 0.0069434598921985528 0 -0.0015139786803649879 0.0064529225742073126 0 -0.0021057469102517875 0.0061922882619467774 0 -0.0018748714205481176 0.0069434598921985528 0 -0.0022774886160491998 0.0035533682851636222 0 -0.0019660393309078456 0.0027991480922711668 0 -0.0018156531189687547 0.0030770875532294076 0 -0.0021528432141261601 0.0048915596345636587 0 -0.001911118534529908 0.0049123701337234404 0 -0.0018006550740349932 0.0026198080461750303 0 -0.0019660393309078456 0.0027991480922711668 0 -0.0018156531189687547 0.0030770875532294076 0 -0.0015574356683601084 0.0038892269061647825 0 -0.0022774886160491998 0.0035533682851636222 0 -0.0018156531189687547 0.0030770875532294076 0 -0.0015574356683601084 0.0038892269061647825 0 -0.0022774886160491998 0.0035533682851636222 0 -0.0020844165915710781 0.0050501275277426054 0 -0.0015574356683601084 0.0038892269061647825 0 -0.0016292055159716553 0.0046023145430603724 0 -0.0020844165915710781 0.0050501275277426054 0 -0.0020844165915710781 0.0050501275277426054 0 -0.0018792233736111086 0.0052669022911161186 0 -0.0018746142024449748 0.0051891164404401311 0 -0.0016292055159716553 0.0046023145430603724 0 -0.0020844165915710781 0.0050501275277426054 0 -0.0018746142024449748 0.0051891164404401311 0 -0.0020844165915710781 0.0050501275277426054 0 -0.0017883729707977001 0.0056698308098271852 0 -0.0018792233736111086 0.0052669022911161186 0 -0.0017883729707977001 0.0056698308098271852 0 -0.0016496253664592115 0.0055301795284426252 0 -0.0018792233736111086 0.0052669022911161186 0 -0.0015139786803649879 0.0064529225742073126 0 -0.0021057469102517875 0.0061922882619467774 0 -0.0017883729707977001 0.0056698308098271852 0 -0.0021528432141261601 0.0048915596345636587 0 -0.0021010505627886708 0.0050631977967092595 0 -0.0021057469102517875 0.0061922882619467774 0 -0.0020844165915710781 0.0050501275277426054 0 -0.0017883729707977001 0.0056698308098271852 0 -0.0015139786803649879 0.0064529225742073126 0 -0.0017883729707977001 0.0056698308098271852 0 -0.0014188821686523577 0.0059476364741818145 0 -0.0017883729707977001 0.0056698308098271852 0 -0.0014188821686523577 0.0059476364741818145 0 -0.0016496253664592115 0.0055301795284426252 0 -0.0016496253664592115 0.0055301795284426252 0 -0.0013814719971778433 0.0056709997371251616 0 -0.001544681192701642 0.0054160716091278451 0 -0.0014188821686523577 0.0059476364741818145 0 -0.0016496253664592115 0.0055301795284426252 0 -0.0013814719971778433 0.0056709997371251616 0 -0.0014188821686523577 0.0059476364741818145 0 -0.0011078655267014168 0.0059467702898424743 0 -0.0013814719971778433 0.0056709997371251616 0 -0.0011749699386707161 0.0056036024299162606 0 -0.0011078655267014168 0.0059467702898424743 0 -0.0013814719971778433 0.0056709997371251616 0 -0.0010772298974383409 0.0063711088334400048 0 -0.0014188821686523577 0.0059476364741818145 0 -0.0011078655267014168 0.0059467702898424743 0 -0.0010772298974383409 0.0063711088334400048 0 -0.0015139786803649879 0.0064529225742073126 0 -0.0014188821686523577 0.0059476364741818145 0 -0.0013059675853289501 0.0054129821316576216 0 -0.0015096388925340057 0.0053796970922182791 0 -0.001544681192701642 0.0054160716091278451 0 -0.0013059675853289501 0.0054129821316576216 0 -0.0013933597944418943 0.0053827174495015926 0 -0.0015096388925340057 0.0053796970922182791 0 -0.0011749699386707161 0.0056036024299162606 0 -0.0013059675853289501 0.0054129821316576216 0 -0.001544681192701642 0.0054160716091278451 0 -0.0011749699386707161 0.0056036024299162606 0 -0.0013814719971778433 0.0056709997371251616 0 -0.001544681192701642 0.0054160716091278451 0 -0.001544681192701642 0.0054160716091278451 0 -0.0017950094603329592 0.0052748082858890136 0 -0.0018792233736111086 0.0052669022911161186 0 -0.0016496253664592115 0.0055301795284426252 0 -0.001544681192701642 0.0054160716091278451 0 -0.0018792233736111086 0.0052669022911161186 0 -0.0015255131175249976 0.0053562494208265719 0 -0.0014877135270288196 0.0051994021176120248 0 -0.0015096388925340057 0.0053796970922182791 0 -0.0011702083465645503 0.0051129234600023167 0 -0.0012155651349735901 0.0054722174082676104 0 -0.0015096388925340057 0.0053796970922182791 0 -0.001544681192701642 0.0054160716091278451 0 -0.0017950094603329592 0.0052748082858890136 0 -0.0011702083465645503 0.0051129234600023167 0 -0.00093133408443877718 0.0054125223228218364 0 -0.0012155651349735901 0.0054722174082676104 0 -0.0017950094603329592 0.0052748082858890136 0 -0.0018792233736111086 0.0052669022911161186 0 -0.0018746142024449748 0.0051891164404401311 0 -0.0014877135270288196 0.0051994021176120248 0 -0.001450780807857226 0.0049391106436937207 0 -0.0011702083465645503 0.0051129234600023167 0 -0.001061956600133851 0.0047606487668730687 0 -0.00096931384382668178 0.0050404688188695704 0 -0.0011702083465645503 0.0051129234600023167 0 -0.00096931384382668178 0.0050404688188695704 0 -0.00093133408443877718 0.0054125223228218364 0 -0.00069613073878422845 0.0064799730901305185 0 -0.00072437276686871928 0.0067511134543110952 0 -0.00059133423445706162 0.0066974370327355778 0 -0.00069613073878422845 0.0064799730901305185 0 -0.00072437276686871928 0.0067511134543110952 0 -0.00085593479049652981 0.0066380414371612394 0 -0.00069613073878422845 0.0064799730901305185 0 -0.00085593479049652981 0.0066380414371612394 0 -0.0011758973581502477 0.0061725364730325621 0 -0.00072437276686871928 0.0067511134543110952 0 -0.00085593479049652981 0.0066380414371612394 0 -0.00096185247291756114 0.0069680617289151741 0 -0.00085593479049652981 0.0066380414371612394 0 -0.0010198997075383076 0.0068543238198526127 0 -0.00096185247291756114 0.0069680617289151741 0 -0.00085593479049652981 0.0066380414371612394 0 -0.0010198997075383076 0.0068543238198526127 0 -0.0011758973581502477 0.0061725364730325621 0 -0.00093133408443877718 0.0054125223228218364 0 -0.0012155651349735901 0.0054722174082676104 0 -0.0011758973581502477 0.0061725364730325621 0 -0.00085670122814154057 0.0059562272410479929 0 -0.0012175543996670027 0.0061550534354865277 0 -0.0015096388925340057 0.0053796970922182791 0 -0.0012155651349735901 0.0054722174082676104 0 -0.00140482346479848 0.0057777749209979032 0 -0.00140482346479848 0.0057777749209979032 0 -0.001285031428753636 0.0067774416474362881 0 -0.0016302487081394717 0.0054828341363743188 0 -0.0012155651349735901 0.0054722174082676104 0 -0.00140482346479848 0.0057777749209979032 0 -0.0011758973581502477 0.0061725364730325621 0 -0.0012218328876969051 0.0068285204441859209 0 -0.0013554151428743415 0.0067434885231516051 0 -0.00140482346479848 0.0057777749209979032 0 -0.0011758973581502477 0.0061725364730325621 0 -0.001285031428753636 0.0067774416474362881 0 -0.0010198997075383076 0.0068543238198526127 0 -0.0011758973581502477 0.0061725364730325621 0 -0.001285031428753636 0.0067774416474362881 0 -0.001285031428753636 0.0067774416474362881 0 -0.0012292989626708072 0.0072105447726860342 0 -0.001145731470029242 0.0070338002199757076 0 -0.0010198997075383076 0.0068543238198526127 0 -0.001285031428753636 0.0067774416474362881 0 -0.001145731470029242 0.0070338002199757076 0 -0.001285031428753636 0.0067774416474362881 0 -0.0012416275237181024 0.0073558543007317921 0 -0.0012292989626708072 0.0072105447726860342 0 -0.001285031428753636 0.0067774416474362881 0 -0.0012416275237181024 0.0073558543007317921 0 -0.0012393759228180462 0.007943350949191642 0 -0.0012416275237181024 0.0073558543007317921 0 -0.0011658189453072061 0.0074535231769113754 0 -0.0012292989626708072 0.0072105447726860342 0 -0.0012416275237181024 0.0073558543007317921 0 -0.0011563599398112276 0.0076180277534503068 0 -0.0011658189453072061 0.0074535231769113754 0 -0.0011563599398112276 0.0076180277534503068 0 -0.0011658189453072061 0.0074535231769113754 0 -0.0010869839394970996 0.0076468021715004227 0 -0.0012416275237181024 0.0073558543007317921 0 -0.0011563599398112276 0.0076180277534503068 0 -0.0012393759228180462 0.007943350949191642 0 -0.0015096388925340057 0.0053796970922182791 0 -0.00140482346479848 0.0057777749209979032 0 -0.0016302487081394717 0.0054828341363743188 0 -0.0013933597944418943 0.0053827174495015926 0 -0.0015096388925340057 0.0053796970922182791 0 -0.0016302487081394717 0.0054828341363743188 0 -0.00059387154262158476 0.0046145511454765593 0 -0.00063299628477279902 0.0048984967303468763 0 -0.00027648321349371555 0.0045753953806956004 0 -0.00059387154262158476 0.0046145511454765593 0 -0.00063299628477279902 0.0048984967303468763 0 -0.00079427817791803375 0.0047962674385294644 0 -0.00038050610042294353 0.0053592004286325302 0 -0.0001049435114318735 0.0050307860357519359 0 -0.00041458711015413062 0.0064940046582325018 0 -0.00034269528125588947 0.0064658905916421044 0 -0.00036968711841693023 0.0065167499685794645 0 -6.6164666451228878e-05 0.0037122738904361019 0 0.00031262915814366833 0.0036087654652963339 0 0.0003967069399869324 0.0033959316781147814 0 -0.00038050610042294353 0.0053592004286325302 0 0.00012062788788960634 0.0038679973701038982 0 -0.00034269528125588947 0.0064658905916421044 0 -0.0003029809651377397 0.006489261723710768 0 -0.00032678116216105303 0.0065226895197457351 0 -0.00034269528125588947 0.0064658905916421044 0 -0.0003029809651377397 0.006489261723710768 0 -0.00026022818448322225 0.0064356376884277524 0 -0.0001049435114318735 0.0050307860357519359 0 0.00073665185630307061 0.0040459886437478427 0 0.00031262915814366833 0.0036087654652963339 0 0.0003967069399869324 0.0033959316781147814 0 0.000574619130326611 0.0034190286215474981 0 -0.00059387154262158476 0.0046145511454765593 0 -0.00027648321349371555 0.0045753953806956004 0 -0.0004343275513304195 0.0043526962711569282 0 -0.00027648321349371555 0.0045753953806956004 0 -0.00020178396193387278 0.0040657853469901629 0 -0.0004343275513304195 0.0043526962711569282 0 -0.00041102069615856803 0.0038537688350245547 0 -0.00020178396193387278 0.0040657853469901629 0 -0.0004343275513304195 0.0043526962711569282 0 -0.00041102069615856803 0.0038537688350245547 0 -0.0004343275513304195 0.0043526962711569282 0 -0.00073624177084592464 0.0044331975585496786 0 -0.00059387154262158476 0.0046145511454765593 0 -0.0004343275513304195 0.0043526962711569282 0 -0.00073624177084592464 0.0044331975585496786 0 -0.00059387154262158476 0.0046145511454765593 0 -0.00073624177084592464 0.0044331975585496786 0 -0.00079427817791803375 0.0047962674385294644 0 -0.00073624177084592464 0.0044331975585496786 0 -0.00091210679831490006 0.0046938538436149292 0 -0.00079427817791803375 0.0047962674385294644 0 -0.0010401982982450393 0.0043409714263075447 0 -0.00073624177084592464 0.0044331975585496786 0 -0.00091210679831490006 0.0046938538436149292 0 -0.001061956600133851 0.0047606487668730687 0 -0.00096931384382668178 0.0050404688188695704 0 -0.00098805145552719907 0.0047878564858995897 0 -0.0010401982982450393 0.0043409714263075447 0 -0.001061956600133851 0.0047606487668730687 0 -0.00098805145552719907 0.0047878564858995897 0 -0.0010401982982450393 0.0043409714263075447 0 -0.00091210679831490006 0.0046938538436149292 0 -0.00098805145552719907 0.0047878564858995897 0 -0.00091210679831490006 0.0046938538436149292 0 -0.00098805145552719907 0.0047878564858995897 0 -0.00092270102368324466 0.0048903969969263704 0 -0.00096931384382668178 0.0050404688188695704 0 -0.00098805145552719907 0.0047878564858995897 0 -0.00092270102368324466 0.0048903969969263704 0 -0.00096931384382668178 0.0050404688188695704 0 -0.00092270102368324466 0.0048903969969263704 0 -0.00088610774684206163 0.0050705504872437506 0 -0.00063299628477279902 0.0048984967303468763 0 -0.00079427817791803375 0.0047962674385294644 0 -0.00088610774684206163 0.0050705504872437506 0 -0.00091210679831490006 0.0046938538436149292 0 -0.00092270102368324466 0.0048903969969263704 0 -0.00079427817791803375 0.0047962674385294644 0 -0.00092270102368324466 0.0048903969969263704 0 -0.00079427817791803375 0.0047962674385294644 0 -0.00088610774684206163 0.0050705504872437506 0 -0.00038050610042294353 0.0053592004286325302 0 -0.00063351360166463038 0.0067283519216935041 0 -0.00048926347443198055 0.0065490885945458125 0 -0.00053903390371510943 0.0065926504875354888 0 -0.00045024523521027877 0.0066025619727437847 0 -0.00038050610042294353 0.0053592004286325302 0 -0.00074934066556502608 0.0058325835294703934 0 -0.00048926347443198055 0.0065490885945458125 0 -0.00045024523521027877 0.0066025619727437847 0 -0.00041371383540309177 0.0065524630881533021 0 -0.00036331383414370109 0.0064435120025661107 0 -0.00048926347443198055 0.0065490885945458125 0 -0.00054447536206475859 0.0065067815345066842 0 -0.00048926347443198055 0.0065490885945458125 0 -0.00054447536206475859 0.0065067815345066842 0 -0.00053903390371510943 0.0065926504875354888 0 -0.00069613073878422845 0.0064799730901305185 0 -0.00054447536206475859 0.0065067815345066842 0 -0.00053903390371510943 0.0065926504875354888 0 -0.00085670122814154057 0.0059562272410479929 0 -0.00074934066556502608 0.0058325835294703934 0 -0.00096931384382668178 0.0050404688188695704 0 -0.00093133408443877718 0.0054125223228218364 0 -0.00088610774684206163 0.0050705504872437506 0 -0.00069613073878422845 0.0064799730901305185 0 -0.00053903390371510943 0.0065926504875354888 0 -0.00059133423445706162 0.0066974370327355778 0 -0.00053903390371510943 0.0065926504875354888 0 -0.00059133423445706162 0.0066974370327355778 0 -0.00048981521513180777 0.0066825153398204235 0 -0.00053903390371510943 0.0065926504875354888 0 -0.00045024523521027877 0.0066025619727437847 0 -0.00048981521513180777 0.0066825153398204235 0 -0.00048981521513180777 0.0066825153398204235 0 -0.00041116821752253005 0.0066561764458233095 0 -0.00043138243577960485 0.0067398808302239124 0 -0.00041116821752253005 0.0066561764458233095 0 -0.00036663875906279002 0.0066195860597525278 0 -0.00036849947452794227 0.00668280064098822 0 -0.00041116821752253005 0.0066561764458233095 0 -0.00039830537067014307 0.0065941428314715157 0 -0.00036663875906279002 0.0066195860597525278 0 -0.00045024523521027877 0.0066025619727437847 0 -0.00048981521513180777 0.0066825153398204235 0 -0.00041116821752253005 0.0066561764458233095 0 -0.00045024523521027877 0.0066025619727437847 0 -0.00041116821752253005 0.0066561764458233095 0 -0.00039830537067014307 0.0065941428314715157 0 -0.00045024523521027877 0.0066025619727437847 0 -0.00039830537067014307 0.0065941428314715157 0 -0.00041371383540309177 0.0065524630881533021 0 -0.00041458711015413062 0.0064940046582325018 0 -0.00048926347443198055 0.0065490885945458125 0 -0.00041371383540309177 0.0065524630881533021 0 -0.00039830537067014307 0.0065941428314715157 0 -0.00041371383540309177 0.0065524630881533021 0 -0.00036087764504099984 0.0065579038633143318 0 -0.00041371383540309177 0.0065524630881533021 0 -0.00036968711841693023 0.0065167499685794645 0 -0.00036087764504099984 0.0065579038633143318 0 -0.00041458711015413062 0.0064940046582325018 0 -0.00041371383540309177 0.0065524630881533021 0 -0.00036968711841693023 0.0065167499685794645 0 -0.0003029809651377397 0.006489261723710768 0 -0.00032678116216105303 0.0065226895197457351 0 -0.00028414556045982777 0.0065325057991679212 0 -0.00032678116216105303 0.0065226895197457351 0 -0.00036968711841693023 0.0065167499685794645 0 -0.00036087764504099984 0.0065579038633143318 0 -0.00034269528125588947 0.0064658905916421044 0 -0.00032678116216105303 0.0065226895197457351 0 -0.00036968711841693023 0.0065167499685794645 0 -0.00036087764504099984 0.0065579038633143318 0 -0.00031975225271774145 0.0065856870301678281 0 -0.00036663875906279002 0.0066195860597525278 0 -0.00039830537067014307 0.0065941428314715157 0 -0.00036087764504099984 0.0065579038633143318 0 -0.00036663875906279002 0.0066195860597525278 0 -0.00032678116216105303 0.0065226895197457351 0 -0.00031975225271774145 0.0065856870301678281 0 -0.00028414556045982777 0.0065325057991679212 0 -0.00032678116216105303 0.0065226895197457351 0 -0.00036087764504099984 0.0065579038633143318 0 -0.00031975225271774145 0.0065856870301678281 0 -0.00031975225271774145 0.0065856870301678281 0 -0.00036663875906279002 0.0066195860597525278 0 -0.00033435404185561325 0.0066427243635120972 0 -0.00031975225271774145 0.0065856870301678281 0 -0.00033435404185561325 0.0066427243635120972 0 -0.00029671469761428801 0.0066382061519708576 0 -0.00036663875906279002 0.0066195860597525278 0 -0.00033435404185561325 0.0066427243635120972 0 -0.00036849947452794227 0.00668280064098822 0 -0.00033435404185561325 0.0066427243635120972 0 -0.00029671469761428801 0.0066382061519708576 0 -0.00032278857633115144 0.0066937410207835897 0 -0.00033435404185561325 0.0066427243635120972 0 -0.00032278857633115144 0.0066937410207835897 0 -0.00036849947452794227 0.00668280064098822 0 -0.00031975225271774145 0.0065856870301678281 0 -0.00029671469761428801 0.0066382061519708576 0 -0.0002752238604893066 0.0065922201200617377 0 -0.00029671469761428801 0.0066382061519708576 0 -0.0002752238604893066 0.0065922201200617377 0 -0.00025715712589602184 0.0066369195162913905 0 -0.0002752238604893066 0.0065922201200617377 0 -0.00025715712589602184 0.0066369195162913905 0 -0.00022492460141514521 0.0065752556806310536 0 -0.00029671469761428801 0.0066382061519708576 0 -0.00025715712589602184 0.0066369195162913905 0 -0.00027350330401330653 0.0066969775039671083 0 0.0012300013366707261 0.0028093112291274354 0 0.0011853849176301572 0.0027967530510853936 0 0.0012935528794091081 0.0027271025966339574 0 -0.00025715712589602184 0.0066369195162913905 0 -0.00022492460141514521 0.0065752556806310536 0 -0.00021695014703878784 0.0066803768167775987 0 0.00051389017858076804 0.0048413042111485815 0 0.00054811831018035633 0.004665331697095816 0 0.0011853849176301572 0.0027967530510853936 0 0.0011574409808058049 0.0029709834742064939 0 0.00096812003232524149 0.0030874342117344928 0 0.0012300013366707261 0.0028093112291274354 0 0.0011853849176301572 0.0027967530510853936 0 0.0011574409808058049 0.0029709834742064939 0 0.0011574409808058049 0.0029709834742064939 0 0.00096812003232524149 0.0030874342117344928 0 0.001091844676474534 0.0031044297563716794 0 -0.00022492460141514521 0.0065752556806310536 0 -0.00028414556045982777 0.0065325057991679212 0 -0.00026022818448322225 0.0064356376884277524 0 0.00051389017858076804 0.0048413042111485815 0 0.00073665185630307061 0.0040459886437478427 0 0.0012300013366707261 0.0028093112291274354 0 0.0011574409808058049 0.0029709834742064939 0 0.0014181790853524199 0.0032083937012621602 0 -0.00031975225271774145 0.0065856870301678281 0 -0.0002752238604893066 0.0065922201200617377 0 -0.00028414556045982777 0.0065325057991679212 0 -0.0002752238604893066 0.0065922201200617377 0 -0.00022492460141514521 0.0065752556806310536 0 -0.00028414556045982777 0.0065325057991679212 0 0.001341532944989261 0.0027089878401576036 0 0.0013512359606528931 0.0026766375002014362 0 0.0013809917082549003 0.0026674778730781707 0 0.0011853849176301572 0.0027967530510853936 0 0.001341532944989261 0.0027089878401576036 0 0.0013512359606528931 0.0026766375002014362 0 0.0011853849176301572 0.0027967530510853936 0 0.001341532944989261 0.0027089878401576036 0 0.0012935528794091081 0.0027271025966339574 0 0.0011941892511019906 0.0028037573848237584 0 0.0011192102045597531 0.0028718126164750243 0 0.0011853849176301572 0.0027967530510853936 0 0.0008628805356943913 0.0030746320765567591 0 0.00096812003232524149 0.0030874342117344928 0 0.0008628805356943913 0.0030746320765567591 0 0.00087989609619052388 0.0031384037460371085 0 0.0010253220862389027 0.0030841360462079744 0 0.0008628805356943913 0.0030746320765567591 0 0.00087989609619052388 0.0031384037460371085 0 0.00096812003232524149 0.0030874342117344928 0 0.00087989609619052388 0.0031384037460371085 0 0.00096812003232524149 0.0030874342117344928 0 0.00086254631925840449 0.0032554272044265785 0 0.00087989609619052388 0.0031384037460371085 0 0.00086254631925840449 0.0032554272044265785 0 0.00084736892757117973 0.0031300189974572939 0 0.00087989609619052388 0.0031384037460371085 0 0.00084736892757117973 0.0031300189974572939 0 0.00099237200759410356 0.0030351604623820245 0 0.00031262915814366833 0.0036087654652963339 0 0.000574619130326611 0.0034190286215474981 0 0.00061076676189400112 0.0034976336715944762 0 0.00063664525689921504 0.0037916805955686105 0 0.00073665185630307061 0.0040459886437478427 0 -0.0003029809651377397 0.006489261723710768 0 -0.00028414556045982777 0.0065325057991679212 0 -0.00026022818448322225 0.0064356376884277524 0 0.0010120578650693077 0.0030655778142840875 0 0.00073665185630307061 0.0040459886437478427 0 0.00086254631925840449 0.0032554272044265785 0 0.0014181790853524199 0.0032083937012621602 0 0.001091844676474534 0.0031044297563716794 0 0.0011574409808058049 0.0029709834742064939 0 0.0014181790853524199 0.0032083937012621602 0 0.001091844676474534 0.0031044297563716794 0 0.00096812003232524149 0.0030874342117344928 0 0.00086254631925840449 0.0032554272044265785 0 0.001091844676474534 0.0031044297563716794 0 0.00086254631925840449 0.0032554272044265785 0 0.00068824487374628395 0.0032515668914367304 0 0.0006341355122585358 0.0033033091473344575 0 0.00086254631925840449 0.0032554272044265785 0 0.00060046086007733816 0.0034516632215720465 0 0.00068824487374628395 0.0032515668914367304 0 -0.00027648321349371555 0.0045753953806956004 0 -0.00020178396193387278 0.0040657853469901629 0 0.00016027735304958123 0.0040615536869290474 0 0.0003967069399869324 0.0033959316781147814 0 0.000574619130326611 0.0034190286215474981 0 0.00068824487374628395 0.0032515668914367304 0 0.00012062788788960634 0.0038679973701038982 0 0.00038245155663865961 0.0036711980260479885 0 0.000574619130326611 0.0034190286215474981 0 0.00060046086007733816 0.0034516632215720465 0 0.00068824487374628395 0.0032515668914367304 0 0.0006341355122585358 0.0033033091473344575 0 0.00046480965112388598 0.0024886245041989895 0 0.00012309218387416749 0.0028920066279263718 0 -0.00020178396193387278 0.0040657853469901629 0 0.00016027735304958123 0.0040615536869290474 0 -8.4789570637322331e-06 0.0034609235792674468 0 -0.00041794048515007447 0.0030988813664005895 0 -8.4789570637322331e-06 0.0034609235792674468 0 0.00012309218387416749 0.0028920066279263718 0 -8.4789570637322331e-06 0.0034609235792674468 0 0.0006341355122585358 0.0033033091473344575 0 0.00012309218387416749 0.0028920066279263718 0 0.00038245155663865961 0.0036711980260479885 0 0.00062520894881124445 0.0033617989057915217 0 0.00016027735304958123 0.0040615536869290474 0 -8.4789570637322331e-06 0.0034609235792674468 0 0.0006341355122585358 0.0033033091473344575 0 0.0006341355122585358 0.0033033091473344575 0 0.00084736892757117973 0.0031300189974572939 0 0.00046480965112388598 0.0024886245041989895 0 0.00086254631925840449 0.0032554272044265785 0 0.0006341355122585358 0.0033033091473344575 0 0.00084736892757117973 0.0031300189974572939 0 0.00084736892757117973 0.0031300189974572939 0 0.00098493948599884685 0.0028578666040106589 0 0.00099237200759410356 0.0030351604623820245 0 0.00084736892757117973 0.0031300189974572939 0 0.00098493948599884685 0.0028578666040106589 0 0.00046480965112388598 0.0024886245041989895 0 0.00036551906211596588 0.0017876940262891564 0 0.00046480965112388598 0.0024886245041989895 0 0.00050944938001250305 0.0019917057841739787 0 0.00018320141799796144 0.0019954451032965707 0 0.00036551906211596588 0.0017876940262891564 0 0.00046480965112388598 0.0024886245041989895 0 0.00072859542033798248 0.0024461279880251966 0 0.00047059496893457614 0.0024560948509499492 0 0.00051771838019940778 0.0020333565224363967 0 0.00046480965112388598 0.0024886245041989895 0 0.00050944938001250305 0.0019917057841739787 0 0.00018320141799796144 0.0019954451032965707 0 0.00046480965112388598 0.0024886245041989895 0 -3.4016611069944171e-05 0.0024128756990717715 0 -0.00046197384792715657 0.0023772674223686264 0 -0.00041794048515007447 0.0030988813664005895 0 -3.4016611069944171e-05 0.0024128756990717715 0 -0.00041794048515007447 0.0030988813664005895 0 -3.4016611069944171e-05 0.0024128756990717715 0 0.00012309218387416749 0.0028920066279263718 0 0.00046480965112388598 0.0024886245041989895 0 -3.4016611069944171e-05 0.0024128756990717715 0 0.00012309218387416749 0.0028920066279263718 0 0.00082371802783298199 0.0016173827605198295 0 0.00063845963110954393 0.0018504228298181667 0 0.00084517515077492931 0.0017707206419170804 0 0.00095904320007990092 0.0015975765637108235 0 0.00082371802783298199 0.0016173827605198295 0 0.00084517515077492931 0.0017707206419170804 0 0.0010941406790551755 0.0015820498517819469 0 0.00095904320007990092 0.0015975765637108235 0 0.00084517515077492931 0.0017707206419170804 0 0.0010774553303052356 0.0014138321186651236 0 0.00095904320007990092 0.0015975765637108235 0 0.00082371802783298199 0.0016173827605198295 0 0.0010774553303052356 0.0014138321186651236 0 0.0007870769193021542 0.001418047090049787 0 0.00082371802783298199 0.0016173827605198295 0 0.00060243010751287549 0.0016454787358388084 0 0.00082371802783298199 0.0016173827605198295 0 0.00063845963110954393 0.0018504228298181667 0 0.00060243010751287549 0.0016454787358388084 0 0.0007870769193021542 0.001418047090049787 0 0.00082371802783298199 0.0016173827605198295 0 0.00060243010751287549 0.0016454787358388084 0 0.00050944938001250305 0.0019917057841739787 0 0.00063845963110954393 0.0018504228298181667 0 0.00036551906211596588 0.0017876940262891564 0 0.00060243010751287549 0.0016454787358388084 0 0.00050944938001250305 0.0019917057841739787 0 0.00051771838019940778 0.0020333565224363967 0 0.00050944938001250305 0.0019917057841739787 0 0.00063845963110954393 0.0018504228298181667 0 0.00051771838019940778 0.0020333565224363967 0 0.00063845963110954393 0.0018504228298181667 0 0.00065857535463976038 0.0019379256433132948 0 0.00072859542033798248 0.0024461279880251966 0 0.00088514205955739233 0.0024211680642701456 0 0.00098493948599884685 0.0028578666040106589 0 0.0011073164398855795 0.0029085560463856385 0 0.00099237200759410356 0.0030351604623820245 0 0.00088514205955739233 0.0024211680642701456 0 0.0010282076204475613 0.0023989279316824299 0 0.00065857535463976038 0.0019379256433132948 0 0.00084517515077492931 0.0017707206419170804 0 0.00083395258814733628 0.001940889154671769 0 0.00063845963110954393 0.0018504228298181667 0 0.00065857535463976038 0.0019379256433132948 0 0.00084517515077492931 0.0017707206419170804 0 0.0010197947664963686 0.0017857848597453456 0 0.00084517515077492931 0.0017707206419170804 0 0.00083395258814733628 0.001940889154671769 0 0.0011370843486980019 0.0023798895513493993 0 0.0010282076204475613 0.0023989279316824299 0 0.0012248197948986697 0.0028514694214700972 0 0.0012548369928700289 0.0028190717919494923 0 0.0011367659696351418 0.0029326163342154308 0 0.0011073164398855795 0.0029085560463856385 0 0.0012248197948986697 0.0028514694214700972 0 0.0011367659696351418 0.0029326163342154308 0 0.0012418801303789612 0.0028355189588314517 0 0.0011930053380013216 0.0028906673239896636 0 0.0012325683657996159 0.002683622539227245 0 0.0012248197948986697 0.0028514694214700972 0 0.0012548369928700289 0.0028190717919494923 0 0.0012325683657996159 0.002683622539227245 0 0.0012548369928700289 0.0028190717919494923 0 0.0012511672717211931 0.0026799987028591735 0 0.00099237200759410356 0.0030351604623820245 0 0.0011367659696351418 0.0029326163342154308 0 0.0010253220862389027 0.0030841360462079744 0 0.0011073164398855795 0.0029085560463856385 0 0.00099237200759410356 0.0030351604623820245 0 0.0011367659696351418 0.0029326163342154308 0 0.0012548369928700289 0.0028190717919494923 0 0.0011367659696351418 0.0029326163342154308 0 0.0010253220862389027 0.0030841360462079744 0 0.00087989609619052388 0.0031384037460371085 0 0.00099237200759410356 0.0030351604623820245 0 0.0010253220862389027 0.0030841360462079744 0 0.0013512359606528931 0.0026766375002014362 0 0.0013808399735167284 0.0027130057585835333 0 0.0013809917082549003 0.0026674778730781707 0 0.0011192102045597531 0.0028718126164750243 0 0.0011930053380013216 0.0028906673239896636 0 0.0013808399735167284 0.0027130057585835333 0 0.0013809917082549003 0.0026674778730781707 0 0.001314776044853405 0.0026580717282277764 0 0.0013809917082549003 0.0026674778730781707 0 0.001314776044853405 0.0026580717282277764 0 0.0013656227178457095 0.0025995446746549223 0 0.0012548369928700289 0.0028190717919494923 0 0.0012511672717211931 0.0026799987028591735 0 0.001314776044853405 0.0026580717282277764 0 0.0012662055774140554 0.002619711568146632 0 0.0012511672717211931 0.0026799987028591735 0 0.001314776044853405 0.0026580717282277764 0 0.0012548369928700289 0.0028190717919494923 0 0.0013808399735167284 0.0027130057585835333 0 0.001314776044853405 0.0026580717282277764 0 0.0012662055774140554 0.002619711568146632 0 0.001314776044853405 0.0026580717282277764 0 0.0013062503206201009 0.0025844609265482854 0 0.001314776044853405 0.0026580717282277764 0 0.0013062503206201009 0.0025844609265482854 0 0.0013656227178457095 0.0025995446746549223 0 0.0011075908699422483 0.0043628786514590123 0 0.0035811395214690048 -0.0025974089589401793 0 0.0013656227178457095 0.0025995446746549223 0 0.0013795926912781829 0.0025658049765710385 0 0.0013772174289224586 0.0025308330764047837 0 0.0013062503206201009 0.0025844609265482854 0 0.0013656227178457095 0.0025995446746549223 0 0.0013535651713826897 0.0024549563441184133 0 0.0035811395214690048 -0.0025974089589401793 0 0.0025508787854784118 -0.0024307830516810004 0 0.0013062503206201009 0.0025844609265482854 0 0.0013535651713826897 0.0024549563441184133 0 0.0012858746653330198 0.0025208100209132053 0 0.001341532944989261 0.0027089878401576036 0 0.0013809917082549003 0.0026674778730781707 0 0.0013830314035163309 0.0026556347447672518 0 0.0013809917082549003 0.0026674778730781707 0 0.0013656227178457095 0.0025995446746549223 0 0.0013830314035163309 0.0026556347447672518 0 0.0013656227178457095 0.0025995446746549223 0 0.0013795926912781829 0.0025658049765710385 0 0.0013931066237924073 0.0025967879669227334 0 0.0013656227178457095 0.0025995446746549223 0 0.0013830314035163309 0.0026556347447672518 0 0.0013931066237924073 0.0025967879669227334 0 0.0013830314035163309 0.0026556347447672518 0 0.0013931066237924073 0.0025967879669227334 0 0.0014075078597194576 0.0026328999641369207 0 0.0013931066237924073 0.0025967879669227334 0 0.0014518861930692343 0.0025913479771150932 0 0.0014075078597194576 0.0026328999641369207 0 0.0013931066237924073 0.0025967879669227334 0 0.0014518861930692343 0.0025913479771150932 0 0.0014032528337951673 0.002558432740534064 0 0.0014518861930692343 0.0025913479771150932 0 0.0014032528337951673 0.002558432740534064 0 0.0014024973335512911 0.002471443365002159 0 0.0013795926912781829 0.0025658049765710385 0 0.0013931066237924073 0.0025967879669227334 0 0.0013874416157433095 0.0025315496270924727 0 0.0014032528337951673 0.002558432740534064 0 0.0013874416157433095 0.0025315496270924727 0 0.0014024973335512911 0.002471443365002159 0 0.0013931066237924073 0.0025967879669227334 0 0.0014032528337951673 0.002558432740534064 0 0.0013874416157433095 0.0025315496270924727 0 0.0075526547390556932 -0.0086040898235468233 0 0.0075111010499152395 -0.0086527670152869024 0 0.0075130087722446257 -0.0085192448457713215 0 0.0074049208141480829 -0.0078309863093224616 0 0.0075526547390556932 -0.0086040898235468233 0 0.0075111010499152395 -0.0086527670152869024 0 0.0043536548163750563 -0.0026264161170917464 0 0.0044136429646176832 -0.0030806292501167867 0 0.0014518861930692343 0.0025913479771150932 0 0.0014024973335512911 0.002471443365002159 0 0.0016171999691814252 0.0022941285012833094 0 0.0075111010499152395 -0.0086527670152869024 0 0.0070895463972127865 -0.0084559200810233413 0 0.0065170283534388557 -0.0085491181139023646 0 0.0044136429646176832 -0.0030806292501167867 0 0.0042539782884267342 -0.0026767389591465939 0 0.0053325228057511049 -0.0081860246968825049 0 0.0042944747264573868 -0.0098396216002592136 0 0.0039041656205415706 -0.0086200555875995608 0 0.0035811395214690048 -0.0025974089589401793 0 0.0047354289662261033 -0.0099898823513773806 0 0.0053325228057511049 -0.0081860246968825049 0 0.0038112851836720352 -0.0072977091283417611 0 0.0039041656205415706 -0.0086200555875995608 0 0.0013795926912781829 0.0025658049765710385 0 0.0013874416157433095 0.0025315496270924727 0 0.0013772174289224586 0.0025308330764047837 0 0.0043536548163750563 -0.0026264161170917464 0 0.0035811395214690048 -0.0025974089589401793 0 0.0074049208141480829 -0.0078309863093224616 0 0.0062280376486172169 -0.0068894780118015095 0 0.0067574953365688488 -0.0084751227107180745 0 0.0074049208141480829 -0.0078309863093224616 0 0.0075526547390556932 -0.0086040898235468233 0 0.0067574953365688488 -0.0084751227107180745 0 0.0067574953365688488 -0.0084751227107180745 0 0.0050948612009727055 -0.0083375751504789417 0 0.0057537101422171959 -0.010019805163700561 0 0.0062280376486172169 -0.0068894780118015095 0 0.0067574953365688488 -0.0084751227107180745 0 0.0050948612009727055 -0.0083375751504789417 0 0.007761286927860358 -0.0093645469508496192 0 0.0092286000980001271 -0.012622628069903236 0 0.0057202836800945862 -0.012470406101765124 0 0.0050948612009727055 -0.0083375751504789417 0 0.0057537101422171959 -0.010019805163700561 0 0.0035580277865753201 -0.010976283598424071 0 0.0057537101422171959 -0.010019805163700561 0 0.0057202836800945862 -0.012470406101765124 0 0.0035580277865753201 -0.010976283598424071 0 0.0057537101422171959 -0.010019805163700561 0 0.007761286927860358 -0.0093645469508496192 0 0.0057202836800945862 -0.012470406101765124 0 0.0067574953365688488 -0.0084751227107180745 0 0.0057537101422171959 -0.010019805163700561 0 0.007761286927860358 -0.0093645469508496192 0 0.0075526547390556932 -0.0086040898235468233 0 0.0067574953365688488 -0.0084751227107180745 0 0.007761286927860358 -0.0093645469508496192 0 0.007761286927860358 -0.0093645469508496192 0 0.0075130087722446257 -0.0085192448457713215 0 0.0073480704191384817 -0.0075651548068079019 0 0.0075526547390556932 -0.0086040898235468233 0 0.007761286927860358 -0.0093645469508496192 0 0.0075130087722446257 -0.0085192448457713215 0 0.0075130087722446257 -0.0085192448457713215 0 0.0070895463972127865 -0.0084559200810233413 0 0.0066412916963011744 -0.0078566736479877691 0 0.0075111010499152395 -0.0086527670152869024 0 0.0075130087722446257 -0.0085192448457713215 0 0.0070895463972127865 -0.0084559200810233413 0 0.0075130087722446257 -0.0085192448457713215 0 0.0073480704191384817 -0.0075651548068079019 0 0.0066412916963011744 -0.0078566736479877691 0 0.0073480704191384817 -0.0075651548068079019 0 0.0081207266602690113 -0.0062139396024688872 0 0.0066701350964151231 -0.0062389998653622067 0 0.0073480704191384817 -0.0075651548068079019 0 0.0066701350964151231 -0.0062389998653622067 0 0.0066412916963011744 -0.0078566736479877691 0 0.007761286927860358 -0.0093645469508496192 0 0.0073480704191384817 -0.0075651548068079019 0 0.0081207266602690113 -0.0062139396024688872 0 0.0078458385089874173 -0.0092211692725620263 0 0.0085338519771027705 -0.0093599304151276465 0 0.0081207266602690113 -0.0062139396024688872 0 0.007177857914812325 -0.0034739782534611492 0 0.0066701350964151231 -0.0062389998653622067 0 0.0092286000980001271 -0.012622628069903236 0 0.0096722614719135912 -0.014978723006433402 0 0.008780562080698058 -0.014879353414127361 0 0.0085338519771027705 -0.0093599304151276465 0 0.0084105909130986079 -0.0092074491312258422 0 0.0092286000980001271 -0.012622628069903236 0 0.008780562080698058 -0.014879353414127361 0 0.0073237648767409584 -0.01449052328877071 0 0.0092286000980001271 -0.012622628069903236 0 0.0073237648767409584 -0.01449052328877071 0 0.0057202836800945862 -0.012470406101765124 0 0.0073237648767409584 -0.01449052328877071 0 0.0057202836800945862 -0.012470406101765124 0 0.0047813784865156873 -0.015497901665328185 0 0.0037100318087978745 -0.004740921782687077 0 0.0015226738720495007 -0.0030007676296796193 0 0.0020227405676377474 -0.0057604726694445675 0 0.0037100318087978745 -0.004740921782687077 0 0.0015226738720495007 -0.0030007676296796193 0 0.0030303539781074977 -0.0024418192636382697 0 0.0037100318087978745 -0.004740921782687077 0 0.0047680344288642375 -0.0028515953919420593 0 0.0030303539781074977 -0.0024418192636382697 0 0.0037100318087978745 -0.004740921782687077 0 0.0055143477606449942 -0.004908956118849046 0 0.0047680344288642375 -0.0028515953919420593 0 0.007177857914812325 -0.0034739782534611492 0 0.0055143477606449942 -0.004908956118849046 0 0.0047680344288642375 -0.0028515953919420593 0 0.0055143477606449942 -0.004908956118849046 0 0.0066701350964151231 -0.0062389998653622067 0 0.0053827090798217554 -0.0068552816549521303 0 0.007177857914812325 -0.0034739782534611492 0 0.0055143477606449942 -0.004908956118849046 0 0.0066701350964151231 -0.0062389998653622067 0 0.0037100318087978745 -0.004740921782687077 0 0.0055143477606449942 -0.004908956118849046 0 0.0053827090798217554 -0.0068552816549521303 0 0.0037100318087978745 -0.004740921782687077 0 0.0053827090798217554 -0.0068552816549521303 0 0.0040246790922830334 -0.0074131733825444556 0 0.0066701350964151231 -0.0062389998653622067 0 0.0053827090798217554 -0.0068552816549521303 0 0.0066412916963011744 -0.0078566736479877691 0 0.0053827090798217554 -0.0068552816549521303 0 0.0066412916963011744 -0.0078566736479877691 0 0.0061177168242415227 -0.0088482169503762056 0 0.0054621550335443927 -0.0087064259975225544 0 0.0042539782884267342 -0.0026767389591465939 0 0.0070895463972127865 -0.0084559200810233413 0 0.0066412916963011744 -0.0078566736479877691 0 0.0065170283534388557 -0.0085491181139023646 0 0.0042539782884267342 -0.0026767389591465939 0 0.0030953212862517556 -0.00086808956247604887 0 0.00048550805537824572 0.0061131926584238362 0 0.001886741814074008 0.0043220848281323235 0 0.0053827090798217554 -0.0068552816549521303 0 0.0061177168242415227 -0.0088482169503762056 0 0.0040246790922830334 -0.0074131733825444556 0 0.0018477266282298274 0.0055997087279020001 0 0.0013635896153265448 0.0050754950820490292 0 0.0035741440551649629 0.0033806313204709235 0 0.0040272630104326874 0.0043153349187222976 0 0.0018477266282298274 0.0055997087279020001 0 0.0035741440551649629 0.0033806313204709235 0 -0.0002806167509024069 0.0068460750969971057 0 -0.00027659355863584358 0.0068252691000005219 0 -0.00024331637986464317 0.006815216003507314 0 -0.0002806167509024069 0.0068460750969971057 0 -0.00029246465400014233 0.0068349226018978521 0 -0.00027659355863584358 0.0068252691000005219 0 0.0030953212862517556 -0.00086808956247604887 0 0.0010480289232901948 0.00049135163787501735 0 0.0037100318087978745 -0.004740921782687077 0 0.0040246790922830334 -0.0074131733825444556 0 0.0020227405676377474 -0.0057604726694445675 0 0.0018477266282298274 0.0055997087279020001 0 0.0013635896153265448 0.0050754950820490292 0 2.9916256871237879e-05 0.0068299243541040944 0 -0.0002806167509024069 0.0068460750969971057 0 -0.00025285174646995465 0.0067666457764870231 0 -0.00028069327038808859 0.0068178475386898437 0 0.00048550805537824572 0.0061131926584238362 0 -0.00017514966585490879 0.0066444803862870661 0 0.0013635896153265448 0.0050754950820490292 0 2.9916256871237879e-05 0.0068299243541040944 0 -0.00025285174646995465 0.0067666457764870231 0 -0.00025285174646995465 0.0067666457764870231 0 -0.00028069327038808859 0.0068178475386898437 0 -0.00031637470025472645 0.0068136418956587083 0 -0.00028069327038808859 0.0068178475386898437 0 -0.00031202378897225822 0.0068290052656931185 0 -0.00031637470025472645 0.0068136418956587083 0 -0.0002806167509024069 0.0068460750969971057 0 -0.00028069327038808859 0.0068178475386898437 0 -0.00029246465400014233 0.0068349226018978521 0 -0.00028069327038808859 0.0068178475386898437 0 -0.00031202378897225822 0.0068290052656931185 0 -0.00029246465400014233 0.0068349226018978521 0 -0.00031202378897225822 0.0068290052656931185 0 -0.00029246465400014233 0.0068349226018978521 0 -0.00032716585880827962 0.0068412857042103609 0 -0.00029246465400014233 0.0068349226018978521 0 -0.00032716585880827962 0.0068412857042103609 0 -0.00029828537451609952 0.0068270306740915573 0 -0.00032716585880827962 0.0068412857042103609 0 -0.00029828537451609952 0.0068270306740915573 0 -0.00032397495350572949 0.0068222276551488823 0 -0.00029828537451609952 0.0068270306740915573 0 -0.00027022386066908336 0.0068019616934188341 0 -0.00032397495350572949 0.0068222276551488823 0 -0.00029246465400014233 0.0068349226018978521 0 -0.00029828537451609952 0.0068270306740915573 0 -0.00027659355863584358 0.0068252691000005219 0 -0.00027659355863584358 0.0068252691000005219 0 -0.00024331637986464317 0.006815216003507314 0 -0.00023900605126406024 0.0067981703444874135 0 -0.00027659355863584358 0.0068252691000005219 0 -0.00027022386066908336 0.0068019616934188341 0 -0.00023900605126406024 0.0067981703444874135 0 -0.00029828537451609952 0.0068270306740915573 0 -0.00027659355863584358 0.0068252691000005219 0 -0.00027022386066908336 0.0068019616934188341 0 -0.00027022386066908336 0.0068019616934188341 0 -0.00023900605126406024 0.0067981703444874135 0 -0.00020914473865216867 0.0067406043911014835 0 -0.00027022386066908336 0.0068019616934188341 0 -0.00020914473865216867 0.0067406043911014835 0 -0.00026165869905870492 0.0067543244956670169 0 -0.00027022386066908336 0.0068019616934188341 0 -0.00032397495350572949 0.0068222276551488823 0 -0.00026165869905870492 0.0067543244956670169 0 0.0014518861930692343 0.0025913479771150932 0 0.0016171999691814252 0.0022941285012833094 0 0.0016813580796450527 0.0024513323651745842 0 0.0016844316838295762 0.0024690410737700317 0 0.001886741814074008 0.0043220848281323235 0 0.0042539782884267342 -0.0026767389591465939 0 0.001886741814074008 0.0043220848281323235 0 -0.00016974569932149075 0.0067924475619898037 0 -0.00024331637986464317 0.006815216003507314 0 -0.00023900605126406024 0.0067981703444874135 0 -0.0002806167509024069 0.0068460750969971057 0 -0.00016974569932149075 0.0067924475619898037 0 -0.00024331637986464317 0.006815216003507314 0 -0.00016974569932149075 0.0067924475619898037 0 -0.00023900605126406024 0.0067981703444874135 0 -0.00020914473865216867 0.0067406043911014835 0 0.001886741814074008 0.0043220848281323235 0 0.00043534608254448744 0.0047339605035422519 0 0.0014518861930692343 0.0025913479771150932 0 0.0014284345800174572 0.0026295630817700965 0 0.0014075078597194576 0.0026328999641369207 0 0.0014284345800174572 0.0026295630817700965 0 0.0014075078597194576 0.0026328999641369207 0 0.0013878699192633214 0.0026651711241389986 0 0.0014075078597194576 0.0026328999641369207 0 0.0013878699192633214 0.0026651711241389986 0 0.001362288313414969 0.0026851800561390081 0 0.0013830314035163309 0.0026556347447672518 0 0.0014075078597194576 0.0026328999641369207 0 0.001362288313414969 0.0026851800561390081 0 0.00043534608254448744 0.0047339605035422519 0 0.00054811831018035633 0.004665331697095816 0 0.0013878699192633214 0.0026651711241389986 0 0.001362288313414969 0.0026851800561390081 0 0.0012935528794091081 0.0027271025966339574 0 0.001341532944989261 0.0027089878401576036 0 0.001362288313414969 0.0026851800561390081 0 0.0012935528794091081 0.0027271025966339574 0 0.001341532944989261 0.0027089878401576036 0 0.0013830314035163309 0.0026556347447672518 0 0.001362288313414969 0.0026851800561390081 0 -0.00032397495350572949 0.0068222276551488823 0 -0.00030684802184986049 0.0067529952221153083 0 -0.00026165869905870492 0.0067543244956670169 0 -0.00030684802184986049 0.0067529952221153083 0 -0.00026165869905870492 0.0067543244956670169 0 -0.00027350330401330653 0.0066969775039671083 0 -0.00020914473865216867 0.0067406043911014835 0 -0.00026165869905870492 0.0067543244956670169 0 -0.00021695014703878784 0.0066803768167775987 0 -0.00025715712589602184 0.0066369195162913905 0 -0.00021695014703878784 0.0066803768167775987 0 -0.00027350330401330653 0.0066969775039671083 0 -0.00026165869905870492 0.0067543244956670169 0 -0.00021695014703878784 0.0066803768167775987 0 -0.00027350330401330653 0.0066969775039671083 0 -0.00030684802184986049 0.0067529952221153083 0 -0.00027350330401330653 0.0066969775039671083 0 -0.00032278857633115144 0.0066937410207835897 0 -0.00029671469761428801 0.0066382061519708576 0 -0.00027350330401330653 0.0066969775039671083 0 -0.00032278857633115144 0.0066937410207835897 0 -0.00030684802184986049 0.0067529952221153083 0 -0.00032278857633115144 0.0066937410207835897 0 -0.00036547385859220802 0.0067500366672514312 0 -0.00032278857633115144 0.0066937410207835897 0 -0.00036849947452794227 0.00668280064098822 0 -0.00036547385859220802 0.0067500366672514312 0 -0.00032397495350572949 0.0068222276551488823 0 -0.00030684802184986049 0.0067529952221153083 0 -0.00036130492035593812 0.0068024416210762419 0 -0.00030684802184986049 0.0067529952221153083 0 -0.00036547385859220802 0.0067500366672514312 0 -0.00036130492035593812 0.0068024416210762419 0 -0.00036547385859220802 0.0067500366672514312 0 -0.00036130492035593812 0.0068024416210762419 0 -0.00042180501111298253 0.0068230105683324332 0 -0.00042180501111298253 0.0068230105683324332 0 -0.00043138243577960485 0.0067398808302239124 0 -0.00049888378778962204 0.0068652250825071287 0 -0.00036130492035593812 0.0068024416210762419 0 -0.00042180501111298253 0.0068230105683324332 0 -0.00039597180304720524 0.0068518592466599972 0 -0.00036547385859220802 0.0067500366672514312 0 -0.00042180501111298253 0.0068230105683324332 0 -0.00043138243577960485 0.0067398808302239124 0 -0.00041116821752253005 0.0066561764458233095 0 -0.00036849947452794227 0.00668280064098822 0 -0.00043138243577960485 0.0067398808302239124 0 -0.00036849947452794227 0.00668280064098822 0 -0.00036547385859220802 0.0067500366672514312 0 -0.00043138243577960485 0.0067398808302239124 0 -0.00048981521513180777 0.0066825153398204235 0 -0.00043138243577960485 0.0067398808302239124 0 -0.00053587471777040202 0.0068055472318841173 0 -0.00043138243577960485 0.0067398808302239124 0 -0.00053587471777040202 0.0068055472318841173 0 -0.00049888378778962204 0.0068652250825071287 0 -0.00059133423445706162 0.0066974370327355778 0 -0.00048981521513180777 0.0066825153398204235 0 -0.00053587471777040202 0.0068055472318841173 0 -0.00053587471777040202 0.0068055472318841173 0 -0.00063999768496715136 0.0068353059008756153 0 -0.0006204310693526798 0.0069538396187315702 0 -0.00072437276686871928 0.0067511134543110952 0 -0.00059133423445706162 0.0066974370327355778 0 -0.00063999768496715136 0.0068353059008756153 0 -0.00059133423445706162 0.0066974370327355778 0 -0.00053587471777040202 0.0068055472318841173 0 -0.00063999768496715136 0.0068353059008756153 0 -0.00053587471777040202 0.0068055472318841173 0 -0.0006204310693526798 0.0069538396187315702 0 -0.00049888378778962204 0.0068652250825071287 0 -0.00042180501111298253 0.0068230105683324332 0 -0.00049888378778962204 0.0068652250825071287 0 -0.0005039522861137977 0.0069341715247498133 0 -0.0006204310693526798 0.0069538396187315702 0 -0.00049888378778962204 0.0068652250825071287 0 -0.0005039522861137977 0.0069341715247498133 0 -0.0006204310693526798 0.0069538396187315702 0 -0.0005039522861137977 0.0069341715247498133 0 -0.00066094092566120562 0.0070819602651797792 0 -0.0005039522861137977 0.0069341715247498133 0 -0.00053076293389931817 0.0069561271448983514 0 -0.00066094092566120562 0.0070819602651797792 0 -0.00053076293389931817 0.0069561271448983514 0 -0.00066094092566120562 0.0070819602651797792 0 -0.00052041746169655568 0.0069435575587781882 0 -0.0005039522861137977 0.0069341715247498133 0 -0.00053076293389931817 0.0069561271448983514 0 -0.00041551992185703465 0.0068784300630984202 0 -0.00032716585880827962 0.0068412857042103609 0 -0.00032397495350572949 0.0068222276551488823 0 -0.00041551992185703465 0.0068784300630984202 0 -0.00032397495350572949 0.0068222276551488823 0 -0.00041551992185703465 0.0068784300630984202 0 -0.00039597180304720524 0.0068518592466599972 0 -0.00032397495350572949 0.0068222276551488823 0 -0.00036130492035593812 0.0068024416210762419 0 -0.00039597180304720524 0.0068518592466599972 0 -0.00042180501111298253 0.0068230105683324332 0 -0.0005039522861137977 0.0069341715247498133 0 -0.00039597180304720524 0.0068518592466599972 0 -0.0005039522861137977 0.0069341715247498133 0 -0.00041551992185703465 0.0068784300630984202 0 -0.00039597180304720524 0.0068518592466599972 0 -0.0011249288197035866 0.0073662256636938045 0 -0.0010451476174235669 0.0072418921753446093 0 -0.0010500746517598011 0.0073360283590261323 0 -0.0011249288197035866 0.0073662256636938045 0 -0.0011658189453072061 0.0074535231769113754 0 -0.0011729184554357458 0.007318787043050441 0 -0.0011249288197035866 0.0073662256636938045 0 -0.0011658189453072061 0.0074535231769113754 0 -0.0010531528221244171 0.0075754715706087402 0 -0.0011658189453072061 0.0074535231769113754 0 -0.0011729184554357458 0.007318787043050441 0 -0.0012292989626708072 0.0072105447726860342 0 -0.0011249288197035866 0.0073662256636938045 0 -0.0011729184554357458 0.007318787043050441 0 -0.0011362429686224557 0.0072082942524321668 0 -0.0011729184554357458 0.007318787043050441 0 -0.0012292989626708072 0.0072105447726860342 0 -0.0011362429686224557 0.0072082942524321668 0 -0.0012292989626708072 0.0072105447726860342 0 -0.001145731470029242 0.0070338002199757076 0 -0.0011362429686224557 0.0072082942524321668 0 -0.001145731470029242 0.0070338002199757076 0 -0.0011362429686224557 0.0072082942524321668 0 -0.00096185247291756114 0.0069680617289151741 0 -0.0011362429686224557 0.0072082942524321668 0 -0.0010451476174235669 0.0072418921753446093 0 -0.00097782948918756171 0.0071219133281125741 0 -0.0011249288197035866 0.0073662256636938045 0 -0.0011362429686224557 0.0072082942524321668 0 -0.0010451476174235669 0.0072418921753446093 0 -0.0010451476174235669 0.0072418921753446093 0 -0.00085323020935697811 0.0071099920631972563 0 -0.00097782948918756171 0.0071219133281125741 0 -0.00085323020935697811 0.0071099920631972563 0 -0.00097782948918756171 0.0071219133281125741 0 -0.00080359521224025905 0.0069779934998734083 0 -0.0011362429686224557 0.0072082942524321668 0 -0.00097782948918756171 0.0071219133281125741 0 -0.00096185247291756114 0.0069680617289151741 0 -0.0010198997075383076 0.0068543238198526127 0 -0.001145731470029242 0.0070338002199757076 0 -0.00096185247291756114 0.0069680617289151741 0 -0.00097782948918756171 0.0071219133281125741 0 -0.00096185247291756114 0.0069680617289151741 0 -0.00080359521224025905 0.0069779934998734083 0 -0.00063999768496715136 0.0068353059008756153 0 -0.0006204310693526798 0.0069538396187315702 0 -0.00080359521224025905 0.0069779934998734083 0 -0.00072437276686871928 0.0067511134543110952 0 -0.00096185247291756114 0.0069680617289151741 0 -0.00080359521224025905 0.0069779934998734083 0 -0.00072437276686871928 0.0067511134543110952 0 -0.00063999768496715136 0.0068353059008756153 0 -0.00080359521224025905 0.0069779934998734083 0 -0.0006204310693526798 0.0069538396187315702 0 -0.00085323020935697811 0.0071099920631972563 0 -0.00080359521224025905 0.0069779934998734083 0 -0.0006204310693526798 0.0069538396187315702 0 -0.00085323020935697811 0.0071099920631972563 0 -0.00066094092566120562 0.0070819602651797792 0 -0.00085323020935697811 0.0071099920631972563 0 -0.00066094092566120562 0.0070819602651797792 0 -0.00092129717149138561 0.0072410352671732825 0 -0.00069577754266489519 0.0071511694684079459 0 -0.00051259956375913657 0.0069668545847834775 0 -0.00066094092566120562 0.0070819602651797792 0 -0.00092129717149138561 0.0072410352671732825 0 -0.00077273829574949653 0.0073633917419343034 0 -0.00092129717149138561 0.0072410352671732825 0 -0.0010149147326529375 0.0073254536931343364 0 -0.00091745310622877614 0.0073659799696419014 0 -0.0010451476174235669 0.0072418921753446093 0 -0.00085323020935697811 0.0071099920631972563 0 -0.00092129717149138561 0.0072410352671732825 0 -0.0010451476174235669 0.0072418921753446093 0 -0.0010138905675921295 0.0072854890129700626 0 -0.0010500746517598011 0.0073360283590261323 0 -0.0010451476174235669 0.0072418921753446093 0 -0.00092129717149138561 0.0072410352671732825 0 -0.0010138905675921295 0.0072854890129700626 0 -0.0010138905675921295 0.0072854890129700626 0 -0.0010500746517598011 0.0073360283590261323 0 -0.0010149147326529375 0.0073254536931343364 0 -0.00092129717149138561 0.0072410352671732825 0 -0.0010138905675921295 0.0072854890129700626 0 -0.0010149147326529375 0.0073254536931343364 0 -0.0010092809005577564 0.0073268130199959959 0 -0.0010500746517598011 0.0073360283590261323 0 -0.00096932090174595619 0.0073659649915446754 0 -0.0010092809005577564 0.0073268130199959959 0 -0.0010500746517598011 0.0073360283590261323 0 -0.0010149147326529375 0.0073254536931343364 0 -0.0011249288197035866 0.0073662256636938045 0 -0.0010500746517598011 0.0073360283590261323 0 -0.0010059188807551988 0.0074117379808426179 0 -0.0010092809005577564 0.0073268130199959959 0 -0.001034744243686096 0.0073281627903295735 0 -0.0010149147326529375 0.0073254536931343364 0 -0.0033462137887021212 0.0094667881847729941 0 -0.0034769582557616419 0.0098608318468055133 0 -0.0054602410765297498 0.01195404798052338 0 -0.0055194829490497303 0.011795883064272879 0 -0.0055210559475314261 0.011876529020112372 0 -0.001034744243686096 0.0073281627903295735 0 -0.0010149147326529375 0.0073254536931343364 0 -0.00097276609026842958 0.0074419263045519624 0 -0.00097276609026842958 0.0074419263045519624 0 -0.00091745310622877614 0.0073659799696419014 0 -0.00087416981376000854 0.007423542544548232 0 -0.0010149147326529375 0.0073254536931343364 0 -0.00097276609026842958 0.0074419263045519624 0 -0.00091745310622877614 0.0073659799696419014 0 -0.00092129717149138561 0.0072410352671732825 0 -0.00091745310622877614 0.0073659799696419014 0 -0.00077273829574949653 0.0073633917419343034 0 -0.00091745310622877614 0.0073659799696419014 0 -0.00077273829574949653 0.0073633917419343034 0 -0.00087416981376000854 0.007423542544548232 0 -0.00097276609026842958 0.0074419263045519624 0 -0.00087416981376000854 0.007423542544548232 0 -0.00081891182714956972 0.0075124496157409583 0 -0.00051259956375913657 0.0069668545847834775 0 -0.0016213531359086811 0.0079626610700403219 0 -0.00077273829574949653 0.0073633917419343034 0 -0.00087416981376000854 0.007423542544548232 0 -0.00081891182714956972 0.0075124496157409583 0 -0.0055194829490497303 0.011795883064272879 0 -0.0052128572771245234 0.011739797221592055 0 -0.0053848851165669408 0.011868427981299858 0 -0.0034769582557616419 0.0098608318468055133 0 -0.0016213531359086811 0.0079626610700403219 0 -0.0052128572771245234 0.011739797221592055 0 -0.0052053316912134499 0.011900176172540839 0 -0.0053848851165669408 0.011868427981299858 0 -0.0016213531359086811 0.0079626610700403219 0 -0.0028806226036664001 0.010284777099951566 0 -0.0052053316912134499 0.011900176172540839 0 -0.0053672566126863478 0.011989044871858139 0 -0.0051775077625773984 0.01207136561337002 0 -0.0028806226036664001 0.010284777099951566 0 -0.0028846014222164641 0.004968684378363712 0 -0.0052053316912134499 0.011900176172540839 0 -0.0053672566126863478 0.011989044871858139 0 -0.0053848851165669408 0.011868427981299858 0 -0.0053848851165669408 0.011868427981299858 0 -0.0054870916813702913 0.011997922464824387 0 -0.0055109555411013752 0.011899347537582022 0 -0.0053672566126863478 0.011989044871858139 0 -0.0053848851165669408 0.011868427981299858 0 -0.0054870916813702913 0.011997922464824387 0 -0.0053672566126863478 0.011989044871858139 0 -0.0054870916813702913 0.011997922464824387 0 -0.0055373467273929881 0.012113370816592481 0 -0.0054870916813702913 0.011997922464824387 0 -0.0055109555411013752 0.011899347537582022 0 -0.005592495032305661 0.01205859024586072 0 -0.0055194829490497303 0.011795883064272879 0 -0.0053848851165669408 0.011868427981299858 0 -0.0055109555411013752 0.011899347537582022 0 -0.0055194829490497303 0.011795883064272879 0 -0.0055944903678580302 0.011889024777495517 0 -0.0055210559475314261 0.011876529020112372 0 -0.0055194829490497303 0.011795883064272879 0 -0.0055109555411013752 0.011899347537582022 0 -0.0055944903678580302 0.011889024777495517 0 -0.0055109555411013752 0.011899347537582022 0 -0.005592495032305661 0.01205859024586072 0 -0.0055944903678580302 0.011889024777495517 0 -0.005592495032305661 0.01205859024586072 0 -0.0055944903678580302 0.011889024777495517 0 -0.0057866883687013879 0.012065211123456472 0 -0.0059028493344347351 0.011521822783804132 0 -0.0050311894688006538 0.013342944503020962 0 -0.0055944903678580302 0.011889024777495517 0 -0.0057866883687013879 0.012065211123456472 0 -0.0059454676744424145 0.011848508057081807 0 -0.0055763335367656911 0.012795165393446663 0 -0.0050311894688006538 0.013342944503020962 0 -0.0054602410765297498 0.01195404798052338 0 -0.0055210559475314261 0.011876529020112372 0 -0.0053881368840675613 0.011808400461979278 0 -0.0055944903678580302 0.011889024777495517 0 -0.0055210559475314261 0.011876529020112372 0 -0.0053881368840675613 0.011808400461979278 0 -0.00040141912773830287 0.0068527843633399916 0 -0.00036943404972892267 0.0068442458155967617 0 -0.00046190338486152676 0.0068938114139985964 0 -0.00046190338486152676 0.0068938114139985964 0 -0.00050299374597860514 0.0069206633221831574 0 -0.00048296401417086008 0.0069077410643662955 0 -0.00040141912773830287 0.0068527843633399916 0 -0.00046190338486152676 0.0068938114139985964 0 -0.00048296401417086008 0.0069077410643662955 0 -0.00025285174646995465 0.0067666457764870231 0 -0.00040141912773830287 0.0068527843633399916 0 -0.00031637470025472645 0.0068136418956587083 0 -0.00040141912773830287 0.0068527843633399916 0 -0.00031637470025472645 0.0068136418956587083 0 -0.00036943404972892267 0.0068442458155967617 0 -0.00032716585880827962 0.0068412857042103609 0 -0.00041551992185703465 0.0068784300630984202 0 -0.00036943404972892267 0.0068442458155967617 0 -0.00031202378897225822 0.0068290052656931185 0 -0.00032716585880827962 0.0068412857042103609 0 -0.00036943404972892267 0.0068442458155967617 0 -0.00031202378897225822 0.0068290052656931185 0 -0.00031637470025472645 0.0068136418956587083 0 -0.00036943404972892267 0.0068442458155967617 0 -0.00041551992185703465 0.0068784300630984202 0 -0.00036943404972892267 0.0068442458155967617 0 -0.00046190338486152676 0.0068938114139985964 0 -0.00053076293389931817 0.0069561271448983514 0 -0.00041551992185703465 0.0068784300630984202 0 -0.00046190338486152676 0.0068938114139985964 0 -0.00053076293389931817 0.0069561271448983514 0 -0.00046190338486152676 0.0068938114139985964 0 -0.00051301204596393391 0.0069257405241703179 0 -0.00052041746169655568 0.0069435575587781882 0 -0.00051301204596393391 0.0069257405241703179 0 -0.00051435341897182343 0.0069286031613971528 0 -0.00053076293389931817 0.0069561271448983514 0 -0.00052041746169655568 0.0069435575587781882 0 -0.00051301204596393391 0.0069257405241703179 0 -0.00052041746169655568 0.0069435575587781882 0 -0.00051627632188775156 0.0069306031141701504 0 -0.00051435341897182343 0.0069286031613971528 0 -0.00046190338486152676 0.0068938114139985964 0 -0.00051301204596393391 0.0069257405241703179 0 -0.00050299374597860514 0.0069206633221831574 0 -0.00051301204596393391 0.0069257405241703179 0 -0.00051435341897182343 0.0069286031613971528 0 -0.00050299374597860514 0.0069206633221831574 0 -0.00051435341897182343 0.0069286031613971528 0 -0.00050299374597860514 0.0069206633221831574 0 -0.00051147980274050982 0.0069273369453903772 0 -0.00050299374597860514 0.0069206633221831574 0 -0.00051071913544239306 0.00691970564541759 0 -0.00048296401417086008 0.0069077410643662955 0 -0.00050299374597860514 0.0069206633221831574 0 -0.00051071913544239306 0.00691970564541759 0 -0.00051147980274050982 0.0069273369453903772 0 -0.00051071913544239306 0.00691970564541759 0 -0.00058239639205858818 0.0068797602146454728 0 -0.00053463777083665733 0.0069247159618813199 0 -0.00055419195300620498 0.0069111687232086567 0 -0.00044041638679964457 0.0069803663090257416 0 -0.0016213531359086811 0.0079626610700403219 0 -0.00044041638679964457 0.0069803663090257416 0 -0.00051627632188775156 0.0069306031141701504 0 -0.00051435341897182343 0.0069286031613971528 0 -0.00051147980274050982 0.0069273369453903772 0 -0.00066303937374465407 0.0068710329000731488 0 -0.00058239639205858818 0.0068797602146454728 0 -0.00061425829630962659 0.0069218129160304792 0 -0.00066768874247371732 0.0069343072189701465 0 -0.00061425829630962659 0.0069218129160304792 0 -0.00068321648877490569 0.0069913574228080621 0 -0.00061425829630962659 0.0069218129160304792 0 -0.00053463777083665733 0.0069247159618813199 0 -0.00068321648877490569 0.0069913574228080621 0 -0.00066094064691103933 0.0018405057281396969 0 -0.0028846014222164641 0.004968684378363712 0 -0.00066303937374465407 0.0068710329000731488 0 -0.00066768874247371732 0.0069343072189701465 0 -0.00061425829630962659 0.0069218129160304792 0 -0.00058239639205858818 0.0068797602146454728 0 -0.00061425829630962659 0.0069218129160304792 0 -0.00053463777083665733 0.0069247159618813199 0 -0.00066094064691103933 0.0018405057281396969 0 -0.00016197901193306587 0.0014722484389780503 0 -0.001384104111847053 -0.0025233132469946662 0 0.00014979604269588388 -0.0023039405701003272 0 0.00020713317790030099 -0.0040976293547245113 0 -0.00051071913544239306 0.00691970564541759 0 -0.00053463777083665733 0.0069247159618813199 0 -0.00047590472750378982 0.0069432769515917377 0 -0.00051071913544239306 0.00691970564541759 0 -0.00047590472750378982 0.0069432769515917377 0 -0.00048296401417086008 0.0069077410643662955 0 -0.00040141912773830287 0.0068527843633399916 0 -0.00047590472750378982 0.0069432769515917377 0 -0.00048296401417086008 0.0069077410643662955 0 2.9916256871237879e-05 0.0068299243541040944 0 -0.00025285174646995465 0.0067666457764870231 0 -0.00047590472750378982 0.0069432769515917377 0 0.0010480289232901948 0.00049135163787501735 0 -0.00016197901193306587 0.0014722484389780503 0 -0.00025285174646995465 0.0067666457764870231 0 -0.00040141912773830287 0.0068527843633399916 0 -0.00047590472750378982 0.0069432769515917377 0 0.0015226738720495007 -0.0030007676296796193 0 0.0020227405676377474 -0.0057604726694445675 0 0.00020713317790030099 -0.0040976293547245113 0 0.0015226738720495007 -0.0030007676296796193 0 0.00014979604269588388 -0.0023039405701003272 0 0.00020713317790030099 -0.0040976293547245113 0 0.0015226738720495007 -0.0030007676296796193 0 0.00086777923272415532 -0.0013045612466090536 0 0.0021303957623799176 -0.000704475052984823 0 0.0015226738720495007 -0.0030007676296796193 0 0.00014979604269588388 -0.0023039405701003272 0 0.00086777923272415532 -0.0013045612466090536 0 0.00086777923272415532 -0.0013045612466090536 0 0.00076670709504058081 8.3434201627820059e-05 0 -0.00038840193648586658 -0.00062234113493403605 0 0.00086777923272415532 -0.0013045612466090536 0 0.00076670709504058081 8.3434201627820059e-05 0 0.0021303957623799176 -0.000704475052984823 0 0.00076670709504058081 8.3434201627820059e-05 0 -0.00038840193648586658 -0.00062234113493403605 0 -0.00045150033195140167 0.00093098478061819686 0 -0.001384104111847053 -0.0025233132469946662 0 0.00014979604269588388 -0.0023039405701003272 0 -0.00038840193648586658 -0.00062234113493403605 0 0.00014979604269588388 -0.0023039405701003272 0 0.00086777923272415532 -0.0013045612466090536 0 -0.00038840193648586658 -0.00062234113493403605 0 -0.001384104111847053 -0.0025233132469946662 0 -0.00038840193648586658 -0.00062234113493403605 0 -0.0016924765011612636 -0.00033594313011368508 0 -0.001384104111847053 -0.0025233132469946662 0 -0.0016924765011612636 -0.00033594313011368508 0 -0.0031248392012927992 -0.0011091095981484755 0 -0.0016924765011612636 -0.00033594313011368508 0 -0.0031248392012927992 -0.0011091095981484755 0 -0.0026564388514171548 0.0013930642989100535 0 -0.0016924765011612636 -0.00033594313011368508 0 -0.0014434986600812597 0.00086803415090474319 0 -0.0026564388514171548 0.0013930642989100535 0 -0.00038840193648586658 -0.00062234113493403605 0 -0.0014434986600812597 0.00086803415090474319 0 -0.00045150033195140167 0.00093098478061819686 0 -0.00038840193648586658 -0.00062234113493403605 0 -0.0016924765011612636 -0.00033594313011368508 0 -0.0014434986600812597 0.00086803415090474319 0 -0.0014434986600812597 0.00086803415090474319 0 -0.0017486666482924157 0.0019372232890337924 0 -0.00045150033195140167 0.00093098478061819686 0 -0.0017486666482924157 0.0019372232890337924 0 -0.00047555476631974539 0.0021135089212442671 0 -0.00045150033195140167 0.00093098478061819686 0 -0.0014434986600812597 0.00086803415090474319 0 -0.0017486666482924157 0.0019372232890337924 0 -0.0026564388514171548 0.0013930642989100535 0 -0.0017486666482924157 0.0019372232890337924 0 -0.0026564388514171548 0.0013930642989100535 0 -0.0024627270963502907 0.0021013387684112612 0 -0.0017486666482924157 0.0019372232890337924 0 -0.0024627270963502907 0.0021013387684112612 0 -0.0024701616941445207 0.0028283165409532787 0 -0.0017486666482924157 0.0019372232890337924 0 -0.0024701616941445207 0.0028283165409532787 0 -0.0013071320132500854 0.0028935246218936735 0 -0.0017486666482924157 0.0019372232890337924 0 -0.00047555476631974539 0.0021135089212442671 0 -0.0013071320132500854 0.0028935246218936735 0 -0.00047555476631974539 0.0021135089212442671 0 0.00053561854782811541 0.0023839950958231522 0 0.00065250950132938947 0.001379013890204463 0 -0.00047555476631974539 0.0021135089212442671 0 0.00053561854782811541 0.0023839950958231522 0 -0.00013556830713760609 0.003116325898503863 0 0.00053561854782811541 0.0023839950958231522 0 0.0016161903752597044 0.0025647881166986027 0 0.0014339210603872409 0.0018119426047398528 0 0.00053561854782811541 0.0023839950958231522 0 0.00065250950132938947 0.001379013890204463 0 0.0014339210603872409 0.0018119426047398528 0 0.00065250950132938947 0.001379013890204463 0 0.0019644905937705407 0.0007566008578880004 0 0.0014339210603872409 0.0018119426047398528 0 0.00076670709504058081 8.3434201627820059e-05 0 0.00065250950132938947 0.001379013890204463 0 0.0019644905937705407 0.0007566008578880004 0 0.00076670709504058081 8.3434201627820059e-05 0 0.00065250950132938947 0.001379013890204463 0 -0.00045150033195140167 0.00093098478061819686 0 -0.00047555476631974539 0.0021135089212442671 0 0.00065250950132938947 0.001379013890204463 0 -0.00045150033195140167 0.00093098478061819686 0 -0.0052544235802404905 0.01267709889721688 0 -0.0054603114892121402 0.011636530791493405 0 -0.0046138090230296268 0.012526857945632144 0 -0.0052544235802404905 0.01267709889721688 0 -0.0056697821897172549 0.012312090596041644 0 -0.0054603114892121402 0.011636530791493405 0 -0.0055763335367656911 0.012795165393446663 0 -0.0056649108711513537 0.012418428018026039 0 -0.0053702170045550179 0.013556960598944947 0 -0.0052544235802404905 0.01267709889721688 0 -0.0056697821897172549 0.012312090596041644 0 -0.0053702170045550179 0.013556960598944947 0 -0.0052544235802404905 0.01267709889721688 0 -0.0044746398520615852 0.013492795007824545 0 -0.005592495032305661 0.01205859024586072 0 -0.0057866883687013879 0.012065211123456472 0 -0.0056697821897172549 0.012312090596041644 0 -0.005592495032305661 0.01205859024586072 0 -0.0056697821897172549 0.012312090596041644 0 -0.0055373467273929881 0.012113370816592481 0 -0.0043962564774688321 0.0074830854136698176 0 -0.003919407728209299 0.0071844435998523011 0 -0.0026183395788127663 0.0020003959606794985 0 -0.0026259401751583642 0.0024957889265037774 0 -0.0026653834611356634 0.002933483707402432 0 -0.0056697821897172549 0.012312090596041644 0 -0.0056708504772431719 0.012281123831000261 0 -0.0054603114892121402 0.011636530791493405 0 -0.0026183395788127663 0.0020003959606794985 0 -0.0025759781987673715 0.001878197935064206 0 -0.0026259401751583642 0.0024957889265037774 0 -0.0056708504772431719 0.012281123831000261 0 -0.0055373467273929881 0.012113370816592481 0 -0.0051775077625773984 0.01207136561337002 0 -0.0056697821897172549 0.012312090596041644 0 -0.0056708504772431719 0.012281123831000261 0 -0.0055373467273929881 0.012113370816592481 0 -0.0054870916813702913 0.011997922464824387 0 -0.005592495032305661 0.01205859024586072 0 -0.0055373467273929881 0.012113370816592481 0 -0.0043962564774688321 0.0074830854136698176 0 -0.0028846014222164641 0.004968684378363712 0 -0.0053672566126863478 0.011989044871858139 0 -0.0055373467273929881 0.012113370816592481 0 -0.0051775077625773984 0.01207136561337002 0 -0.0026271919588153792 0.0017370608786688075 0 -0.0025759781987673715 0.001878197935064206 0 -0.0026564388514171548 0.0013930642989100535 0 -0.0026183395788127663 0.0020003959606794985 0 -0.0026271919588153792 0.0017370608786688075 0 -0.0025759781987673715 0.001878197935064206 0 -0.0028846014222164641 0.004968684378363712 0 -0.0027001573700337479 -0.00058111422216484455 0 -0.0025759781987673715 0.001878197935064206 0 -0.0024627270963502907 0.0021013387684112612 0 -0.0026160997258955973 0.0025406064828001956 0 -0.0025759781987673715 0.001878197935064206 0 -0.0026564388514171548 0.0013930642989100535 0 -0.0024627270963502907 0.0021013387684112612 0 -0.0024627270963502907 0.0021013387684112612 0 -0.0026160997258955973 0.0025406064828001956 0 -0.0024701616941445207 0.0028283165409532787 0 -0.0026160997258955973 0.0025406064828001956 0 -0.002628372060062644 0.0030272411518894745 0 -0.0024701616941445207 0.0028283165409532787 0 -0.0025759781987673715 0.001878197935064206 0 -0.0026160997258955973 0.0025406064828001956 0 -0.0026259401751583642 0.0024957889265037774 0 -0.0025901935268887013 0.0030800522838600216 0 -0.0026653834611356634 0.002933483707402432 0 -0.0023746409152951556 0.003931003814188698 0 -0.0025901935268887013 0.0030800522838600216 0 -0.0023746409152951556 0.003931003814188698 0 -0.0023523837017905146 0.0038218033733995985 0 -0.0026160997258955973 0.0025406064828001956 0 -0.0026259401751583642 0.0024957889265037774 0 -0.0025901935268887013 0.0030800522838600216 0 -0.0026259401751583642 0.0024957889265037774 0 -0.0025901935268887013 0.0030800522838600216 0 -0.0026653834611356634 0.002933483707402432 0 -0.0026160997258955973 0.0025406064828001956 0 -0.0025901935268887013 0.0030800522838600216 0 -0.002628372060062644 0.0030272411518894745 0 -0.002222232801250799 0.0035958069742185361 0 -0.0022921429309936472 0.003865291627195597 0 -0.0023523837017905146 0.0038218033733995985 0 -0.0025901935268887013 0.0030800522838600216 0 -0.002628372060062644 0.0030272411518894745 0 -0.0023523837017905146 0.0038218033733995985 0 -0.0024364512667889859 0.0033462709418119658 0 -0.0023891577433022867 0.0037333521957327578 0 -0.002222232801250799 0.0035958069742185361 0 -0.0021739725649496922 0.0037527323682507528 0 -0.0022921429309936472 0.003865291627195597 0 -0.002222232801250799 0.0035958069742185361 0 -0.0020280647465672199 0.0036360392079749443 0 -0.0021739725649496922 0.0037527323682507528 0 -0.0024364512667889859 0.0033462709418119658 0 -0.0021835882998062412 0.0030731065578208537 0 -0.002222232801250799 0.0035958069742185361 0 -0.0019827697408949375 0.0033243771050962389 0 -0.0020280647465672199 0.0036360392079749443 0 -0.0019827697408949375 0.0033243771050962389 0 -0.0020280647465672199 0.0036360392079749443 0 -0.0015099739593212658 0.0035273218066397341 0 -0.0020280647465672199 0.0036360392079749443 0 -0.0020077675215267603 0.0038302742289853886 0 -0.0018150618710008055 0.0037329429017742416 0 -0.0020077675215267603 0.0038302742289853886 0 -0.0021739725649496922 0.0037527323682507528 0 -0.0022169189714890099 0.0038145521660587593 0 -0.0020077675215267603 0.0038302742289853886 0 -0.0022169189714890099 0.0038145521660587593 0 -0.0021510251877093507 0.0039401125160902712 0 -0.0020280647465672199 0.0036360392079749443 0 -0.0020077675215267603 0.0038302742289853886 0 -0.0021739725649496922 0.0037527323682507528 0 -0.0021739725649496922 0.0037527323682507528 0 -0.0022169189714890099 0.0038145521660587593 0 -0.0022921429309936472 0.003865291627195597 0 -0.0022169189714890099 0.0038145521660587593 0 -0.0022921429309936472 0.003865291627195597 0 -0.0022261663466969853 0.0037155837404591234 0 -0.0011455501238410049 0.0010398706531420043 0 -0.0018616448789286098 0.0024009051593673987 0 0.00040999225634727801 0.0041869267602786982 0 -0.00074117866401182393 0.0036428996604458098 0 -0.00093270187392928828 0.0044771847255687469 0 0.00040999225634727801 0.0041869267602786982 0 -0.00013556830713760609 0.003116325898503863 0 -0.00074117866401182393 0.0036428996604458098 0 0.00040999225634727801 0.0041869267602786982 0 0.0010032210308012158 0.0033286012129923616 0 -0.00013556830713760609 0.003116325898503863 0 0.00040999225634727801 0.0041869267602786982 0 0.0010032210308012158 0.0033286012129923616 0 0.0018507781306169753 0.0038283262521190452 0 -0.0025364728178551245 -0.0019376100731915559 0 -0.0010244625434370628 -0.00047678656931756877 0 -0.00039787529993597537 -0.0026249118185006407 0 -0.0011455501238410049 0.0010398706531420043 0 0.00054067125436267356 0.00097207882093692014 0 0.00053561854782811541 0.0023839950958231522 0 0.0010032210308012158 0.0033286012129923616 0 -0.00013556830713760609 0.003116325898503863 0 0.00053561854782811541 0.0023839950958231522 0 0.0010032210308012158 0.0033286012129923616 0 0.0016161903752597044 0.0025647881166986027 0 -0.00047555476631974539 0.0021135089212442671 0 -0.00013556830713760609 0.003116325898503863 0 -0.0013071320132500854 0.0028935246218936735 0 -0.00013556830713760609 0.003116325898503863 0 -0.0013071320132500854 0.0028935246218936735 0 -0.00074117866401182393 0.0036428996604458098 0 -0.0013071320132500854 0.0028935246218936735 0 -0.00074117866401182393 0.0036428996604458098 0 -0.0015099739593212658 0.0035273218066397341 0 -0.0019827697408949375 0.0033243771050962389 0 -0.0013071320132500854 0.0028935246218936735 0 -0.0015099739593212658 0.0035273218066397341 0 -0.0021835882998062412 0.0030731065578208537 0 -0.0013338151349007615 0.0029189625724524047 0 -0.0020280647465672199 0.0036360392079749443 0 -0.0015099739593212658 0.0035273218066397341 0 -0.0018150618710008055 0.0037329429017742416 0 -0.0015099739593212658 0.0035273218066397341 0 -0.0014035492953307304 0.0036934310201950085 0 -0.0018150618710008055 0.0037329429017742416 0 -0.0011304391172080621 0.0040848487204861901 0 -0.0018616448789286098 0.0024009051593673987 0 -0.00074117866401182393 0.0036428996604458098 0 -0.0015099739593212658 0.0035273218066397341 0 -0.00093270187392928828 0.0044771847255687469 0 -0.0018616448789286098 0.0024009051593673987 0 -0.0017261788643661432 0.0039877989971027579 0 -0.0016776757838254943 0.003615326345639408 0 -0.0018150618710008055 0.0037329429017742416 0 -0.0017539770112734794 0.0037928627984935995 0 -0.0020077675215267603 0.0038302742289853886 0 -0.0018150618710008055 0.0037329429017742416 0 -0.0017539770112734794 0.0037928627984935995 0 -0.0016776757838254943 0.003615326345639408 0 -0.0017539770112734794 0.0037928627984935995 0 -0.0015828855443866536 0.0036699516751582621 0 -0.0017539770112734794 0.0037928627984935995 0 -0.0015828855443866536 0.0036699516751582621 0 -0.0016196457154386361 0.0037890296819800247 0 -0.0015828855443866536 0.0036699516751582621 0 -0.0013793635103625059 0.0036843093492460927 0 -0.0016196457154386361 0.0037890296819800247 0 -0.0027051762054537054 0.0017174918629335142 0 -0.0016995449968590023 0.0029248359864951284 0 -0.0025364728178551245 -0.0019376100731915559 0 -0.0045688270894297936 -0.0013253029948174725 0 -0.0034024585885300781 0.00031296834101931988 0 -0.0018616448789286098 0.0024009051593673987 0 -0.0027051762054537054 0.0017174918629335142 0 -0.0025364728178551245 -0.0019376100731915559 0 -0.0034024585885300781 0.00031296834101931988 0 -0.0010244625434370628 -0.00047678656931756877 0 -0.0034024585885300781 0.00031296834101931988 0 -0.0010244625434370628 -0.00047678656931756877 0 -0.0021920335110962416 0.0020109409263058373 0 0.001029487589496756 0.00012056100275363036 0 -0.0010244625434370628 -0.00047678656931756877 0 -0.00020490829626509561 0.0019205364990926793 0 -0.0010244625434370628 -0.00047678656931756877 0 -0.00020490829626509561 0.0019205364990926793 0 -0.0021920335110962416 0.0020109409263058373 0 0.001029487589496756 0.00012056100275363036 0 0.0013806292077402137 0.0025785566183395272 0 -0.00020490829626509561 0.0019205364990926793 0 0.00079735755453179738 -0.00081592231832461034 0 0.0019371462362843248 0.00017494868215871503 0 0.0010968751501967302 0.0016795067206032577 0 0.00088754174026651372 -0.00037008552640631972 0 0.0012682141815530642 0.0021617370632831426 0 0.001029487589496756 0.00012056100275363036 0 -0.00014119835866513864 -0.0014007942233224 0 0.00044502172263708351 -0.0025666910675170795 0 0.00088754174026651372 -0.00037008552640631972 0 0.00047426470775546552 -0.0024360385403703385 0 0.00079735755453179738 -0.00081592231832461034 0 0.0013232228399659659 -0.0022602333833338772 0 0.0021982111218498798 -0.0019114011524013149 0 0.00079735755453179738 -0.00081592231832461034 0 0.0013232228399659659 -0.0022602333833338772 0 0.00044502172263708351 -0.0025666910675170795 0 0.001029487589496756 0.00012056100275363036 0 -0.0010244625434370628 -0.00047678656931756877 0 -0.00014119835866513864 -0.0014007942233224 0 -0.0010244625434370628 -0.00047678656931756877 0 -0.00014119835866513864 -0.0014007942233224 0 -0.00039787529993597537 -0.0026249118185006407 0 -0.00014119835866513864 -0.0014007942233224 0 -0.00039787529993597537 -0.0026249118185006407 0 0.00044502172263708351 -0.0025666910675170795 0 0.0018507781306169753 0.0038283262521190452 0 0.0026958670535733344 0.0030428990635971657 0 0.0032783938306901158 0.0033764893066984057 0 0.00054067125436267356 0.00097207882093692014 0 0.0026706448687034931 -0.0042944435696349115 0 -0.00039787529993597537 -0.0026249118185006407 0 0.00044502172263708351 -0.0025666910675170795 0 0.0014113730989213172 -0.0031934379074004685 0 0.0013232228399659659 -0.0022602333833338772 0 0.00044502172263708351 -0.0025666910675170795 0 0.0014113730989213172 -0.0031934379074004685 0 0.009051814017206462 -0.016084252405920204 0 0.0091138153060567467 -0.01630005204844889 0 0.0090078325661354409 -0.016268581358163139 0 0.0026958670535733344 0.0030428990635971657 0 0.0032783938306901158 0.0033764893066984057 0 0.002896903472958855 0.0026992011329313795 0 0.0026706448687034931 -0.0042944435696349115 0 0.0045502479159064864 -0.0037469784411465978 0 0.0026958670535733344 0.0030428990635971657 0 0.0028726347022828133 0.0027575940712945535 0 0.0022956671074491008 0.002638304222343354 0 0.0026345007098083064 0.00034689157468216351 0 0.0045502479159064864 -0.0037469784411465978 0 0.0022956671074491008 0.002638304222343354 0 0.0016161903752597044 0.0025647881166986027 0 0.0019420674805026915 0.0031362963598301334 0 0.0010032210308012158 0.0033286012129923616 0 0.0018507781306169753 0.0038283262521190452 0 0.0019420674805026915 0.0031362963598301334 0 0.0010032210308012158 0.0033286012129923616 0 0.0016161903752597044 0.0025647881166986027 0 0.0019420674805026915 0.0031362963598301334 0 0.0018507781306169753 0.0038283262521190452 0 0.0026958670535733344 0.0030428990635971657 0 0.0019420674805026915 0.0031362963598301334 0 0.0026958670535733344 0.0030428990635971657 0 0.0022956671074491008 0.002638304222343354 0 0.0019420674805026915 0.0031362963598301334 0 0.0076685896227785526 -0.014558102324434946 0 0.0070834288262560038 -0.010951579152878282 0 0.0092002527148762146 -0.016516436753531757 0 0.0088354672581809294 -0.016800982566952272 0 0.0091503348609299831 -0.016508994585764263 0 0.0076685896227785526 -0.014558102324434946 0 0.0094940844158489107 -0.017432368140712327 0 0.009051814017206462 -0.016084252405920204 0 0.0091138153060567467 -0.01630005204844889 0 0.0093603594595661945 -0.016173983095498577 0 0.0091138153060567467 -0.01630005204844889 0 0.0092002527148762146 -0.016516436753531757 0 0.0092094192736174984 -0.016431477012460761 0 0.0094280553929487355 -0.016208625337005546 0 0.0076685896227785526 -0.014558102324434946 0 0.0026706448687034931 -0.0042944435696349115 0 0.0076685896227785526 -0.014558102324434946 0 0.00024420229852575951 -0.005986026836157887 0 0.0028692071898847571 -0.0066879244627387237 0 0.0019518319754568219 -0.0052529946641501745 0 0.00024420229852575951 -0.005986026836157887 0 0.0019518319754568219 -0.0052529946641501745 0 0.0016699827480829074 -0.0033547691553038883 0 0.0026706448687034931 -0.0042944435696349115 0 0.0017807669633796033 -0.002756608887899623 0 0.0028692071898847571 -0.0066879244627387237 0 0.0019518319754568219 -0.0052529946641501745 0 0.0031902613867586492 -0.0049688488481061631 0 0.0013232228399659659 -0.0022602333833338772 0 0.0014113730989213172 -0.0031934379074004685 0 0.0021982111218498798 -0.0019114011524013149 0 0.0019518319754568219 -0.0052529946641501745 0 0.0031902613867586492 -0.0049688488481061631 0 0.0016699827480829074 -0.0033547691553038883 0 0.0031902613867586492 -0.0049688488481061631 0 0.0041765385636941136 -0.003796455623820378 0 0.0016699827480829074 -0.0033547691553038883 0 0.0028692071898847571 -0.0066879244627387237 0 0.0047391699535061487 -0.0051947146665051657 0 0.0063432301371833897 -0.0055565501753665819 0 0.0028692071898847571 -0.0066879244627387237 0 0.0031902613867586492 -0.0049688488481061631 0 0.0047391699535061487 -0.0051947146665051657 0 0.0031902613867586492 -0.0049688488481061631 0 0.0047391699535061487 -0.0051947146665051657 0 0.0041765385636941136 -0.003796455623820378 0 0.0041765385636941136 -0.003796455623820378 0 0.0037605953709081187 -0.0021526895573956276 0 0.0016699827480829074 -0.0033547691553038883 0 0.0041765385636941136 -0.003796455623820378 0 0.0037605953709081187 -0.0021526895573956276 0 0.0050690604639639422 -0.0012201603360492076 0 0.0037605953709081187 -0.0021526895573956276 0 0.0016699827480829074 -0.0033547691553038883 0 0.0032930113017297529 -0.00055509039941436156 0 0.0017807669633796033 -0.002756608887899623 0 0.0032209408067809999 -0.00062547885346776375 0 0.0019371462362843248 0.00017494868215871503 0 0.0032930113017297529 -0.00055509039941436156 0 0.0039174403247376676 0.0020011559724714403 0 0.0021982111218498798 -0.0019114011524013149 0 0.0019371462362843248 0.00017494868215871503 0 0.0032930113017297529 -0.00055509039941436156 0 0.00079735755453179738 -0.00081592231832461034 0 0.0021982111218498798 -0.0019114011524013149 0 0.0019371462362843248 0.00017494868215871503 0 0.0032930113017297529 -0.00055509039941436156 0 0.0050690604639639422 -0.0012201603360492076 0 0.0039174403247376676 0.0020011559724714403 0 0.0054859761064449848 -0.0034291151560386858 0 0.0054047594945412581 -0.0030836531628240416 0 0.0037605953709081187 -0.0021526895573956276 0 0.0032930113017297529 -0.00055509039941436156 0 0.0050690604639639422 -0.0012201603360492076 0 0.0060899579875023256 -0.0060529830181486992 0 0.0059054756899630297 -0.0061591060831354535 0 0.0060610799868032767 -0.0063272586787119665 0 0.0060899579875023256 -0.0060529830181486992 0 0.0059054756899630297 -0.0061591060831354535 0 0.0059685282181029019 -0.0059998796551521813 0 0.0059054756899630297 -0.0061591060831354535 0 0.0058365381711977301 -0.0059840223640163902 0 0.0059685282181029019 -0.0059998796551521813 0 0.0059054756899630297 -0.0061591060831354535 0 0.0056226045211230612 -0.0061372255780862452 0 0.0058365381711977301 -0.0059840223640163902 0 0.0056226045211230612 -0.0061372255780862452 0 0.0058365381711977301 -0.0059840223640163902 0 0.0056325578562755234 -0.0059727906679964346 0 0.0058365381711977301 -0.0059840223640163902 0 0.0058542234180255703 -0.0058481877686935423 0 0.0056325578562755234 -0.0059727906679964346 0 0.0058542234180255703 -0.0058481877686935423 0 0.0056325578562755234 -0.0059727906679964346 0 0.0056894331747859989 -0.005887107253121064 0 0.0058365381711977301 -0.0059840223640163902 0 0.0058542234180255703 -0.0058481877686935423 0 0.0060524126458364157 -0.0057302669160305764 0 0.0060899579875023256 -0.0060529830181486992 0 0.0060524126458364157 -0.0057302669160305764 0 0.0061422299383331949 -0.0053873529823437322 0 0.0054859761064449848 -0.0034291151560386858 0 0.0061448655877836657 -0.0053692509773398296 0 0.0058542234180255703 -0.0058481877686935423 0 0.0060524126458364157 -0.0057302669160305764 0 0.0060123395709445419 -0.005686149604004786 0 0.0041765385636941136 -0.003796455623820378 0 0.0050690604639639422 -0.0012201603360492076 0 0.0061422299383331949 -0.0053873529823437322 0 0.0060899579875023256 -0.0060529830181486992 0 0.0060524126458364157 -0.0057302669160305764 0 0.0059685282181029019 -0.0059998796551521813 0 0.0058365381711977301 -0.0059840223640163902 0 0.0060524126458364157 -0.0057302669160305764 0 0.0059685282181029019 -0.0059998796551521813 0 0.0048773736872087803 -0.0068884224584427247 0 0.0037190234183881606 -0.0080183089236019241 0 0.0053838951316054033 -0.0059665194673685727 0 0.0053331104103998116 -0.0062090786371415589 0 0.0049842801850422148 -0.0061580735307499553 0 0.0028057850090415309 -0.0082973999196107994 0 0.0044209654854659103 -0.007827012860164571 0 0.0025383822331883029 -0.0098099338925332468 0 0.0056226045211230612 -0.0061372255780862452 0 0.0053838951316054033 -0.0059665194673685727 0 0.0053331104103998116 -0.0062090786371415589 0 0.0056226045211230612 -0.0061372255780862452 0 0.0056325578562755234 -0.0059727906679964346 0 0.0053838951316054033 -0.0059665194673685727 0 0.0056325578562755234 -0.0059727906679964346 0 0.0053838951316054033 -0.0059665194673685727 0 0.0056894331747859989 -0.005887107253121064 0 0.0048773736872087803 -0.0068884224584427247 0 0.0056302033269983306 -0.0060092892060067344 0 0.0044209654854659103 -0.007827012860164571 0 0.0051354533906942104 -0.0057364053917977036 0 0.0056894331747859989 -0.005887107253121064 0 0.0028057850090415309 -0.0082973999196107994 0 0.0044209654854659103 -0.007827012860164571 0 0.0024490247136652612 -0.0067059130447176245 0 0.0044209654854659103 -0.007827012860164571 0 0.0051354533906942104 -0.0057364053917977036 0 0.0024490247136652612 -0.0067059130447176245 0 0.0085722876696403393 -0.016887152007242858 0 0.0086228671699880161 -0.016911319795155106 0 0.0084302872917047141 -0.016936921725741613 0 0.007355479215535499 -0.010851294381811453 0 0.0039427962810405165 -0.015290199560338195 0 0.0085722876696403393 -0.016887152007242858 0 0.0086146272439362615 -0.016846090435544976 0 0.0084302872917047141 -0.016936921725741613 0 0.0068106570971010159 -0.021421427030490898 0 0.0050562936947099726 -0.023755984625414214 0 0.0048658828997207781 -0.025515862946985702 0 0.0078977494549799469 -0.020318873564677147 0 0.0039427962810405165 -0.015290199560338195 0 0.0085722876696403393 -0.016887152007242858 0 0.0086228671699880161 -0.016911319795155106 0 0.0086081581487204035 -0.016871115822623357 0 0.0086228671699880161 -0.016911319795155106 0 0.0086081581487204035 -0.016871115822623357 0 0.0086770876118486846 -0.01687573539390955 0 0.0086374991997290717 -0.016872240799631382 0 0.0086026938545648961 -0.016871469419555203 0 0.0086081581487204035 -0.016871115822623357 0 0.0086374991997290717 -0.016872240799631382 0 0.0086081581487204035 -0.016871115822623357 0 0.0086770876118486846 -0.01687573539390955 0 0.0086374991997290717 -0.016872240799631382 0 0.0086026938545648961 -0.016871469419555203 0 0.0085759467557088662 -0.016913067637272575 0 0.0086374991997290717 -0.016872240799631382 0 0.0086715942425035688 -0.016860328243535325 0 0.0085759467557088662 -0.016913067637272575 0 0.0086026938545648961 -0.016871469419555203 0 0.0086146272439362615 -0.016846090435544976 0 0.0085759467557088662 -0.016913067637272575 0 0.0086026938545648961 -0.016871469419555203 0 0.0086081581487204035 -0.016871115822623357 0 0.0086146272439362615 -0.016846090435544976 0 0.0068106570971010159 -0.021421427030490898 0 0.0065749029961494638 -0.019526670060227701 0 0.0050562936947099726 -0.023755984625414214 0 0.006313821489588054 -0.02073160195952314 0 0.0051030617214391739 -0.023553339947718455 0 0.0060140621568347272 -0.02186466065522635 0 0.0050562936947099726 -0.023755984625414214 0 0.0047563451198129681 -0.02249338028130363 0 0.0085722876696403393 -0.016887152007242858 0 0.0086081581487204035 -0.016871115822623357 0 0.0086146272439362615 -0.016846090435544976 0 0.0061422299383331949 -0.0053873529823437322 0 0.0061752463399298149 -0.0055046838038404862 0 0.0060970246050760478 -0.0055653636515667695 0 0.0061422299383331949 -0.0053873529823437322 0 0.0061752463399298149 -0.0055046838038404862 0 0.0063432301371833897 -0.0055565501753665819 0 0.0061752463399298149 -0.0055046838038404862 0 0.0061397850366508916 -0.00559286591902725 0 0.0063432301371833897 -0.0055565501753665819 0 0.0047391699535061487 -0.0051947146665051657 0 0.0061422299383331949 -0.0053873529823437322 0 0.0063432301371833897 -0.0055565501753665819 0 0.0047391699535061487 -0.0051947146665051657 0 0.0041765385636941136 -0.003796455623820378 0 0.0061422299383331949 -0.0053873529823437322 0 0.0060524126458364157 -0.0057302669160305764 0 0.0060970246050760478 -0.0055653636515667695 0 0.0060123395709445419 -0.005686149604004786 0 0.0060524126458364157 -0.0057302669160305764 0 0.0061422299383331949 -0.0053873529823437322 0 0.0060970246050760478 -0.0055653636515667695 0 0.0061397850366508916 -0.00559286591902725 0 0.0060970246050760478 -0.0055653636515667695 0 0.0060123395709445419 -0.005686149604004786 0 0.0061752463399298149 -0.0055046838038404862 0 0.0061397850366508916 -0.00559286591902725 0 0.0060970246050760478 -0.0055653636515667695 0 0.007355479215535499 -0.010851294381811453 0 0.0070834288262560038 -0.010951579152878282 0 0.0051354533906942104 -0.0057364053917977036 0 0.0063432301371833897 -0.0055565501753665819 0 0.0059135805239841051 -0.005743996004347599 0 0.0086228671699880161 -0.016911319795155106 0 0.0087972094176002342 -0.016860849337931742 0 0.0086770876118486846 -0.01687573539390955 0 0.0051354533906942104 -0.0057364053917977036 0 0.0059135805239841051 -0.005743996004347599 0 0.0056894331747859989 -0.005887107253121064 0 0.0058542234180255703 -0.0058481877686935423 0 0.0060123395709445419 -0.005686149604004786 0 0.0059135805239841051 -0.005743996004347599 0 0.0061397850366508916 -0.00559286591902725 0 0.0060123395709445419 -0.005686149604004786 0 0.0059135805239841051 -0.005743996004347599 0 0.0058542234180255703 -0.0058481877686935423 0 0.0059135805239841051 -0.005743996004347599 0 0.0056894331747859989 -0.005887107253121064 0 0.0061397850366508916 -0.00559286591902725 0 0.0063432301371833897 -0.0055565501753665819 0 0.0059135805239841051 -0.005743996004347599 0 0.0087972094176002342 -0.016860849337931742 0 0.0086770876118486846 -0.01687573539390955 0 0.0087342217259065696 -0.016858881753194319 0 0.0086374991997290717 -0.016872240799631382 0 0.0086770876118486846 -0.01687573539390955 0 0.0087342217259065696 -0.016858881753194319 0 0.0086374991997290717 -0.016872240799631382 0 0.0087342217259065696 -0.016858881753194319 0 0.0086715942425035688 -0.016860328243535325 0 0.0087342217259065696 -0.016858881753194319 0 0.0086715942425035688 -0.016860328243535325 0 0.0088354672581809294 -0.016800982566952272 0 0.0088602650656657359 -0.016783944521694277 0 0.0087972094176002342 -0.016860849337931742 0 0.0088252695074113718 -0.016823691063506813 0 0.0088602650656657359 -0.016783944521694277 0 0.0088354672581809294 -0.016800982566952272 0 0.0088252695074113718 -0.016823691063506813 0 0.0087972094176002342 -0.016860849337931742 0 0.0087342217259065696 -0.016858881753194319 0 0.0088252695074113718 -0.016823691063506813 0 0.0087342217259065696 -0.016858881753194319 0 0.0088354672581809294 -0.016800982566952272 0 0.0088252695074113718 -0.016823691063506813 0 0.0088354672581809294 -0.016800982566952272 0 0.0089535539594286454 -0.016588547812286327 0 0.0091503348609299831 -0.016508994585764263 0 0.0088354672581809294 -0.016800982566952272 0 0.0089535539594286454 -0.016588547812286327 0 0.0087220227636834874 -0.016799583089827229 0 0.0086715942425035688 -0.016860328243535325 0 0.0088354672581809294 -0.016800982566952272 0 0.0087220227636834874 -0.016799583089827229 0 0.0086715942425035688 -0.016860328243535325 0 0.0086006584531985279 -0.016900459731771206 0 0.0087220227636834874 -0.016799583089827229 0 0.0086006584531985279 -0.016900459731771206 0 0.008641546399779999 -0.016830056443276471 0 0.0087220227636834874 -0.016799583089827229 0 0.008641546399779999 -0.016830056443276471 0 0.0087220227636834874 -0.016799583089827229 0 0.0088031577859016899 -0.016622193734210332 0 0.0089535539594286454 -0.016588547812286327 0 0.0087220227636834874 -0.016799583089827229 0 0.0088031577859016899 -0.016622193734210332 0 0.0086765115859761075 -0.01646618366197037 0 0.00826940326057405 -0.01615635628295984 0 0.0086260507298663285 -0.016224026855296961 0 0.008641546399779999 -0.016830056443276471 0 0.0086765115859761075 -0.01646618366197037 0 0.0085206359968060513 -0.017107771096022687 0 0.008641546399779999 -0.016830056443276471 0 0.0088031577859016899 -0.016622193734210332 0 0.0086765115859761075 -0.01646618366197037 0 0.0088031577859016899 -0.016622193734210332 0 0.0086765115859761075 -0.01646618366197037 0 0.0089055860448696393 -0.016381083348840315 0 0.0086765115859761075 -0.01646618366197037 0 0.0089055860448696393 -0.016381083348840315 0 0.0086260507298663285 -0.016224026855296961 0 0.0089535539594286454 -0.016588547812286327 0 0.0091503348609299831 -0.016508994585764263 0 0.0092073168021582861 -0.016354595573997932 0 0.0089535539594286454 -0.016588547812286327 0 0.0089055860448696393 -0.016381083348840315 0 0.0092073168021582861 -0.016354595573997932 0 0.0089535539594286454 -0.016588547812286327 0 0.0088031577859016899 -0.016622193734210332 0 0.0089055860448696393 -0.016381083348840315 0 0.005656815340005051 -0.021090686229985407 0 0.0060140621568347272 -0.02186466065522635 0 0.006152870275549901 -0.020365780905681575 0 0.0060140621568347272 -0.02186466065522635 0 0.0072255240720135094 -0.019508238563842577 0 0.006152870275549901 -0.020365780905681575 0 0.0068106570971010159 -0.021421427030490898 0 0.0065749029961494638 -0.019526670060227701 0 0.0085206359968060513 -0.017107771096022687 0 0.005656815340005051 -0.021090686229985407 0 0.0055815915029799098 -0.020139957446371041 0 0.004870591633433884 -0.021338418354801322 0 0.005656815340005051 -0.021090686229985407 0 0.0060140621568347272 -0.02186466065522635 0 0.004870591633433884 -0.021338418354801322 0 0.0060140621568347272 -0.02186466065522635 0 0.004870591633433884 -0.021338418354801322 0 0.0047563451198129681 -0.02249338028130363 0 0.0086146272439362615 -0.016846090435544976 0 0.0085759467557088662 -0.016913067637272575 0 0.0085206359968060513 -0.017107771096022687 0 0.006313821489588054 -0.02073160195952314 0 0.0077111044520170938 -0.017835812751942445 0 0.0065749029961494638 -0.019526670060227701 0 0.0085206359968060513 -0.017107771096022687 0 0.00826940326057405 -0.01615635628295984 0 0.0078977494549799469 -0.020318873564677147 0 0.0085155710470727185 -0.016779212465796452 0 0.0086006584531985279 -0.016900459731771206 0 0.0085759467557088662 -0.016913067637272575 0 0.0085206359968060513 -0.017107771096022687 0 0.0086715942425035688 -0.016860328243535325 0 0.0086006584531985279 -0.016900459731771206 0 0.0085759467557088662 -0.016913067637272575 0 0.0086006584531985279 -0.016900459731771206 0 0.008641546399779999 -0.016830056443276471 0 0.0085206359968060513 -0.017107771096022687 0 0.0086765115859761075 -0.01646618366197037 0 0.0085206359968060513 -0.017107771096022687 0 0.00826940326057405 -0.01615635628295984 0 0.0072255240720135094 -0.019508238563842577 0 0.006265306854884801 -0.019132044535741563 0 0.00693264404458165 -0.018088320414523507 0 0.006265306854884801 -0.019132044535741563 0 0.0055815915029799098 -0.020139957446371041 0 0.0054627133421835403 -0.01853722461939479 0 0.006152870275549901 -0.020365780905681575 0 0.006265306854884801 -0.019132044535741563 0 0.0055815915029799098 -0.020139957446371041 0 0.0072255240720135094 -0.019508238563842577 0 0.006152870275549901 -0.020365780905681575 0 0.006265306854884801 -0.019132044535741563 0 0.005656815340005051 -0.021090686229985407 0 0.006152870275549901 -0.020365780905681575 0 0.0055815915029799098 -0.020139957446371041 0 0.0054627133421835403 -0.01853722461939479 0 0.00693264404458165 -0.018088320414523507 0 0.0052837752191193235 -0.016711192819829322 0 0.006265306854884801 -0.019132044535741563 0 0.0054627133421835403 -0.01853722461939479 0 0.00693264404458165 -0.018088320414523507 0 0.0077111044520170938 -0.017835812751942445 0 0.0083692320717039144 -0.01617995675474385 0 0.0072255240720135094 -0.019508238563842577 0 0.00693264404458165 -0.018088320414523507 0 0.0083819594960716712 -0.016056215937722797 0 0.0073237648767409584 -0.01449052328877071 0 0.0068722779825973884 -0.015970641519471945 0 0.0083819594960716712 -0.016056215937722797 0 0.00693264404458165 -0.018088320414523507 0 0.0068722779825973884 -0.015970641519471945 0 0.0083819594960716712 -0.016056215937722797 0 0.0073237648767409584 -0.01449052328877071 0 0.0068722779825973884 -0.015970641519471945 0 0.0047813784865156873 -0.015497901665328185 0 0.0068500873700716499 -0.018012972878014941 0 0.0050741353551312591 -0.016130875125701785 0 0.00693264404458165 -0.018088320414523507 0 0.0068722779825973884 -0.015970641519471945 0 0.0047813784865156873 -0.015497901665328185 0 0.0089055860448696393 -0.016381083348840315 0 0.0091177102650763075 -0.015935739074674639 0 0.0092073168021582861 -0.016354595573997932 0 0.0091177102650763075 -0.015935739074674639 0 0.0086260507298663285 -0.016224026855296961 0 0.0083819594960716712 -0.016056215937722797 0 0.00826940326057405 -0.01615635628295984 0 0.0086260507298663285 -0.016224026855296961 0 0.0083819594960716712 -0.016056215937722797 0 0.0089055860448696393 -0.016381083348840315 0 0.0091177102650763075 -0.015935739074674639 0 0.0086260507298663285 -0.016224026855296961 0 0.008780562080698058 -0.014879353414127361 0 0.0073237648767409584 -0.01449052328877071 0 0.0083819594960716712 -0.016056215937722797 0 0.008780562080698058 -0.014879353414127361 0 0.0091177102650763075 -0.015935739074674639 0 0.0083819594960716712 -0.016056215937722797 0 0.0096722614719135912 -0.014978723006433402 0 0.008780562080698058 -0.014879353414127361 0 0.0091177102650763075 -0.015935739074674639 0 0.0096722614719135912 -0.014978723006433402 0 0.0091177102650763075 -0.015935739074674639 0 0.0094812125836163282 -0.016063784797254729 0 0.007177857914812325 -0.0034739782534611492 0 0.0059224359865108949 -0.0010449243706442874 0 0.0047680344288642375 -0.0028515953919420593 0 0.0084105909130986079 -0.0092074491312258422 0 0.0076035220655172779 -0.0083775257620854453 0 0.0091177102650763075 -0.015935739074674639 0 0.0094812125836163282 -0.016063784797254729 0 0.0092073168021582861 -0.016354595573997932 0 0.0059224359865108949 -0.0010449243706442874 0 0.0036992975331015584 -0.00066904312010275817 0 0.004605913091916553 0.0010670400025819871 0 0.0059224359865108949 -0.0010449243706442874 0 0.0047680344288642375 -0.0028515953919420593 0 0.0036992975331015584 -0.00066904312010275817 0 0.0047680344288642375 -0.0028515953919420593 0 0.0030303539781074977 -0.0024418192636382697 0 0.0036992975331015584 -0.00066904312010275817 0 0.0015226738720495007 -0.0030007676296796193 0 0.0030303539781074977 -0.0024418192636382697 0 0.0021303957623799176 -0.000704475052984823 0 0.00076670709504058081 8.3434201627820059e-05 0 0.0021303957623799176 -0.000704475052984823 0 0.0019644905937705407 0.0007566008578880004 0 0.0021303957623799176 -0.000704475052984823 0 0.0036992975331015584 -0.00066904312010275817 0 0.0031344757848071553 0.00058720848686715117 0 0.0030303539781074977 -0.0024418192636382697 0 0.0021303957623799176 -0.000704475052984823 0 0.0036992975331015584 -0.00066904312010275817 0 0.0036992975331015584 -0.00066904312010275817 0 0.0031344757848071553 0.00058720848686715117 0 0.004605913091916553 0.0010670400025819871 0 0.0031344757848071553 0.00058720848686715117 0 0.0027280351590427683 0.0017884685007170499 0 0.004605913091916553 0.0010670400025819871 0 0.0021303957623799176 -0.000704475052984823 0 0.0031344757848071553 0.00058720848686715117 0 0.0019644905937705407 0.0007566008578880004 0 0.0031344757848071553 0.00058720848686715117 0 0.0019644905937705407 0.0007566008578880004 0 0.0027280351590427683 0.0017884685007170499 0 0.0018852577249512624 0.00062112136793515888 0 0.0030034340566086073 0.0025178653810151302 0 0.0019644905937705407 0.0007566008578880004 0 0.0014339210603872409 0.0018119426047398528 0 0.0024069006260829711 0.0018593492069164446 0 0.0022956671074491008 0.002638304222343354 0 0.0016161903752597044 0.0025647881166986027 0 0.0024069006260829711 0.0018593492069164446 0 0.0016161903752597044 0.0025647881166986027 0 0.0014339210603872409 0.0018119426047398528 0 0.0024069006260829711 0.0018593492069164446 0 0.0091138153060567467 -0.01630005204844889 0 0.0090078325661354409 -0.016268581358163139 0 0.0092788566263924486 -0.016401592405266764 0 0.0045502479159064864 -0.0037469784411465978 0 0.0073266150639361236 -0.0083159971559166688 0 0.0034139933376170881 0.0028791952584447085 0 0.0027280351590427683 0.0017884685007170499 0 0.004605913091916553 0.0010670400025819871 0 0.0028726347022828133 0.0027575940712945535 0 0.0022956671074491008 0.002638304222343354 0 0.0024069006260829711 0.0018593492069164446 0 0.0045502479159064864 -0.0037469784411465978 0 0.0030034340566086073 0.0025178653810151302 0 0.0092094192736174984 -0.016431477012460761 0 0.0091503348609299831 -0.016508994585764263 0 0.0092788566263924486 -0.016401592405266764 0 0.0091138153060567467 -0.01630005204844889 0 0.0092094192736174984 -0.016431477012460761 0 0.0092788566263924486 -0.016401592405266764 0 0.0092002527148762146 -0.016516436753531757 0 0.0092094192736174984 -0.016431477012460761 0 0.0091503348609299831 -0.016508994585764263 0 0.0094812125836163282 -0.016063784797254729 0 0.0092073168021582861 -0.016354595573997932 0 0.0092788566263924486 -0.016401592405266764 0 0.0091503348609299831 -0.016508994585764263 0 0.0092073168021582861 -0.016354595573997932 0 0.0092788566263924486 -0.016401592405266764 0 0.0076035220655172779 -0.0083775257620854453 0 0.0073266150639361236 -0.0083159971559166688 0 -0.00010014585839484442 0.034293245120108423 0 -4.9936141943169101e-06 0.03471372000974321 0 0.00021880343483047141 0.034267400219729842 0 -1.5531500643746506e-05 0.034557266679045684 0 -1.388317295795818e-08 0.034999913718208986 0 4.1980132105743008e-06 0.035003708861232892 0 1.2903960273361479e-08 0.035000028189557657 0 -2.3142993612549616e-08 0.034999949637449908 0 -0.00010014585839484442 0.034293245120108423 0 -3.3166548264333394e-07 0.034998993685095313 0 -4.9936141943169101e-06 0.03471372000974321 0 -4.9936141943169101e-06 0.03471372000974321 0 0.00024207801036677583 0.034628907782207403 0 0.00021880343483047141 0.034267400219729842 0 0.00024207801036677583 0.034628907782207403 0 0.00054978972746711678 0.034322058589562866 0 0.00062571665612576061 0.03463910033194198 0 0.00024207801036677583 0.034628907782207403 0 0.00054978972746711678 0.034322058589562866 0 0.00021880343483047141 0.034267400219729842 0 0.00054978972746711678 0.034322058589562866 0 0.00054977519969539646 0.03389003973912498 0 0.00021880343483047141 0.034267400219729842 0 -0.00010014585839484442 0.034293245120108423 0 0.00021880343483047141 0.034267400219729842 0 0.00018731331899135082 0.03355413886031524 0 -1.5531500643746506e-05 0.034557266679045684 0 0.00029360393383344219 0.034691949473301245 0 4.1980132105743008e-06 0.035003708861232892 0 0.00016837584261801154 0.034886851144218023 0 5.1098016479319914e-05 0.034914674208475174 0 0.00054977519969539646 0.03389003973912498 0 0.00021880343483047141 0.034267400219729842 0 0.00018731331899135082 0.03355413886031524 0 0.00054977519969539646 0.03389003973912498 0 0.00018731331899135082 0.03355413886031524 0 0.00070824097577164562 0.033446186957879077 0 0.00018731331899135082 0.03355413886031524 0 0.00068288586809973873 0.032830516758116636 0 0.00070824097577164562 0.033446186957879077 0 0.00016837584261801154 0.034886851144218023 0 0.0002824186069797058 0.034668430476110443 0 0.0003945034899114243 0.034633166268040777 0 0.00029360393383344219 0.034691949473301245 0 -0.00071898188143405069 0.030639534436109023 0 0.00016837584261801154 0.034886851144218023 0 0.00020638180346004253 0.034696677514278532 0 0.0002824186069797058 0.034668430476110443 0 0.00016837584261801154 0.034886851144218023 0 0.00020638180346004253 0.034696677514278532 0 4.3594294241858075e-05 0.034756916724521185 0 -0.00034857542070539023 0.032469015169895976 0 -0.00044692052529626006 0.033884362650510022 0 0.00016837584261801154 0.034886851144218023 0 4.3594294241858075e-05 0.034756916724521185 0 5.1098016479319914e-05 0.034914674208475174 0 -0.00044692052529626006 0.033884362650510022 0 -4.4600669455186924e-05 0.035169187149754783 0 -0.00044692052529626006 0.033884362650510022 0 0.00013051728894324698 0.035096429467138375 0 -3.7851496388557382e-05 0.034983731819404076 0 -8.2464917670682887e-06 0.034956690484442131 0 1.0707967624193496e-06 0.034990912809238189 0 6.8867951242952524e-06 0.034989065312798363 0 1.0707967624193496e-06 0.034990912809238189 0 2.9393818321731834e-06 0.034990759988903733 0 4.3594294241858075e-05 0.034756916724521185 0 5.1098016479319914e-05 0.034914674208475174 0 -8.2464917670682887e-06 0.034956690484442131 0 4.1980132105743008e-06 0.035003708861232892 0 5.1098016479319914e-05 0.034914674208475174 0 -8.2464917670682887e-06 0.034956690484442131 0 4.1980132105743008e-06 0.035003708861232892 0 -8.2464917670682887e-06 0.034956690484442131 0 -2.3142993612549616e-08 0.034999949637449908 0 -8.2464917670682887e-06 0.034956690484442131 0 -2.3142993612549616e-08 0.034999949637449908 0 1.0707967624193496e-06 0.034990912809238189 0 -2.3142993612549616e-08 0.034999949637449908 0 1.0707967624193496e-06 0.034990912809238189 0 7.9834890630717076e-09 0.034999982920984225 0 7.9834890630717076e-09 0.034999982920984225 0 1.4196130706741496e-06 0.034995787800986049 0 7.5246525789537273e-09 0.035000001805714685 0 1.4196130706741496e-06 0.034995787800986049 0 1.9564650666256087e-06 0.034994392632997279 0 7.5246525789537273e-09 0.035000001805714685 0 1.0707967624193496e-06 0.034990912809238189 0 7.9834890630717076e-09 0.034999982920984225 0 1.4196130706741496e-06 0.034995787800986049 0 1.0707967624193496e-06 0.034990912809238189 0 1.4196130706741496e-06 0.034995787800986049 0 2.9393818321731834e-06 0.034990759988903733 0 1.9564650666256087e-06 0.034994392632997279 0 2.9393818321731834e-06 0.034990759988903733 0 3.4392053185834588e-06 0.034989736410601269 0 1.4196130706741496e-06 0.034995787800986049 0 1.9564650666256087e-06 0.034994392632997279 0 2.9393818321731834e-06 0.034990759988903733 0 6.8867951242952524e-06 0.034989065312798363 0 2.9393818321731834e-06 0.034990759988903733 0 7.8134536309177902e-06 0.03498364269732792 0 2.9393818321731834e-06 0.034990759988903733 0 7.8134536309177902e-06 0.03498364269732792 0 3.4392053185834588e-06 0.034989736410601269 0 3.9223934342001244e-05 0.035023658189895987 0 2.3794164061140175e-06 0.034997472187361295 0 2.3692301359463706e-05 0.034992785996993805 0 3.4392053185834588e-06 0.034989736410601269 0 8.2855622772048085e-06 0.034979299888612897 0 2.3794164061140175e-06 0.034997472187361295 0 -2.5095042537045337e-05 0.03500932425271764 0 2.3508303120700723e-05 0.035001489107157731 0 7.8134536309177902e-06 0.03498364269732792 0 3.4392053185834588e-06 0.034989736410601269 0 8.2855622772048085e-06 0.034979299888612897 0 1.9564650666256087e-06 0.034994392632997279 0 2.1444936094769625e-06 0.034995271602203948 0 7.5246525789537273e-09 0.035000001805714685 0 1.9564650666256087e-06 0.034994392632997279 0 3.4392053185834588e-06 0.034989736410601269 0 2.1444936094769625e-06 0.034995271602203948 0 3.4392053185834588e-06 0.034989736410601269 0 2.1444936094769625e-06 0.034995271602203948 0 2.3794164061140175e-06 0.034997472187361295 0 2.1444936094769625e-06 0.034995271602203948 0 2.3794164061140175e-06 0.034997472187361295 0 7.5246525789537273e-09 0.035000001805714685 0 2.3794164061140175e-06 0.034997472187361295 0 7.5246525789537273e-09 0.035000001805714685 0 -1.6861302520551878e-08 0.034999954647604505 0 2.3794164061140175e-06 0.034997472187361295 0 1.295815264267267e-05 0.034972919226650391 0 -1.6861302520551878e-08 0.034999954647604505 0 1.295815264267267e-05 0.034972919226650391 0 5.1408422424731438e-05 0.034926752379239846 0 5.3520861946280548e-05 0.034985682738446218 0 2.3794164061140175e-06 0.034997472187361295 0 2.3692301359463706e-05 0.034992785996993805 0 1.295815264267267e-05 0.034972919226650391 0 3.9223934342001244e-05 0.035023658189895987 0 2.3692301359463706e-05 0.034992785996993805 0 5.3520861946280548e-05 0.034985682738446218 0 2.3692301359463706e-05 0.034992785996993805 0 1.295815264267267e-05 0.034972919226650391 0 5.3520861946280548e-05 0.034985682738446218 0 9.4538136683229881e-06 0.034927652930551237 0 1.295815264267267e-05 0.034972919226650391 0 5.1408422424731438e-05 0.034926752379239846 0 9.4538136683229881e-06 0.034927652930551237 0 1.295815264267267e-05 0.034972919226650391 0 -1.6861302520551878e-08 0.034999954647604505 0 0.00020128122794430293 0.034775950372337633 0 0.00012836548297611865 0.034892648916816683 0 0.00022392630127706379 0.034962983590637403 0 4.2971380265331551e-05 0.034806791738205757 0 0.00012836548297611865 0.034892648916816683 0 5.1408422424731438e-05 0.034926752379239846 0 0.00012836548297611865 0.034892648916816683 0 5.1408422424731438e-05 0.034926752379239846 0 0.00011081801540917992 0.034966948135085392 0 0.00011081801540917992 0.034966948135085392 0 5.3520861946280548e-05 0.034985682738446218 0 0.00011022686282142256 0.035048372447185588 0 5.1408422424731438e-05 0.034926752379239846 0 0.00011081801540917992 0.034966948135085392 0 5.3520861946280548e-05 0.034985682738446218 0 0.00011081801540917992 0.034966948135085392 0 0.00011022686282142256 0.035048372447185588 0 0.00022392630127706379 0.034962983590637403 0 0.00012836548297611865 0.034892648916816683 0 0.00011081801540917992 0.034966948135085392 0 0.00022392630127706379 0.034962983590637403 0 0.00069155133047413557 0.033428625864799534 0 0.00089721484657466694 0.034157679245892608 0 -0.0007322217170886 0.030945286066838381 0 -0.00062494188279171598 0.031265898031023066 0 -0.00021041263535420026 0.031032670920713028 0 0.00069155133047413557 0.033428625864799534 0 -0.0018453113030140922 0.026188073186268097 0 0.002397976844770102 0.031903217724135 0 0.001251211756686809 0.031632461856437227 0 0.0013923922203613027 0.033398581222515135 0 7.8134536309177902e-06 0.03498364269732792 0 8.2855622772048085e-06 0.034979299888612897 0 2.4899377400588757e-05 0.034968644487491769 0 3.9223934342001244e-05 0.035023658189895987 0 5.3520861946280548e-05 0.034985682738446218 0 0.00011022686282142256 0.035048372447185588 0 -2.5095042537045337e-05 0.03500932425271764 0 0.00069155133047413557 0.033428625864799534 0 -0.0012030264988469339 0.031638372557497171 0 -0.0007322217170886 0.030945286066838381 0 -0.00062494188279171598 0.031265898031023066 0 6.8867951242952524e-06 0.034989065312798363 0 7.8134536309177902e-06 0.03498364269732792 0 2.4899377400588757e-05 0.034968644487491769 0 -0.00044692052529626006 0.033884362650510022 0 0.00069155133047413557 0.033428625864799534 0 -0.00068233462115971626 0.03156128364011003 0 -0.0012030264988469339 0.031638372557497171 0 -0.00062494188279171598 0.031265898031023066 0 -0.0012351101320032271 0.030981308180980455 0 -0.0018453113030140922 0.026188073186268097 0 -0.00062494188279171598 0.031265898031023066 0 -0.00046787588350744166 0.031529595268739691 0 -0.00021041263535420026 0.031032670920713028 0 -0.00068233462115971626 0.03156128364011003 0 -0.00062494188279171598 0.031265898031023066 0 -0.00046787588350744166 0.031529595268739691 0 -0.00034857542070539023 0.032469015169895976 0 -0.0012351101320032271 0.030981308180980455 0 -0.0012351101320032271 0.030981308180980455 0 -0.00071898188143405069 0.030639534436109023 0 -0.0019216667911314128 0.027657443250795291 0 -0.00073337162267515853 0.026647133967455206 0 -0.0020559350809627583 0.026374910810157998 0 -0.002716928970766141 0.022174159139674455 0 -0.0018453113030140922 0.026188073186268097 0 -0.00071898188143405069 0.030639534436109023 0 0.00021268652348815955 0.029448971215606922 0 -0.0028056217968121366 0.027765647188387397 0 -0.0019216667911314128 0.027657443250795291 0 -0.0020559350809627583 0.026374910810157998 0 -0.0022078081893545545 0.026381923859292292 0 -0.0008631219604396086 0.026198602512956113 0 -0.0011105090072494707 0.02543659680395784 0 -0.00071898188143405069 0.030639534436109023 0 -0.002716928970766141 0.022174159139674455 0 -0.002716928970766141 0.022174159139674455 0 0.0012963313449764527 0.020785153873501844 0 0.00021268652348815955 0.029448971215606922 0 0.00056984184041491937 0.025874683047333924 0 -0.0008631219604396086 0.026198602512956113 0 -0.0011105090072494707 0.02543659680395784 0 0.00048455901646712196 0.026019028612183345 0 -0.0042605942408481048 0.017110344928890336 0 -0.0031963717260197889 0.01604381825035215 0 -0.0023381016395901976 0.016921914189902059 0 -0.002716928970766141 0.022174159139674455 0 -0.0013285565166659301 0.016167031494248515 0 -0.0044661176052948684 0.018723451543609444 0 -0.0042605942408481048 0.017110344928890336 0 -0.0023381016395901976 0.016921914189902059 0 -0.0044661176052948684 0.018723451543609444 0 -0.0042605942408481048 0.017110344928890336 0 -0.0063918280213868242 0.018331279650000008 0 -0.0042605942408481048 0.017110344928890336 0 -0.0063918280213868242 0.018331279650000008 0 -0.0048708792963118889 0.015562464546916873 0 -0.0018453113030140922 0.026188073186268097 0 -0.0021913310720360099 0.024116703051683196 0 0.001251211756686809 0.031632461856437227 0 0.0013923922203613027 0.033398581222515135 0 0.00053683297451836943 0.033064241569890691 0 0.0013923922203613027 0.033398581222515135 0 0.00053683297451836943 0.033064241569890691 0 0.00061741593409206277 0.033891356139855076 0 -0.0042605942408481048 0.017110344928890336 0 -0.0048708792963118889 0.015562464546916873 0 -0.0031963717260197889 0.01604381825035215 0 -0.0048708792963118889 0.015562464546916873 0 -0.0031963717260197889 0.01604381825035215 0 -0.0035408700587378299 0.014741463117903975 0 -0.0031963717260197889 0.01604381825035215 0 -0.0035408700587378299 0.014741463117903975 0 -0.0029018285704504347 0.015151695595383017 0 -0.0048708792963118889 0.015562464546916873 0 -0.0035408700587378299 0.014741463117903975 0 -0.003369350524074491 0.013160970602053398 0 -0.0021913310720360099 0.024116703051683196 0 -0.0015570779391605241 0.023807580015773828 0 0.00053683297451836943 0.033064241569890691 0 0.00061741593409206277 0.033891356139855076 0 0.00022877739301556529 0.034426483558585359 0 -0.0035408700587378299 0.014741463117903975 0 -0.003369350524074491 0.013160970602053398 0 -0.0029343675897375065 0.014060078835443274 0 -0.0035408700587378299 0.014741463117903975 0 -0.0029343675897375065 0.014060078835443274 0 -0.0029018285704504347 0.015151695595383017 0 0.00042832265870439205 0.034607430589671667 0 0.00061741593409206277 0.033891356139855076 0 0.00022877739301556529 0.034426483558585359 0 0.00042064659892079089 0.034606538242160576 0 0.00089721484657466694 0.034157679245892608 0 0.00042832265870439205 0.034607430589671667 0 0.00020128122794430293 0.034775950372337633 0 0.00022392630127706379 0.034962983590637403 0 0.00042832265870439205 0.034607430589671667 0 0.0013923922203613027 0.033398581222515135 0 0.00061741593409206277 0.033891356139855076 0 -0.0006028285601970331 0.012850034475920079 0 -0.00047147538700878267 0.013794965765752898 0 -0.00089961556977298377 0.014138301862117415 0 -0.0006028285601970331 0.012850034475920079 0 -0.0010507865650526236 0.014161781500575545 0 -0.00083275486710907411 0.015009221845473198 0 -0.00078737398234987859 0.013424418355743629 0 3.6233344111534938e-05 0.01360837598716419 0 -0.0010507865650526236 0.014161781500575545 0 -0.0014011399094498462 0.014291220766086058 0 -0.0013420634977209251 0.013727072978537454 0 -0.0014011399094498462 0.014291220766086058 0 -0.0013420634977209251 0.013727072978537454 0 -0.0018171648421549265 0.014173689406952083 0 -0.0014011399094498462 0.014291220766086058 0 -0.0012046984658544448 0.014739490733510505 0 -0.0015922896559331821 0.014664901891987969 0 -0.0014011399094498462 0.014291220766086058 0 -0.0018171648421549265 0.014173689406952083 0 -0.0015922896559331821 0.014664901891987969 0 -0.0010507865650526236 0.014161781500575545 0 -0.0014011399094498462 0.014291220766086058 0 -0.0012046984658544448 0.014739490733510505 0 -0.0013405026050630762 0.012549811563364948 0 -0.0006028285601970331 0.012850034475920079 0 -0.0013420634977209251 0.013727072978537454 0 -0.0006028285601970331 0.012850034475920079 0 -0.0010507865650526236 0.014161781500575545 0 -0.0013420634977209251 0.013727072978537454 0 -0.0013405026050630762 0.012549811563364948 0 -0.0013420634977209251 0.013727072978537454 0 -0.0022195854580635108 0.013192789897840779 0 -0.0013420634977209251 0.013727072978537454 0 -0.0022195854580635108 0.013192789897840779 0 -0.0018171648421549265 0.014173689406952083 0 -0.003369350524074491 0.013160970602053398 0 -0.0022195854580635108 0.013192789897840779 0 -0.0029343675897375065 0.014060078835443274 0 -0.0022195854580635108 0.013192789897840779 0 -0.0029343675897375065 0.014060078835443274 0 -0.0024063435208876291 0.014318068393021084 0 -0.0029343675897375065 0.014060078835443274 0 -0.0024063435208876291 0.014318068393021084 0 -0.0029018285704504347 0.015151695595383017 0 -0.0022195854580635108 0.013192789897840779 0 -0.0024063435208876291 0.014318068393021084 0 -0.0018171648421549265 0.014173689406952083 0 -0.0024063435208876291 0.014318068393021084 0 -0.0018171648421549265 0.014173689406952083 0 -0.0020166308717433513 0.014720078434098895 0 -0.0024063435208876291 0.014318068393021084 0 -0.0020166308717433513 0.014720078434098895 0 -0.0023800024202035633 0.014863799897353359 0 -0.0018171648421549265 0.014173689406952083 0 -0.0020166308717433513 0.014720078434098895 0 -0.0015922896559331821 0.014664901891987969 0 -0.0033341588755799829 0.01633509886629908 0 3.6233344111534938e-05 0.01360837598716419 0 -0.0016993660542991939 0.015024098520491332 0 -0.0020166308717433513 0.014720078434098895 0 -0.0021363905598404988 0.015225874681305382 0 3.6233344111534938e-05 0.01360837598716419 0 -0.0013285565166659301 0.016167031494248515 0 -0.0016993660542991939 0.015024098520491332 0 -0.0020166308717433513 0.014720078434098895 0 -0.0015922896559331821 0.014664901891987969 0 -0.0031963717260197889 0.01604381825035215 0 -0.0021363905598404988 0.015225874681305382 0 -0.00083275486710907411 0.015009221845473198 0 -0.0031963717260197889 0.01604381825035215 0 -1.9696201790656046e-05 0.0150048804140671 0 -0.0023381016395901976 0.016921914189902059 0 -0.0020166308717433513 0.014720078434098895 0 -0.0021363905598404988 0.015225874681305382 0 -0.0023800024202035633 0.014863799897353359 0 -0.0021363905598404988 0.015225874681305382 0 -0.0023800024202035633 0.014863799897353359 0 -0.0029018285704504347 0.015151695595383017 0 -0.0031963717260197889 0.01604381825035215 0 -0.0021363905598404988 0.015225874681305382 0 -0.0029018285704504347 0.015151695595383017 0 -0.0024063435208876291 0.014318068393021084 0 -0.0023800024202035633 0.014863799897353359 0 -0.0029018285704504347 0.015151695595383017 0 0.00094065549723712104 0.011991486761320029 0 0.00082445278511914031 0.012026401271016883 0 0.0010423003879037845 0.011598108231098444 0 0.0023177871726880192 0.013693502139325403 0 0.0016318179528283662 0.016440264617790457 0 -0.00059689436052645509 0.016113662231603272 0 0.00097216677692305866 0.0080896750133191836 0 0.0010787070078401898 0.0078812742418136478 0 0.00090727498635197028 0.007939677719071175 0 0.0011637465340834136 0.010283163131188756 0 0.0017889820306510218 0.011721100789403612 0 3.6233344111534938e-05 0.01360837598716419 0 0.0017889820306510218 0.011721100789403612 0 -0.0010507865650526236 0.014161781500575545 0 -0.00083275486710907411 0.015009221845473198 0 -0.0012046984658544448 0.014739490733510505 0 -0.0016993660542991939 0.015024098520491332 0 -0.0021363905598404988 0.015225874681305382 0 -0.00083275486710907411 0.015009221845473198 0 -0.0016993660542991939 0.015024098520491332 0 -0.00083275486710907411 0.015009221845473198 0 -0.0013332649051162309 0.014858878429419414 0 -0.00083275486710907411 0.015009221845473198 0 -0.0012046984658544448 0.014739490733510505 0 -0.0013332649051162309 0.014858878429419414 0 -0.0012046984658544448 0.014739490733510505 0 -0.0015922896559331821 0.014664901891987969 0 -0.0013332649051162309 0.014858878429419414 0 -0.0016993660542991939 0.015024098520491332 0 -0.0015922896559331821 0.014664901891987969 0 -0.0013332649051162309 0.014858878429419414 0 0.00070814619798545832 0.011043414319067643 0 0.0011637465340834136 0.010283163131188756 0 0.0014297873435603391 0.011281243743481576 0 0.00011477536147767867 0.012318859623572572 0 0.0010520027859286106 0.012023350673484534 0 0.00070814619798545832 0.011043414319067643 0 3.6233344111534938e-05 0.01360837598716419 0 3.6233344111534938e-05 0.01360837598716419 0 0.0011637465340834136 0.010283163131188756 0 0.0010787070078401898 0.0078812742418136478 0 0.00091995063479054966 0.0077999205189724415 0 0.00090727498635197028 0.007939677719071175 0 0.0010787070078401898 0.0078812742418136478 0 0.0010804824807214058 0.0076956525216688642 0 0.00091995063479054966 0.0077999205189724415 0 0.0017889820306510218 0.011721100789403612 0 0.0020606491424302827 0.016889678695618318 0 0.0017889820306510218 0.011721100789403612 0 0.0012963313449764527 0.020785153873501844 0 0.0016318179528283662 0.016440264617790457 0 -0.00059689436052645509 0.016113662231603272 0 0.00019872664200024784 0.019316144691490629 0 -0.0035182972472561341 0.018526849141895514 0 -0.00059689436052645509 0.016113662231603272 0 0.00019872664200024784 0.019316144691490629 0 -0.0011105090072494707 0.02543659680395784 0 0.00060307451446838336 0.025778194974416486 0 0.00048455901646712196 0.026019028612183345 0 0.0011861560434211107 0.032655208593392389 0 0.0017161690317207727 0.032490984617991416 0 0.0015960514724757669 0.032764057975067248 0 0.003220349998536624 0.012712332571555721 0 0.00044583264179004386 0.018231178681090802 0 0.0017515221472147319 0.018515388459163843 0 0.0012963313449764527 0.020785153873501844 0 0.0020606491424302827 0.016889678695618318 0 0.0020120383911186837 0.032329744383102287 0 0.0017772972913603572 0.032356309857088365 0 0.0015960514724757669 0.032764057975067248 0 0.0019767898395455868 0.022144109744190236 0 0.00022916710535602348 0.020936515676779125 0 3.0597666688777242e-05 0.021709012251970933 0 0.0022847071776981964 0.020711947106380767 0 0.0020606491424302827 0.016889678695618318 0 0.0022847071776981964 0.020711947106380767 0 0.00056984184041491937 0.025874683047333924 0 0.0019767898395455868 0.022144109744190236 0 0.00022916710535602348 0.020936515676779125 0 0.0027186355032449601 0.020686159766359957 0 0.0012963313449764527 0.020785153873501844 0 0.00056984184041491937 0.025874683047333924 0 0.00056984184041491937 0.025874683047333924 0 -7.4337744725577908e-05 0.032132550660355301 0 0.0034990606527903869 0.017972052683000173 0 0.0031946431549862782 0.017581737135420904 0 0.0021117046555892659 0.017747233975603426 0 0.0010787070078401898 0.0078812742418136478 0 0.0011296241324690057 0.0077221545584120936 0 0.0010804824807214058 0.0076956525216688642 0 0.0019761049752959059 0.014351578783742994 0 0.00074757724492125724 0.0068535821221205719 0 0.0010804824807214058 0.0076956525216688642 0 0.00084196595069134408 0.0076218928630114114 0 0.00091995063479054966 0.0077999205189724415 0 0.0034990606527903869 0.017972052683000173 0 0.0034843458896939464 0.017721923019489331 0 0.0031946431549862782 0.017581737135420904 0 0.0022847071776981964 0.020711947106380767 0 0.0019761049752959059 0.014351578783742994 0 0.0036689264947699384 0.01792829669618131 0 0.0034990606527903869 0.017972052683000173 0 0.0034843458896939464 0.017721923019489331 0 0.0043183831058843996 0.016698190959436199 0 0.0040643323565389263 0.017688015859336981 0 0.0011001053970731082 0.017025623657230541 0 0.0020606491424302827 0.016889678695618318 0 0.0019761049752959059 0.014351578783742994 0 0.0031946431549862782 0.017581737135420904 0 0.0035493027338130822 0.017410342111825614 0 0.0030322851637337158 0.017234492690296917 0 0.0034843458896939464 0.017721923019489331 0 0.0031946431549862782 0.017581737135420904 0 0.0035493027338130822 0.017410342111825614 0 0.0036689264947699384 0.01792829669618131 0 0.0034843458896939464 0.017721923019489331 0 0.0035493027338130822 0.017410342111825614 0 0.0035493027338130822 0.017410342111825614 0 0.0030322851637337158 0.017234492690296917 0 0.0034591247170514829 0.017021910268280219 0 0.0030322851637337158 0.017234492690296917 0 0.0034591247170514829 0.017021910268280219 0 0.0032770373686528283 0.016714331029005099 0 0.0034591247170514829 0.017021910268280219 0 0.0032770373686528283 0.016714331029005099 0 0.003571314169249554 0.01674018918647735 0 0.0023139902183170417 0.028276998717144168 0 0.0010890193326223057 0.035308782536613369 0 0.0014726518680008569 0.033539207623581063 0 0.0016529420496060826 0.033397905950626805 0 0.0014511503330372074 0.033778072558045956 0 0.003571314169249554 0.01674018918647735 0 0.0038080372499174008 0.017055668258745067 0 0.0037419710952269693 0.016409929797865864 0 0.0014726518680008569 0.033539207623581063 0 0.0013482455656023259 0.03365517345539959 0 0.0014511503330372074 0.033778072558045956 0 0.0034591247170514829 0.017021910268280219 0 0.003571314169249554 0.01674018918647735 0 0.0038080372499174008 0.017055668258745067 0 0.0035493027338130822 0.017410342111825614 0 0.0034591247170514829 0.017021910268280219 0 0.0038080372499174008 0.017055668258745067 0 0.0016759063856760102 0.033306209939829676 0 0.0014950866768969893 0.03334524478626455 0 0.001554550657204146 0.03320127319188302 0 0.0016759063856760102 0.033306209939829676 0 0.0016529420496060826 0.033397905950626805 0 0.0014950866768969893 0.03334524478626455 0 0.0023008551604347272 0.029628970170759293 0 0.0023139902183170417 0.028276998717144168 0 0.0014726518680008569 0.033539207623581063 0 0.0014950866768969893 0.03334524478626455 0 0.0013438391793864583 0.033515258073563134 0 0.0014726518680008569 0.033539207623581063 0 0.0016529420496060826 0.033397905950626805 0 0.0014950866768969893 0.03334524478626455 0 0.0014950866768969893 0.03334524478626455 0 0.001554550657204146 0.03320127319188302 0 0.0014515083493787388 0.033094160133835322 0 0.0016759063856760102 0.033306209939829676 0 0.001554550657204146 0.03320127319188302 0 0.001647194381548259 0.032944900319983303 0 0.0020120383911186837 0.032329744383102287 0 0.0016759063856760102 0.033306209939829676 0 0.0016747919205550258 0.033422806913204789 0 0.0036689264947699384 0.01792829669618131 0 0.0035493027338130822 0.017410342111825614 0 0.0038080372499174008 0.017055668258745067 0 0.0022847071776981964 0.020711947106380767 0 0.0023139902183170417 0.028276998717144168 0 0.0020120383911186837 0.032329744383102287 0 0.0016759063856760102 0.033306209939829676 0 0.001647194381548259 0.032944900319983303 0 0.001554550657204146 0.03320127319188302 0 0.001647194381548259 0.032944900319983303 0 0.0014515083493787388 0.033094160133835322 0 0.0020120383911186837 0.032329744383102287 0 0.001647194381548259 0.032944900319983303 0 0.0015960514724757669 0.032764057975067248 0 0.001647194381548259 0.032944900319983303 0 0.0014515083493787388 0.033094160133835322 0 0.0015960514724757669 0.032764057975067248 0 0.0011861560434211107 0.032655208593392389 0 0.0014515083493787388 0.033094160133835322 0 0.0015960514724757669 0.032764057975067248 0 0.0011861560434211107 0.032655208593392389 0 0.0014515083493787388 0.033094160133835322 0 0.0010260207420703983 0.033126527704649952 0 0.0014515083493787388 0.033094160133835322 0 0.0010260207420703983 0.033126527704649952 0 0.0012637399103273168 0.033366769826320669 0 0.00068288586809973873 0.032830516758116636 0 0.0010260207420703983 0.033126527704649952 0 0.00070824097577164562 0.033446186957879077 0 0.00068288586809973873 0.032830516758116636 0 0.0011861560434211107 0.032655208593392389 0 0.0010260207420703983 0.033126527704649952 0 0.0010260207420703983 0.033126527704649952 0 0.00070824097577164562 0.033446186957879077 0 0.001002008002871241 0.033456352207270182 0 0.00070824097577164562 0.033446186957879077 0 0.001002008002871241 0.033456352207270182 0 0.00085235375099758739 0.033723551088847704 0 0.001002008002871241 0.033456352207270182 0 0.00085235375099758739 0.033723551088847704 0 0.0011407208369768503 0.033660757288400622 0 0.00054977519969539646 0.03389003973912498 0 0.00070824097577164562 0.033446186957879077 0 0.00085235375099758739 0.033723551088847704 0 0.0014950866768969893 0.03334524478626455 0 0.0014515083493787388 0.033094160133835322 0 0.0012637399103273168 0.033366769826320669 0 0.0014950866768969893 0.03334524478626455 0 0.0012637399103273168 0.033366769826320669 0 0.0013438391793864583 0.033515258073563134 0 0.001002008002871241 0.033456352207270182 0 0.0012637399103273168 0.033366769826320669 0 0.0011407208369768503 0.033660757288400622 0 0.0010260207420703983 0.033126527704649952 0 0.001002008002871241 0.033456352207270182 0 0.0012637399103273168 0.033366769826320669 0 0.0011407208369768503 0.033660757288400622 0 0.0013438391793864583 0.033515258073563134 0 0.0013482455656023259 0.03365517345539959 0 0.0012637399103273168 0.033366769826320669 0 0.0011407208369768503 0.033660757288400622 0 0.0013438391793864583 0.033515258073563134 0 0.0014726518680008569 0.033539207623581063 0 0.0013438391793864583 0.033515258073563134 0 0.0013482455656023259 0.03365517345539959 0 0.0013482455656023259 0.03365517345539959 0 0.001207362629331859 0.033874780498235176 0 0.0014511503330372074 0.033778072558045956 0 0.0011407208369768503 0.033660757288400622 0 0.0013482455656023259 0.03365517345539959 0 0.001207362629331859 0.033874780498235176 0 0.0011407208369768503 0.033660757288400622 0 0.001207362629331859 0.033874780498235176 0 0.00090076015654839872 0.034042840841398143 0 0.001207362629331859 0.033874780498235176 0 0.0012368455119418952 0.034108943030471933 0 0.00090076015654839872 0.034042840841398143 0 0.001207362629331859 0.033874780498235176 0 0.0012368455119418952 0.034108943030471933 0 0.0014511503330372074 0.033778072558045956 0 0.00054977519969539646 0.03389003973912498 0 0.00085235375099758739 0.033723551088847704 0 0.00090076015654839872 0.034042840841398143 0 0.00054978972746711678 0.034322058589562866 0 0.00054977519969539646 0.03389003973912498 0 0.00090076015654839872 0.034042840841398143 0 0.00085235375099758739 0.033723551088847704 0 0.0011407208369768503 0.033660757288400622 0 0.00090076015654839872 0.034042840841398143 0 0.00054978972746711678 0.034322058589562866 0 0.00082598736696610738 0.034377269832854065 0 0.00062571665612576061 0.03463910033194198 0 0.00082598736696610738 0.034377269832854065 0 0.0011014797317530649 0.034476354173101915 0 0.00062571665612576061 0.03463910033194198 0 0.00054978972746711678 0.034322058589562866 0 0.00090076015654839872 0.034042840841398143 0 0.00082598736696610738 0.034377269832854065 0 0.0012368455119418952 0.034108943030471933 0 0.00082598736696610738 0.034377269832854065 0 0.0011014797317530649 0.034476354173101915 0 0.0012368455119418952 0.034108943030471933 0 0.00090076015654839872 0.034042840841398143 0 0.00082598736696610738 0.034377269832854065 0 0.0012368455119418952 0.034108943030471933 0 0.0011014797317530649 0.034476354173101915 0 0.0014009290834863992 0.034269870670169164 0 0.0029699113138572418 0.024377803954837737 0 -0.00059028160673353983 0.026112551944466465 0 0.0035630083648722243 0.01614745672144851 0 0.0036083785693561033 0.016028681361446428 0 0.0037419710952269693 0.016409929797865864 0 0.0014009290834863992 0.034269870670169164 0 0.0016127293050808658 0.033995072523946498 0 0.0015540002468417021 0.034524522965927729 0 0.0011014797317530649 0.034476354173101915 0 0.0014009290834863992 0.034269870670169164 0 0.0015540002468417021 0.034524522965927729 0 0.0036083785693561033 0.016028681361446428 0 0.0037419710952269693 0.016409929797865864 0 0.0036667071569246208 0.015898232789583286 0 0.0012368455119418952 0.034108943030471933 0 0.0014009290834863992 0.034269870670169164 0 0.0016127293050808658 0.033995072523946498 0 0.0035630083648722243 0.01614745672144851 0 0.0035265753893385147 0.016314502687288006 0 0.0037419710952269693 0.016409929797865864 0 0.0035630083648722243 0.01614745672144851 0 0.0036083785693561033 0.016028681361446428 0 0.0033601028653398265 0.015925369182312615 0 0.0036083785693561033 0.016028681361446428 0 0.0033601028653398265 0.015925369182312615 0 0.0036318420873011959 0.01589001667889962 0 0.0034079549854199123 0.016191892790156818 0 0.0033665720549857329 0.016379522078976916 0 0.0031875135533234048 0.016164582491224575 0 0.0033601028653398265 0.015925369182312615 0 0.0034079549854199123 0.016191892790156818 0 0.0031875135533234048 0.016164582491224575 0 0.0035630083648722243 0.01614745672144851 0 0.0033601028653398265 0.015925369182312615 0 0.0034079549854199123 0.016191892790156818 0 0.0035630083648722243 0.01614745672144851 0 0.0034079549854199123 0.016191892790156818 0 0.0035265753893385147 0.016314502687288006 0 0.0034079549854199123 0.016191892790156818 0 0.0035265753893385147 0.016314502687288006 0 0.0033665720549857329 0.016379522078976916 0 0.0035265753893385147 0.016314502687288006 0 0.0033665720549857329 0.016379522078976916 0 0.0035258104322410302 0.016506579606402168 0 0.0033665720549857329 0.016379522078976916 0 0.0031092055515531186 0.016451016991720857 0 0.0031875135533234048 0.016164582491224575 0 0.0032770373686528283 0.016714331029005099 0 0.0033665720549857329 0.016379522078976916 0 0.0031092055515531186 0.016451016991720857 0 0.0032770373686528283 0.016714331029005099 0 0.003571314169249554 0.01674018918647735 0 0.0035258104322410302 0.016506579606402168 0 0.0032770373686528283 0.016714331029005099 0 0.0033665720549857329 0.016379522078976916 0 0.0035258104322410302 0.016506579606402168 0 0.003571314169249554 0.01674018918647735 0 0.0035258104322410302 0.016506579606402168 0 0.0037419710952269693 0.016409929797865864 0 0.0023139902183170417 0.028276998717144168 0 0.0029699113138572418 0.024377803954837737 0 0.0017214514420754007 0.033003144255600803 0 0.0014511503330372074 0.033778072558045956 0 0.0016127293050808658 0.033995072523946498 0 0.0012368455119418952 0.034108943030471933 0 0.0014511503330372074 0.033778072558045956 0 0.0016127293050808658 0.033995072523946498 0 0.0035265753893385147 0.016314502687288006 0 0.0035258104322410302 0.016506579606402168 0 0.0037419710952269693 0.016409929797865864 0 0.0029010992989908797 0.016250207494453314 0 0.0024286668925238585 0.016169067594075919 0 0.0027799923569803904 0.016719849417528635 0 0.0012895738759500393 0.014832609019956448 0 0.00079901591411824283 0.016046616268293779 0 0.0021849002902108428 0.015990396108179889 0 0.0018554515424859743 0.015515870860184237 0 0.0024842656877475193 0.016371428833268194 0 0.0032770373686528283 0.016714331029005099 0 0.0031092055515531186 0.016451016991720857 0 0.0027799923569803904 0.016719849417528635 0 0.0031092055515531186 0.016451016991720857 0 0.0029010992989908797 0.016250207494453314 0 0.0027799923569803904 0.016719849417528635 0 0.0031092055515531186 0.016451016991720857 0 0.0029010992989908797 0.016250207494453314 0 0.0031875135533234048 0.016164582491224575 0 0.0033601028653398265 0.015925369182312615 0 0.0031875135533234048 0.016164582491224575 0 0.0029523754263524283 0.015786904224857574 0 0.0029010992989908797 0.016250207494453314 0 0.0031875135533234048 0.016164582491224575 0 0.0029523754263524283 0.015786904224857574 0 0.0029523754263524283 0.015786904224857574 0 0.0024286668925238585 0.016169067594075919 0 0.0025113608566805093 0.015560182579966372 0 0.0029010992989908797 0.016250207494453314 0 0.0029523754263524283 0.015786904224857574 0 0.0024286668925238585 0.016169067594075919 0 0.0024286668925238585 0.016169067594075919 0 0.0018478081715429407 0.015623157175323619 0 0.0025113608566805093 0.015560182579966372 0 0.0012895738759500393 0.014832609019956448 0 -6.7116736014279172e-05 0.014854514026879661 0 0.00040537654069379772 0.013740893449386209 0 0.0018554515424859743 0.015515870860184237 0 0.0010973386350855798 0.014613051949614557 0 -6.7116736014279172e-05 0.014854514026879661 0 -0.0011653612783588498 0.013990074992694387 0 -0.00031920485754674571 0.013531218226698345 0 -6.7116736014279172e-05 0.014854514026879661 0 -0.00031920485754674571 0.013531218226698345 0 0.00040537654069379772 0.013740893449386209 0 -6.7116736014279172e-05 0.014854514026879661 0 -0.00029414423889825674 0.016284161168219683 0 -0.0010724185107034417 0.015569270992996837 0 -6.7116736014279172e-05 0.014854514026879661 0 0.00079901591411824283 0.016046616268293779 0 -0.00029414423889825674 0.016284161168219683 0 0.0012895738759500393 0.014832609019956448 0 -6.7116736014279172e-05 0.014854514026879661 0 0.00079901591411824283 0.016046616268293779 0 0.00079901591411824283 0.016046616268293779 0 0.00038158487857302545 0.017350127318010247 0 0.0015205665894854369 0.016832368059253974 0 0.00079901591411824283 0.016046616268293779 0 -0.00029414423889825674 0.016284161168219683 0 0.00038158487857302545 0.017350127318010247 0 0.00024633415569027547 0.01228615853169655 0 -0.00074891587786001966 0.012198650324941732 0 0.00018108035852138949 0.0072148870702555944 0 -0.00019490708050969949 0.0074112148640443961 0 -0.00038704232726336516 0.0070869045846146264 0 -0.00029414423889825674 0.016284161168219683 0 0.00038158487857302545 0.017350127318010247 0 -0.0013134854562856975 0.016946602319089735 0 0.00038158487857302545 0.017350127318010247 0 0.0015205665894854369 0.016832368059253974 0 0.0021117046555892659 0.017747233975603426 0 0.00024633415569027547 0.01228615853169655 0 0.0014650808411762041 0.012378841817086875 0 0.00079901591411824283 0.016046616268293779 0 0.0015205665894854369 0.016832368059253974 0 0.0021849002902108428 0.015990396108179889 0 0.0030322851637337158 0.017234492690296917 0 0.0032770373686528283 0.016714331029005099 0 0.0027799923569803904 0.016719849417528635 0 0.0030322851637337158 0.017234492690296917 0 0.0015205665894854369 0.016832368059253974 0 0.0021849002902108428 0.015990396108179889 0 0.0030094965098255385 0.01716856698097402 0 0.0024842656877475193 0.016371428833268194 0 0.0031946431549862782 0.017581737135420904 0 0.0030322851637337158 0.017234492690296917 0 0.0021117046555892659 0.017747233975603426 0 0.0030322851637337158 0.017234492690296917 0 0.0015205665894854369 0.016832368059253974 0 0.0021117046555892659 0.017747233975603426 0 0.0019761049752959059 0.014351578783742994 0 0.0014650808411762041 0.012378841817086875 0 0.0012552175861475199 0.0077048963114379294 0 0.00084196595069134408 0.0076218928630114114 0 0.00070917375299126364 0.0074279438193596923 0 0.00084196595069134408 0.0076218928630114114 0 0.00061340711478246809 0.0076561357083485982 0 0.0007818271228636456 0.0077394727210742297 0 0.00070917375299126364 0.0074279438193596923 0 0.00061340711478246809 0.0076561357083485982 0 0.00029841881859849064 0.007524599703286736 0 0.00084196595069134408 0.0076218928630114114 0 0.00070917375299126364 0.0074279438193596923 0 0.00061340711478246809 0.0076561357083485982 0 0.00061340711478246809 0.0076561357083485982 0 0.00058889452156379819 0.0078234889920850287 0 0.00040337535287065536 0.0077595045233784556 0 0.00061340711478246809 0.0076561357083485982 0 0.00058889452156379819 0.0078234889920850287 0 0.0007818271228636456 0.0077394727210742297 0 0.00058889452156379819 0.0078234889920850287 0 0.0007818271228636456 0.0077394727210742297 0 0.0007512523702631217 0.0078839853152343486 0 0.00058889452156379819 0.0078234889920850287 0 0.00055371889882694617 0.0079660555378639319 0 0.00040337535287065536 0.0077595045233784556 0 0.00084196595069134408 0.0076218928630114114 0 0.00091995063479054966 0.0077999205189724415 0 0.0007818271228636456 0.0077394727210742297 0 0.00091995063479054966 0.0077999205189724415 0 0.0007818271228636456 0.0077394727210742297 0 0.0007512523702631217 0.0078839853152343486 0 0.00091995063479054966 0.0077999205189724415 0 0.0007512523702631217 0.0078839853152343486 0 0.00090727498635197028 0.007939677719071175 0 0.00097216677692305866 0.0080896750133191836 0 0.00090727498635197028 0.007939677719071175 0 0.000776872992944541 0.0080107310659361265 0 0.00097216677692305866 0.0080896750133191836 0 0.000776872992944541 0.0080107310659361265 0 0.00067888756495565093 0.0081693819448531747 0 0.0007512523702631217 0.0078839853152343486 0 0.00090727498635197028 0.007939677719071175 0 0.000776872992944541 0.0080107310659361265 0 0.0007512523702631217 0.0078839853152343486 0 0.000776872992944541 0.0080107310659361265 0 0.00055371889882694617 0.0079660555378639319 0 0.00058889452156379819 0.0078234889920850287 0 0.0007512523702631217 0.0078839853152343486 0 0.00055371889882694617 0.0079660555378639319 0 0.000776872992944541 0.0080107310659361265 0 0.00055371889882694617 0.0079660555378639319 0 0.00067888756495565093 0.0081693819448531747 0 0.00077060379632200196 0.00848819218601371 0 0.0010226009473799488 0.0082163187136456151 0 0.0004063943674189178 0.0082915931749447582 0 0.00055371889882694617 0.0079660555378639319 0 0.00067888756495565093 0.0081693819448531747 0 0.0004063943674189178 0.0082915931749447582 0 0.00091855966026511005 0.007983860445282126 0 0.00038715570248509497 0.008338508466261451 0 0.00077060379632200196 0.00848819218601371 0 0.0010226009473799488 0.0082163187136456151 0 0.001068743171532281 0.008436627287978761 0 0.0011637465340834136 0.010283163131188756 0 0.00091855966026511005 0.007983860445282126 0 0.00010936229256448632 0.012319244323681285 0 -0.0006028285601970331 0.012850034475920079 0 -0.00047147538700878267 0.013794965765752898 0 0.0013443160492476044 0.0082092866912566141 0 0.0013760458522332722 0.0081551874278934528 0 0.0010226009473799488 0.0082163187136456151 0 0.00014008841015139664 0.011438083710085256 0 0.00070814619798545832 0.011043414319067643 0 0.00048859458878736789 0.010160992029290094 0 0.00055505344344272233 0.010021053908370147 0 0.0004232315472050426 0.010108847598190468 0 0.0013443160492476044 0.0082092866912566141 0 0.0010226009473799488 0.0082163187136456151 0 0.001068743171532281 0.008436627287978761 0 0.00070814619798545832 0.011043414319067643 0 0.00090472997422908407 0.0090173925944775548 0 -4.9908681592530108e-05 0.0083076077807720632 0 0.0004063943674189178 0.0082915931749447582 0 0.00016827492509214955 0.0079487427410042562 0 -4.9908681592530108e-05 0.0083076077807720632 0 0.00016827492509214955 0.0079487427410042562 0 -0.00018243405017483516 0.0079921081096020318 0 0.00055371889882694617 0.0079660555378639319 0 0.0004063943674189178 0.0082915931749447582 0 0.00016827492509214955 0.0079487427410042562 0 0.00055371889882694617 0.0079660555378639319 0 0.00016827492509214955 0.0079487427410042562 0 0.00040337535287065536 0.0077595045233784556 0 0.00016827492509214955 0.0079487427410042562 0 -0.00012532283900652 0.0078084523091657265 0 -0.00018243405017483516 0.0079921081096020318 0 0.00016827492509214955 0.0079487427410042562 0 -0.00012532283900652 0.0078084523091657265 0 3.9854014056058694e-05 0.0076760309385587215 0 -0.00012532283900652 0.0078084523091657265 0 3.9854014056058694e-05 0.0076760309385587215 0 -0.00032758720461346284 0.0076347842513085143 0 3.9854014056058694e-05 0.0076760309385587215 0 -0.00019490708050969949 0.0074112148640443961 0 -0.00032758720461346284 0.0076347842513085143 0 3.9854014056058694e-05 0.0076760309385587215 0 0.00040337535287065536 0.0077595045233784556 0 0.00029841881859849064 0.007524599703286736 0 0.00061340711478246809 0.0076561357083485982 0 0.00040337535287065536 0.0077595045233784556 0 0.00029841881859849064 0.007524599703286736 0 0.00016827492509214955 0.0079487427410042562 0 3.9854014056058694e-05 0.0076760309385587215 0 0.00040337535287065536 0.0077595045233784556 0 0.00018108035852138949 0.0072148870702555944 0 0.00070917375299126364 0.0074279438193596923 0 0.00029841881859849064 0.007524599703286736 0 3.9854014056058694e-05 0.0076760309385587215 0 0.00029841881859849064 0.007524599703286736 0 -0.00019490708050969949 0.0074112148640443961 0 0.00018108035852138949 0.0072148870702555944 0 0.00029841881859849064 0.007524599703286736 0 -0.00019490708050969949 0.0074112148640443961 0 -0.00019490708050969949 0.0074112148640443961 0 -0.0006421237106362652 0.0072977087803597022 0 -0.00052856301727268221 0.0074748081947869022 0 -0.0006421237106362652 0.0072977087803597022 0 -0.00052856301727268221 0.0074748081947869022 0 -0.00078855286747390877 0.0074071558678075657 0 -0.00066508297352786227 0.007608065293166549 0 -0.00052856301727268221 0.0074748081947869022 0 -0.00078855286747390877 0.0074071558678075657 0 -0.00066508297352786227 0.007608065293166549 0 -0.00052856301727268221 0.0074748081947869022 0 -0.00032758720461346284 0.0076347842513085143 0 -0.00019490708050969949 0.0074112148640443961 0 -0.00052856301727268221 0.0074748081947869022 0 -0.00032758720461346284 0.0076347842513085143 0 -0.00012532283900652 0.0078084523091657265 0 -0.00032758720461346284 0.0076347842513085143 0 -0.00043824646736547422 0.0078255857429337418 0 -0.00012532283900652 0.0078084523091657265 0 -0.00043824646736547422 0.0078255857429337418 0 -0.00018243405017483516 0.0079921081096020318 0 -0.00066508297352786227 0.007608065293166549 0 -0.00032758720461346284 0.0076347842513085143 0 -0.00043824646736547422 0.0078255857429337418 0 -0.00066508297352786227 0.007608065293166549 0 -0.00043824646736547422 0.0078255857429337418 0 -0.00068964827189205158 0.0078938395868191954 0 -0.00043824646736547422 0.0078255857429337418 0 -0.00068964827189205158 0.0078938395868191954 0 -0.00044103936095454951 0.0080882016514763552 0 -0.00072687945441808123 0.0081181596785552795 0 -0.00068964827189205158 0.0078938395868191954 0 -0.00044103936095454951 0.0080882016514763552 0 -4.9908681592530108e-05 0.0083076077807720632 0 -0.00044103936095454951 0.0080882016514763552 0 -0.00018243405017483516 0.0079921081096020318 0 -0.00043182728160756401 0.0084440522798198813 0 -4.9908681592530108e-05 0.0083076077807720632 0 -0.00044103936095454951 0.0080882016514763552 0 -0.00043824646736547422 0.0078255857429337418 0 -0.00044103936095454951 0.0080882016514763552 0 -0.00018243405017483516 0.0079921081096020318 0 -0.0011658189453072061 0.0074535231769113754 0 -0.0010531528221244171 0.0075754715706087402 0 -0.0010869839394970996 0.0076468021715004227 0 -0.0010531528221244171 0.0075754715706087402 0 -0.0010869839394970996 0.0076468021715004227 0 -0.00092446750353506304 0.0078568780979963726 0 -0.00068964827189205158 0.0078938395868191954 0 -0.00092446750353506304 0.0078568780979963726 0 -0.00087032788449686828 0.0076584585093351764 0 -0.0010531528221244171 0.0075754715706087402 0 -0.00092446750353506304 0.0078568780979963726 0 -0.00087032788449686828 0.0076584585093351764 0 -0.00072687945441808123 0.0081181596785552795 0 -0.00068964827189205158 0.0078938395868191954 0 -0.00092446750353506304 0.0078568780979963726 0 -0.00066508297352786227 0.007608065293166549 0 -0.00068964827189205158 0.0078938395868191954 0 -0.00087032788449686828 0.0076584585093351764 0 -0.00066508297352786227 0.007608065293166549 0 -0.00087032788449686828 0.0076584585093351764 0 -0.00089958024680898967 0.0074718651170741666 0 -0.00087032788449686828 0.0076584585093351764 0 -0.001010907134723592 0.0074971994104998663 0 -0.00089958024680898967 0.0074718651170741666 0 -0.0011249288197035866 0.0073662256636938045 0 -0.001010907134723592 0.0074971994104998663 0 -0.0010059188807551988 0.0074117379808426179 0 -0.0011249288197035866 0.0073662256636938045 0 -0.0010531528221244171 0.0075754715706087402 0 -0.001010907134723592 0.0074971994104998663 0 -0.0010531528221244171 0.0075754715706087402 0 -0.00087032788449686828 0.0076584585093351764 0 -0.001010907134723592 0.0074971994104998663 0 -0.0010500746517598011 0.0073360283590261323 0 -0.0010059188807551988 0.0074117379808426179 0 -0.00096932090174595619 0.0073659649915446754 0 -0.001010907134723592 0.0074971994104998663 0 -0.0010059188807551988 0.0074117379808426179 0 -0.00089958024680898967 0.0074718651170741666 0 -0.0010059188807551988 0.0074117379808426179 0 -0.00089958024680898967 0.0074718651170741666 0 -0.00096932090174595619 0.0073659649915446754 0 -0.00066508297352786227 0.007608065293166549 0 -0.00089958024680898967 0.0074718651170741666 0 -0.00078855286747390877 0.0074071558678075657 0 -0.00089958024680898967 0.0074718651170741666 0 -0.00078855286747390877 0.0074071558678075657 0 -0.00096932090174595619 0.0073659649915446754 0 -0.0006421237106362652 0.0072977087803597022 0 -0.00078855286747390877 0.0074071558678075657 0 -0.00092200398144977921 0.0073026378919585641 0 -0.00078855286747390877 0.0074071558678075657 0 -0.00096932090174595619 0.0073659649915446754 0 -0.00092200398144977921 0.0073026378919585641 0 -0.0010092809005577564 0.0073268130199959959 0 -0.00096932090174595619 0.0073659649915446754 0 -0.00092200398144977921 0.0073026378919585641 0 -0.001034744243686096 0.0073281627903295735 0 -0.00092200398144977921 0.0073026378919585641 0 -0.00086911174712331351 0.0072296372285892124 0 -0.0010092809005577564 0.0073268130199959959 0 -0.001034744243686096 0.0073281627903295735 0 -0.00092200398144977921 0.0073026378919585641 0 -0.0054602410765297498 0.01195404798052338 0 -0.0051055959941911574 0.012055446533039941 0 -0.0052516493603555984 0.011905337471868607 0 -0.0033462137887021212 0.0094667881847729941 0 -0.0023034503626683626 0.010559245026662081 0 -0.0030626123731085299 0.016551505834332139 0 -0.0037211467831177181 0.015703687682157606 0 -0.0026919876447639522 0.015178345069707855 0 -0.0023034503626683626 0.010559245026662081 0 -0.0042708483590340428 0.01405312588379903 0 -0.0006421237106362652 0.0072977087803597022 0 -0.00092200398144977921 0.0073026378919585641 0 -0.00086911174712331351 0.0072296372285892124 0 -0.00063127233599102786 0.0063152265597525648 0 -0.0023034503626683626 0.010559245026662081 0 -0.0023034503626683626 0.010559245026662081 0 -0.00074891587786001966 0.012198650324941732 0 -0.0006421237106362652 0.0072977087803597022 0 -0.00088828203219608283 0.0070350371497245202 0 -0.00038704232726336516 0.0070869045846146264 0 -0.00019490708050969949 0.0074112148640443961 0 -0.0006421237106362652 0.0072977087803597022 0 -0.00038704232726336516 0.0070869045846146264 0 -0.00029414423889825674 0.016284161168219683 0 -0.0013134854562856975 0.016946602319089735 0 -0.0010724185107034417 0.015569270992996837 0 -0.0013134854562856975 0.016946602319089735 0 -0.0020287299195826365 0.01606267336566174 0 -0.0010724185107034417 0.015569270992996837 0 -0.0030626123731085299 0.016551505834332139 0 -0.0020287299195826365 0.01606267336566174 0 -0.0026919876447639522 0.015178345069707855 0 -0.0030626123731085299 0.016551505834332139 0 -0.0013134854562856975 0.016946602319089735 0 -0.0020287299195826365 0.01606267336566174 0 -0.0020287299195826365 0.01606267336566174 0 -0.0010724185107034417 0.015569270992996837 0 -0.0026919876447639522 0.015178345069707855 0 -0.0012401738621483124 0.015491398568349536 0 -0.0025972678343867206 0.015420470548890479 0 -0.0010724185107034417 0.015569270992996837 0 -0.0023703924779599978 0.014210750064882838 0 -0.0028407315425087055 0.015263887356197534 0 -0.0010724185107034417 0.015569270992996837 0 -0.0011653612783588498 0.013990074992694387 0 -0.0023703924779599978 0.014210750064882838 0 -6.7116736014279172e-05 0.014854514026879661 0 -0.0010724185107034417 0.015569270992996837 0 -0.0011653612783588498 0.013990074992694387 0 -0.0023703924779599978 0.014210750064882838 0 -0.0035610524239669409 0.014197841517313989 0 -0.0028407315425087055 0.015263887356197534 0 -0.0023703924779599978 0.014210750064882838 0 -0.0035610524239669409 0.014197841517313989 0 -0.0035423574608473307 0.013228681731973176 0 -0.0035610524239669409 0.014197841517313989 0 -0.0046283802611923157 0.014815369965090934 0 -0.0028407315425087055 0.015263887356197534 0 -0.0035610524239669409 0.014197841517313989 0 -0.0046283802611923157 0.014815369965090934 0 -0.0044746398520615852 0.013492795007824545 0 -0.0053702170045550179 0.013556960598944947 0 -0.0046283802611923157 0.014815369965090934 0 -0.0044746398520615852 0.013492795007824545 0 -0.0054602410765297498 0.01195404798052338 0 -0.0053881368840675613 0.011808400461979278 0 -0.0052516493603555984 0.011905337471868607 0 -0.0050311894688006538 0.013342944503020962 0 -0.0042708483590340428 0.01405312588379903 0 -0.0050311894688006538 0.013342944503020962 0 -0.0025972678343867206 0.015420470548890479 0 -0.0043829066828637219 0.014822705358781912 0 -0.0037211467831177181 0.015703687682157606 0 -0.0026919876447639522 0.015178345069707855 0 -0.0038728182856503351 0.011795200453448017 0 -0.002467398983476816 0.012917044937050964 0 -0.0024821684264568615 0.011455606809368158 0 -0.0038728182856503351 0.011795200453448017 0 -0.0035423574608473307 0.013228681731973176 0 -0.002467398983476816 0.012917044937050964 0 -0.0038728182856503351 0.011795200453448017 0 -0.0046138090230296268 0.012526857945632144 0 -0.0035423574608473307 0.013228681731973176 0 -0.0054603114892121402 0.011636530791493405 0 -0.0038728182856503351 0.011795200453448017 0 -0.0046138090230296268 0.012526857945632144 0 -0.0046138090230296268 0.012526857945632144 0 -0.0044746398520615852 0.013492795007824545 0 -0.0035423574608473307 0.013228681731973176 0 -0.0052544235802404905 0.01267709889721688 0 -0.0046138090230296268 0.012526857945632144 0 -0.0044746398520615852 0.013492795007824545 0 -0.0035610524239669409 0.014197841517313989 0 -0.0044746398520615852 0.013492795007824545 0 -0.0035423574608473307 0.013228681731973176 0 -0.0023703924779599978 0.014210750064882838 0 -0.0035423574608473307 0.013228681731973176 0 -0.002467398983476816 0.012917044937050964 0 -0.0011653612783588498 0.013990074992694387 0 -0.0023703924779599978 0.014210750064882838 0 -0.002467398983476816 0.012917044937050964 0 -0.0011653612783588498 0.013990074992694387 0 -0.0013021846759867673 0.012643419042854081 0 -0.00031920485754674571 0.013531218226698345 0 -0.0011653612783588498 0.013990074992694387 0 -0.002467398983476816 0.012917044937050964 0 -0.0013021846759867673 0.012643419042854081 0 -0.0013021846759867673 0.012643419042854081 0 -0.00089891500282511668 0.01078754098319781 0 -0.00016428005845848612 0.012882322171766674 0 -0.0013021846759867673 0.012643419042854081 0 -0.00016428005845848612 0.012882322171766674 0 -0.00031920485754674571 0.013531218226698345 0 -0.002467398983476816 0.012917044937050964 0 -0.0013021846759867673 0.012643419042854081 0 -0.0024821684264568615 0.011455606809368158 0 -0.0024821684264568615 0.011455606809368158 0 -0.00089891500282511668 0.01078754098319781 0 -0.0024888632949589809 0.0085822423106136046 0 -0.00089891500282511668 0.01078754098319781 0 -0.0024888632949589809 0.0085822423106136046 0 0.00078591292724667185 0.0087776623563584014 0 -0.0013021846759867673 0.012643419042854081 0 -0.0024821684264568615 0.011455606809368158 0 -0.00089891500282511668 0.01078754098319781 0 -0.0024821684264568615 0.011455606809368158 0 -0.0041324013427282017 0.010344898568037138 0 -0.0024888632949589809 0.0085822423106136046 0 -0.0023746409152951556 0.003931003814188698 0 -0.002131919879482989 0.0043039072312585505 0 -0.0016498543653154043 0.0050493427752043461 0 -0.0032137314536482406 0.0071190469460965669 0 -0.0019268121159989693 0.0067511488984441093 0 -0.0038728182856503351 0.011795200453448017 0 -0.0024821684264568615 0.011455606809368158 0 -0.0041324013427282017 0.010344898568037138 0 -0.0054603114892121402 0.011636530791493405 0 -0.0038728182856503351 0.011795200453448017 0 -0.0041324013427282017 0.010344898568037138 0 -0.003919407728209299 0.0071844435998523011 0 -0.0032137314536482406 0.0071190469460965669 0 -0.0023746409152951556 0.003931003814188698 0 -0.0023523837017905146 0.0038218033733995985 0 -0.002131919879482989 0.0043039072312585505 0 -0.0023523837017905146 0.0038218033733995985 0 -0.002131919879482989 0.0043039072312585505 0 -0.0020179307272528376 0.0041849295280477336 0 -0.002131919879482989 0.0043039072312585505 0 -0.0020179307272528376 0.0041849295280477336 0 -0.0016498543653154043 0.0050493427752043461 0 -0.0022921429309936472 0.003865291627195597 0 -0.0023523837017905146 0.0038218033733995985 0 -0.0020179307272528376 0.0041849295280477336 0 -0.0022921429309936472 0.003865291627195597 0 -0.0020179307272528376 0.0041849295280477336 0 -0.0019990928961051168 0.0034755832598066345 0 -0.0022921429309936472 0.003865291627195597 0 -0.0019990928961051168 0.0034755832598066345 0 -0.0022261663466969853 0.0037155837404591234 0 -0.0020179307272528376 0.0041849295280477336 0 -0.0019990928961051168 0.0034755832598066345 0 -0.0010737001163691369 0.0044389212375149471 0 -0.0019990928961051168 0.0034755832598066345 0 -0.00083339757501001773 0.0033164580383500072 0 -0.0010737001163691369 0.0044389212375149471 0 -0.0020577186030675937 0.015080294764062823 0 -0.0016222764865527284 0.015396266543280617 0 -0.0017771425968069704 0.015115871865292797 0 -0.001986141105659197 0.009254801963903915 0 -0.0012343703564984196 0.009553319800889519 0 -0.00083339757501001773 0.0033164580383500072 0 -0.0010737001163691369 0.0044389212375149471 0 0.0012857062031379418 0.003378245990256116 0 -0.0010737001163691369 0.0044389212375149471 0 -0.0016498543653154043 0.0050493427752043461 0 9.312980914004889e-05 0.0060315296868275062 0 -0.0020179307272528376 0.0041849295280477336 0 -0.0010737001163691369 0.0044389212375149471 0 -0.0016498543653154043 0.0050493427752043461 0 -0.0024888632949589809 0.0085822423106136046 0 9.312980914004889e-05 0.0060315296868275062 0 0.00078591292724667185 0.0087776623563584014 0 -0.0019268121159989693 0.0067511488984441093 0 6.6214118408574232e-05 0.0059810487208856759 0 9.312980914004889e-05 0.0060315296868275062 0 0.0034547371600360016 0.0063905286355051402 0 0.00078591292724667185 0.0087776623563584014 0 9.312980914004889e-05 0.0060315296868275062 0 0.0016455063072406656 0.0050095974097427737 0 0.0034547371600360016 0.0063905286355051402 0 -0.0010737001163691369 0.0044389212375149471 0 9.312980914004889e-05 0.0060315296868275062 0 0.0016455063072406656 0.0050095974097427737 0 -0.0010737001163691369 0.0044389212375149471 0 0.0016455063072406656 0.0050095974097427737 0 0.0012857062031379418 0.003378245990256116 0 0.0016455063072406656 0.0050095974097427737 0 0.0012857062031379418 0.003378245990256116 0 0.003840699319114447 0.0038673627018673013 0 -0.0010040194487515313 0.015711659681082693 0 -0.00062745895972457304 0.015736422556193778 0 -0.00089206225034676838 0.015437694409737201 0 -0.0010040194487515313 0.015711659681082693 0 -0.0012484354809513582 0.015407569010149606 0 -0.00089206225034676838 0.015437694409737201 0 -0.0016222764865527284 0.015396266543280617 0 -0.0010040194487515313 0.015711659681082693 0 -0.0012484354809513582 0.015407569010149606 0 -0.0012343703564984196 0.009553319800889519 0 0.00046709411547768312 0.0081533527527443764 0 -0.0030512103761797353 0.026705810340604711 0 -0.00046761567651390447 0.020311726433773027 0 -0.0025148014880630822 0.033392091304497828 0 -0.0023573962495148921 0.033440121518743052 0 -0.002619884207753513 0.033565289758241808 0 -0.0025148014880630822 0.033392091304497828 0 -0.0025567228923882154 0.033369110511466446 0 -0.002619884207753513 0.033565289758241808 0 -0.0027761987392121083 0.02704003118959921 0 -0.0030512103761797353 0.026705810340604711 0 -0.0023573962495148921 0.033440121518743052 0 -0.0021203155255452239 0.03337653057940046 0 -0.0023650486092186918 0.03316746296654751 0 -0.0023573962495148921 0.033440121518743052 0 -0.002485267430818644 0.033174130628073242 0 -0.0023650486092186918 0.03316746296654751 0 -0.0025148014880630822 0.033392091304497828 0 -0.0023573962495148921 0.033440121518743052 0 -0.002485267430818644 0.033174130628073242 0 -0.0030512103761797353 0.026705810340604711 0 -0.003600605583315054 0.030557065874499724 0 -0.0025148014880630822 0.033392091304497828 0 -0.002579676405163342 0.033362285466099352 0 -0.002485267430818644 0.033174130628073242 0 -0.0025068347847275472 0.033226665164760347 0 -0.002485267430818644 0.033174130628073242 0 -0.002866921509124082 0.032795631715135581 0 -0.0010040194487515313 0.015711659681082693 0 -0.00062745895972457304 0.015736422556193778 0 -0.00033098011641354675 0.016013337933017374 0 -0.00026859208992816762 0.015796139971526676 0 -0.00062745895972457304 0.015736422556193778 0 -0.00089206225034676838 0.015437694409737201 0 -0.0030512103761797353 0.026705810340604711 0 -0.0015848859335036445 0.023867840755572297 0 0.00046709411547768312 0.0081533527527443764 0 -0.00046761567651390447 0.020311726433773027 0 -0.00026859208992816762 0.015796139971526676 0 -0.00062745895972457304 0.015736422556193778 0 -0.00033098011641354675 0.016013337933017374 0 -0.0023573962495148921 0.033440121518743052 0 -0.002619884207753513 0.033565289758241808 0 -0.0020487824807573392 0.033953403361965014 0 -0.00046761567651390447 0.020311726433773027 0 -0.0041650180781726484 0.03379695280066803 0 -0.0013122509698766762 0.0316600350513844 0 -0.003373732801470818 0.026701791515539443 0 0.00043189784086884394 0.026384635593845473 0 -0.0013122509698766762 0.0316600350513844 0 -0.003373732801470818 0.026701791515539443 0 -0.0051946516009467444 0.028647892664121516 0 0.0016455063072406656 0.0050095974097427737 0 0.003840699319114447 0.0038673627018673013 0 0.0034547371600360016 0.0063905286355051402 0 -0.00046761567651390447 0.020311726433773027 0 0.0022611800292164971 0.015786827694272351 0 0.0022611800292164971 0.015786827694272351 0 0.0023580029470640085 0.015299828870351456 0 -0.003373732801470818 0.026701791515539443 0 0.00043189784086884394 0.026384635593845473 0 -0.0029529043590732456 0.021813926897522928 0 -0.0029529043590732456 0.021813926897522928 0 -0.00040274034651579388 0.017330762911541682 0 -0.0038406196682758418 0.016485960522296495 0 -0.00040274034651579388 0.017330762911541682 0 0.0019212525952744404 0.020438867115084823 0 0.0020797013659824724 0.014470446741263113 0 -0.0029529043590732456 0.021813926897522928 0 -0.00040274034651579388 0.017330762911541682 0 0.0019212525952744404 0.020438867115084823 0 0.00043189784086884394 0.026384635593845473 0 -0.0029529043590732456 0.021813926897522928 0 0.0019212525952744404 0.020438867115084823 0 0.0034547371600360016 0.0063905286355051402 0 0.0030530512876469807 0.0097671369270848317 0 0.00078591292724667185 0.0087776623563584014 0 0.0030530512876469807 0.0097671369270848317 0 0.00078591292724667185 0.0087776623563584014 0 0.0009360040455649297 0.011128862764411091 0 -0.00089891500282511668 0.01078754098319781 0 0.0009360040455649297 0.011128862764411091 0 -0.00016428005845848612 0.012882322171766674 0 -0.00089891500282511668 0.01078754098319781 0 0.00078591292724667185 0.0087776623563584014 0 0.0009360040455649297 0.011128862764411091 0 0.0030530512876469807 0.0097671369270848317 0 0.0009360040455649297 0.011128862764411091 0 0.0023577142735156935 0.014172741884743876 0 0.0023580029470640085 0.015299828870351456 0 0.0024163342756849211 0.014238211092048916 0 0.0019212525952744404 0.020438867115084823 0 0.0023577142735156935 0.014172741884743876 0 0.0020797013659824724 0.014470446741263113 0 0.0023577142735156935 0.014172741884743876 0 0.0020797013659824724 0.014470446741263113 0 0.0022158749858541544 0.015016523892781599 0 0.0023577142735156935 0.014172741884743876 0 -0.00016428005845848612 0.012882322171766674 0 0.0018478081715429407 0.015623157175323619 0 0.0009360040455649297 0.011128862764411091 0 0.0023577142735156935 0.014172741884743876 0 -0.00016428005845848612 0.012882322171766674 0 -7.9285007286586669e-05 0.013023517359406316 0 0.0010973386350855798 0.014613051949614557 0 -0.00016428005845848612 0.012882322171766674 0 -0.00031920485754674571 0.013531218226698345 0 0.00040537654069379772 0.013740893449386209 0 0.0022158749858541544 0.015016523892781599 0 0.0018478081715429407 0.015623157175323619 0 0.0025113608566805093 0.015560182579966372 0 0.0023577142735156935 0.014172741884743876 0 0.0022158749858541544 0.015016523892781599 0 0.0018478081715429407 0.015623157175323619 0 0.0022158749858541544 0.015016523892781599 0 0.0028272799303899329 0.015157144457814856 0 0.0025113608566805093 0.015560182579966372 0 0.0029523754263524283 0.015786904224857574 0 0.0028272799303899329 0.015157144457814856 0 0.0025113608566805093 0.015560182579966372 0 0.0033601028653398265 0.015925369182312615 0 0.0029523754263524283 0.015786904224857574 0 0.00322768475460235 0.015537949123495352 0 0.0029523754263524283 0.015786904224857574 0 0.0028272799303899329 0.015157144457814856 0 0.00322768475460235 0.015537949123495352 0 0.0010475653908044098 0.014671962424708028 0 -0.001229990141970718 0.013864948173943511 0 -0.0010342678343221001 0.014150145436339032 0 -0.0038406196682758418 0.016485960522296495 0 -0.004470613497895114 0.013374699865211668 0 -0.00040274034651579388 0.017330762911541682 0 -0.0010342678343221001 0.014150145436339032 0 -0.0038406196682758418 0.016485960522296495 0 -0.00040274034651579388 0.017330762911541682 0 0.0020797013659824724 0.014470446741263113 0 -0.0010342678343221001 0.014150145436339032 0 0.0020797013659824724 0.014470446741263113 0 0.0022158749858541544 0.015016523892781599 0 0.0028272799303899329 0.015157144457814856 0 0.0019077924586389881 0.014565041562058659 0 0.0010475653908044098 0.014671962424708028 0 -0.0021333813572181068 0.026258359876143663 0 -0.0081130483690843667 0.026521530654678726 0 -0.0065011959247922614 0.014663464204878613 0 -0.0082228701025331748 0.012654050743905597 0 -0.0082142017751263667 0.017827589734988582 0 -0.006332239013560623 0.037828547425808365 0 -0.0047654754211370895 0.037169256826923791 0 -0.0065740065839024224 0.035728560492089501 0 -0.0038406196682758418 0.016485960522296495 0 -0.0065011959247922614 0.014663464204878613 0 -0.0082142017751263667 0.017827589734988582 0 -0.0038406196682758418 0.016485960522296495 0 -0.0065011959247922614 0.014663464204878613 0 -0.004470613497895114 0.013374699865211668 0 -0.001229990141970718 0.013864948173943511 0 -0.00070360683548940017 0.023002489191078317 0 0.0033601028653398265 0.015925369182312615 0 0.00322768475460235 0.015537949123495352 0 0.003631125875562388 0.015798119287829836 0 -0.0065011959247922614 0.014663464204878613 0 -0.004470613497895114 0.013374699865211668 0 -0.0079086013263909606 0.012492565629387562 0 0.0054106271870867171 0.015376925108562667 0 -0.00070360683548940017 0.023002489191078317 0 0.0011014797317530649 0.034476354173101915 0 0.0014073705592552402 0.03452520479851176 0 0.001408781697164828 0.034552879840341839 0 0.002519281212276122 0.035074280848498951 0 -0.00059028160673353983 0.026112551944466465 0 0.0036083785693561033 0.016028681361446428 0 0.0036667071569246208 0.015898232789583286 0 0.0036318420873011959 0.01589001667889962 0 -0.00059028160673353983 0.026112551944466465 0 -0.00070360683548940017 0.023002489191078317 0 -0.0013769128959080484 0.023215928831968321 0 -0.0013989102036501165 0.022672520636712972 0 -0.0020643540712065602 0.023013827001908811 0 -0.00059028160673353983 0.026112551944466465 0 -0.0021333813572181068 0.026258359876143663 0 -0.0021333813572181068 0.026258359876143663 0 -0.00070360683548940017 0.023002489191078317 0 -0.0065011959247922614 0.014663464204878613 0 -0.0082228701025331748 0.012654050743905597 0 -0.0079086013263909606 0.012492565629387562 0 -0.0021333813572181068 0.026258359876143663 0 -0.0024447244895596681 0.037119114468387462 0 0.0011014797317530649 0.034476354173101915 0 0.001408781697164828 0.034552879840341839 0 0.00099021174194639837 0.034854252191672902 0 0.0011014797317530649 0.034476354173101915 0 0.00099021174194639837 0.034854252191672902 0 0.00062571665612576061 0.03463910033194198 0 0.00099021174194639837 0.034854252191672902 0 0.00062571665612576061 0.03463910033194198 0 0.00051651540571390079 0.035053046269087576 0 -0.0024447244895596681 0.037119114468387462 0 -0.0010939145286025305 0.035574659110230243 0 -0.0047654754211370895 0.037169256826923791 0 -0.0046651136294951958 0.035659360007982518 0 -0.0030302039695057769 0.03642824381136129 0 -0.0047654754211370895 0.037169256826923791 0 -0.0046651136294951958 0.035659360007982518 0 -0.0065740065839024224 0.035728560492089501 0 -0.0046651136294951958 0.035659360007982518 0 -0.0036064286385038766 0.03465120280748004 0 -0.0051714466662015936 0.034155800309062442 0 -0.0046651136294951958 0.035659360007982518 0 -0.0051714466662015936 0.034155800309062442 0 -0.0065740065839024224 0.035728560492089501 0 -0.0046651136294951958 0.035659360007982518 0 -0.0036064286385038766 0.03465120280748004 0 -0.0030302039695057769 0.03642824381136129 0 -0.0036064286385038766 0.03465120280748004 0 -0.0051714466662015936 0.034155800309062442 0 -0.0040089394420687917 0.033174121945376257 0 -0.0036064286385038766 0.03465120280748004 0 -0.0040089394420687917 0.033174121945376257 0 -0.0026396627087074604 0.033700174106734759 0 -0.0051714466662015936 0.034155800309062442 0 -0.0070152779998955382 0.033181370190918123 0 -0.005325008257660864 0.032469125802671632 0 -0.0073314000752044382 0.028426057241146122 0 -0.0081130483690843667 0.026521530654678726 0 -0.0051714466662015936 0.034155800309062442 0 -0.0070152779998955382 0.033181370190918123 0 -0.0065740065839024224 0.035728560492089501 0 -0.0029529043590732456 0.021813926897522928 0 -0.0038406196682758418 0.016485960522296495 0 -0.0082142017751263667 0.017827589734988582 0 -0.0029529043590732456 0.021813926897522928 0 -0.0079976647469419682 0.02357488389368359 0 -0.0082142017751263667 0.017827589734988582 0 -0.003373732801470818 0.026701791515539443 0 -0.0029529043590732456 0.021813926897522928 0 -0.0079976647469419682 0.02357488389368359 0 -0.003373732801470818 0.026701791515539443 0 -0.0079976647469419682 0.02357488389368359 0 -0.0051946516009467444 0.028647892664121516 0 -0.0073314000752044382 0.028426057241146122 0 -0.0070002904216427964 0.029643442989333659 0 -0.0070152779998955382 0.033181370190918123 0 -0.0068572886592936436 0.029761531459209765 0 -0.0059467050632966987 0.031142975929497739 0 -0.0070152779998955382 0.033181370190918123 0 -0.0059467050632966987 0.031142975929497739 0 -0.005325008257660864 0.032469125802671632 0 -0.0068572886592936436 0.029761531459209765 0 -0.0058426816889734848 0.029769683273727386 0 -0.0059467050632966987 0.031142975929497739 0 -0.0079976647469419682 0.02357488389368359 0 -0.0068572886592936436 0.029761531459209765 0 -0.0051946516009467444 0.028647892664121516 0 -0.0068572886592936436 0.029761531459209765 0 -0.0051946516009467444 0.028647892664121516 0 -0.0063183186514500144 0.030470589820332131 0 -0.0013122509698766762 0.0316600350513844 0 -0.0051946516009467444 0.028647892664121516 0 -0.0063183186514500144 0.030470589820332131 0 -0.0020487824807573392 0.033953403361965014 0 -0.0017279622354703364 0.033627927765976492 0 -0.0014670069269101195 0.03437474053955962 0 -0.0068572886592936436 0.029761531459209765 0 -0.0063183186514500144 0.030470589820332131 0 -0.0058426816889734848 0.029769683273727386 0 -0.0041650180781726484 0.03379695280066803 0 -0.0036458688799733976 0.031920860652700556 0 -0.0020487824807573392 0.033953403361965014 0 -0.0017279622354703364 0.033627927765976492 0 -0.0021203155255452239 0.03337653057940046 0 -0.0023573962495148921 0.033440121518743052 0 -0.0020487824807573392 0.033953403361965014 0 -0.0021203155255452239 0.03337653057940046 0 -0.0014670069269101195 0.03437474053955962 0 -0.00084173219936992116 0.034748961199021239 0 -0.00073564152230601017 0.034268613067885985 0 -0.0012337041550385531 0.033767611347030206 0 -0.0014670069269101195 0.03437474053955962 0 -0.00073564152230601017 0.034268613067885985 0 -0.0017279622354703364 0.033627927765976492 0 -0.0012337041550385531 0.033767611347030206 0 -0.0014670069269101195 0.03437474053955962 0 -0.0058426816889734848 0.029769683273727386 0 -0.00451829384066307 0.031562455067012343 0 -0.0025434223909762488 0.03069126576850871 0 -0.00451829384066307 0.031562455067012343 0 -0.002903586075847554 0.032219901372586589 0 -0.0025434223909762488 0.03069126576850871 0 -0.0036458688799733976 0.031920860652700556 0 -0.0015880798891290239 0.032699519029808444 0 -0.0058426816889734848 0.029769683273727386 0 -0.00451829384066307 0.031562455067012343 0 -0.0059467050632966987 0.031142975929497739 0 -0.00451829384066307 0.031562455067012343 0 -0.0059467050632966987 0.031142975929497739 0 -0.005325008257660864 0.032469125802671632 0 -0.0051714466662015936 0.034155800309062442 0 -0.005325008257660864 0.032469125802671632 0 -0.0040089394420687917 0.033174121945376257 0 -0.00451829384066307 0.031562455067012343 0 -0.005325008257660864 0.032469125802671632 0 -0.0040089394420687917 0.033174121945376257 0 -0.002903586075847554 0.032219901372586589 0 -0.0040089394420687917 0.033174121945376257 0 -0.0026396627087074604 0.033700174106734759 0 -0.00451829384066307 0.031562455067012343 0 -0.002903586075847554 0.032219901372586589 0 -0.0040089394420687917 0.033174121945376257 0 -0.002903586075847554 0.032219901372586589 0 -0.0016567993957269423 0.033480919395117756 0 -0.00090904429736966884 0.03313708355117069 0 -0.0016567993957269423 0.033480919395117756 0 -0.0014969728076623587 0.034295382273605797 0 -0.0026396627087074604 0.033700174106734759 0 -0.002903586075847554 0.032219901372586589 0 -0.0016567993957269423 0.033480919395117756 0 -0.0026396627087074604 0.033700174106734759 0 -0.0016567993957269423 0.033480919395117756 0 -0.00090904429736966884 0.03313708355117069 0 -0.00066089796617925696 0.034090691722574201 0 -0.0016567993957269423 0.033480919395117756 0 -0.00066089796617925696 0.034090691722574201 0 -0.0014969728076623587 0.034295382273605797 0 -0.00030248016511111628 0.034970668926612075 0 -0.00084173219936992116 0.034748961199021239 0 -0.00045078184965236017 0.034654068244356385 0 -0.0027311400546742525 0.031945796298627857 0 -0.00017213786116897391 0.033502053162054159 0 -0.002903586075847554 0.032219901372586589 0 0.00094002428577078326 0.031467530163802833 0 -0.0025434223909762488 0.03069126576850871 0 -0.00017213786116897391 0.033502053162054159 0 -0.0015880798891290239 0.032699519029808444 0 -0.00084173219936992116 0.034748961199021239 0 -0.00045078184965236017 0.034654068244356385 0 -0.00073564152230601017 0.034268613067885985 0 -0.00030248016511111628 0.034970668926612075 0 -0.00045078184965236017 0.034654068244356385 0 -0.00022671970658585391 0.034788849034861187 0 -0.00045078184965236017 0.034654068244356385 0 -0.00029600796098606821 0.034515542083958919 0 -0.00073564152230601017 0.034268613067885985 0 -0.00045078184965236017 0.034654068244356385 0 -0.00029600796098606821 0.034515542083958919 0 -0.00022671970658585391 0.034788849034861187 0 -0.00029600796098606821 0.034515542083958919 0 -0.00073564152230601017 0.034268613067885985 0 -0.00044527343426423784 0.034062524816826471 0 -1.4438772266705425e-07 0.035000123817829423 0 -8.0852060240994624e-05 0.034444845224193756 0 6.598695869592732e-07 0.034998071734422605 0 -1.4438772266705425e-07 0.035000123817829423 0 -8.4883872124141344e-05 0.034821249041639926 0 -8.0852060240994624e-05 0.034444845224193756 0 -0.00029600796098606821 0.034515542083958919 0 -8.4883872124141344e-05 0.034821249041639926 0 -8.0852060240994624e-05 0.034444845224193756 0 -0.00029600796098606821 0.034515542083958919 0 -8.4883872124141344e-05 0.034821249041639926 0 -0.00022671970658585391 0.034788849034861187 0 -8.4883872124141344e-05 0.034821249041639926 0 -0.00022671970658585391 0.034788849034861187 0 -9.4251193088653576e-05 0.034949779966930015 0 -1.4438772266705425e-07 0.035000123817829423 0 -8.4883872124141344e-05 0.034821249041639926 0 7.1732499096886732e-08 0.03499978514311021 0 -8.4883872124141344e-05 0.034821249041639926 0 7.1732499096886732e-08 0.03499978514311021 0 -9.4251193088653576e-05 0.034949779966930015 0 -0.00023841504591137094 0.034487632420654571 0 -1.3148421101984091e-07 0.034999692249970071 0 -7.0984965547237446e-06 0.034994811755832612 0 -1.864577211797869e-05 0.034994112760372967 0 -3.3759184628039543e-09 0.035000015361933028 0 -2.871827205723019e-09 0.034999969155367003 0 -7.0984965547237446e-06 0.034994811755832612 0 -1.8387845490480483e-05 0.034982271846159818 0 3.5203701352775719e-08 0.034999966047607661 0 -0.00010723249756267057 0.0349740453277732 0 -7.0984965547237446e-06 0.034994811755832612 0 -1.8387845490480483e-05 0.034982271846159818 0 -1.864577211797869e-05 0.034994112760372967 0 -2.871827205723019e-09 0.034999969155367003 0 -7.0984965547237446e-06 0.034994811755832612 0 -3.3759184628039543e-09 0.035000015361933028 0 -0.00017213786116897391 0.033502053162054159 0 -0.00010723249756267057 0.0349740453277732 0 -5.6210523124651594e-05 0.034968864172565756 0 -1.8387845490480483e-05 0.034982271846159818 0 -1.864577211797869e-05 0.034994112760372967 0 -0.00017213786116897391 0.033502053162054159 0 -0.00023841504591137094 0.034487632420654571 0 -0.00030248016511111628 0.034970668926612075 0 -0.00022671970658585391 0.034788849034861187 0 -9.4251193088653576e-05 0.034949779966930015 0 -0.00090904429736966884 0.03313708355117069 0 -0.00020981713602139505 0.034000759597217906 0 -0.00066089796617925696 0.034090691722574201 0 -0.00020981713602139505 0.034000759597217906 0 -0.00066089796617925696 0.034090691722574201 0 -8.1854146391482872e-05 0.034658130279412572 0 -8.1854146391482872e-05 0.034658130279412572 0 1.7038360800668908e-07 0.034997936760250682 0 -1.2248143636156089e-08 0.035000202248028883 0 -0.00020981713602139505 0.034000759597217906 0 -8.1854146391482872e-05 0.034658130279412572 0 1.7038360800668908e-07 0.034997936760250682 0 -8.1854146391482872e-05 0.034658130279412572 0 -1.2248143636156089e-08 0.035000202248028883 0 -0.00016371236831622425 0.035025619942098865 0 -1.2248143636156089e-08 0.035000202248028883 0 -8.4817683370057869e-08 0.035000130695372396 0 -6.1363699198074684e-05 0.035005355108154855 0 -1.2248143636156089e-08 0.035000202248028883 0 -0.00016371236831622425 0.035025619942098865 0 -6.1363699198074684e-05 0.035005355108154855 0 -0.00016371236831622425 0.035025619942098865 0 0.00012168729899372823 0.03509695345295983 0 -6.1363699198074684e-05 0.035005355108154855 0 -0.00066089796617925696 0.034090691722574201 0 -0.00016371236831622425 0.035025619942098865 0 -0.0014969728076623587 0.034295382273605797 0 -0.00066089796617925696 0.034090691722574201 0 -8.1854146391482872e-05 0.034658130279412572 0 -0.00016371236831622425 0.035025619942098865 0 -0.00016371236831622425 0.035025619942098865 0 -0.0014969728076623587 0.034295382273605797 0 -0.0014388092961998356 0.035643674783520249 0 -0.0014969728076623587 0.034295382273605797 0 -0.0022992844907186042 0.034811051540266695 0 -0.0014388092961998356 0.035643674783520249 0 -0.0014969728076623587 0.034295382273605797 0 -0.0022992844907186042 0.034811051540266695 0 -0.0026396627087074604 0.033700174106734759 0 -0.0036064286385038766 0.03465120280748004 0 -0.0022992844907186042 0.034811051540266695 0 -0.0026396627087074604 0.033700174106734759 0 -0.0022992844907186042 0.034811051540266695 0 -0.0014388092961998356 0.035643674783520249 0 -0.0030302039695057769 0.03642824381136129 0 -0.0036064286385038766 0.03465120280748004 0 -0.0022992844907186042 0.034811051540266695 0 -0.0030302039695057769 0.03642824381136129 0 -0.00068452515181607421 0.035385893483480951 0 -0.0010939145286025305 0.035574659110230243 0 -0.00016472346915153655 0.035045514854173968 0 -0.00068452515181607421 0.035385893483480951 0 0.00012168729899372823 0.03509695345295983 0 0.0002523760525614867 0.034893002248274907 0 3.0521837937785796e-05 0.03489850031240066 0 0.00012168729899372823 0.03509695345295983 0 0.0002523760525614867 0.034893002248274907 0 0.00051651540571390079 0.035053046269087576 0 0.00062571665612576061 0.03463910033194198 0 0.0002523760525614867 0.034893002248274907 0 0.00051651540571390079 0.035053046269087576 0 0.00024207801036677583 0.034628907782207403 0 0.00062571665612576061 0.03463910033194198 0 0.0002523760525614867 0.034893002248274907 0 0.00024207801036677583 0.034628907782207403 0 0.0002523760525614867 0.034893002248274907 0 3.0521837937785796e-05 0.03489850031240066 0 -4.9936141943169101e-06 0.03471372000974321 0 0.00024207801036677583 0.034628907782207403 0 3.0521837937785796e-05 0.03489850031240066 0 -4.9936141943169101e-06 0.03471372000974321 0 -8.4817683370057869e-08 0.035000130695372396 0 3.0521837937785796e-05 0.03489850031240066 0 -3.3166548264333394e-07 0.034998993685095313 0 -4.9936141943169101e-06 0.03471372000974321 0 -8.4817683370057869e-08 0.035000130695372396 0 -8.4817683370057869e-08 0.035000130695372396 0 -6.1363699198074684e-05 0.035005355108154855 0 3.0521837937785796e-05 0.03489850031240066 0 0.00012168729899372823 0.03509695345295983 0 -6.1363699198074684e-05 0.035005355108154855 0 3.0521837937785796e-05 0.03489850031240066 0 1.8035164270820278e-08 0.034999931922516776 0 1.9787513690064334e-05 0.034928813064251794 0 1.3952832747004155e-05 0.034974283728803915 0 1.8035164270820278e-08 0.034999931922516776 0 1.3952832747004155e-05 0.034974283728803915 0 8.1931069341108865e-10 0.034999987248438363 0 1.8035164270820278e-08 0.034999931922516776 0 1.9787513690064334e-05 0.034928813064251794 0 5.8200588770015291e-06 0.034966256415566686 0 1.9787513690064334e-05 0.034928813064251794 0 -4.9055400494147859e-05 0.034901673575584623 0 -4.2196063148324617e-05 0.034923720842118616 0 1.9787513690064334e-05 0.034928813064251794 0 1.9070486195883889e-05 0.03488511410593987 0 1.190676780309577e-05 0.03492778284493181 0 1.9787513690064334e-05 0.034928813064251794 0 1.9070486195883889e-05 0.03488511410593987 0 -6.4708037613544323e-05 0.034954362375513894 0 3.5140887803247746e-05 0.034899221740504957 0 -0.00010896387953460168 0.035076284705080299 0 -6.4708037613544323e-05 0.034954362375513894 0 -0.00016684178754549834 0.034903030667622063 0 -0.00069782080706223229 0.035005572334856475 0 1.9857471197473922e-05 0.034840994588237917 0 -0.00016684178754549834 0.034903030667622063 0 -0.00039422974992324276 0.034267503893307266 0 1.9070486195883889e-05 0.03488511410593987 0 1.9857471197473922e-05 0.034840994588237917 0 -6.4708037613544323e-05 0.034954362375513894 0 1.9857471197473922e-05 0.034840994588237917 0 -6.4708037613544323e-05 0.034954362375513894 0 -0.00016684178754549834 0.034903030667622063 0 -4.9055400494147859e-05 0.034901673575584623 0 -5.7995513435508488e-05 0.034916050514169433 0 -8.2102872185618576e-05 0.034905986947010963 0 -5.7995513435508488e-05 0.034916050514169433 0 -4.2196063148324617e-05 0.034923720842118616 0 -5.8559863752868695e-05 0.034931250204029339 0 -5.7995513435508488e-05 0.034916050514169433 0 -5.8559863752868695e-05 0.034931250204029339 0 -8.2102872185618576e-05 0.034905986947010963 0 -4.9055400494147859e-05 0.034901673575584623 0 -5.7995513435508488e-05 0.034916050514169433 0 -4.2196063148324617e-05 0.034923720842118616 0 -4.2196063148324617e-05 0.034923720842118616 0 -5.8559863752868695e-05 0.034931250204029339 0 -2.6070058690067376e-05 0.034940574416321049 0 1.9787513690064334e-05 0.034928813064251794 0 -2.6070058690067376e-05 0.034940574416321049 0 1.3952832747004155e-05 0.034974283728803915 0 -2.4620372411360001e-05 0.034945307620863508 0 1.4059478527519355e-07 0.034970486116759597 0 1.9787513690064334e-05 0.034928813064251794 0 -4.2196063148324617e-05 0.034923720842118616 0 -2.6070058690067376e-05 0.034940574416321049 0 -5.8559863752868695e-05 0.034931250204029339 0 -2.6070058690067376e-05 0.034940574416321049 0 -2.6433599973952226e-05 0.034964966461094982 0 -2.6070058690067376e-05 0.034940574416321049 0 -2.6433599973952226e-05 0.034964966461094982 0 -1.0296725856576924e-05 0.03496627013950987 0 -5.8559863752868695e-05 0.034931250204029339 0 -2.6433599973952226e-05 0.034964966461094982 0 -5.7131026554027456e-05 0.034961832711398022 0 -0.00035331876734743324 0.033295030111702283 0 -0.00011807004575481293 0.033764510930502686 0 -2.6433599973952226e-05 0.034964966461094982 0 -7.7104434695222881e-06 0.034987183666852523 0 -2.4959169504707009e-05 0.034988159852574301 0 -2.6433599973952226e-05 0.034964966461094982 0 -5.7131026554027456e-05 0.034961832711398022 0 -2.4959169504707009e-05 0.034988159852574301 0 -2.6433599973952226e-05 0.034964966461094982 0 -7.7104434695222881e-06 0.034987183666852523 0 -1.0296725856576924e-05 0.03496627013950987 0 -7.7104434695222881e-06 0.034987183666852523 0 -1.0296725856576924e-05 0.03496627013950987 0 4.168867637021915e-09 0.034999939985514372 0 1.4059478527519355e-07 0.034970486116759597 0 4.5738935944048024e-09 0.034999988137963053 0 -7.7104434695222881e-06 0.034987183666852523 0 4.168867637021915e-09 0.034999939985514372 0 -5.2168259662176241e-09 0.03499999755257456 0 -7.7104434695222881e-06 0.034987183666852523 0 -5.2168259662176241e-09 0.03499999755257456 0 -6.1613477888753542e-06 0.034995651269556241 0 -5.2168259662176241e-09 0.03499999755257456 0 -6.1613477888753542e-06 0.034995651269556241 0 -5.0827573922636001e-09 0.03499999447221306 0 -7.7104434695222881e-06 0.034987183666852523 0 -6.1613477888753542e-06 0.034995651269556241 0 -2.4959169504707009e-05 0.034988159852574301 0 -6.1613477888753542e-06 0.034995651269556241 0 -6.6231827610593821e-06 0.034998237387999953 0 -2.4959169504707009e-05 0.034988159852574301 0 1.7752353318174003e-05 0.03427830250811905 0 -0.00011807004575481293 0.033764510930502686 0 -6.1613477888753542e-06 0.034995651269556241 0 -5.0827573922636001e-09 0.03499999447221306 0 -6.6231827610593821e-06 0.034998237387999953 0 -5.0827573922636001e-09 0.03499999447221306 0 -6.6231827610593821e-06 0.034998237387999953 0 1.4315552550087836e-09 0.035000003383189295 0 1.7752353318174003e-05 0.03427830250811905 0 -2.6554753584687579e-08 0.03499968724113392 0 0.00012629187504390002 0.033597166279082484 0 -8.0852060240994624e-05 0.034444845224193756 0 -0.00036072748215895944 0.033411242813227403 0 0.00012629187504390002 0.033597166279082484 0 -8.0852060240994624e-05 0.034444845224193756 0 6.598695869592732e-07 0.034998071734422605 0 -0.00073564152230601017 0.034268613067885985 0 -0.00044527343426423784 0.034062524816826471 0 -0.00079301355476943869 0.033586015505509013 0 -0.00029600796098606821 0.034515542083958919 0 -8.0852060240994624e-05 0.034444845224193756 0 -0.00044527343426423784 0.034062524816826471 0 -8.0852060240994624e-05 0.034444845224193756 0 -0.00044527343426423784 0.034062524816826471 0 -0.00036072748215895944 0.033411242813227403 0 -0.00044527343426423784 0.034062524816826471 0 -0.00036072748215895944 0.033411242813227403 0 -0.00079301355476943869 0.033586015505509013 0 -0.00036072748215895944 0.033411242813227403 0 -0.00079301355476943869 0.033586015505509013 0 -0.00077731737158711625 0.032781140899101779 0 -0.00061359479136726368 0.031659295355515697 0 -0.00077731737158711625 0.032781140899101779 0 -0.00019973647978650276 0.032546064894514601 0 0.00012629187504390002 0.033597166279082484 0 -0.00036072748215895944 0.033411242813227403 0 -0.00019973647978650276 0.032546064894514601 0 -0.00036072748215895944 0.033411242813227403 0 -0.00077731737158711625 0.032781140899101779 0 -0.00019973647978650276 0.032546064894514601 0 -0.00061359479136726368 0.031659295355515697 0 -0.00077731737158711625 0.032781140899101779 0 -0.001317516251456906 0.03236518046761587 0 -0.001317516251456906 0.03236518046761587 0 -0.0011596943226294702 0.033130929721188217 0 -0.0016271717940495355 0.033077690289304247 0 -0.00077731737158711625 0.032781140899101779 0 -0.001317516251456906 0.03236518046761587 0 -0.0011596943226294702 0.033130929721188217 0 -0.00079301355476943869 0.033586015505509013 0 -0.00077731737158711625 0.032781140899101779 0 -0.0011596943226294702 0.033130929721188217 0 -0.0012337041550385531 0.033767611347030206 0 -0.0011596943226294702 0.033130929721188217 0 -0.0016271717940495355 0.033077690289304247 0 -0.0017279622354703364 0.033627927765976492 0 -0.0012337041550385531 0.033767611347030206 0 -0.0016271717940495355 0.033077690289304247 0 -0.0012337041550385531 0.033767611347030206 0 -0.00079301355476943869 0.033586015505509013 0 -0.0011596943226294702 0.033130929721188217 0 -0.0012337041550385531 0.033767611347030206 0 -0.00073564152230601017 0.034268613067885985 0 -0.00079301355476943869 0.033586015505509013 0 -0.0021203155255452239 0.03337653057940046 0 -0.0019648933052376356 0.033139068713010082 0 -0.0023170515590062546 0.032975674895307498 0 -0.0017279622354703364 0.033627927765976492 0 -0.0021203155255452239 0.03337653057940046 0 -0.0019648933052376356 0.033139068713010082 0 -0.0019648933052376356 0.033139068713010082 0 -0.0022581748138822679 0.032717411801020252 0 -0.0023170515590062546 0.032975674895307498 0 -0.0017279622354703364 0.033627927765976492 0 -0.0019648933052376356 0.033139068713010082 0 -0.0016271717940495355 0.033077690289304247 0 -0.0019648933052376356 0.033139068713010082 0 -0.0016271717940495355 0.033077690289304247 0 -0.0019483410106020055 0.032490740858689054 0 -0.0019648933052376356 0.033139068713010082 0 -0.0019483410106020055 0.032490740858689054 0 -0.0022581748138822679 0.032717411801020252 0 -0.0019483410106020055 0.032490740858689054 0 -0.0024384404782957312 0.032203416780499448 0 -0.0022581748138822679 0.032717411801020252 0 -0.001317516251456906 0.03236518046761587 0 -0.0016271717940495355 0.033077690289304247 0 -0.0019483410106020055 0.032490740858689054 0 -0.001317516251456906 0.03236518046761587 0 -0.0019483410106020055 0.032490740858689054 0 -0.0016125845902673259 0.031901334782022735 0 -0.0019483410106020055 0.032490740858689054 0 -0.0020901492566747647 0.031874779801314118 0 -0.0016125845902673259 0.031901334782022735 0 -0.0019060167733012377 0.031535665317315602 0 -0.0022823294926430414 0.031864765217957919 0 -0.0019483410106020055 0.032490740858689054 0 -0.0020901492566747647 0.031874779801314118 0 -0.0024384404782957312 0.032203416780499448 0 -0.0017588874630454963 0.031213617677871324 0 -0.0018926779729760339 0.030806805381484538 0 -0.0021734866373274283 0.031009932512439279 0 -0.0017588874630454963 0.031213617677871324 0 -0.0018926779729760339 0.030806805381484538 0 -0.0016402097994143217 0.030865297463351749 0 -0.0017588874630454963 0.031213617677871324 0 -0.0014750518220389625 0.031193456616804942 0 -0.0016402097994143217 0.030865297463351749 0 -0.0014750518220389625 0.031193456616804942 0 -0.0013932528249749414 0.030834761632777107 0 -0.0016402097994143217 0.030865297463351749 0 -0.0020901492566747647 0.031874779801314118 0 -0.0016125845902673259 0.031901334782022735 0 -0.0014750518220389625 0.031193456616804942 0 -0.0019060167733012377 0.031535665317315602 0 -0.0014849171303871714 0.031202568454301288 0 -0.001317516251456906 0.03236518046761587 0 -0.0016125845902673259 0.031901334782022735 0 -0.0010797691458298004 0.031428501265216804 0 -0.0016125845902673259 0.031901334782022735 0 -0.0010797691458298004 0.031428501265216804 0 -0.0014750518220389625 0.031193456616804942 0 -0.00061359479136726368 0.031659295355515697 0 -0.001317516251456906 0.03236518046761587 0 -0.0010797691458298004 0.031428501265216804 0 -0.00035331876734743324 0.033295030111702283 0 -0.00056198268510201867 0.032911462107097743 0 -5.8559863752868695e-05 0.034931250204029339 0 -5.7131026554027456e-05 0.034961832711398022 0 -0.00010381016080897853 0.034913163889354684 0 -0.00061359479136726368 0.031659295355515697 0 -0.0010797691458298004 0.031428501265216804 0 -0.0011005927520858232 0.030834375716613755 0 -0.0010797691458298004 0.031428501265216804 0 -0.0012707900690583816 0.031073763609955875 0 -0.0011005927520858232 0.030834375716613755 0 -0.0010797691458298004 0.031428501265216804 0 -0.0014750518220389625 0.031193456616804942 0 -0.0012707900690583816 0.031073763609955875 0 -0.0014750518220389625 0.031193456616804942 0 -0.0012707900690583816 0.031073763609955875 0 -0.0013932528249749414 0.030834761632777107 0 -0.0012707900690583816 0.031073763609955875 0 -0.0013932528249749414 0.030834761632777107 0 -0.0011005927520858232 0.030834375716613755 0 -0.00056198268510201867 0.032911462107097743 0 -0.0010211785845724557 0.031359250885251544 0 -0.00040515548073868875 0.032809943842526217 0 -0.00041773127038887586 0.032346573473602598 0 -0.00076607504848996764 0.03237433476972025 0 -0.0013932528249749414 0.030834761632777107 0 -0.0011005927520858232 0.030834375716613755 0 -0.001322135828725652 0.030587991418062458 0 -5.8559863752868695e-05 0.034931250204029339 0 -0.00010381016080897853 0.034913163889354684 0 -8.2102872185618576e-05 0.034905986947010963 0 -0.00010381016080897853 0.034913163889354684 0 -8.2102872185618576e-05 0.034905986947010963 0 -0.00010501881232070914 0.034884143771550004 0 -0.00056198268510201867 0.032911462107097743 0 -0.00028903591622628623 0.033406443494121953 0 -4.9055400494147859e-05 0.034901673575584623 0 -8.2102872185618576e-05 0.034905986947010963 0 -0.00010501881232070914 0.034884143771550004 0 -0.0002901420351113354 0.035333048461701447 0 -0.00014040633584282665 0.031749063044327036 0 -0.00016684178754549834 0.034903030667622063 0 -0.0011969931669276366 0.034556052525159621 0 -0.00039422974992324276 0.034267503893307266 0 -0.00010896387953460168 0.035076284705080299 0 -0.00028903591622628623 0.033406443494121953 0 -0.00016684178754549834 0.034903030667622063 0 -0.00069782080706223229 0.035005572334856475 0 -0.00070690753744518113 0.034650079974457279 0 -0.00028903591622628623 0.033406443494121953 0 -0.00014040633584282665 0.031749063044327036 0 -0.0010211785845724557 0.031359250885251544 0 -0.0012622271130888112 0.030405010902827823 0 0.00016954053619571547 0.031479893011565091 0 -0.00050942907840714551 0.031535831588785479 0 -0.00018970921475753043 0.031061816661571418 0 -0.00050942907840714551 0.031535831588785479 0 -0.00018970921475753043 0.031061816661571418 0 -0.00056479475037103741 0.030762004806730008 0 -0.00028903591622628623 0.033406443494121953 0 -0.0010211785845724557 0.031359250885251544 0 0.00016954053619571547 0.031479893011565091 0 0.00014487692454275128 0.030470791598213354 0 -0.00018970921475753043 0.031061816661571418 0 0.00014487692454275128 0.030470791598213354 0 -0.00056479475037103741 0.030762004806730008 0 -0.00097959000024055347 0.030020537840901154 0 0.00014487692454275128 0.030470791598213354 0 -0.00018970921475753043 0.031061816661571418 0 -0.00056479475037103741 0.030762004806730008 0 -0.00056479475037103741 0.030762004806730008 0 -0.001306655740997201 0.030554930292532308 0 -0.00097959000024055347 0.030020537840901154 0 -0.00050942907840714551 0.031535831588785479 0 -0.00056479475037103741 0.030762004806730008 0 -0.001306655740997201 0.030554930292532308 0 -0.0013773442657173296 0.030156364931819411 0 -0.0016440282857829748 0.030122092529570509 0 -0.0016836113975108996 0.030535503103879709 0 -0.0010967014568214702 0.03049824978800432 0 -0.0013773442657173296 0.030156364931819411 0 -0.0016836113975108996 0.030535503103879709 0 -0.0016440282857829748 0.030122092529570509 0 -0.0018775601568633256 0.030162288341551116 0 -0.0016836113975108996 0.030535503103879709 0 -0.0018775601568633256 0.030162288341551116 0 -0.0019655819913356261 0.030474097329686436 0 -0.0016836113975108996 0.030535503103879709 0 -0.0018926779729760339 0.030806805381484538 0 -0.0019655819913356261 0.030474097329686436 0 -0.0016836113975108996 0.030535503103879709 0 -0.0018926779729760339 0.030806805381484538 0 -0.0016836113975108996 0.030535503103879709 0 -0.0016402097994143217 0.030865297463351749 0 -0.0010211785845724557 0.031359250885251544 0 -0.0017075718392545883 0.030437428168513914 0 -0.0013932528249749414 0.030834761632777107 0 -0.001322135828725652 0.030587991418062458 0 -0.0016836113975108996 0.030535503103879709 0 -0.0013932528249749414 0.030834761632777107 0 -0.0016836113975108996 0.030535503103879709 0 -0.0016402097994143217 0.030865297463351749 0 -0.0024107902918275577 0.030414120296391883 0 -0.0027121350023942129 0.03040094696794585 0 -0.0024029220270013452 0.030676819987338795 0 -0.0024107902918275577 0.030414120296391883 0 -0.0021650382444133457 0.030627773580911479 0 -0.0024029220270013452 0.030676819987338795 0 -0.0024107902918275577 0.030414120296391883 0 -0.0021650382444133457 0.030627773580911479 0 -0.0022371947589302755 0.030215706508066088 0 -0.0019655819913356261 0.030474097329686436 0 -0.0021650382444133457 0.030627773580911479 0 -0.0022371947589302755 0.030215706508066088 0 -0.0018926779729760339 0.030806805381484538 0 -0.0019655819913356261 0.030474097329686436 0 -0.0021650382444133457 0.030627773580911479 0 -0.0018775601568633256 0.030162288341551116 0 -0.0022371947589302755 0.030215706508066088 0 -0.0020484218207229856 0.029995490570603255 0 -0.0018775601568633256 0.030162288341551116 0 -0.0019655819913356261 0.030474097329686436 0 -0.0022371947589302755 0.030215706508066088 0 -0.0022371947589302755 0.030215706508066088 0 -0.0024063963406757006 0.030048103268194921 0 -0.0025671247323499195 0.030124029130570707 0 -0.0024107902918275577 0.030414120296391883 0 -0.0022371947589302755 0.030215706508066088 0 -0.0025671247323499195 0.030124029130570707 0 -0.0024063963406757006 0.030048103268194921 0 -0.0025671247323499195 0.030124029130570707 0 -0.0025634336625618235 0.029932603307302238 0 -0.0028108734391145596 0.030132442878782955 0 -0.0025671247323499195 0.030124029130570707 0 -0.0029353089046256077 0.029849134626976307 0 -0.0026532040261776696 0.030236268086487484 0 -0.0024449405179290578 0.028982148762507293 0 -0.0028108734391145596 0.030132442878782955 0 -0.0025671247323499195 0.030124029130570707 0 -0.0027121350023942129 0.03040094696794585 0 -0.0028108734391145596 0.030132442878782955 0 -0.0030262034018124491 0.030156270822381079 0 -0.0029353089046256077 0.029849134626976307 0 -0.0030262034018124491 0.030156270822381079 0 -0.0032016120907272512 0.02985935033353071 0 -0.0029353089046256077 0.029849134626976307 0 -0.0030262034018124491 0.030156270822381079 0 -0.0029517745230295497 0.030583023987296697 0 -0.0031591145803796 0.030378861317397119 0 -0.0030262034018124491 0.030156270822381079 0 -0.0027121350023942129 0.03040094696794585 0 -0.0029517745230295497 0.030583023987296697 0 -0.0028108734391145596 0.030132442878782955 0 -0.0030262034018124491 0.030156270822381079 0 -0.0027121350023942129 0.03040094696794585 0 -0.0024107902918275577 0.030414120296391883 0 -0.0025671247323499195 0.030124029130570707 0 -0.0027121350023942129 0.03040094696794585 0 -0.0027121350023942129 0.03040094696794585 0 -0.0026268701151826506 0.03086449676107381 0 -0.0029517745230295497 0.030583023987296697 0 -0.0027121350023942129 0.03040094696794585 0 -0.0026268701151826506 0.03086449676107381 0 -0.0024029220270013452 0.030676819987338795 0 -0.0029517745230295497 0.030583023987296697 0 -0.003024835981116403 0.031101641844833095 0 -0.0032197434956153163 0.030626056023818644 0 -0.0029517745230295497 0.030583023987296697 0 -0.0032197434956153163 0.030626056023818644 0 -0.0031591145803796 0.030378861317397119 0 -0.0026268701151826506 0.03086449676107381 0 -0.0029517745230295497 0.030583023987296697 0 -0.003024835981116403 0.031101641844833095 0 -0.0026268701151826506 0.03086449676107381 0 -0.003024835981116403 0.031101641844833095 0 -0.0025793577539626336 0.031334633347428295 0 -0.0026268701151826506 0.03086449676107381 0 -0.0021734866373274283 0.031009932512439279 0 -0.0025793577539626336 0.031334633347428295 0 -0.0026268701151826506 0.03086449676107381 0 -0.0024029220270013452 0.030676819987338795 0 -0.0021734866373274283 0.031009932512439279 0 -0.0018926779729760339 0.030806805381484538 0 -0.0021650382444133457 0.030627773580911479 0 -0.0021734866373274283 0.031009932512439279 0 -0.0021650382444133457 0.030627773580911479 0 -0.0024029220270013452 0.030676819987338795 0 -0.0021734866373274283 0.031009932512439279 0 -0.0017588874630454963 0.031213617677871324 0 -0.0021734866373274283 0.031009932512439279 0 -0.00208889322650403 0.031520638673196273 0 -0.0021734866373274283 0.031009932512439279 0 -0.00208889322650403 0.031520638673196273 0 -0.0025793577539626336 0.031334633347428295 0 -0.00208889322650403 0.031520638673196273 0 -0.0026603065354692313 0.032110277008635432 0 -0.0025793577539626336 0.031334633347428295 0 -0.0022823294926430414 0.031864765217957919 0 -0.002650119119752479 0.032112757033473216 0 -0.0024384404782957312 0.032203416780499448 0 -0.0024791327988985196 0.032393241689032237 0 -0.0026603065354692313 0.032110277008635432 0 -0.0024384404782957312 0.032203416780499448 0 -0.0024791327988985196 0.032393241689032237 0 -0.0022581748138822679 0.032717411801020252 0 -0.0024791327988985196 0.032393241689032237 0 -0.0022581748138822679 0.032717411801020252 0 -0.0025726577882895863 0.032605015263731864 0 -0.0022581748138822679 0.032717411801020252 0 -0.0025726577882895863 0.032605015263731864 0 -0.0023170515590062546 0.032975674895307498 0 -0.0024791327988985196 0.032393241689032237 0 -0.0025726577882895863 0.032605015263731864 0 -0.0026603065354692313 0.032110277008635432 0 -0.002485267430818644 0.033174130628073242 0 -0.0024981196671843829 0.032919794109302514 0 -0.002866921509124082 0.032795631715135581 0 -0.0025726577882895863 0.032605015263731864 0 -0.0024981196671843829 0.032919794109302514 0 -0.002866921509124082 0.032795631715135581 0 -0.0025726577882895863 0.032605015263731864 0 -0.0024981196671843829 0.032919794109302514 0 -0.0023170515590062546 0.032975674895307498 0 -0.0024981196671843829 0.032919794109302514 0 -0.0023650486092186918 0.03316746296654751 0 -0.0023170515590062546 0.032975674895307498 0 -0.002485267430818644 0.033174130628073242 0 -0.0024981196671843829 0.032919794109302514 0 -0.0023650486092186918 0.03316746296654751 0 -0.0021203155255452239 0.03337653057940046 0 -0.0023650486092186918 0.03316746296654751 0 -0.0023170515590062546 0.032975674895307498 0 -0.0012484354809513582 0.015407569010149606 0 -0.00089206225034676838 0.015437694409737201 0 -0.0014849741324257911 0.015116898589008046 0 -0.0015848859335036445 0.023867840755572297 0 -0.0024428254367707142 0.023769273020971156 0 -0.002866921509124082 0.032795631715135581 0 -0.0030347438717547421 0.032153840291925917 0 -0.0033072151069873019 0.032364306092537723 0 -0.0025726577882895863 0.032605015263731864 0 -0.002866921509124082 0.032795631715135581 0 -0.0030347438717547421 0.032153840291925917 0 -0.0025726577882895863 0.032605015263731864 0 -0.0030347438717547421 0.032153840291925917 0 -0.0026603065354692313 0.032110277008635432 0 -0.0030347438717547421 0.032153840291925917 0 -0.0029251195260242241 0.031653900560111532 0 -0.0032533638212322393 0.031580785143279173 0 -0.0030347438717547421 0.032153840291925917 0 -0.0026603065354692313 0.032110277008635432 0 -0.0029251195260242241 0.031653900560111532 0 -0.0026603065354692313 0.032110277008635432 0 -0.0029251195260242241 0.031653900560111532 0 -0.0025793577539626336 0.031334633347428295 0 -0.003024835981116403 0.031101641844833095 0 -0.0029251195260242241 0.031653900560111532 0 -0.0025793577539626336 0.031334633347428295 0 -0.003024835981116403 0.031101641844833095 0 -0.0033252937611609923 0.031200298915531919 0 -0.0032533638212322393 0.031580785143279173 0 -0.003024835981116403 0.031101641844833095 0 -0.0029251195260242241 0.031653900560111532 0 -0.0032533638212322393 0.031580785143279173 0 -0.0033252937611609923 0.031200298915531919 0 -0.0036169442950605385 0.031259945345010018 0 -0.0033988117541113006 0.030860496233671202 0 -0.0033252937611609923 0.031200298915531919 0 -0.0036169442950605385 0.031259945345010018 0 -0.0032533638212322393 0.031580785143279173 0 -0.0036169442950605385 0.031259945345010018 0 -0.0034890932202931448 0.031815267845012721 0 -0.0039339170156384717 0.031556939635359049 0 -0.0036169442950605385 0.031259945345010018 0 -0.0032533638212322393 0.031580785143279173 0 -0.0034890932202931448 0.031815267845012721 0 -0.0030347438717547421 0.032153840291925917 0 -0.0032533638212322393 0.031580785143279173 0 -0.0034890932202931448 0.031815267845012721 0 -0.0034890932202931448 0.031815267845012721 0 -0.0037843344151985568 0.03196680770004557 0 -0.0033072151069873019 0.032364306092537723 0 -0.0030347438717547421 0.032153840291925917 0 -0.0034890932202931448 0.031815267845012721 0 -0.0033072151069873019 0.032364306092537723 0 -0.0034890932202931448 0.031815267845012721 0 -0.0037843344151985568 0.03196680770004557 0 -0.0039339170156384717 0.031556939635359049 0 -0.0020577186030675937 0.015080294764062823 0 -0.0019433032303814871 0.014899813393209728 0 -0.0017771425968069704 0.015115871865292797 0 -0.0019433032303814871 0.014899813393209728 0 -0.0017771425968069704 0.015115871865292797 0 -0.0014849741324257911 0.015116898589008046 0 -0.002850795916943974 0.023464884199990332 0 -0.0024428254367707142 0.023769273020971156 0 -0.0016222764865527284 0.015396266543280617 0 -0.0017771425968069704 0.015115871865292797 0 -0.0014849741324257911 0.015116898589008046 0 -0.0016222764865527284 0.015396266543280617 0 -0.0012484354809513582 0.015407569010149606 0 -0.0014849741324257911 0.015116898589008046 0 -0.001986141105659197 0.009254801963903915 0 -0.0021903350721164745 0.0092593148961724707 0 -0.0021492569088631345 0.014879352444623389 0 -0.0022372456842261147 0.014745045924494568 0 -0.0022039815176699783 0.014794697651269454 0 -0.0020577186030675937 0.015080294764062823 0 -0.0021492569088631345 0.014879352444623389 0 -0.0022039815176699783 0.014794697651269454 0 -0.0020577186030675937 0.015080294764062823 0 -0.0019433032303814871 0.014899813393209728 0 -0.0021492569088631345 0.014879352444623389 0 -0.0019433032303814871 0.014899813393209728 0 -0.0021492569088631345 0.014879352444623389 0 -0.0022042623374237034 0.014786066025107878 0 -0.0037843344151985568 0.03196680770004557 0 -0.0042961419574243905 0.031631011769125535 0 -0.0039339170156384717 0.031556939635359049 0 -0.002850795916943974 0.023464884199990332 0 -0.0031955099614225709 0.023004333217942929 0 -0.0021492569088631345 0.014879352444623389 0 -0.0022042623374237034 0.014786066025107878 0 -0.0022372456842261147 0.014745045924494568 0 -0.0042961419574243905 0.031631011769125535 0 -0.0042051644977270158 0.03139641288067254 0 -0.0044652510291268935 0.031276888098546562 0 -0.0042961419574243905 0.031631011769125535 0 -0.0042051644977270158 0.03139641288067254 0 -0.0039339170156384717 0.031556939635359049 0 -0.0042051644977270158 0.03139641288067254 0 -0.0040594965176395112 0.031120317841066621 0 -0.0044652510291268935 0.031276888098546562 0 -0.0036169442950605385 0.031259945345010018 0 -0.0039339170156384717 0.031556939635359049 0 -0.0040594965176395112 0.031120317841066621 0 -0.0042051644977270158 0.03139641288067254 0 -0.0039339170156384717 0.031556939635359049 0 -0.0040594965176395112 0.031120317841066621 0 -0.0036169442950605385 0.031259945345010018 0 -0.0040594965176395112 0.031120317841066621 0 -0.0037711507315494044 0.030707692033051348 0 -0.0040594965176395112 0.031120317841066621 0 -0.0043571298157855229 0.030920818749215994 0 -0.0040877572081326544 0.0307638357657713 0 -0.0038853061125588466 0.031014703055449507 0 -0.0049337040869465746 0.031618097481099394 0 -0.0040594965176395112 0.031120317841066621 0 -0.0043571298157855229 0.030920818749215994 0 -0.0043870951320090657 0.03112891882221731 0 -0.0043571298157855229 0.030920818749215994 0 -0.0040877572081326544 0.0307638357657713 0 -0.0044642565926842244 0.030553870599103146 0 -0.0040877572081326544 0.0307638357657713 0 -0.0040853272487996681 0.03040413289678813 0 -0.0044642565926842244 0.030553870599103146 0 -0.0040853272487996681 0.03040413289678813 0 -0.0042766418226542072 0.030051273217054111 0 -0.0044642565926842244 0.030553870599103146 0 -0.0040853272487996681 0.03040413289678813 0 -0.0038779533702545887 0.030284058203537304 0 -0.0040044546021508519 0.02996094126320099 0 -0.0040853272487996681 0.03040413289678813 0 -0.0040044546021508519 0.02996094126320099 0 -0.0042766418226542072 0.030051273217054111 0 -0.0040853272487996681 0.03040413289678813 0 -0.0038779533702545887 0.030284058203537304 0 -0.0037711507315494044 0.030707692033051348 0 -0.0038779533702545887 0.030284058203537304 0 -0.0037711507315494044 0.030707692033051348 0 -0.0036942208312716485 0.030240482354731455 0 -0.0038779533702545887 0.030284058203537304 0 -0.0036942208312716485 0.030240482354731455 0 -0.0038475726667008894 0.029964294905548385 0 -0.0038779533702545887 0.030284058203537304 0 -0.0040044546021508519 0.02996094126320099 0 -0.0038475726667008894 0.029964294905548385 0 -0.0040877572081326544 0.0307638357657713 0 -0.0040853272487996681 0.03040413289678813 0 -0.0037711507315494044 0.030707692033051348 0 -0.0040594965176395112 0.031120317841066621 0 -0.0040877572081326544 0.0307638357657713 0 -0.0037711507315494044 0.030707692033051348 0 -0.0036169442950605385 0.031259945345010018 0 -0.0037711507315494044 0.030707692033051348 0 -0.0033988117541113006 0.030860496233671202 0 -0.0037711507315494044 0.030707692033051348 0 -0.0033988117541113006 0.030860496233671202 0 -0.003479575904751008 0.030480866621801744 0 -0.003024835981116403 0.031101641844833095 0 -0.0033252937611609923 0.031200298915531919 0 -0.0033988117541113006 0.030860496233671202 0 -0.003024835981116403 0.031101641844833095 0 -0.0033988117541113006 0.030860496233671202 0 -0.0032197434956153163 0.030626056023818644 0 -0.0033256063696284572 0.030357556293145287 0 -0.003479575904751008 0.030480866621801744 0 -0.0034890619242394175 0.030124219129050313 0 -0.0033988117541113006 0.030860496233671202 0 -0.0032197434956153163 0.030626056023818644 0 -0.003479575904751008 0.030480866621801744 0 -0.0032197434956153163 0.030626056023818644 0 -0.0033256063696284572 0.030357556293145287 0 -0.003479575904751008 0.030480866621801744 0 -0.0032197434956153163 0.030626056023818644 0 -0.0033256063696284572 0.030357556293145287 0 -0.0031591145803796 0.030378861317397119 0 -0.003479575904751008 0.030480866621801744 0 -0.0036942208312716485 0.030240482354731455 0 -0.0034890619242394175 0.030124219129050313 0 -0.0037711507315494044 0.030707692033051348 0 -0.003479575904751008 0.030480866621801744 0 -0.0036942208312716485 0.030240482354731455 0 -0.0036942208312716485 0.030240482354731455 0 -0.0034890619242394175 0.030124219129050313 0 -0.0036638734860558529 0.029985656521979535 0 -0.0034890619242394175 0.030124219129050313 0 -0.0036638734860558529 0.029985656521979535 0 -0.003447235259074235 0.029912706674952917 0 -0.0030262034018124491 0.030156270822381079 0 -0.0032843401102309222 0.030188169602206012 0 -0.003447235259074235 0.029912706674952917 0 -0.0033256063696284572 0.030357556293145287 0 -0.0031591145803796 0.030378861317397119 0 -0.0032843401102309222 0.030188169602206012 0 -0.0033256063696284572 0.030357556293145287 0 -0.0034890619242394175 0.030124219129050313 0 -0.0032843401102309222 0.030188169602206012 0 -0.0034890619242394175 0.030124219129050313 0 -0.0032843401102309222 0.030188169602206012 0 -0.003447235259074235 0.029912706674952917 0 -0.0030262034018124491 0.030156270822381079 0 -0.0031591145803796 0.030378861317397119 0 -0.0032843401102309222 0.030188169602206012 0 -0.0030262034018124491 0.030156270822381079 0 -0.0032016120907272512 0.02985935033353071 0 -0.0034150358915658085 0.030041714322583669 0 -0.0030641099045552907 0.030123836689838455 0 -0.0034229137932979569 0.029979634161070204 0 -0.0031277623373678278 0.029744264994411497 0 -0.0034699292814150207 0.02980527435283176 0 -0.0032016120907272512 0.02985935033353071 0 -0.0034150358915658085 0.030041714322583669 0 -0.003541795338742916 0.029800791808096506 0 -0.0034229137932979569 0.029979634161070204 0 -0.0041194644974867477 0.029859435413197351 0 -0.0029050758973516656 0.029644981947786465 0 -0.003541795338742916 0.029800791808096506 0 -0.0035433265796366818 0.029326451922391635 0 -0.003541795338742916 0.029800791808096506 0 -0.0041948858315811344 0.029921893322013639 0 -0.0039798617771792033 0.029338042922955779 0 -0.0034150358915658085 0.030041714322583669 0 -0.003541795338742916 0.029800791808096506 0 -0.0041948858315811344 0.029921893322013639 0 -0.0036638734860558529 0.029985656521979535 0 -0.003447235259074235 0.029912706674952917 0 -0.0038491000778766433 0.029691094624369304 0 -0.0038491000778766433 0.029691094624369304 0 -0.0040522252322825374 0.029584915264581735 0 -0.0039852474598497086 0.029712383600218627 0 -0.0041194644974867477 0.029859435413197351 0 -0.0040229676425143452 0.028925376714613499 0 -0.0041948858315811344 0.029921893322013639 0 -0.0050532688757325703 0.029768958287833141 0 -0.0044318542753316635 0.029351361777849361 0 -0.0040229676425143452 0.028925376714613499 0 -0.0040265545062374919 0.029456328628231956 0 -0.0040522252322825374 0.029584915264581735 0 -0.0039852474598497086 0.029712383600218627 0 -0.0040535820265557368 0.029506692904335947 0 -0.0040044546021508519 0.02996094126320099 0 -0.0042766418226542072 0.030051273217054111 0 -0.0040535820265557368 0.029506692904335947 0 -0.0039852474598497086 0.029712383600218627 0 -0.0040044546021508519 0.02996094126320099 0 -0.0040535820265557368 0.029506692904335947 0 -0.0039852474598497086 0.029712383600218627 0 -0.0040044546021508519 0.02996094126320099 0 -0.0038475726667008894 0.029964294905548385 0 -0.0036638734860558529 0.029985656521979535 0 -0.0038491000778766433 0.029691094624369304 0 -0.0038475726667008894 0.029964294905548385 0 -0.0038491000778766433 0.029691094624369304 0 -0.0039852474598497086 0.029712383600218627 0 -0.0038475726667008894 0.029964294905548385 0 -0.0036942208312716485 0.030240482354731455 0 -0.0036638734860558529 0.029985656521979535 0 -0.0038475726667008894 0.029964294905548385 0 -0.0037747353894313092 0.027059478055281992 0 -0.0039507672644056935 0.026284093537337908 0 -0.0029776834699621461 0.026941098801584695 0 -0.0027766049002334453 0.025655426214956405 0 -0.0035197665371460769 0.026003015765374372 0 -0.0039892342270015837 0.028691376809339881 0 -0.0049416741277735626 0.029027166006855988 0 -0.004824260819133743 0.028272670586019417 0 -0.0039748594875589471 0.028124220709213468 0 -0.0039507672644056935 0.026284093537337908 0 -0.0040229676425143452 0.028925376714613499 0 -0.0039748594875589471 0.028124220709213468 0 -0.0050532688757325703 0.029768958287833141 0 -0.0049416741277735626 0.029027166006855988 0 -0.0044318542753316635 0.029351361777849361 0 -0.0039892342270015837 0.028691376809339881 0 -0.0044318542753316635 0.029351361777849361 0 -0.0039798617771792033 0.029338042922955779 0 -0.0039892342270015837 0.028691376809339881 0 -0.0049416741277735626 0.029027166006855988 0 -0.0044318542753316635 0.029351361777849361 0 -0.0041948858315811344 0.029921893322013639 0 -0.0044318542753316635 0.029351361777849361 0 -0.0039798617771792033 0.029338042922955779 0 -0.0039892342270015837 0.028691376809339881 0 -0.0039798617771792033 0.029338042922955779 0 -0.0035433265796366818 0.029326451922391635 0 -0.003541795338742916 0.029800791808096506 0 -0.0039798617771792033 0.029338042922955779 0 -0.0035433265796366818 0.029326451922391635 0 -0.0039892342270015837 0.028691376809339881 0 -0.0035433265796366818 0.029326451922391635 0 -0.0031493013921766962 0.029099561421775503 0 -0.0029050758973516656 0.029644981947786465 0 -0.0035433265796366818 0.029326451922391635 0 -0.0031493013921766962 0.029099561421775503 0 -0.0027755767881997976 0.027330119634555006 0 -0.0024449405179290578 0.028982148762507293 0 -0.0029050758973516656 0.029644981947786465 0 -0.0031493013921766962 0.029099561421775503 0 -0.0022843455143148712 0.029502150820046414 0 -0.0025129685177529286 0.025782618972625963 0 -0.0027580881599413407 0.025013917195936618 0 -0.001865845911442864 0.025431740692373275 0 -0.003362518542881178 0.025379092269267982 0 -0.0027580881599413407 0.025013917195936618 0 -0.0035459948535983893 0.024694832884012245 0 -0.003362518542881178 0.025379092269267982 0 -0.0025129685177529286 0.025782618972625963 0 -0.0027580881599413407 0.025013917195936618 0 -0.0037747353894313092 0.027059478055281992 0 -0.0027755767881997976 0.027330119634555006 0 -0.0027580881599413407 0.025013917195936618 0 -0.003091950158395221 0.024193901761691526 0 -0.0035459948535983893 0.024694832884012245 0 -0.0027580881599413407 0.025013917195936618 0 -0.0021591010554110942 0.02457679752775925 0 -0.003091950158395221 0.024193901761691526 0 -0.0027580881599413407 0.025013917195936618 0 -0.0021591010554110942 0.02457679752775925 0 -0.001865845911442864 0.025431740692373275 0 -0.00087465904733141349 0.020291789755197548 0 -0.0019389907552176163 0.019826711986473438 0 -0.00067993432875202906 0.019078356627006778 0 -0.0014756329181052641 0.022447040849649397 0 -0.002670120590797396 0.021959498538873481 0 -0.002670120590797396 0.021959498538873481 0 -0.0028800935675473999 0.021816550347257237 0 -0.0019389907552176163 0.019826711986473438 0 -0.0031045820321695264 0.019386142306896063 0 -0.0023354827073241427 0.018952389989302224 0 -0.003091950158395221 0.024193901761691526 0 -0.0035459948535983893 0.024694832884012245 0 -0.0040427106349243428 0.023807809401388262 0 -0.003362518542881178 0.025379092269267982 0 -0.0035459948535983893 0.024694832884012245 0 -0.0042289194103908908 0.024970979815552911 0 -0.0026675635856343713 0.025710249377444486 0 -0.0022750845062543745 0.023479389564188387 0 -0.0036307304461350963 0.024833094935663807 0 -0.0035459948535983893 0.024694832884012245 0 -0.0042289194103908908 0.024970979815552911 0 -0.0040427106349243428 0.023807809401388262 0 -0.0039507672644056935 0.026284093537337908 0 -0.0028800935675473999 0.021816550347257237 0 -0.0027766049002334453 0.025655426214956405 0 -0.0035197665371460769 0.026003015765374372 0 -0.003370564880010367 0.025372726649737682 0 -0.0039507672644056935 0.026284093537337908 0 -0.0032984351054434024 0.025870651164294288 0 -0.0026675635856343713 0.025710249377444486 0 -0.0036307304461350963 0.024833094935663807 0 -0.003370564880010367 0.025372726649737682 0 -0.0022750845062543745 0.023479389564188387 0 -0.0035150343788639933 0.023770021421544881 0 -0.0037728821302889246 0.022879044429581268 0 -0.0022750845062543745 0.023479389564188387 0 -0.0035150343788639933 0.023770021421544881 0 -0.0036307304461350963 0.024833094935663807 0 -0.0028800935675473999 0.021816550347257237 0 -0.0016500227063569069 0.019522331335038334 0 5.766036898448234e-08 0.01678047494120135 0 0.00023099412900508571 0.016784714289185924 0 0.00029190139072327286 0.016690730253036905 0 -0.0028800935675473999 0.021816550347257237 0 -0.0010362224760250029 0.017787367369775844 0 -0.0014533655741448194 0.019685217316627944 0 -0.0013734492804966135 0.019200222320522948 0 -0.001954572631474904 0.019430575546668188 0 -0.0010362224760250029 0.017787367369775844 0 -0.00089738396479691106 0.018473076932280015 0 -0.0031045820321695264 0.019386142306896063 0 -0.0029757557800406927 0.018537532259853298 0 -0.0023354827073241427 0.018952389989302224 0 -0.0029757557800406927 0.018537532259853298 0 -0.0023354827073241427 0.018952389989302224 0 -0.0021706438864706758 0.018201254724477922 0 -0.0010362224760250029 0.017787367369775844 0 -0.0014048447343585314 0.017672261327524526 0 -1.3926919637990809e-05 0.016695934885992313 0 -0.0005831307974926088 0.017065839582572538 0 -5.099382438711208e-05 0.016952050914326982 0 -5.099382438711208e-05 0.016952050914326982 0 1.6174250018773522e-05 0.017184940094606384 0 -0.00027692905269199744 0.017315899549552774 0 -0.0005831307974926088 0.017065839582572538 0 -5.099382438711208e-05 0.016952050914326982 0 -0.00027692905269199744 0.017315899549552774 0 -0.0005831307974926088 0.017065839582572538 0 -0.00027692905269199744 0.017315899549552774 0 -0.00070053175209080977 0.017679555284848613 0 5.766036898448234e-08 0.01678047494120135 0 0.00014425559029370821 0.016857310088597883 0 0.00023099412900508571 0.016784714289185924 0 5.766036898448234e-08 0.01678047494120135 0 -5.099382438711208e-05 0.016952050914326982 0 0.00014425559029370821 0.016857310088597883 0 -0.0010362224760250029 0.017787367369775844 0 -0.00053258968942006865 0.016894949140494268 0 -5.099382438711208e-05 0.016952050914326982 0 8.5004366584766599e-05 0.016975356008392055 0 1.6174250018773522e-05 0.017184940094606384 0 -5.099382438711208e-05 0.016952050914326982 0 0.00014425559029370821 0.016857310088597883 0 8.5004366584766599e-05 0.016975356008392055 0 8.5004366584766599e-05 0.016975356008392055 0 0.00017532935179070391 0.016901511707068637 0 1.6174250018773522e-05 0.017184940094606384 0 0.00014425559029370821 0.016857310088597883 0 8.5004366584766599e-05 0.016975356008392055 0 0.00017532935179070391 0.016901511707068637 0 0.00014425559029370821 0.016857310088597883 0 0.00017532935179070391 0.016901511707068637 0 0.00022324420592114135 0.016725115711457929 0 0.00017532935179070391 0.016901511707068637 0 0.00013890547309900812 0.017284007927253143 0 1.6174250018773522e-05 0.017184940094606384 0 0.00017532935179070391 0.016901511707068637 0 0.00013890547309900812 0.017284007927253143 0 0.00021406716130069201 0.016621216553736003 0 0.00013890547309900812 0.017284007927253143 0 1.6174250018773522e-05 0.017184940094606384 0 -0.00013099209681716366 0.017669518488454806 0 1.6174250018773522e-05 0.017184940094606384 0 -0.00027692905269199744 0.017315899549552774 0 -0.00013099209681716366 0.017669518488454806 0 -0.00027692905269199744 0.017315899549552774 0 -0.00013099209681716366 0.017669518488454806 0 -0.00070053175209080977 0.017679555284848613 0 -0.00013099209681716366 0.017669518488454806 0 -0.00062474003797385934 0.018123326068035839 0 -0.00070053175209080977 0.017679555284848613 0 -0.00013099209681716366 0.017669518488454806 0 -1.6528225712908405e-06 0.019373512765136797 0 -0.00062474003797385934 0.018123326068035839 0 0.00013890547309900812 0.017284007927253143 0 -0.00013099209681716366 0.017669518488454806 0 -1.6528225712908405e-06 0.019373512765136797 0 0.00013890547309900812 0.017284007927253143 0 -1.6528225712908405e-06 0.019373512765136797 0 8.6249091952279232e-07 0.017578303979154535 0 -0.00038293680575424903 0.020436063386880865 0 -2.0434876072060598e-08 0.020866158301580968 0 5.7029844771203611e-05 0.020596998341638539 0 -0.0010749624786624268 0.017841518235381475 0 -0.0010829317146990112 0.018389339826245729 0 -0.0010796981663250104 0.017901063542889683 0 -0.00076622073337445564 0.021191502714440778 0 -0.00049434141292415616 0.019393987937228151 0 -0.00034092289601040011 0.022813850894442437 0 -1.4596439373947176e-06 0.020869861727724915 0 -2.8923212364471076e-08 0.022757085815856747 0 -0.00076622073337445564 0.021191502714440778 0 2.9740491580874382e-07 0.020868709770258592 0 2.0568729403779005e-07 0.019377593024780444 0 -0.00049434141292415616 0.019393987937228151 0 8.4841174370375871e-09 0.019378826215309054 0 -2.0434876072060598e-08 0.020866158301580968 0 5.7029844771203611e-05 0.020596998341638539 0 -1.6528225712908405e-06 0.019373512765136797 0 -0.0010829317146990112 0.018389339826245729 0 -0.00062474003797385934 0.018123326068035839 0 -0.0010829317146990112 0.018389339826245729 0 -0.00062474003797385934 0.018123326068035839 0 -0.0010796981663250104 0.017901063542889683 0 -0.00062474003797385934 0.018123326068035839 0 -0.0010796981663250104 0.017901063542889683 0 -0.00070053175209080977 0.017679555284848613 0 -0.0010796981663250104 0.017901063542889683 0 -0.00070053175209080977 0.017679555284848613 0 -0.0012069617071158857 0.017812078490809406 0 -0.0010796981663250104 0.017901063542889683 0 -0.00097105862596519093 0.017898944865161266 0 -0.0012069617071158857 0.017812078490809406 0 -0.0010749624786624268 0.017841518235381475 0 -0.0010796981663250104 0.017901063542889683 0 -0.00097105862596519093 0.017898944865161266 0 -0.00097105862596519093 0.017898944865161266 0 -0.0012069617071158857 0.017812078490809406 0 -0.00089112513399394614 0.018263868709885001 0 -0.0012069617071158857 0.017812078490809406 0 -0.00089112513399394614 0.018263868709885001 0 -0.0014985926895507997 0.018715331938701479 0 -0.0014048447343585314 0.017672261327524526 0 -0.0011872348002543898 0.01772477975603412 0 -0.0021706438864706758 0.018201254724477922 0 -0.0012069617071158857 0.017812078490809406 0 -0.0014985926895507997 0.018715331938701479 0 -0.0005831307974926088 0.017065839582572538 0 -0.00070053175209080977 0.017679555284848613 0 -0.0012069617071158857 0.017812078490809406 0 -0.0019389907552176163 0.019826711986473438 0 -0.0023354827073241427 0.018952389989302224 0 -0.0014985926895507997 0.018715331938701479 0 -0.0023354827073241427 0.018952389989302224 0 -0.0021706438864706758 0.018201254724477922 0 -0.0014985926895507997 0.018715331938701479 0 -0.00089112513399394614 0.018263868709885001 0 -0.0014985926895507997 0.018715331938701479 0 -0.00067993432875202906 0.019078356627006778 0 -0.0019389907552176163 0.019826711986473438 0 -0.0014985926895507997 0.018715331938701479 0 -0.00067993432875202906 0.019078356627006778 0 -0.00067993432875202906 0.019078356627006778 0 0.00053328353506072799 0.018863265252460366 0 -0.00031952272884899486 0.017966612359854799 0 -0.00067993432875202906 0.019078356627006778 0 0.00053328353506072799 0.018863265252460366 0 2.9779284537832183e-05 0.019736679830866171 0 6.0401196052828262e-05 0.0259250052108537 0 6.1063188191989913e-05 0.025276921210135014 0 -0.00035031479834173507 0.025102673971073384 0 0.00031862980552979344 0.0224100357636891 0 -0.00041150721678411012 0.021455246975418094 0 -0.00097105862596519093 0.017898944865161266 0 -0.00089112513399394614 0.018263868709885001 0 -0.00031952272884899486 0.017966612359854799 0 -0.00089112513399394614 0.018263868709885001 0 -0.00067993432875202906 0.019078356627006778 0 -0.00031952272884899486 0.017966612359854799 0 -0.0010749624786624268 0.017841518235381475 0 -0.00097105862596519093 0.017898944865161266 0 -0.00031952272884899486 0.017966612359854799 0 -0.0012577552128557022 0.023426459635222836 0 -0.00035031479834173507 0.025102673971073384 0 -0.00036832305897775447 0.023904887669167086 0 -0.00076622073337445564 0.021191502714440778 0 -0.00041150721678411012 0.021455246975418094 0 -0.00076622073337445564 0.021191502714440778 0 -3.9727240964726675e-06 0.023447308068261979 0 -0.00035031479834173507 0.025102673971073384 0 -0.00036832305897775447 0.023904887669167086 0 -4.1768727681620043e-05 0.024661385157605197 0 6.1063188191989913e-05 0.025276921210135014 0 -0.00035031479834173507 0.025102673971073384 0 -4.1768727681620043e-05 0.024661385157605197 0 6.1063188191989913e-05 0.025276921210135014 0 -4.1768727681620043e-05 0.024661385157605197 0 0.00016270071145475494 0.024929452022171828 0 -4.1768727681620043e-05 0.024661385157605197 0 6.0474322698501815e-05 0.024099304995252674 0 0.00016270071145475494 0.024929452022171828 0 -0.00036832305897775447 0.023904887669167086 0 -4.1768727681620043e-05 0.024661385157605197 0 6.0474322698501815e-05 0.024099304995252674 0 6.0474322698501815e-05 0.024099304995252674 0 -2.8923212364471076e-08 0.022757085815856747 0 5.4788153497257129e-07 0.024646038530587604 0 -0.00034092289601040011 0.022813850894442437 0 -0.00036832305897775447 0.023904887669167086 0 -2.8923212364471076e-08 0.022757085815856747 0 -0.00036832305897775447 0.023904887669167086 0 6.0474322698501815e-05 0.024099304995252674 0 -2.8923212364471076e-08 0.022757085815856747 0 5.4788153497257129e-07 0.024646038530587604 0 0.00027343825166703886 0.025690975413070853 0 4.2157825849182071e-07 0.02653417480680172 0 6.0474322698501815e-05 0.024099304995252674 0 5.4788153497257129e-07 0.024646038530587604 0 0.00016270071145475494 0.024929452022171828 0 5.4788153497257129e-07 0.024646038530587604 0 0.00016270071145475494 0.024929452022171828 0 0.00027343825166703886 0.025690975413070853 0 0.00016270071145475494 0.024929452022171828 0 0.00027343825166703886 0.025690975413070853 0 0.00028948491489536521 0.025687236417602077 0 6.1063188191989913e-05 0.025276921210135014 0 0.00016270071145475494 0.024929452022171828 0 0.00028948491489536521 0.025687236417602077 0 0.00027343825166703886 0.025690975413070853 0 0.00035708988622802504 0.026087887081318119 0 0.00028964746163671863 0.026536454799690589 0 0.00027343825166703886 0.025690975413070853 0 0.00035708988622802504 0.026087887081318119 0 0.00028948491489536521 0.025687236417602077 0 0.00035708988622802504 0.026087887081318119 0 0.00028948491489536521 0.025687236417602077 0 0.00035694910335231468 0.026152486195987951 0 6.0401196052828262e-05 0.0259250052108537 0 6.1063188191989913e-05 0.025276921210135014 0 0.00028948491489536521 0.025687236417602077 0 6.0401196052828262e-05 0.0259250052108537 0 0.00028948491489536521 0.025687236417602077 0 0.00035694910335231468 0.026152486195987951 0 0.00031862980552979344 0.0224100357636891 0 0.00077150677363607961 0.023033597440807511 0 6.0401196052828262e-05 0.0259250052108537 0 0.00035694910335231468 0.026152486195987951 0 0.00024669681170897138 0.026224653563749669 0 0.00035694910335231468 0.026152486195987951 0 0.00024669681170897138 0.026224653563749669 0 0.00028040607440198877 0.026271360255449693 0 0.00026584619428717053 0.026258617341112463 0 0.00024669681170897138 0.026224653563749669 0 0.00028040607440198877 0.026271360255449693 0 0.002092320772044172 0.020795766737753366 0 0.0012837476606875988 0.020655068671005191 0 0.0013677507044663215 0.021340256414218235 0 0.001278775203325597 0.023362161913437925 0 0.00077150677363607961 0.023033597440807511 0 0.002092320772044172 0.020795766737753366 0 0.0012837476606875988 0.020655068671005191 0 0.0013203191019902554 0.019811742407846087 0 0.0012837476606875988 0.020655068671005191 0 0.0013203191019902554 0.019811742407846087 0 0.00022357195430315223 0.020809839007684797 0 0.0012837476606875988 0.020655068671005191 0 0.00022357195430315223 0.020809839007684797 0 0.0013677507044663215 0.021340256414218235 0 0.00053328353506072799 0.018863265252460366 0 0.0013203191019902554 0.019811742407846087 0 2.9779284537832183e-05 0.019736679830866171 0 0.0013203191019902554 0.019811742407846087 0 2.9779284537832183e-05 0.019736679830866171 0 0.00022357195430315223 0.020809839007684797 0 -0.00087465904733141349 0.020291789755197548 0 -0.00067993432875202906 0.019078356627006778 0 2.9779284537832183e-05 0.019736679830866171 0 -0.0014756329181052641 0.022447040849649397 0 -0.00054372141734754882 0.022903729014244721 0 -0.0021591010554110942 0.02457679752775925 0 -0.0012410459209315243 0.024953127085215628 0 -0.001865845911442864 0.025431740692373275 0 -0.00087465904733141349 0.020291789755197548 0 2.9779284537832183e-05 0.019736679830866171 0 0.00022357195430315223 0.020809839007684797 0 -0.0012410459209315243 0.024953127085215628 0 -0.001865845911442864 0.025431740692373275 0 -0.00092415794557687992 0.026011366060849545 0 -0.001865845911442864 0.025431740692373275 0 -0.0016780710114606356 0.026183300838394218 0 -0.00092415794557687992 0.026011366060849545 0 -0.0025129685177529286 0.025782618972625963 0 -0.001865845911442864 0.025431740692373275 0 -0.0016780710114606356 0.026183300838394218 0 -0.0031277623373678278 0.029744264994411497 0 -0.0024449405179290578 0.028982148762507293 0 -0.0025671247323499195 0.030124029130570707 0 -0.0028211471299490263 0.02998052954267888 0 -0.0025634336625618235 0.029932603307302238 0 -0.0024449405179290578 0.028982148762507293 0 -0.0016396189991319467 0.027904256623812553 0 -0.00092415794557687992 0.026011366060849545 0 -0.00018326626909265857 0.025840943292438134 0 -0.00033699634083842199 0.0253214131530098 0 -0.0016396189991319467 0.027904256623812553 0 -0.0014293487596726414 0.02797186172098852 0 -0.0024063963406757006 0.030048103268194921 0 -0.0025634336625618235 0.029932603307302238 0 -0.0022381414567271903 0.029864817723088535 0 -0.0022371947589302755 0.030215706508066088 0 -0.0024063963406757006 0.030048103268194921 0 -0.0022381414567271903 0.029864817723088535 0 -0.0022381414567271903 0.029864817723088535 0 -0.0020484218207229856 0.029995490570603255 0 -0.0018553588643384022 0.029773100832132394 0 -0.0014293487596726414 0.02797186172098852 0 0.00018763468047627724 0.026099353677587797 0 -0.0022371947589302755 0.030215706508066088 0 -0.0022381414567271903 0.029864817723088535 0 -0.0020484218207229856 0.029995490570603255 0 0.002092320772044172 0.020795766737753366 0 0.0013677507044663215 0.021340256414218235 0 0.0025307067611107068 0.021861078216530085 0 0.00071495697340625284 0.023086156064750864 0 0.00018763468047627724 0.026099353677587797 0 -0.00018326626909265857 0.025840943292438134 0 -0.00033699634083842199 0.0253214131530098 0 0.00054939691042009983 0.02568077990772169 0 -0.00054372141734754882 0.022903729014244721 0 0.00071495697340625284 0.023086156064750864 0 -0.0012410459209315243 0.024953127085215628 0 -0.00092415794557687992 0.026011366060849545 0 -0.00033699634083842199 0.0253214131530098 0 0.0003389567166026312 0.025378395080578871 0 -0.00011069948377871836 0.026569153817853929 0 0.00019830681041345288 0.026240516727510661 0 0.00019127609856426663 0.026321653687242243 0 0.00018080623140273583 0.026302581760386932 0 -0.00069459810837290109 0.026508964583626133 0 -0.0001814493639783559 0.026620610484495502 0 0.00019127609856426663 0.026321653687242243 0 0.00019827911485784011 0.026268451269394564 0 0.00019830681041345288 0.026240516727510661 0 0.00018080623140273583 0.026302581760386932 0 0.00017964212253908615 0.026281180521963977 0 0.00019827911485784011 0.026268451269394564 0 0.00018080623140273583 0.026302581760386932 0 0.002092320772044172 0.020795766737753366 0 0.0028502072048156809 0.021800182714473999 0 0.0025307067611107068 0.021861078216530085 0 0.00019827911485784011 0.026268451269394564 0 0.00019830681041345288 0.026240516727510661 0 0.0002311925274819231 0.026267586898477375 0 0.001278775203325597 0.023362161913437925 0 0.0003389567166026312 0.025378395080578871 0 0.00026584619428717053 0.026258617341112463 0 0.00019830681041345288 0.026240516727510661 0 0.0002311925274819231 0.026267586898477375 0 -0.0018775601568633256 0.030162288341551116 0 -0.0018553588643384022 0.029773100832132394 0 -0.0016239516879455974 0.029865812192250565 0 -0.00021594728557630571 0.026866013854321951 0 -8.3310693485091021e-05 0.026834711365290424 0 -0.00031500968024999435 0.026754724041683036 0 -0.0018775601568633256 0.030162288341551116 0 -0.0020484218207229856 0.029995490570603255 0 -0.0018553588643384022 0.029773100832132394 0 0.00018763468047627724 0.026099353677587797 0 -0.00082331316882028034 0.027992886770991758 0 0.0003389567166026312 0.025378395080578871 0 0.00018763468047627724 0.026099353677587797 0 -0.0016440282857829748 0.030122092529570509 0 -0.0018775601568633256 0.030162288341551116 0 -0.0016239516879455974 0.029865812192250565 0 -0.0013773442657173296 0.030156364931819411 0 -0.0016440282857829748 0.030122092529570509 0 -0.0016239516879455974 0.029865812192250565 0 -0.00069459810837290109 0.026508964583626133 0 -0.00052491440644461865 0.026716081024838433 0 -0.0001814493639783559 0.026620610484495502 0 0.0003389567166026312 0.025378395080578871 0 -0.00082331316882028034 0.027992886770991758 0 -0.00052491440644461865 0.026716081024838433 0 -0.0001814493639783559 0.026620610484495502 0 -2.064976213351226e-05 0.026915990647702233 0 -0.00082331316882028034 0.027992886770991758 0 -0.00067708614229573371 0.028493430881826425 0 -0.0012622271130888112 0.030405010902827823 0 -0.00082331316882028034 0.027992886770991758 0 -0.001306655740997201 0.030554930292532308 0 -0.0020966275167101206 0.029567344583820265 0 -0.00097959000024055347 0.030020537840901154 0 -0.00014040633584282665 0.031749063044327036 0 -0.00067708614229573371 0.028493430881826425 0 0.00048628072606431573 0.027140566641018868 0 -2.064976213351226e-05 0.026915990647702233 0 0.00018284805165290563 0.02670664353759334 0 0.00018284805165290563 0.02670664353759334 0 0.00044776597885048838 0.026571200486324123 0 0.00019127609856426663 0.026321653687242243 0 0.00048628072606431573 0.027140566641018868 0 0.00018284805165290563 0.02670664353759334 0 0.00044776597885048838 0.026571200486324123 0 -0.0001814493639783559 0.026620610484495502 0 0.00018284805165290563 0.02670664353759334 0 0.00019127609856426663 0.026321653687242243 0 -0.0001814493639783559 0.026620610484495502 0 -2.064976213351226e-05 0.026915990647702233 0 0.00018284805165290563 0.02670664353759334 0 -0.0011969931669276366 0.034556052525159621 0 -0.0012481455884382506 0.033795905384376657 0 -0.00039422974992324276 0.034267503893307266 0 -0.0012481455884382506 0.033795905384376657 0 -0.00062805893720895944 0.033397683285015217 0 -0.00039422974992324276 0.034267503893307266 0 -0.00014040633584282665 0.031749063044327036 0 -0.0003944222499424018 0.030279520840287611 0 -0.00062805893720895944 0.033397683285015217 0 -0.0012843584423482125 0.032988425878262687 0 -0.00010107837853524493 0.032339305997634495 0 -0.0012481455884382506 0.033795905384376657 0 -0.00062805893720895944 0.033397683285015217 0 -0.0012843584423482125 0.032988425878262687 0 -0.0003944222499424018 0.030279520840287611 0 -0.00047700173393108258 0.02809750391559836 0 0.00044776597885048838 0.026571200486324123 0 0.00019127609856426663 0.026321653687242243 0 0.00032279129916222029 0.02620352425417859 0 0.00061719796007969423 0.026164652458628222 0 -0.00047700173393108258 0.02809750391559836 0 0.00019127609856426663 0.026321653687242243 0 0.00018080623140273583 0.026302581760386932 0 0.00032279129916222029 0.02620352425417859 0 0.00017964212253908615 0.026281180521963977 0 0.00018080623140273583 0.026302581760386932 0 0.0001582858839701807 0.026286956601296652 0 0.00018080623140273583 0.026302581760386932 0 0.000110545256881631 0.026275907110425385 0 0.0001582858839701807 0.026286956601296652 0 0.000110545256881631 0.026275907110425385 0 0.00015486379470267927 0.026292766865941401 0 4.9624094938554812e-05 0.026366813204905803 0 0.00017964212253908615 0.026281180521963977 0 0.0001582858839701807 0.026286956601296652 0 0.00015486379470267927 0.026292766865941401 0 -0.00047700173393108258 0.02809750391559836 0 9.3732642030180989e-05 0.025701131518598947 0 0.000110545256881631 0.026275907110425385 0 0.0001582858839701807 0.026286956601296652 0 0.00015486379470267927 0.026292766865941401 0 0.00015486379470267927 0.026292766865941401 0 0.00014405135388533119 0.026326503125459585 0 0.00020091721575328999 0.026293333919075495 0 0.00015486379470267927 0.026292766865941401 0 0.00014405135388533119 0.026326503125459585 0 4.9624094938554812e-05 0.026366813204905803 0 2.9055388379846965e-05 0.026316323488240072 0 4.9624094938554812e-05 0.026366813204905803 0 -9.3834783785388192e-05 0.026378710135184197 0 -0.00047700173393108258 0.02809750391559836 0 0.00016989243740047269 0.031936967373370616 0 4.9624094938554812e-05 0.026366813204905803 0 -0.00011771923282575393 0.026526642161051404 0 -9.3834783785388192e-05 0.026378710135184197 0 4.9624094938554812e-05 0.026366813204905803 0 0.00015493871518360675 0.026357189768662345 0 6.5841809140850983e-05 0.02648323295589276 0 0.00014405135388533119 0.026326503125459585 0 4.9624094938554812e-05 0.026366813204905803 0 0.00015493871518360675 0.026357189768662345 0 0.00015493871518360675 0.026357189768662345 0 0.00020091721575328999 0.026293333919075495 0 0.00026004230865339314 0.026328501534856882 0 0.00020091721575328999 0.026293333919075495 0 0.00028040607440198877 0.026271360255449693 0 0.00026004230865339314 0.026328501534856882 0 0.00014405135388533119 0.026326503125459585 0 0.00015493871518360675 0.026357189768662345 0 0.00020091721575328999 0.026293333919075495 0 0.00019827911485784011 0.026268451269394564 0 0.00020091721575328999 0.026293333919075495 0 0.0002311925274819231 0.026267586898477375 0 0.00017964212253908615 0.026281180521963977 0 0.00019827911485784011 0.026268451269394564 0 0.00020091721575328999 0.026293333919075495 0 0.00017964212253908615 0.026281180521963977 0 0.00015486379470267927 0.026292766865941401 0 0.00020091721575328999 0.026293333919075495 0 0.00020091721575328999 0.026293333919075495 0 0.0002311925274819231 0.026267586898477375 0 0.00028040607440198877 0.026271360255449693 0 0.00026584619428717053 0.026258617341112463 0 0.0002311925274819231 0.026267586898477375 0 0.00028040607440198877 0.026271360255449693 0 0.00035694910335231468 0.026152486195987951 0 0.00028040607440198877 0.026271360255449693 0 0.00026004230865339314 0.026328501534856882 0 0.00035694910335231468 0.026152486195987951 0 0.00026004230865339314 0.026328501534856882 0 0.0003221113659435749 0.026379892401755742 0 0.00026004230865339314 0.026328501534856882 0 0.00017247797868941931 0.02654379193002495 0 0.0003221113659435749 0.026379892401755742 0 0.00015493871518360675 0.026357189768662345 0 0.00026004230865339314 0.026328501534856882 0 6.5841809140850983e-05 0.02648323295589276 0 0.00026004230865339314 0.026328501534856882 0 0.00017247797868941931 0.02654379193002495 0 6.5841809140850983e-05 0.02648323295589276 0 0.00017247797868941931 0.02654379193002495 0 0.0003221113659435749 0.026379892401755742 0 0.00020683203436831055 0.026914293288306131 0 0.00035708988622802504 0.026087887081318119 0 0.0003221113659435749 0.026379892401755742 0 0.00028964746163671863 0.026536454799690589 0 0.00035708988622802504 0.026087887081318119 0 0.00035694910335231468 0.026152486195987951 0 0.0003221113659435749 0.026379892401755742 0 0.00028964746163671863 0.026536454799690589 0 0.00020683203436831055 0.026914293288306131 0 0.00018766653693737381 0.027328961204890322 0 0.00020683203436831055 0.026914293288306131 0 0.00018766653693737381 0.027328961204890322 0 5.033477998862256e-06 0.028363428359624965 0 0.0003221113659435749 0.026379892401755742 0 0.00028964746163671863 0.026536454799690589 0 0.00020683203436831055 0.026914293288306131 0 1.0504127672155292e-06 0.028423307445891173 0 0.00018766653693737381 0.027328961204890322 0 4.2157825849182071e-07 0.02653417480680172 0 0.00028964746163671863 0.026536454799690589 0 0.00018766653693737381 0.027328961204890322 0 4.2157825849182071e-07 0.02653417480680172 0 0.00027343825166703886 0.025690975413070853 0 0.00028964746163671863 0.026536454799690589 0 4.2157825849182071e-07 0.02653417480680172 0 -0.00080754468028843408 0.028426831039459751 0 -2.5806465814985824e-06 0.030309252165734244 0 5.033477998862256e-06 0.028363428359624965 0 -0.00054888325567081255 0.030173438804768318 0 -3.9177321229545269e-07 0.030312448544070156 0 1.0504127672155292e-06 0.028423307445891173 0 0.00018766653693737381 0.027328961204890322 0 5.033477998862256e-06 0.028363428359624965 0 1.0504127672155292e-06 0.028423307445891173 0 -2.5806465814985824e-06 0.030309252165734244 0 5.033477998862256e-06 0.028363428359624965 0 0.00020683203436831055 0.026914293288306131 0 5.033477998862256e-06 0.028363428359624965 0 -0.00013835602772044699 0.027446484460747118 0 0.00025198698961372365 0.026987266101510383 0 -0.00011456615955115096 0.027057444401446484 0 -0.00080754468028843408 0.028426831039459751 0 5.033477998862256e-06 0.028363428359624965 0 -0.00013835602772044699 0.027446484460747118 0 -0.00080754468028843408 0.028426831039459751 0 -0.00013835602772044699 0.027446484460747118 0 -0.00098690485313802923 0.027524638089697174 0 -0.00011456615955115096 0.027057444401446484 0 -0.00042932909668296534 0.030677122612040777 0 -0.00054888325567081255 0.030173438804768318 0 -0.00042932909668296534 0.030677122612040777 0 -0.00013964854150226949 0.026760879787502495 0 -4.9261305329667963e-05 0.026622677807964051 0 -0.00011771923282575393 0.026526642161051404 0 -1.2999004564711895e-05 0.026774813077906402 0 -0.00013964854150226949 0.026760879787502495 0 -4.9261305329667963e-05 0.026622677807964051 0 -1.2999004564711895e-05 0.026774813077906402 0 -4.9261305329667963e-05 0.026622677807964051 0 6.5841809140850983e-05 0.02648323295589276 0 0.00017247797868941931 0.02654379193002495 0 0.00020683203436831055 0.026914293288306131 0 -1.2999004564711895e-05 0.026774813077906402 0 0.00017247797868941931 0.02654379193002495 0 -1.2999004564711895e-05 0.026774813077906402 0 6.5841809140850983e-05 0.02648323295589276 0 -4.9261305329667963e-05 0.026622677807964051 0 6.5841809140850983e-05 0.02648323295589276 0 -0.00011771923282575393 0.026526642161051404 0 4.9624094938554812e-05 0.026366813204905803 0 6.5841809140850983e-05 0.02648323295589276 0 -0.00011771923282575393 0.026526642161051404 0 -1.7453427434635045e-06 0.030317978615678514 0 0.00013156425930981253 0.032827411563406114 0 1.0519104664209878e-06 0.034997813162759989 0 0.00020369170056566216 0.034781395712448822 0 9.2307010530043752e-05 0.034858834199025336 0 0.00010389394405543927 0.034729002289481281 0 0.00020916217140556256 0.034317864594297913 0 0.00013306025802015285 0.034504031167810735 0 0.00020369170056566216 0.034781395712448822 0 9.2307010530043752e-05 0.034858834199025336 0 0.00012629433600324158 0.03490709676648026 0 9.2307010530043752e-05 0.034858834199025336 0 0.00012629433600324158 0.03490709676648026 0 4.3848142913163601e-05 0.034953286065956463 0 -0.00042932909668296534 0.030677122612040777 0 0.00020916217140556256 0.034317864594297913 0 0.00020008887662702334 0.034864556041038483 0 0.00020369170056566216 0.034781395712448822 0 0.00012629433600324158 0.03490709676648026 0 -0.00042932909668296534 0.030677122612040777 0 6.7181045297035511e-05 0.030388996318889992 0 -0.00050790482325547182 0.032052237631898135 0 -0.0004889931979646158 0.032931921352327885 0 0.00013156425930981253 0.032827411563406114 0 -0.0004889931979646158 0.032931921352327885 0 8.877906066637123e-05 0.033276364396633631 0 0.00013156425930981253 0.032827411563406114 0 8.877906066637123e-05 0.033276364396633631 0 0.00013156425930981253 0.032827411563406114 0 0.00013829795515905236 0.034052605105931021 0 -0.00050790482325547182 0.032052237631898135 0 -1.7453427434635045e-06 0.030317978615678514 0 0.00013156425930981253 0.032827411563406114 0 0.00013156425930981253 0.032827411563406114 0 1.0519104664209878e-06 0.034997813162759989 0 0.00013829795515905236 0.034052605105931021 0 1.0519104664209878e-06 0.034997813162759989 0 -3.5772276050007773e-07 0.034998720235200328 0 0.00013829795515905236 0.034052605105931021 0 2.0566895172688206e-07 0.034999773253021928 0 0.00013306025802015285 0.034504031167810735 0 1.1181313029781619e-08 0.035000062266872904 0 4.3848142913163601e-05 0.034953286065956463 0 2.361382445479758e-05 0.034934747600859614 0 1.1181313029781619e-08 0.035000062266872904 0 2.361382445479758e-05 0.034934747600859614 0 -2.6697958236676042e-08 0.034999741920016418 0 9.2307010530043752e-05 0.034858834199025336 0 4.3848142913163601e-05 0.034953286065956463 0 2.361382445479758e-05 0.034934747600859614 0 9.2307010530043752e-05 0.034858834199025336 0 2.9673344953812028e-05 0.034838907008519257 0 0.00010389394405543927 0.034729002289481281 0 9.2307010530043752e-05 0.034858834199025336 0 2.361382445479758e-05 0.034934747600859614 0 2.9673344953812028e-05 0.034838907008519257 0 -3.8343844325213263e-08 0.03499998900994173 0 6.9249835621584975e-05 0.03488388019201228 0 2.361382445479758e-05 0.034934747600859614 0 -2.6697958236676042e-08 0.034999741920016418 0 2.9673344953812028e-05 0.034838907008519257 0 -2.780439837259657e-09 0.034999984118783183 0 7.3301732428280677e-06 0.034988478353473705 0 5.1793580795544839e-06 0.034999308900191504 0 5.3715790293763714e-09 0.035000010296917579 0 -2.780439837259657e-09 0.034999984118783183 0 5.1793580795544839e-06 0.034999308900191504 0 -2.780439837259657e-09 0.034999984118783183 0 7.3301732428280677e-06 0.034988478353473705 0 3.4572273516287686e-06 0.034976702870006718 0 7.3301732428280677e-06 0.034988478353473705 0 2.4164022070923669e-05 0.034967262059963859 0 3.4572273516287686e-06 0.034976702870006718 0 7.3301732428280677e-06 0.034988478353473705 0 5.1793580795544839e-06 0.034999308900191504 0 2.29706011383432e-05 0.034988673613313918 0 6.9249835621584975e-05 0.03488388019201228 0 -0.0001075343631876178 0.035131583172750239 0 -0.0001075343631876178 0.035131583172750239 0 0.00016989243740047269 0.031936967373370616 0 6.7181045297035511e-05 0.030388996318889992 0 0.00016989243740047269 0.031936967373370616 0 0.00020369170056566216 0.034781395712448822 0 0.00010389394405543927 0.034729002289481281 0 0.00019877792040595785 0.034633729915699907 0 2.29706011383432e-05 0.034988673613313918 0 5.0602598730104132e-05 0.034961569157554911 0 2.4164022070923669e-05 0.034967262059963859 0 7.3301732428280677e-06 0.034988478353473705 0 2.29706011383432e-05 0.034988673613313918 0 2.4164022070923669e-05 0.034967262059963859 0 2.4164022070923669e-05 0.034967262059963859 0 4.8988014910680403e-05 0.034938830920867851 0 1.190676780309577e-05 0.03492778284493181 0 -0.00062805893720895944 0.033397683285015217 0 -0.00010107837853524493 0.032339305997634495 0 4.7211019661760602e-05 0.033593365350530237 0 0.00016989243740047269 0.031936967373370616 0 4.7554280144714195e-05 0.034637635558890573 0 5.0602598730104132e-05 0.034961569157554911 0 2.4164022070923669e-05 0.034967262059963859 0 4.8988014910680403e-05 0.034938830920867851 0 -0.00062805893720895944 0.033397683285015217 0 4.7211019661760602e-05 0.033593365350530237 0 -0.00039422974992324276 0.034267503893307266 0 1.9857471197473922e-05 0.034840994588237917 0 4.7211019661760602e-05 0.033593365350530237 0 -0.00039422974992324276 0.034267503893307266 0 2.4504434823819445e-05 0.03464015492072111 0 4.7554280144714195e-05 0.034637635558890573 0 1.9857471197473922e-05 0.034840994588237917 0 4.8988014910680403e-05 0.034938830920867851 0 1.190676780309577e-05 0.03492778284493181 0 1.9070486195883889e-05 0.03488511410593987 0 1.9857471197473922e-05 0.034840994588237917 0 1.190676780309577e-05 0.03492778284493181 0 1.9787513690064334e-05 0.034928813064251794 0 1.190676780309577e-05 0.03492778284493181 0 5.8200588770015291e-06 0.034966256415566686 0 1.190676780309577e-05 0.03492778284493181 0 5.8200588770015291e-06 0.034966256415566686 0 3.4572273516287686e-06 0.034976702870006718 0 1.8035164270820278e-08 0.034999931922516776 0 5.8200588770015291e-06 0.034966256415566686 0 -3.1320257894043531e-09 0.034999953481761228 0 5.8200588770015291e-06 0.034966256415566686 0 -3.1320257894043531e-09 0.034999953481761228 0 3.4572273516287686e-06 0.034976702870006718 0 -2.780439837259657e-09 0.034999984118783183 0 -3.1320257894043531e-09 0.034999953481761228 0 3.4572273516287686e-06 0.034976702870006718 0 2.4164022070923669e-05 0.034967262059963859 0 1.190676780309577e-05 0.03492778284493181 0 3.4572273516287686e-06 0.034976702870006718 0 -0.00081614968131498811 0.0022313241000343348 0 -0.00096022445791586557 0.0019193178942499105 0 -0.0012358429175793962 0.0021396849079790858 0 -0.00081614968131498811 0.0022313241000343348 0 -0.00096022445791586557 0.0019193178942499105 0 -0.00049936179542449778 0.0019407845994665021 0 -0.00081614968131498811 0.0022313241000343348 0 -0.00048095548650253951 0.0022872465781155239 0 -0.00049936179542449778 0.0019407845994665021 0 -0.00076206885535078973 0.0016525881633148427 0 -0.00096022445791586557 0.0019193178942499105 0 -0.00049936179542449778 0.0019407845994665021 0 -0.00076206885535078973 0.0016525881633148427 0 -0.00094543668899938621 0.0016701461291677387 0 -0.00096022445791586557 0.0019193178942499105 0 -0.0011854005194146104 0.007560154747846941 0 -0.00083783886524455616 0.0096777681314618291 0 -0.0010433388907136014 0.01389313556881462 0 -0.0011723237310375923 0.013858414387890476 0 -0.0010224056640352121 0.013869881186190992 0 -0.00076206885535078973 0.0016525881633148427 0 -0.00094543668899938621 0.0016701461291677387 0 -0.0010438606816084836 0.001558622921204428 0 -0.00094543668899938621 0.0016701461291677387 0 -0.00096022445791586557 0.0019193178942499105 0 -0.0010438606816084836 0.001558622921204428 0 -0.00096022445791586557 0.0019193178942499105 0 -0.0012358429175793962 0.0021396849079790858 0 -0.0010438606816084836 0.001558622921204428 0 -0.0010433388907136014 0.01389313556881462 0 -0.0010345666278834388 0.013834619698169369 0 -0.0010224056640352121 0.013869881186190992 0 -0.0010433388907136014 0.01389313556881462 0 -0.00099617024667797188 0.013934657155389486 0 -0.0011723237310375923 0.013858414387890476 0 -0.0010433388907136014 0.01389313556881462 0 -0.00099617024667797188 0.013934657155389486 0 -0.0010345666278834388 0.013834619698169369 0 -0.00099617024667797188 0.013934657155389486 0 -0.0010345666278834388 0.013834619698169369 0 -0.0011518482348927249 0.013965317786108758 0 -0.0011518482348927249 0.013965317786108758 0 -0.00092178424333364743 0.014001964007765032 0 -0.0014566514130203777 0.014348210824000153 0 -0.00099617024667797188 0.013934657155389486 0 -0.0011518482348927249 0.013965317786108758 0 -0.00092178424333364743 0.014001964007765032 0 -0.00099617024667797188 0.013934657155389486 0 -0.00092178424333364743 0.014001964007765032 0 -0.0011723237310375923 0.013858414387890476 0 -0.0012358429175793962 0.0021396849079790858 0 -0.0014305777924095975 0.0027299797786050311 0 -0.0010477050201227131 0.0024919506471965062 0 -0.00092178424333364743 0.014001964007765032 0 -0.0011723237310375923 0.013858414387890476 0 -0.001134038739172172 0.013038105786400717 0 -0.0011854005194146104 0.007560154747846941 0 -0.0012660694897370793 0.0079256567918861848 0 -0.00095910705779350257 0.014043673740638311 0 -0.00065173187594160951 0.013979457748157689 0 -0.00092178424333364743 0.014001964007765032 0 -0.0004982317347061397 0.013164614950355808 0 -0.001134038739172172 0.013038105786400717 0 -0.00092178424333364743 0.014001964007765032 0 -0.0011381205665990895 0.014893524011233556 0 -0.0014566514130203777 0.014348210824000153 0 -0.0004982317347061397 0.013164614950355808 0 -0.001134038739172172 0.013038105786400717 0 -0.00062835579310483727 0.012597851598540996 0 -0.0014305777924095975 0.0027299797786050311 0 -0.0010297678613254524 0.0028099096457629689 0 -0.0012796554801479682 0.0030839356306565291 0 -0.0014305777924095975 0.0027299797786050311 0 -0.0010297678613254524 0.0028099096457629689 0 -0.0010477050201227131 0.0024919506471965062 0 -0.0010297678613254524 0.0028099096457629689 0 -0.0010477050201227131 0.0024919506471965062 0 -0.00072757326212871296 0.0025546200609827012 0 -0.00081614968131498811 0.0022313241000343348 0 -0.0012358429175793962 0.0021396849079790858 0 -0.0010477050201227131 0.0024919506471965062 0 -0.00081614968131498811 0.0022313241000343348 0 -0.00072757326212871296 0.0025546200609827012 0 -0.00048095548650253951 0.0022872465781155239 0 -0.00081614968131498811 0.0022313241000343348 0 -0.0010477050201227131 0.0024919506471965062 0 -0.00072757326212871296 0.0025546200609827012 0 -0.0010297678613254524 0.0028099096457629689 0 -0.00072757326212871296 0.0025546200609827012 0 -0.00065714918147609803 0.0028829886319861908 0 -0.00072757326212871296 0.0025546200609827012 0 -0.00028261818593747781 0.0025996271505374074 0 -0.00065714918147609803 0.0028829886319861908 0 -0.00028261818593747781 0.0025996271505374074 0 -0.00065714918147609803 0.0028829886319861908 0 -0.00040971952914640829 0.003061533638381856 0 -0.00028261818593747781 0.0025996271505374074 0 6.2734157830625386e-05 0.0025456346565111082 0 3.1799506963529369e-05 0.002383617126112984 0 -0.00028261818593747781 0.0025996271505374074 0 6.2734157830625386e-05 0.0025456346565111082 0 -0.00012160057443926533 0.0030942995726898244 0 -0.00028261818593747781 0.0025996271505374074 0 3.1799506963529369e-05 0.002383617126112984 0 -0.00010942892432425763 0.0021218436836779411 0 -0.00072757326212871296 0.0025546200609827012 0 -0.00028261818593747781 0.0025996271505374074 0 -0.00048095548650253951 0.0022872465781155239 0 -0.00028261818593747781 0.0025996271505374074 0 -0.00048095548650253951 0.0022872465781155239 0 -0.00010942892432425763 0.0021218436836779411 0 3.6776098869084728e-05 0.0024581755536581215 0 -1.174309312742415e-05 0.0023979725038771392 0 2.3321968388842354e-05 0.0024229382477920151 0 3.6776098869084728e-05 0.0024581755536581215 0 6.2734157830625386e-05 0.0025456346565111082 0 3.1799506963529369e-05 0.002383617126112984 0 3.1799506963529369e-05 0.002383617126112984 0 8.5066215063984676e-05 0.0023871439718876277 0 -0.00010942892432425763 0.0021218436836779411 0 3.6776098869084728e-05 0.0024581755536581215 0 3.1799506963529369e-05 0.002383617126112984 0 8.5066215063984676e-05 0.0023871439718876277 0 8.5066215063984676e-05 0.0023871439718876277 0 2.3321968388842354e-05 0.0024229382477920151 0 -2.0756337792148571e-05 0.0024513379047549494 0 0.0001221397350545155 0.0022954570042246973 0 0.0007058971429311999 0.00089985606376571014 0 3.6776098869084728e-05 0.0024581755536581215 0 8.5066215063984676e-05 0.0023871439718876277 0 2.3321968388842354e-05 0.0024229382477920151 0 0.00030836262104188276 0.0019021652915520828 0 0.00048664115666163013 0.001621369623237903 0 0.00080402601037295662 0.0019171289057459708 0 0.00030836262104188276 0.0019021652915520828 0 0.00048664115666163013 0.001621369623237903 0 0.00019695843359275819 0.0016670469004920563 0 0.0001221397350545155 0.0022954570042246973 0 -0.00010044003571337698 0.002081890292111067 0 0.00030836262104188276 0.0019021652915520828 0 0.00019695843359275819 0.0016670469004920563 0 -0.00010942892432425763 0.0021218436836779411 0 0.00019695843359275819 0.0016670469004920563 0 0.00039456355077281175 0.001512005036784232 0 0.00024326525359173677 0.0013107253030628211 0 0.00019695843359275819 0.0016670469004920563 0 -1.5820667534783825e-05 0.0015000355499651297 0 0.00024326525359173677 0.0013107253030628211 0 0.00048664115666163013 0.001621369623237903 0 0.00019695843359275819 0.0016670469004920563 0 0.00039456355077281175 0.001512005036784232 0 0.00039456355077281175 0.001512005036784232 0 0.00048498422472745403 0.0014950903555771349 0 0.00048216151908040794 0.0014031633805344568 0 0.00048664115666163013 0.001621369623237903 0 0.00039456355077281175 0.001512005036784232 0 0.00048498422472745403 0.0014950903555771349 0 -0.00048095548650253951 0.0022872465781155239 0 -0.00049936179542449778 0.0019407845994665021 0 -0.00010942892432425763 0.0021218436836779411 0 0.00019695843359275819 0.0016670469004920563 0 -0.00010942892432425763 0.0021218436836779411 0 -0.00013259774924781318 0.0017585931844642136 0 -0.00049936179542449778 0.0019407845994665021 0 -0.00010942892432425763 0.0021218436836779411 0 -0.00013259774924781318 0.0017585931844642136 0 0.00019695843359275819 0.0016670469004920563 0 -0.00013259774924781318 0.0017585931844642136 0 -1.5820667534783825e-05 0.0015000355499651297 0 -0.00013259774924781318 0.0017585931844642136 0 -0.00034681975789142627 0.0015668613750921844 0 -1.5820667534783825e-05 0.0015000355499651297 0 -0.00049936179542449778 0.0019407845994665021 0 -0.00013259774924781318 0.0017585931844642136 0 -0.00034681975789142627 0.0015668613750921844 0 -0.00076206885535078973 0.0016525881633148427 0 -0.00049936179542449778 0.0019407845994665021 0 -0.00034681975789142627 0.0015668613750921844 0 -0.00034681975789142627 0.0015668613750921844 0 -0.00016701132771759024 0.0012234758832633825 0 -0.00059029668931562241 0.0013387368679063255 0 0.0037838489473217937 0.0020774994252809658 0 0.0022589649314957187 0.0018376170164918079 0 0.0020449331229303006 0.002496572949010907 0 0.003041427802108301 -0.0023322648405346984 0 0.00056993113934864263 0.0018003899652479945 0 0.003041427802108301 -0.0023322648405346984 0 0.0012957681055010015 -0.0025158617076699525 0 -0.00034681975789142627 0.0015668613750921844 0 -1.5820667534783825e-05 0.0015000355499651297 0 -0.00016701132771759024 0.0012234758832633825 0 -1.5820667534783825e-05 0.0015000355499651297 0 -0.00016701132771759024 0.0012234758832633825 0 0.00024326525359173677 0.0013107253030628211 0 0.0057380197025308161 -0.0067695693752786341 0 0.0055834710612733002 -0.0065601053634521556 0 0.0058216634344007302 -0.006524651324158727 0 0.003041427802108301 -0.0023322648405346984 0 0.004646451805758782 -0.0066910375799673566 0 0.0057380197025308161 -0.0067695693752786341 0 0.0054628380635447114 -0.0068328674442928025 0 0.0055834710612733002 -0.0065601053634521556 0 0.0057380197025308161 -0.0067695693752786341 0 0.0059394061159055442 -0.0066389579696851221 0 0.0058216634344007302 -0.006524651324158727 0 0.0059394061159055442 -0.0066389579696851221 0 0.0058216634344007302 -0.006524651324158727 0 0.0059815477502474738 -0.0064927210855299121 0 0.003041427802108301 -0.0023322648405346984 0 0.0043618361498475051 -0.0024312855106843074 0 0.0028964179357076668 -0.0062828388234910416 0 0.0023781833163598453 -0.0059388057500489727 0 0.0021341399145504026 -0.0065152304038927347 0 0.00039456355077281175 0.001512005036784232 0 0.00024326525359173677 0.0013107253030628211 0 0.00048216151908040794 0.0014031633805344568 0 0.0012957681055010015 -0.0025158617076699525 0 0.0012878511051204139 -0.0026197494784818264 0 0.0035815912376462775 -0.0060497387581619115 0 0.0028964179357076668 -0.0062828388234910416 0 0.0030052543651397689 -0.0060168918220465557 0 0.0054628380635447114 -0.0068328674442928025 0 0.0052194387128112743 -0.0066425643243263142 0 0.0055834710612733002 -0.0065601053634521556 0 0.0028964179357076668 -0.0062828388234910416 0 0.0030052543651397689 -0.0060168918220465557 0 0.0023781833163598453 -0.0059388057500489727 0 0.0054628380635447114 -0.0068328674442928025 0 0.0050971727766985671 -0.0068941819169327052 0 0.0052194387128112743 -0.0066425643243263142 0 0.004646451805758782 -0.0066910375799673566 0 0.0036166249317722897 -0.0062837051624913196 0 0.0050971727766985671 -0.0068941819169327052 0 0.0052194387128112743 -0.0066425643243263142 0 0.0049177951119517413 -0.0067958290668801557 0 0.0052194387128112743 -0.0066425643243263142 0 0.0053675163133433913 -0.0064348602717444227 0 0.0051516638201181894 -0.0063561967032204868 0 0.0052194387128112743 -0.0066425643243263142 0 0.0051516638201181894 -0.0063561967032204868 0 0.0049115742219090182 -0.006511252576474556 0 0.0052194387128112743 -0.0066425643243263142 0 0.0049115742219090182 -0.006511252576474556 0 0.0049177951119517413 -0.0067958290668801557 0 0.0055834710612733002 -0.0065601053634521556 0 0.0055656311634221592 -0.0063270297615848235 0 0.0053675163133433913 -0.0064348602717444227 0 0.0052194387128112743 -0.0066425643243263142 0 0.0055834710612733002 -0.0065601053634521556 0 0.0053675163133433913 -0.0064348602717444227 0 0.0056226045211230612 -0.0061372255780862452 0 0.0055656311634221592 -0.0063270297615848235 0 0.0053331104103998116 -0.0062090786371415589 0 0.0055656311634221592 -0.0063270297615848235 0 0.0053675163133433913 -0.0064348602717444227 0 0.0053331104103998116 -0.0062090786371415589 0 0.0053331104103998116 -0.0062090786371415589 0 0.0051516638201181894 -0.0063561967032204868 0 0.0049842801850422148 -0.0061580735307499553 0 0.0053675163133433913 -0.0064348602717444227 0 0.0053331104103998116 -0.0062090786371415589 0 0.0051516638201181894 -0.0063561967032204868 0 0.0058216634344007302 -0.006524651324158727 0 0.0060610799868032767 -0.0063272586787119665 0 0.0059815477502474738 -0.0064927210855299121 0 0.0058216634344007302 -0.006524651324158727 0 0.0057822114259197749 -0.006347102820859216 0 0.0060610799868032767 -0.0063272586787119665 0 0.0055834710612733002 -0.0065601053634521556 0 0.0058216634344007302 -0.006524651324158727 0 0.0057822114259197749 -0.006347102820859216 0 0.0056226045211230612 -0.0061372255780862452 0 0.0055656311634221592 -0.0063270297615848235 0 0.0057822114259197749 -0.006347102820859216 0 0.0055834710612733002 -0.0065601053634521556 0 0.0055656311634221592 -0.0063270297615848235 0 0.0057822114259197749 -0.006347102820859216 0 0.0059054756899630297 -0.0061591060831354535 0 0.0056226045211230612 -0.0061372255780862452 0 0.0057822114259197749 -0.006347102820859216 0 0.0059054756899630297 -0.0061591060831354535 0 0.0057822114259197749 -0.006347102820859216 0 0.0060610799868032767 -0.0063272586787119665 0 0.0019371462362843248 0.00017494868215871503 0 0.0023857465386184305 0.0027803745272767968 0 0.0010968751501967302 0.0016795067206032577 0 0.0019371462362843248 0.00017494868215871503 0 0.0039174403247376676 0.0020011559724714403 0 0.0023857465386184305 0.0027803745272767968 0 0.0023857465386184305 0.0027803745272767968 0 0.001772385973514952 0.0045854765995826333 0 0.0010968751501967302 0.0016795067206032577 0 0.0039174403247376676 0.0020011559724714403 0 0.0023857465386184305 0.0027803745272767968 0 0.002911564943140803 0.0049168483421198591 0 0.0054047594945412581 -0.0030836531628240416 0 0.0024043567535046899 0.0031307172595745007 0 0.0060610799868032767 -0.0063272586787119665 0 0.0059815477502474738 -0.0064927210855299121 0 0.0060702366798564425 -0.0065307466000640683 0 0.0043618361498475051 -0.0024312855106843074 0 0.0024043567535046899 0.0031307172595745007 0 0.0059394061159055442 -0.0066389579696851221 0 0.0059815477502474738 -0.0064927210855299121 0 0.0060702366798564425 -0.0065307466000640683 0 0.0022589649314957187 0.0018376170164918079 0 0.0006894089145856382 0.0015492174847586647 0 0.0020449331229303006 0.002496572949010907 0 0.0024043567535046899 0.0031307172595745007 0 -0.00063889253287686683 0.0097917399198243198 0 0.0023857465386184305 0.0027803745272767968 0 0.001772385973514952 0.0045854765995826333 0 0.002911564943140803 0.0049168483421198591 0 0.001772385973514952 0.0045854765995826333 0 0.002911564943140803 0.0049168483421198591 0 0.00029365231422266995 0.0045287861219361148 0 -0.00048118576263779555 0.013422186179507937 0 -0.00062872801543371209 0.013882568748444924 0 -0.0010030547090094236 0.013710825283151144 0 0.0024043567535046899 0.0031307172595745007 0 -0.00043823852762296531 0.0087969342386965774 0 -0.00063255680799563898 0.013823039177032559 0 -0.00066757166855288259 0.013940783972756672 0 -0.0012630282032787751 0.014040806652359772 0 -0.00076206885535078973 0.0016525881633148427 0 -0.0010180737490148733 0.0014799608164821833 0 -0.0010438606816084836 0.001558622921204428 0 -0.00043823852762296531 0.0087969342386965774 0 -0.00083783886524455616 0.0096777681314618291 0 -0.00076206885535078973 0.0016525881633148427 0 -0.00034681975789142627 0.0015668613750921844 0 -0.00059029668931562241 0.0013387368679063255 0 -0.00043823852762296531 0.0087969342386965774 0 0.00056993113934864263 0.0018003899652479945 0 0.0006894089145856382 0.0015492174847586647 0 0.00024537323916029 0.002892991455859994 0 0.0020449331229303006 0.002496572949010907 0 -0.00076206885535078973 0.0016525881633148427 0 -0.0010180737490148733 0.0014799608164821833 0 -0.00059029668931562241 0.0013387368679063255 0 -0.00145174850807009 0.014186611064474953 0 -0.0016207086751462575 0.013809320414091638 0 -0.0013262907306103577 0.013833559643846716 0 -0.00145174850807009 0.014186611064474953 0 -0.0016207086751462575 0.013809320414091638 0 -0.0017909991715827486 0.014064260161873324 0 -0.00145174850807009 0.014186611064474953 0 -0.0012630282032787751 0.014040806652359772 0 -0.0013262907306103577 0.013833559643846716 0 -0.00062872801543371209 0.013882568748444924 0 -0.0012630282032787751 0.014040806652359772 0 -0.0010030547090094236 0.013710825283151144 0 -0.00145174850807009 0.014186611064474953 0 -0.00066757166855288259 0.013940783972756672 0 -0.0012630282032787751 0.014040806652359772 0 -0.00043823852762296531 0.0087969342386965774 0 -0.0015039381734608165 0.014885015095847899 0 -0.0013247144147541532 0.014586073191510607 0 -0.00083783886524455616 0.0096777681314618291 0 -0.0012630282032787751 0.014040806652359772 0 -0.0010030547090094236 0.013710825283151144 0 -0.0013262907306103577 0.013833559643846716 0 -0.0010030547090094236 0.013710825283151144 0 -0.0013262907306103577 0.013833559643846716 0 -0.0012930135797707954 0.013421740555766545 0 -0.00048118576263779555 0.013422186179507937 0 -0.0010030547090094236 0.013710825283151144 0 -0.0012930135797707954 0.013421740555766545 0 -0.0016207086751462575 0.013809320414091638 0 -0.0013262907306103577 0.013833559643846716 0 -0.0012930135797707954 0.013421740555766545 0 -0.0016207086751462575 0.013809320414091638 0 -0.0012930135797707954 0.013421740555766545 0 -0.0019669467387975446 0.01350267545690207 0 -0.00063889253287686683 0.0097917399198243198 0 -0.0016411446328895339 0.0086868559210293034 0 0.00029365231422266995 0.0045287861219361148 0 -0.00087701082231168501 0.0037106369707332501 0 0.00030975581919200025 0.0033746043359685219 0 0.00029365231422266995 0.0045287861219361148 0 -0.00087701082231168501 0.0037106369707332501 0 -0.0014140603268303349 0.0040732104167505506 0 0.001772385973514952 0.0045854765995826333 0 0.00029365231422266995 0.0045287861219361148 0 0.00030975581919200025 0.0033746043359685219 0 0.001772385973514952 0.0045854765995826333 0 0.00030975581919200025 0.0033746043359685219 0 0.0013806292077402137 0.0025785566183395272 0 0.0017359806467229107 0.0044342230220540558 0 0.0012682141815530642 0.0021617370632831426 0 0.00030975581919200025 0.0033746043359685219 0 0.0013806292077402137 0.0025785566183395272 0 -0.00020490829626509561 0.0019205364990926793 0 -0.00087701082231168501 0.0037106369707332501 0 -0.00020490829626509561 0.0019205364990926793 0 -0.0021920335110962416 0.0020109409263058373 0 -0.00087701082231168501 0.0037106369707332501 0 0.00030975581919200025 0.0033746043359685219 0 -0.00020490829626509561 0.0019205364990926793 0 -0.00099286021513475022 0.0036550128298053152 0 -0.0016995449968590023 0.0029248359864951284 0 -0.00087701082231168501 0.0037106369707332501 0 -0.0013793635103625059 0.0036843093492460927 0 -0.0015331519109414299 0.0038696203512538496 0 -0.00087701082231168501 0.0037106369707332501 0 -0.0014140603268303349 0.0040732104167505506 0 -0.0015331519109414299 0.0038696203512538496 0 -0.0016411446328895339 0.0086868559210293034 0 -0.0020874798187230704 0.0088444873146811716 0 -0.0019669467387975446 0.01350267545690207 0 -0.0024710131033473821 0.013664658184094642 0 -0.0022628273352541233 0.013852634020645826 0 -0.0014140603268303349 0.0040732104167505506 0 -0.0015331519109414299 0.0038696203512538496 0 -0.0017196460571080076 0.0039766561144102654 0 -0.0015331519109414299 0.0038696203512538496 0 -0.0016196457154386361 0.0037890296819800247 0 -0.0017196460571080076 0.0039766561144102654 0 -0.0013793635103625059 0.0036843093492460927 0 -0.0015331519109414299 0.0038696203512538496 0 -0.0016196457154386361 0.0037890296819800247 0 -0.0017539770112734794 0.0037928627984935995 0 -0.0016196457154386361 0.0037890296819800247 0 -0.0017196460571080076 0.0039766561144102654 0 -0.0017539770112734794 0.0037928627984935995 0 -0.0017196460571080076 0.0039766561144102654 0 -0.0019222932360362 0.0039946251361265899 0 -0.0020874798187230704 0.0088444873146811716 0 -0.0022836851304521232 0.0089840499474435152 0 -0.0026524974600037267 0.013902321040518358 0 -0.0024710131033473821 0.013664658184094642 0 -0.0026214268523782271 0.013952312787841085 0 -0.0026524974600037267 0.013902321040518358 0 -0.0024710131033473821 0.013664658184094642 0 -0.0026862542968644669 0.013971391363190437 0 -0.0024710131033473821 0.013664658184094642 0 -0.00247204400391598 0.013952394705090805 0 -0.0022628273352541233 0.013852634020645826 0 -0.0024710131033473821 0.013664658184094642 0 -0.00247204400391598 0.013952394705090805 0 -0.0026214268523782271 0.013952312787841085 0 -0.0026524974600037267 0.013902321040518358 0 -0.0026214268523782271 0.013952312787841085 0 -0.0026888948222931891 0.01396247875865269 0 -0.0026214268523782271 0.013952312787841085 0 -0.0025813451432862085 0.014157156002900283 0 -0.0027090124536003125 0.014032886978121004 0 -0.00247204400391598 0.013952394705090805 0 -0.0026214268523782271 0.013952312787841085 0 -0.0025813451432862085 0.014157156002900283 0 -0.0024977940039158488 0.014301887071537941 0 -0.0028779305940390353 0.013555259795615688 0 -0.0025813451432862085 0.014157156002900283 0 -0.0028365500190847891 0.014243017637335896 0 -0.0027455519183627441 0.014276382534919628 0 -0.00247204400391598 0.013952394705090805 0 -0.0025813451432862085 0.014157156002900283 0 -0.0023348115463596567 0.014102100182081653 0 -0.00247204400391598 0.013952394705090805 0 -0.0023348115463596567 0.014102100182081653 0 -0.0022628273352541233 0.013852634020645826 0 -0.0023348115463596567 0.014102100182081653 0 -0.0019976342641391419 0.013952246479432835 0 -0.0020730689436866509 0.01429650144757396 0 -0.0023348115463596567 0.014102100182081653 0 -0.0019976342641391419 0.013952246479432835 0 -0.0022628273352541233 0.013852634020645826 0 -0.0016207086751462575 0.013809320414091638 0 -0.0017909991715827486 0.014064260161873324 0 -0.0019976342641391419 0.013952246479432835 0 -0.0017909991715827486 0.014064260161873324 0 -0.0019976342641391419 0.013952246479432835 0 -0.0020730689436866509 0.01429650144757396 0 -0.0016207086751462575 0.013809320414091638 0 -0.0019669467387975446 0.01350267545690207 0 -0.0019976342641391419 0.013952246479432835 0 -0.0019669467387975446 0.01350267545690207 0 -0.0019976342641391419 0.013952246479432835 0 -0.0022628273352541233 0.013852634020645826 0 -0.0022372456842261147 0.014745045924494568 0 -0.0022165694092071454 0.014752649052505876 0 -0.0022209419535932349 0.0148515002756382 0 -0.0022042623374237034 0.014786066025107878 0 -0.0022372456842261147 0.014745045924494568 0 -0.0022209419535932349 0.0148515002756382 0 -0.0022372456842261147 0.014745045924494568 0 -0.0022465547041151126 0.01457845714349398 0 -0.0022165694092071454 0.014752649052505876 0 -0.0022372456842261147 0.014745045924494568 0 -0.0022039815176699783 0.014794697651269454 0 -0.0022465547041151126 0.01457845714349398 0 -0.0022169189714890099 0.0038145521660587593 0 -0.0022261663466969853 0.0037155837404591234 0 -0.0021510251877093507 0.0039401125160902712 0 -0.0021903350721164745 0.0092593148961724707 0 -0.0022219335982417939 0.0091784283292625328 0 -0.0022039815176699783 0.014794697651269454 0 -0.0022465547041151126 0.01457845714349398 0 -0.0023308234590599859 0.014426443826822797 0 -0.0022465547041151126 0.01457845714349398 0 -0.0023308234590599859 0.014426443826822797 0 -0.0023445099369798902 0.01425911143441016 0 -0.0022465547041151126 0.01457845714349398 0 -0.0023445099369798902 0.01425911143441016 0 -0.002270720399830332 0.01403181900307632 0 -0.0022465547041151126 0.01457845714349398 0 -0.0022165694092071454 0.014752649052505876 0 -0.0021089157835807383 0.014841750085379747 0 -0.0023234399469238827 0.014077706825731595 0 -0.0022440651765177192 0.015713607783572083 0 -0.0023308234590599859 0.014426443826822797 0 -0.0023445099369798902 0.01425911143441016 0 -0.0025146550113816406 0.014081216937566154 0 -0.0023308234590599859 0.014426443826822797 0 -0.0025146550113816406 0.014081216937566154 0 -0.0026862542968644669 0.013971391363190437 0 -0.0023445099369798902 0.01425911143441016 0 -0.0025146550113816406 0.014081216937566154 0 -0.002270720399830332 0.01403181900307632 0 -0.0025488436356039339 0.014018037983592737 0 -0.0022440651765177192 0.015713607783572083 0 -0.0022219335982417939 0.0091784283292625328 0 -0.0022836851304521232 0.0089840499474435152 0 -0.0020077675215267603 0.0038302742289853886 0 -0.0021510251877093507 0.0039401125160902712 0 -0.0019222932360362 0.0039946251361265899 0 -0.0020077675215267603 0.0038302742289853886 0 -0.0017539770112734794 0.0037928627984935995 0 -0.0019222932360362 0.0039946251361265899 0 -0.0026524974600037267 0.013902321040518358 0 -0.0026862542968644669 0.013971391363190437 0 -0.0026723166602102039 0.013953363241097118 0 -0.0025146550113816406 0.014081216937566154 0 -0.0026862542968644669 0.013971391363190437 0 -0.0026723166602102039 0.013953363241097118 0 -0.0027173644221986774 0.013950491277023868 0 -0.0026786435434649212 0.013937633322054119 0 -0.0026888948222931891 0.01396247875865269 0 -0.0027173644221986774 0.013950491277023868 0 -0.0026723166602102039 0.013953363241097118 0 -0.0026786435434649212 0.013937633322054119 0 -0.0025488436356039339 0.014018037983592737 0 -0.0026939125021374537 0.013994627599820156 0 -0.0026524974600037267 0.013902321040518358 0 -0.0026786435434649212 0.013937633322054119 0 -0.0026888948222931891 0.01396247875865269 0 -0.0026524974600037267 0.013902321040518358 0 -0.0026723166602102039 0.013953363241097118 0 -0.0026786435434649212 0.013937633322054119 0 -0.0027173644221986774 0.013950491277023868 0 -0.0026888948222931891 0.01396247875865269 0 -0.0027260865004658471 0.01399132626886395 0 -0.0026888948222931891 0.01396247875865269 0 -0.0027090124536003125 0.014032886978121004 0 -0.0027260865004658471 0.01399132626886395 0 -0.0026214268523782271 0.013952312787841085 0 -0.0026888948222931891 0.01396247875865269 0 -0.0027090124536003125 0.014032886978121004 0 -0.0028365500190847891 0.014243017637335896 0 -0.002843166520081319 0.014310653897334227 0 -0.0027455519183627441 0.014276382534919628 0 -0.0028365500190847891 0.014243017637335896 0 -0.0028741109059065607 0.014314867815493347 0 -0.002843166520081319 0.014310653897334227 0 -0.0051116612410672989 0.021768817056142479 0 -0.0032734961172409299 0.019607216427056744 0 -0.0075305021985887944 0.028228120408723131 0 -0.0064839997920875924 0.030706404313614447 0 -0.0061645154397561028 0.028460769195920808 0 -0.0028365500190847891 0.014243017637335896 0 -0.0028741109059065607 0.014314867815493347 0 -0.0028692239698284066 0.01434500717043748 0 -0.0028779305940390353 0.013555259795615688 0 -0.0032734961172409299 0.019607216427056744 0 -0.0027090124536003125 0.014032886978121004 0 -0.0027520569714762442 0.014019789052553617 0 -0.0027260865004658471 0.01399132626886395 0 -0.0027173644221986774 0.013950491277023868 0 -0.0027260865004658471 0.01399132626886395 0 -0.0027631552599992749 0.013992619686116297 0 -0.0027520569714762442 0.014019789052553617 0 -0.0027260865004658471 0.01399132626886395 0 -0.0027631552599992749 0.013992619686116297 0 -0.0033868109942213616 0.020649021665505814 0 -0.003409419708935098 0.020593966096608355 0 -0.0034714630998103498 0.020637922237266775 0 -0.0032734961172409299 0.019607216427056744 0 -0.0022440651765177192 0.015713607783572083 0 -0.0022440651765177192 0.015713607783572083 0 -0.0039743282434691876 0.024732179083131658 0 -0.0022165694092071454 0.014752649052505876 0 -0.0021089157835807383 0.014841750085379747 0 -0.0022209419535932349 0.0148515002756382 0 -0.0064839997920875924 0.030706404313614447 0 -0.0047968667516238538 0.03129387386116568 0 -0.004739083221108142 0.031128123623018231 0 -0.0032734961172409299 0.019607216427056744 0 -0.0039743282434691876 0.024732179083131658 0 -0.004739083221108142 0.031128123623018231 0 -0.005174129743820032 0.030918240122369121 0 -0.0048587584075097086 0.030987858442697747 0 -0.0064839997920875924 0.030706404313614447 0 -0.004739083221108142 0.031128123623018231 0 -0.0061645154397561028 0.028460769195920808 0 -0.0047895390426253475 0.031042100721878692 0 -0.0057245093392469673 0.029559908535991733 0 -0.005174129743820032 0.030918240122369121 0 -0.0049336835531650584 0.030853936327228538 0 -0.0048587584075097086 0.030987858442697747 0 -0.0049336835531650584 0.030853936327228538 0 -0.0046895900273485917 0.030902443574249001 0 -0.0048254392783918373 0.030703854833276395 0 -0.0049336835531650584 0.030853936327228538 0 -0.0048587584075097086 0.030987858442697747 0 -0.0046895900273485917 0.030902443574249001 0 -0.004739083221108142 0.031128123623018231 0 -0.0048587584075097086 0.030987858442697747 0 -0.0047279934130731406 0.031027984569137804 0 -0.0047279934130731406 0.031027984569137804 0 -0.0046079336423958594 0.031057535375629369 0 -0.0046895900273485917 0.030902443574249001 0 -0.0048587584075097086 0.030987858442697747 0 -0.0047279934130731406 0.031027984569137804 0 -0.0046895900273485917 0.030902443574249001 0 -0.0043571298157855229 0.030920818749215994 0 -0.0046079336423958594 0.031057535375629369 0 -0.0046895900273485917 0.030902443574249001 0 -0.0043571298157855229 0.030920818749215994 0 -0.0046079336423958594 0.031057535375629369 0 -0.0043870951320090657 0.03112891882221731 0 -0.0039743282434691876 0.024732179083131658 0 -0.0049337040869465746 0.031618097481099394 0 -0.004739083221108142 0.031128123623018231 0 -0.0046079336423958594 0.031057535375629369 0 -0.0043870951320090657 0.03112891882221731 0 -0.0042961419574243905 0.031631011769125535 0 -0.0048030925152265759 0.031349066960500521 0 -0.0044652510291268935 0.031276888098546562 0 -0.0047968667516238538 0.03129387386116568 0 -0.004739083221108142 0.031128123623018231 0 -0.0043870951320090657 0.03112891882221731 0 -0.0031955099614225709 0.023004333217942929 0 -0.0039743282434691876 0.024732179083131658 0 -0.004739083221108142 0.031128123623018231 0 -0.0047279934130731406 0.031027984569137804 0 -0.0046079336423958594 0.031057535375629369 0 -0.0042766418226542072 0.030051273217054111 0 -0.0047237497028519036 0.030114564591587907 0 -0.0044642565926842244 0.030553870599103146 0 -0.0042766418226542072 0.030051273217054111 0 -0.0047237497028519036 0.030114564591587907 0 -0.0046964182366996772 0.029503282665112492 0 -0.0043571298157855229 0.030920818749215994 0 -0.0046895900273485917 0.030902443574249001 0 -0.0044642565926842244 0.030553870599103146 0 -0.0046895900273485917 0.030902443574249001 0 -0.0044642565926842244 0.030553870599103146 0 -0.0048254392783918373 0.030703854833276395 0 -0.0047237497028519036 0.030114564591587907 0 -0.0044642565926842244 0.030553870599103146 0 -0.0049174775690056065 0.03043920613752012 0 -0.0044642565926842244 0.030553870599103146 0 -0.0049174775690056065 0.03043920613752012 0 -0.0048254392783918373 0.030703854833276395 0 -0.0049174775690056065 0.03043920613752012 0 -0.0048254392783918373 0.030703854833276395 0 -0.0051429246425705507 0.030616309620705703 0 -0.0049336835531650584 0.030853936327228538 0 -0.0048254392783918373 0.030703854833276395 0 -0.0051429246425705507 0.030616309620705703 0 -0.005174129743820032 0.030918240122369121 0 -0.0049336835531650584 0.030853936327228538 0 -0.0051429246425705507 0.030616309620705703 0 -0.0049174775690056065 0.03043920613752012 0 -0.0051429246425705507 0.030616309620705703 0 -0.0052998133903416804 0.030342067358033884 0 -0.0049174775690056065 0.03043920613752012 0 -0.0050806950148433632 0.030148870602467466 0 -0.0052998133903416804 0.030342067358033884 0 -0.0050806950148433632 0.030148870602467466 0 -0.0052998133903416804 0.030342067358033884 0 -0.0054599049714270922 0.029982750039073868 0 -0.0047237497028519036 0.030114564591587907 0 -0.0049174775690056065 0.03043920613752012 0 -0.0050806950148433632 0.030148870602467466 0 -0.0047237497028519036 0.030114564591587907 0 -0.0050573401488677996 0.029831556997512842 0 -0.0046964182366996772 0.029503282665112492 0 -0.0047237497028519036 0.030114564591587907 0 -0.0050806950148433632 0.030148870602467466 0 -0.0050573401488677996 0.029831556997512842 0 -0.0050806950148433632 0.030148870602467466 0 -0.0050573401488677996 0.029831556997512842 0 -0.0054599049714270922 0.029982750039073868 0 -0.0050573401488677996 0.029831556997512842 0 -0.0054599049714270922 0.029982750039073868 0 -0.0054549617005813077 0.029333056636795054 0 -0.0054599049714270922 0.029982750039073868 0 -0.0059196968262482368 0.030360190237064908 0 -0.0060578287588682594 0.029634274810285927 0 -0.0052998133903416804 0.030342067358033884 0 -0.0054599049714270922 0.029982750039073868 0 -0.0059196968262482368 0.030360190237064908 0 -0.0051429246425705507 0.030616309620705703 0 -0.0052998133903416804 0.030342067358033884 0 -0.0059196968262482368 0.030360190237064908 0 -0.0051116612410672989 0.021768817056142479 0 -0.0059239617235058613 0.019550829917589382 0 -0.005174129743820032 0.030918240122369121 0 -0.0051429246425705507 0.030616309620705703 0 -0.0059196968262482368 0.030360190237064908 0 -0.0075305021985887944 0.028228120408723131 0 -0.0061645154397561028 0.028460769195920808 0 -0.0078600772652656983 0.025715804388505212 0 -0.0057245093392469673 0.029559908535991733 0 -0.0069797445690066165 0.028747044182743056 0 -0.0075305021985887944 0.028228120408723131 0 -0.0078600772652656983 0.025715804388505212 0 -0.0085601651083919237 0.025603178665240978 0 -0.002843166520081319 0.014310653897334227 0 -0.0029074773566368224 0.01439140193114526 0 -0.002858141034607741 0.01436267155296189 0 -0.0028741109059065607 0.014314867815493347 0 -0.002843166520081319 0.014310653897334227 0 -0.0029074773566368224 0.01439140193114526 0 -0.002843166520081319 0.014310653897334227 0 -0.002858141034607741 0.01436267155296189 0 -0.0027455519183627441 0.014276382534919628 0 -0.002858141034607741 0.01436267155296189 0 -0.0028284630089056954 0.014709915844213869 0 -0.0025240416972487621 0.014454563920520178 0 -0.0069797445690066165 0.028747044182743056 0 -0.0052955816731824019 0.020865328945239316 0 -0.0029074773566368224 0.01439140193114526 0 -0.002858141034607741 0.01436267155296189 0 -0.0028284630089056954 0.014709915844213869 0 -0.0078600772652656983 0.025715804388505212 0 -0.0085601651083919237 0.025603178665240978 0 -0.0095762425805859513 0.022962840171966308 0 -0.0059196968262482368 0.030360190237064908 0 -0.006873398631597913 0.029416110462913272 0 -0.0060578287588682594 0.029634274810285927 0 -0.0059239617235058613 0.019550829917589382 0 -0.0052955816731824019 0.020865328945239316 0 -0.006873398631597913 0.029416110462913272 0 -0.0062304065780541236 0.028468112191530039 0 -0.0060578287588682594 0.029634274810285927 0 -0.006873398631597913 0.029416110462913272 0 -0.0062304065780541236 0.028468112191530039 0 -0.0077394152399026745 0.02798910906291124 0 -0.0062304065780541236 0.028468112191530039 0 -0.0077394152399026745 0.02798910906291124 0 -0.0058231846879707302 0.026899531270702558 0 -0.0052955816731824019 0.020865328945239316 0 -0.004964155007177889 0.022075591273404329 0 -0.0062304065780541236 0.028468112191530039 0 -0.0053481921735585988 0.028444417115791997 0 -0.0058231846879707302 0.026899531270702558 0 -0.0062304065780541236 0.028468112191530039 0 -0.0053481921735585988 0.028444417115791997 0 -0.0054549617005813077 0.029333056636795054 0 -0.0062304065780541236 0.028468112191530039 0 -0.0060578287588682594 0.029634274810285927 0 -0.0054549617005813077 0.029333056636795054 0 -0.0054599049714270922 0.029982750039073868 0 -0.0060578287588682594 0.029634274810285927 0 -0.0054549617005813077 0.029333056636795054 0 -0.0053481921735585988 0.028444417115791997 0 -0.0054549617005813077 0.029333056636795054 0 -0.0046964182366996772 0.029503282665112492 0 -0.0050573401488677996 0.029831556997512842 0 -0.0054549617005813077 0.029333056636795054 0 -0.0046964182366996772 0.029503282665112492 0 -0.0053481921735585988 0.028444417115791997 0 -0.0046964182366996772 0.029503282665112492 0 -0.0044411195372595757 0.028852128250931648 0 -0.0053481921735585988 0.028444417115791997 0 -0.0045981576655331011 0.028066812682935899 0 -0.0058231846879707302 0.026899531270702558 0 -0.0053481921735585988 0.028444417115791997 0 -0.0045981576655331011 0.028066812682935899 0 -0.0044411195372595757 0.028852128250931648 0 -0.003181447826027718 0.02829661643499002 0 -0.0045981576655331011 0.028066812682935899 0 -0.0037619391581449136 0.027466910182774203 0 -0.0037431687213889133 0.028506831264600699 0 -0.0045981576655331011 0.028066812682935899 0 -0.0044411195372595757 0.028852128250931648 0 -0.0040229676425143452 0.028925376714613499 0 -0.0043493209825949276 0.028098745715638317 0 -0.0037431687213889133 0.028506831264600699 0 -0.0044411195372595757 0.028852128250931648 0 -0.0040535820265557368 0.029506692904335947 0 -0.0042766418226542072 0.030051273217054111 0 -0.0046964182366996772 0.029503282665112492 0 -0.0040535820265557368 0.029506692904335947 0 -0.0046964182366996772 0.029503282665112492 0 -0.0044411195372595757 0.028852128250931648 0 -0.0040535820265557368 0.029506692904335947 0 -0.0018719085544742519 0.014281940452110021 0 -0.0014566514130203777 0.014348210824000153 0 -0.0019845091105238372 0.014685840950155711 0 -0.0018719085544742519 0.014281940452110021 0 -0.0014566514130203777 0.014348210824000153 0 -0.0015559100865434623 0.013842701002730601 0 -0.0011518482348927249 0.013965317786108758 0 -0.0014566514130203777 0.014348210824000153 0 -0.0015559100865434623 0.013842701002730601 0 -0.00145174850807009 0.014186611064474953 0 -0.0017909991715827486 0.014064260161873324 0 -0.0020730689436866509 0.01429650144757396 0 -0.0013247144147541532 0.014586073191510607 0 -0.0017876061729705081 0.013995342904289347 0 -0.0010345666278834388 0.013834619698169369 0 -0.0011518482348927249 0.013965317786108758 0 -0.0015559100865434623 0.013842701002730601 0 -0.0017876061729705081 0.013995342904289347 0 -0.0024168880195641813 0.014228392662056189 0 -0.0018719085544742519 0.014281940452110021 0 -0.0015559100865434623 0.013842701002730601 0 -0.0022897522375349469 0.01406845811475042 0 -0.0023348115463596567 0.014102100182081653 0 -0.0020730689436866509 0.01429650144757396 0 -0.0025454240078602646 0.01436149812577658 0 -0.0025813451432862085 0.014157156002900283 0 -0.0023348115463596567 0.014102100182081653 0 -0.0025454240078602646 0.01436149812577658 0 -0.002858141034607741 0.01436267155296189 0 -0.0025454240078602646 0.01436149812577658 0 -0.0027455519183627441 0.014276382534919628 0 -0.0028245812037851069 0.014342216046828535 0 -0.0024168880195641813 0.014228392662056189 0 -0.0025813451432862085 0.014157156002900283 0 -0.0025454240078602646 0.01436149812577658 0 -0.0027455519183627441 0.014276382534919628 0 -0.002858141034607741 0.01436267155296189 0 -0.0022897522375349469 0.01406845811475042 0 -0.0025240416972487621 0.014454563920520178 0 -0.0025240416972487621 0.014454563920520178 0 -0.0022058151506600082 0.01443505928313479 0 -0.0023641545918435844 0.014723029102917683 0 -0.0018719085544742519 0.014281940452110021 0 -0.0022897522375349469 0.01406845811475042 0 -0.0022058151506600082 0.01443505928313479 0 -0.0022897522375349469 0.01406845811475042 0 -0.0025240416972487621 0.014454563920520178 0 -0.0022058151506600082 0.01443505928313479 0 -0.0018719085544742519 0.014281940452110021 0 -0.0022058151506600082 0.01443505928313479 0 -0.0019845091105238372 0.014685840950155711 0 -0.0019845091105238372 0.014685840950155711 0 -0.0023641545918435844 0.014723029102917683 0 -0.0021341496638329896 0.015033809561334594 0 -0.0022058151506600082 0.01443505928313479 0 -0.0019845091105238372 0.014685840950155711 0 -0.0023641545918435844 0.014723029102917683 0 -0.0023641545918435844 0.014723029102917683 0 -0.0024241557481675144 0.01500178662735401 0 -0.0021341496638329896 0.015033809561334594 0 -0.0028284630089056954 0.014709915844213869 0 -0.0023641545918435844 0.014723029102917683 0 -0.0024241557481675144 0.01500178662735401 0 -0.0028284630089056954 0.014709915844213869 0 -0.0025240416972487621 0.014454563920520178 0 -0.0023641545918435844 0.014723029102917683 0 -0.0024865054222134838 0.015314742426494683 0 -0.0025327780045715353 0.015346707520920355 0 -0.0020469804952148595 0.015435141278680361 0 -0.0024587674691009583 0.016130569019097474 0 -0.0024865054222134838 0.015314742426494683 0 -0.002451568615196395 0.01540908395561689 0 -0.0052955816731824019 0.020865328945239316 0 -0.0020891748829317239 0.013522814872204195 0 -0.0028284630089056954 0.014709915844213869 0 -0.0024241557481675144 0.01500178662735401 0 -0.0024865054222134838 0.015314742426494683 0 -0.0024241557481675144 0.01500178662735401 0 -0.0024865054222134838 0.015314742426494683 0 -0.0022706998933407115 0.015200068467861276 0 -0.0024865054222134838 0.015314742426494683 0 -0.002451568615196395 0.01540908395561689 0 -0.0025327780045715353 0.015346707520920355 0 -0.0021341496638329896 0.015033809561334594 0 -0.0022706998933407115 0.015200068467861276 0 -0.0020469804952148595 0.015435141278680361 0 -0.0024865054222134838 0.015314742426494683 0 -0.0022706998933407115 0.015200068467861276 0 -0.0020469804952148595 0.015435141278680361 0 -0.0024241557481675144 0.01500178662735401 0 -0.0021341496638329896 0.015033809561334594 0 -0.0022706998933407115 0.015200068467861276 0 -0.0021341496638329896 0.015033809561334594 0 -0.0017039610823104201 0.015041336911273604 0 -0.0020469804952148595 0.015435141278680361 0 -0.0019845091105238372 0.014685840950155711 0 -0.0021341496638329896 0.015033809561334594 0 -0.0017039610823104201 0.015041336911273604 0 -0.0014566514130203777 0.014348210824000153 0 -0.0019845091105238372 0.014685840950155711 0 -0.0017039610823104201 0.015041336911273604 0 -0.0011381205665990895 0.014893524011233556 0 -0.0014566514130203777 0.014348210824000153 0 -0.0017039610823104201 0.015041336911273604 0 -0.0011381205665990895 0.014893524011233556 0 -0.0017039610823104201 0.015041336911273604 0 -0.0014373149973237371 0.015596055157735772 0 -0.00065173187594160951 0.013979457748157689 0 -0.0019352157560030014 0.013932922406811914 0 -0.0004982317347061397 0.013164614950355808 0 -0.0001032703149334158 0.012257818717113515 0 -0.00062835579310483727 0.012597851598540996 0 -0.0019352157560030014 0.013932922406811914 0 -0.0034487410315947663 0.013767611583783439 0 -0.0028257264909714139 0.012307478379425241 0 -0.0025788414435997734 0.01286322409952138 0 -0.0031364982960743627 0.013093244991384327 0 -0.0028257264909714139 0.012307478379425241 0 -0.0025788414435997734 0.01286322409952138 0 -0.0019814790004865743 0.012522668433015386 0 -0.0032881359915005676 0.0146922608995385 0 -0.0035797656169238015 0.014405290528020264 0 -0.0030803529625815394 0.014166529673824856 0 -0.003802193578428962 0.014931795542907333 0 -0.0032881359915005676 0.0146922608995385 0 -0.0035797656169238015 0.014405290528020264 0 -0.0019352157560030014 0.013932922406811914 0 -0.0027176388526021643 0.015414041240563524 0 -0.003802193578428962 0.014931795542907333 0 -0.0032881359915005676 0.0146922608995385 0 -0.003192750125258883 0.015144833820267814 0 -0.0017039610823104201 0.015041336911273604 0 -0.0014373149973237371 0.015596055157735772 0 -0.0020469804952148595 0.015435141278680361 0 -0.0025327780045715353 0.015346707520920355 0 -0.003192750125258883 0.015144833820267814 0 -0.0027653439420291829 0.014818530052895421 0 -0.0025089857853633039 0.015317716620008727 0 -0.0027176388526021643 0.015414041240563524 0 -0.0032881359915005676 0.0146922608995385 0 -0.003192750125258883 0.015144833820267814 0 -0.0027653439420291829 0.014818530052895421 0 -0.002451568615196395 0.01540908395561689 0 -0.0025327780045715353 0.015346707520920355 0 -0.0027653439420291829 0.014818530052895421 0 -0.0077394152399026745 0.02798910906291124 0 -0.0087290088283456732 0.026070262316988509 0 -0.0072119174004117055 0.025819671375867694 0 -0.004964155007177889 0.022075591273404329 0 -0.0057818283943288761 0.02036487907622098 0 -0.0087290088283456732 0.026070262316988509 0 -0.008150826817300439 0.02467975597340575 0 -0.0072119174004117055 0.025819671375867694 0 -0.0087290088283456732 0.026070262316988509 0 -0.0097362716775884067 0.023888147699524215 0 -0.008150826817300439 0.02467975597340575 0 -0.0032881359915005676 0.0146922608995385 0 -0.0027653439420291829 0.014818530052895421 0 -0.0030803529625815394 0.014166529673824856 0 -0.0057818283943288761 0.02036487907622098 0 -0.0063331361629595864 0.018980166816023249 0 -0.0097362716775884067 0.023888147699524215 0 -0.008150826817300439 0.02467975597340575 0 -0.0076496749182750406 0.023273876679064137 0 -0.0097362716775884067 0.023888147699524215 0 -0.0076496749182750406 0.023273876679064137 0 -0.0091687397391958855 0.022454952723336197 0 -0.0076496749182750406 0.023273876679064137 0 -0.0071045810638687423 0.021909812320075505 0 -0.0082931795917990207 0.021587424268284278 0 -0.0076496749182750406 0.023273876679064137 0 -0.0089025945903296305 0.022428561575328528 0 -0.0082931795917990207 0.021587424268284278 0 -0.0077475173197864167 0.023182652924168962 0 -0.0091367959913679891 0.022392823680256701 0 -0.0097362716775884067 0.023888147699524215 0 -0.0091687397391958855 0.022454952723336197 0 -0.010694040881702756 0.021623396875587793 0 -0.0063331361629595864 0.018980166816023249 0 -0.0077930707900383672 0.018366032515723267 0 -0.0030803529625815394 0.014166529673824856 0 -0.0033404634784923179 0.013963485284268887 0 -0.0033279862728853109 0.013939626469917107 0 -0.0089025945903296305 0.022428561575328528 0 -0.009285045680264406 0.021532812121052881 0 -0.0082931795917990207 0.021587424268284278 0 -0.0089025945903296305 0.022428561575328528 0 -0.010180599972103044 0.021657222335494712 0 -0.009285045680264406 0.021532812121052881 0 -0.0091367959913679891 0.022392823680256701 0 -0.0077930707900383672 0.018366032515723267 0 -0.0033404634784923179 0.013963485284268887 0 -0.0033279862728853109 0.013939626469917107 0 -0.003276608064051455 0.014063601020446816 0 -0.0033279862728853109 0.013939626469917107 0 -0.0030406670830943222 0.013939411923306978 0 -0.0028529510637498334 0.01362973960387728 0 -0.0033279862728853109 0.013939626469917107 0 -0.0030406670830943222 0.013939411923306978 0 -0.003276608064051455 0.014063601020446816 0 -0.0026263418730704813 0.014102125705003977 0 -0.0028529510637498334 0.01362973960387728 0 -0.0022853697705866568 0.01337171930534045 0 -0.0029354355984358518 0.0092306778553251541 0 -0.0057740086533518238 0.015968795475870975 0 -0.0030406670830943222 0.013939411923306978 0 -0.0026263418730704813 0.014102125705003977 0 -0.003276608064051455 0.014063601020446816 0 -0.0030406670830943222 0.013939411923306978 0 -0.0026263418730704813 0.014102125705003977 0 -0.0028529510637498334 0.01362973960387728 0 -0.0025788414435997734 0.01286322409952138 0 -0.0028529510637498334 0.01362973960387728 0 -0.0022853697705866568 0.01337171930534045 0 -0.0025788414435997734 0.01286322409952138 0 -0.0031364982960743627 0.013093244991384327 0 -0.0028529510637498334 0.01362973960387728 0 -0.0034487410315947663 0.013767611583783439 0 -0.0033262093760642185 0.013895323929500939 0 -0.0035797656169238015 0.014405290528020264 0 -0.0030803529625815394 0.014166529673824856 0 -0.0033279862728853109 0.013939626469917107 0 -0.0031364982960743627 0.013093244991384327 0 -0.0033279862728853109 0.013939626469917107 0 -0.0028529510637498334 0.01362973960387728 0 -0.0029776834699621461 0.026941098801584695 0 -0.0042958781962272865 0.02658632073774312 0 -0.0035197665371460769 0.026003015765374372 0 -0.0042958781962272865 0.02658632073774312 0 -0.0035197665371460769 0.026003015765374372 0 -0.0041830440467390548 0.025481814852901505 0 -0.003181447826027718 0.02829661643499002 0 -0.0029776834699621461 0.026941098801584695 0 -0.0037619391581449136 0.027466910182774203 0 -0.0045981576655331011 0.028066812682935899 0 -0.0042958781962272865 0.02658632073774312 0 -0.0037619391581449136 0.027466910182774203 0 -0.0029776834699621461 0.026941098801584695 0 -0.0042958781962272865 0.02658632073774312 0 -0.0037619391581449136 0.027466910182774203 0 -0.0045981576655331011 0.028066812682935899 0 -0.0042958781962272865 0.02658632073774312 0 -0.0058231846879707302 0.026899531270702558 0 -0.0042958781962272865 0.02658632073774312 0 -0.0051177066827179747 0.025623487538449154 0 -0.0041830440467390548 0.025481814852901505 0 -0.0042958781962272865 0.02658632073774312 0 -0.0058231846879707302 0.026899531270702558 0 -0.0051177066827179747 0.025623487538449154 0 -0.0058231846879707302 0.026899531270702558 0 -0.0062919994823154458 0.02447398078080525 0 -0.00417630389071918 0.024578745472098998 0 -0.0057300569563429873 0.026778732458824585 0 -0.0046872771361626108 0.025136729738878916 0 -0.0077394152399026745 0.02798910906291124 0 -0.0058231846879707302 0.026899531270702558 0 -0.0072119174004117055 0.025819671375867694 0 -0.008150826817300439 0.02467975597340575 0 -0.0072119174004117055 0.025819671375867694 0 -0.0062919994823154458 0.02447398078080525 0 -0.0058231846879707302 0.026899531270702558 0 -0.0072119174004117055 0.025819671375867694 0 -0.0062919994823154458 0.02447398078080525 0 -0.008150826817300439 0.02467975597340575 0 -0.0076496749182750406 0.023273876679064137 0 -0.0062919994823154458 0.02447398078080525 0 -0.0076496749182750406 0.023273876679064137 0 -0.0062919994823154458 0.02447398078080525 0 -0.0063744674274497336 0.022944544813588059 0 -0.0071045810638687423 0.021909812320075505 0 -0.0063744674274497336 0.022944544813588059 0 -0.0056618656226856247 0.021977329988032059 0 -0.0076496749182750406 0.023273876679064137 0 -0.0071045810638687423 0.021909812320075505 0 -0.0063744674274497336 0.022944544813588059 0 -0.0063744674274497336 0.022944544813588059 0 -0.0056618656226856247 0.021977329988032059 0 -0.005128056878016261 0.023135660697654836 0 -0.0056618656226856247 0.021977329988032059 0 -0.0046793870700880978 0.02213739727704811 0 -0.0049647874051690025 0.021256155447474803 0 -0.0056618656226856247 0.021977329988032059 0 -0.0046793870700880978 0.02213739727704811 0 -0.005128056878016261 0.023135660697654836 0 -0.0046793870700880978 0.02213739727704811 0 -0.005128056878016261 0.023135660697654836 0 -0.0040937467895818492 0.022763904607156844 0 -0.0062919994823154458 0.02447398078080525 0 -0.005128056878016261 0.023135660697654836 0 -0.00417630389071918 0.024578745472098998 0 -0.005128056878016261 0.023135660697654836 0 -0.00417630389071918 0.024578745472098998 0 -0.0040937467895818492 0.022763904607156844 0 -0.0062919994823154458 0.02447398078080525 0 -0.0063744674274497336 0.022944544813588059 0 -0.005128056878016261 0.023135660697654836 0 -0.0051177066827179747 0.025623487538449154 0 -0.0042666453620808205 0.02407161043477957 0 -0.0041830440467390548 0.025481814852901505 0 -0.0046872771361626108 0.025136729738878916 0 -0.0034379794429505663 0.023109853799134265 0 -0.00417630389071918 0.024578745472098998 0 -0.0040937467895818492 0.022763904607156844 0 -0.002829495269876654 0.022369163626718199 0 -0.0046793870700880978 0.02213739727704811 0 -0.0040937467895818492 0.022763904607156844 0 -0.0037564754087967426 0.021669398304351318 0 -0.0040937467895818492 0.022763904607156844 0 -0.002829495269876654 0.022369163626718199 0 -0.0037564754087967426 0.021669398304351318 0 -0.002829495269876654 0.022369163626718199 0 -0.0034916288728166467 0.02156681997999374 0 -0.0037564754087967426 0.021669398304351318 0 -0.0034379794429505663 0.023109853799134265 0 -0.0023230425789344008 0.020366278876740335 0 -0.0043867544987236835 0.023890319127173102 0 -0.0035150343788639933 0.023770021421544881 0 -0.0036307304461350963 0.024833094935663807 0 -0.0034379794429505663 0.023109853799134265 0 -0.0036135195778473042 0.024660200886042132 0 -0.0043867544987236835 0.023890319127173102 0 -0.0035150343788639933 0.023770021421544881 0 -0.0037728821302889246 0.022879044429581268 0 -0.0034379794429505663 0.023109853799134265 0 -0.0016500227063569069 0.019522331335038334 0 -0.0042666453620808205 0.02407161043477957 0 -0.0036307304461350963 0.024833094935663807 0 -0.0041830440467390548 0.025481814852901505 0 -0.0036307304461350963 0.024833094935663807 0 -0.0041830440467390548 0.025481814852901505 0 -0.003370564880010367 0.025372726649737682 0 -0.0035197665371460769 0.026003015765374372 0 -0.0041830440467390548 0.025481814852901505 0 -0.003370564880010367 0.025372726649737682 0 0.00017532935179070391 0.016901511707068637 0 0.00022324420592114135 0.016725115711457929 0 0.00021406716130069201 0.016621216553736003 0 0.00022324420592114135 0.016725115711457929 0 0.00012729054532168501 0.016492163224416993 0 0.00021406716130069201 0.016621216553736003 0 0.00022324420592114135 0.016725115711457929 0 0.00015937938149969061 0.016775077870861837 0 0.00012729054532168501 0.016492163224416993 0 0.00022324420592114135 0.016725115711457929 0 0.00015937938149969061 0.016775077870861837 0 0.00023099412900508571 0.016784714289185924 0 0.00014425559029370821 0.016857310088597883 0 0.00022324420592114135 0.016725115711457929 0 0.00023099412900508571 0.016784714289185924 0 0.00015937938149969061 0.016775077870861837 0 0.00023099412900508571 0.016784714289185924 0 0.00021883529469456046 0.016904890431887101 0 -0.0014533655741448194 0.019685217316627944 0 -0.001954572631474904 0.019430575546668188 0 -0.0019794966466508772 0.019472130971111497 0 0.00022581803484013013 0.016720574009996866 0 -0.00089738396479691106 0.018473076932280015 0 -0.002049836874731903 0.018900864148786462 0 -0.0017738674572557753 0.018446155859873758 0 -0.0013194675659656827 0.018621557042463002 0 -0.00089738396479691106 0.018473076932280015 0 -0.00098211084331053123 0.01879828596899167 0 -0.00089738396479691106 0.018473076932280015 0 -0.0016500227063569069 0.019522331335038334 0 -0.0016500227063569069 0.019522331335038334 0 -0.00098211084331053123 0.01879828596899167 0 -0.00098211084331053123 0.01879828596899167 0 -0.0023230425789344008 0.020366278876740335 0 -0.0023370459905874526 0.021645240132947208 0 -0.0014101058459226516 0.02011256529821543 0 -0.0015879396778027701 0.020044084025423532 0 -0.0023370459905874526 0.021645240132947208 0 -0.0015879396778027701 0.020044084025423532 0 -0.0031470528109018986 0.020649058679934756 0 -0.00098211084331053123 0.01879828596899167 0 -7.8925006741803646e-06 0.01720770099549131 0 0.00015937938149969061 0.016775077870861837 0 0.00019582258713701453 0.016927859085557863 0 -7.7976305241139182e-05 0.016907331446138138 0 0.00015937938149969061 0.016775077870861837 0 0.00021883529469456046 0.016904890431887101 0 0.00019582258713701453 0.016927859085557863 0 -7.7976305241139182e-05 0.016907331446138138 0 -6.9553637060192349e-05 0.017212842780719946 0 -0.00046517291968932749 0.01674877303878965 0 -0.0023230425789344008 0.020366278876740335 0 -0.0026985859101080912 0.018412483578171355 0 -0.003501783295296801 0.021570435697286627 0 -0.0037564754087967426 0.021669398304351318 0 -0.0047673206067227426 0.02005590510723762 0 0.00028421290704047452 0.017077256941925557 0 -7.7976305241139182e-05 0.016907331446138138 0 -6.9553637060192349e-05 0.017212842780719946 0 -0.0023230425789344008 0.020366278876740335 0 -0.0027383971558375625 0.020585385078185754 0 -7.7976305241139182e-05 0.016907331446138138 0 -0.00015955753800545077 0.016640636770520363 0 -0.00046517291968932749 0.01674877303878965 0 9.4098972692132303e-05 0.016360568428010938 0 0.00010808159004965781 0.016161589590220658 0 -0.00015955753800545077 0.016640636770520363 0 0.00012729054532168501 0.016492163224416993 0 -0.00039013329735879294 0.016340002988863088 0 -0.00015955753800545077 0.016640636770520363 0 -0.00039013329735879294 0.016340002988863088 0 -0.00046517291968932749 0.01674877303878965 0 0.00015937938149969061 0.016775077870861837 0 -0.00015955753800545077 0.016640636770520363 0 0.00012729054532168501 0.016492163224416993 0 0.00015937938149969061 0.016775077870861837 0 -7.7976305241139182e-05 0.016907331446138138 0 -0.00015955753800545077 0.016640636770520363 0 -0.0047673206067227426 0.02005590510723762 0 -0.0060389482937492026 0.020512136461971503 0 -0.0059639161326813638 0.018603510624814416 0 -0.0026985859101080912 0.018412483578171355 0 -0.0018542214413649308 0.015859659593320738 0 -0.00039013329735879294 0.016340002988863088 0 -0.00046517291968932749 0.01674877303878965 0 -0.00093397944631561189 0.016208446679887682 0 -0.0037564754087967426 0.021669398304351318 0 -0.0047673206067227426 0.02005590510723762 0 -0.0049647874051690025 0.021256155447474803 0 -0.0046793870700880978 0.02213739727704811 0 -0.0037564754087967426 0.021669398304351318 0 -0.0049647874051690025 0.021256155447474803 0 -0.0056618656226856247 0.021977329988032059 0 -0.0049647874051690025 0.021256155447474803 0 -0.0060389482937492026 0.020512136461971503 0 -0.0047673206067227426 0.02005590510723762 0 -0.0049647874051690025 0.021256155447474803 0 -0.0060389482937492026 0.020512136461971503 0 -0.0071045810638687423 0.021909812320075505 0 -0.0060389482937492026 0.020512136461971503 0 -0.0077496176042975177 0.020765016867363047 0 -0.0071045810638687423 0.021909812320075505 0 -0.0056618656226856247 0.021977329988032059 0 -0.0060389482937492026 0.020512136461971503 0 -0.0060389482937492026 0.020512136461971503 0 -0.0072545097274595563 0.019445708488490573 0 -0.0077496176042975177 0.020765016867363047 0 -0.0060389482937492026 0.020512136461971503 0 -0.0072545097274595563 0.019445708488490573 0 -0.0059639161326813638 0.018603510624814416 0 -0.0072545097274595563 0.019445708488490573 0 -0.0059639161326813638 0.018603510624814416 0 -0.0078100731450539218 0.018175862867651944 0 -0.0018542214413649308 0.015859659593320738 0 -0.0038844184664028588 0.015822192336324269 0 -0.00011066178371620683 0.01516360955085177 0 -0.00010406748032609696 0.014063316585481701 0 5.6290851987132379e-05 0.015271136671474842 0 -0.0002274313842238297 0.014027279481416048 0 -0.00010406748032609696 0.014063316585481701 0 6.8165576353321071e-06 0.013527861706962069 0 -0.0018542214413649308 0.015859659593320738 0 -0.00053458706524147324 0.014633518720833722 0 -0.00010406748032609696 0.014063316585481701 0 -5.6978142357279822e-08 0.013979140860131753 0 3.1596033645991673e-05 0.013212115450652073 0 -0.00010406748032609696 0.014063316585481701 0 -5.6978142357279822e-08 0.013979140860131753 0 5.7021631367676553e-05 0.014950164329374408 0 -5.6978142357279822e-08 0.013979140860131753 0 5.7021631367676553e-05 0.014950164329374408 0 2.4184378822616312e-07 0.015777920400212482 0 0.00010808159004965781 0.016161589590220658 0 -0.0018542214413649308 0.015859659593320738 0 0.00010846232990859225 0.015829965785365586 0 -0.00011066178371620683 0.01516360955085177 0 5.6290851987132379e-05 0.015271136671474842 0 5.7021631367676553e-05 0.014950164329374408 0 5.6290851987132379e-05 0.015271136671474842 0 0.00014376458163594319 0.015909753717152815 0 -0.00010406748032609696 0.014063316585481701 0 5.7021631367676553e-05 0.014950164329374408 0 5.6290851987132379e-05 0.015271136671474842 0 0.00010846232990859225 0.015829965785365586 0 5.6290851987132379e-05 0.015271136671474842 0 0.00014376458163594319 0.015909753717152815 0 0.00012729054532168501 0.016492163224416993 0 0.00014376458163594319 0.015909753717152815 0 0.00021406716130069201 0.016621216553736003 0 0.00012729054532168501 0.016492163224416993 0 0.00010846232990859225 0.015829965785365586 0 0.00014376458163594319 0.015909753717152815 0 5.7021631367676553e-05 0.014950164329374408 0 0.00014376458163594319 0.015909753717152815 0 2.4184378822616312e-07 0.015777920400212482 0 0.00014376458163594319 0.015909753717152815 0 2.4184378822616312e-07 0.015777920400212482 0 0.0001616346601417537 0.016573397614797772 0 8.6249091952279232e-07 0.017578303979154535 0 2.4184378822616312e-07 0.015777920400212482 0 0.0001616346601417537 0.016573397614797772 0 0.00013890547309900812 0.017284007927253143 0 8.6249091952279232e-07 0.017578303979154535 0 0.0001616346601417537 0.016573397614797772 0 0.00014376458163594319 0.015909753717152815 0 0.0001616346601417537 0.016573397614797772 0 0.00021406716130069201 0.016621216553736003 0 0.00013890547309900812 0.017284007927253143 0 0.0001616346601417537 0.016573397614797772 0 0.00021406716130069201 0.016621216553736003 0 -0.010273165104246917 0.019613578659202192 0 -0.01113402822561264 0.019304139861876516 0 -0.010296520829892086 0.021382870556349146 0 -0.010273165104246917 0.019613578659202192 0 -0.010664621424732151 0.019118252788823131 0 -0.010250836967706596 0.018697264484766326 0 -0.010273165104246917 0.019613578659202192 0 -0.0096107132873619865 0.019082186726126337 0 -0.010250836967706596 0.018697264484766326 0 -0.010664621424732151 0.019118252788823131 0 -0.010824629073761451 0.018722264133648334 0 -0.010250836967706596 0.018697264484766326 0 -0.010664621424732151 0.019118252788823131 0 -0.011084811970150876 0.019275395787947285 0 -0.010824629073761451 0.018722264133648334 0 -0.010273165104246917 0.019613578659202192 0 -0.010664621424732151 0.019118252788823131 0 -0.01113402822561264 0.019304139861876516 0 -0.0082816524853765363 0.01654871994476944 0 -0.0061907361550327424 0.014082711699552752 0 -0.011084811970150876 0.019275395787947285 0 -0.010824629073761451 0.018722264133648334 0 -0.011395408068249673 0.018551596333752092 0 -0.01027794142143012 0.017777138593945089 0 -0.0082816524853765363 0.01654871994476944 0 -0.0047431952734321185 0.012478391746486238 0 -0.0061907361550327424 0.014082711699552752 0 -0.0032735388339188826 0.0091336119970726638 0 -0.00293628145917291 0.009947333027972528 0 -0.0034958060506165684 0.0098381843799926465 0 -0.0065916091973829711 0.014422233437876693 0 -0.0061609032180727366 0.014247351740277329 0 -0.0063804306956840558 0.014896438479400791 0 -0.0082816524853765363 0.01654871994476944 0 -0.0047431952734321185 0.012478391746486238 0 -0.0032735388339188826 0.0091336119970726638 0 -0.00293628145917291 0.009947333027972528 0 -0.0025907632530356465 0.009596547194852768 0 -0.0032735388339188826 0.0091336119970726638 0 -0.0025907632530356465 0.009596547194852768 0 -0.0024410142445811028 0.0092069600804652613 0 -0.0032735388339188826 0.0091336119970726638 0 -0.0023681927941902477 0.0087450180258890186 0 -0.0024410142445811028 0.0092069600804652613 0 -0.0047431952734321185 0.012478391746486238 0 -0.0027010655060013566 0.0098143085119643206 0 -0.0045621227012958799 0.011797121147512695 0 -0.0042323358566366829 0.010793657054512495 0 -0.0032743165109236781 0.011276047648553684 0 -0.0061918342513051046 0.014669317424628328 0 -0.0062860073517800917 0.014702454692457055 0 -0.0063318751696564285 0.014852909749257586 0 -0.0047431952734321185 0.012478391746486238 0 -0.0045335326430400178 0.011772899090975467 0 -0.003767899691297118 0.012073180785201976 0 -0.0040691228134493197 0.012987141532097275 0 -0.0053670349417036887 0.012352515448038679 0 -0.0045335326430400178 0.011772899090975467 0 -0.0057740086533518238 0.015968795475870975 0 -0.0045335326430400178 0.011772899090975467 0 -0.0027010655060013566 0.0098143085119643206 0 -0.003299014777002042 0.0074818891136282997 0 -0.0037145108468641173 0.0087509281611064787 0 -0.0022236678104861122 0.0082402900492128239 0 -0.0029354355984358518 0.0092306778553251541 0 -0.0045335326430400178 0.011772899090975467 0 -0.0082816524853765363 0.01654871994476944 0 -0.0079345946114022774 0.017789410208957752 0 -0.0061918342513051046 0.014669317424628328 0 -0.0063318751696564285 0.014852909749257586 0 -0.0061024719904443853 0.015001683083469676 0 -0.010273165104246917 0.019613578659202192 0 -0.010296520829892086 0.021382870556349146 0 -0.0097183350376934003 0.020115176592024234 0 -0.0061918342513051046 0.014669317424628328 0 -0.0061024719904443853 0.015001683083469676 0 -0.0060554381470087782 0.014998107852451136 0 -0.0071436293663750036 0.017036650237490916 0 -0.0072843193551412324 0.016956379732920294 0 -0.0071821984701037978 0.016943427852769918 0 -0.0077930707900383672 0.018366032515723267 0 -0.0057740086533518238 0.015968795475870975 0 -0.0057740086533518238 0.015968795475870975 0 -0.0079345946114022774 0.017789410208957752 0 -0.0079345946114022774 0.017789410208957752 0 -0.0090803019141583678 0.018457341943493417 0 -0.010180599972103044 0.021657222335494712 0 -0.010295949373883109 0.021384461644207323 0 -0.0099488842971425864 0.021337198543847954 0 -0.0077930707900383672 0.018366032515723267 0 -0.0079345946114022774 0.017789410208957752 0 -0.010180599972103044 0.021657222335494712 0 -0.0099488842971425864 0.021337198543847954 0 -0.009285045680264406 0.021532812121052881 0 -0.0099488842971425864 0.021337198543847954 0 -0.0094272720123521215 0.021138933851242814 0 -0.009285045680264406 0.021532812121052881 0 -0.010296520829892086 0.021382870556349146 0 -0.0099488842971425864 0.021337198543847954 0 -0.0095852916776249745 0.020727923321430204 0 -0.0099488842971425864 0.021337198543847954 0 -0.0094272720123521215 0.021138933851242814 0 -0.0095852916776249745 0.020727923321430204 0 -0.009285045680264406 0.021532812121052881 0 -0.0088862743635549097 0.020956426452770252 0 -0.0082931795917990207 0.021587424268284278 0 -0.0094272720123521215 0.021138933851242814 0 -0.0088862743635549097 0.020956426452770252 0 -0.0095852916776249745 0.020727923321430204 0 -0.0094272720123521215 0.021138933851242814 0 -0.009285045680264406 0.021532812121052881 0 -0.0088862743635549097 0.020956426452770252 0 -0.0088862743635549097 0.020956426452770252 0 -0.0095852916776249745 0.020727923321430204 0 -0.0090443806851339612 0.020139014685810096 0 -0.0095852916776249745 0.020727923321430204 0 -0.0097183350376934003 0.020115176592024234 0 -0.0090443806851339612 0.020139014685810096 0 -0.010296520829892086 0.021382870556349146 0 -0.0095852916776249745 0.020727923321430204 0 -0.0097183350376934003 0.020115176592024234 0 -0.0071045810638687423 0.021909812320075505 0 -0.0082931795917990207 0.021587424268284278 0 -0.0077496176042975177 0.020765016867363047 0 -0.0088862743635549097 0.020956426452770252 0 -0.0082931795917990207 0.021587424268284278 0 -0.0077496176042975177 0.020765016867363047 0 -0.0088862743635549097 0.020956426452770252 0 -0.0077496176042975177 0.020765016867363047 0 -0.0090443806851339612 0.020139014685810096 0 -0.0072545097274595563 0.019445708488490573 0 -0.0077496176042975177 0.020765016867363047 0 -0.0086544435190214295 0.019207766792570705 0 -0.0072545097274595563 0.019445708488490573 0 -0.0086544435190214295 0.019207766792570705 0 -0.0078100731450539218 0.018175862867651944 0 -0.0077496176042975177 0.020765016867363047 0 -0.0090443806851339612 0.020139014685810096 0 -0.0086946965773136795 0.019194366804868607 0 -0.0077833838484517651 0.020624498129657075 0 -0.0088854736029385529 0.019313173000535821 0 -0.0097183350376934003 0.020115176592024234 0 -0.0090443806851339612 0.020139014685810096 0 -0.0096107132873619865 0.019082186726126337 0 -0.010273165104246917 0.019613578659202192 0 -0.0097183350376934003 0.020115176592024234 0 -0.0096107132873619865 0.019082186726126337 0 -0.0090443806851339612 0.020139014685810096 0 -0.0086946965773136795 0.019194366804868607 0 -0.0096107132873619865 0.019082186726126337 0 -0.0086544435190214295 0.019207766792570705 0 -0.0095556736100428676 0.017731993826502115 0 -0.0078100731450539218 0.018175862867651944 0 -0.0088854736029385529 0.019313173000535821 0 -0.0059305248578257847 0.015614172478570432 0 -0.0096107132873619865 0.019082186726126337 0 -0.0096319320092133308 0.017671246387076827 0 -0.010250836967706596 0.018697264484766326 0 -0.0059305248578257847 0.015614172478570432 0 -0.0038844184664028588 0.015822192336324269 0 -0.0086946965773136795 0.019194366804868607 0 -0.0096107132873619865 0.019082186726126337 0 -0.0096319320092133308 0.017671246387076827 0 -0.00024162222749989052 0.012421345999507068 0 6.8165576353321071e-06 0.013527861706962069 0 3.1596033645991673e-05 0.013212115450652073 0 -0.00010406748032609696 0.014063316585481701 0 6.8165576353321071e-06 0.013527861706962069 0 3.1596033645991673e-05 0.013212115450652073 0 -5.6978142357279822e-08 0.013979140860131753 0 3.8682023380044441e-07 0.012179081005468533 0 3.1596033645991673e-05 0.013212115450652073 0 -0.00024162222749989052 0.012421345999507068 0 3.8682023380044441e-07 0.012179081005468533 0 3.1596033645991673e-05 0.013212115450652073 0 -0.00024162222749989052 0.012421345999507068 0 3.8682023380044441e-07 0.012179081005468533 0 -1.4603980454874275e-06 0.010367720823226291 0 -0.0059305248578257847 0.015614172478570432 0 -0.0026618697751516068 0.011162513171618219 0 -0.0041327404343036427 0.013838565031253511 0 -0.0048221578411565165 0.012749523949316293 0 -0.0051034198685660044 0.013587889339467932 0 -0.0026618697751516068 0.011162513171618219 0 -0.0054202908063432928 0.013536874454850745 0 5.2485962280778735e-08 0.010362584868119824 0 -5.1597335280963021e-05 0.0096243895630594278 0 5.6641225068842831e-05 0.0098078398386452787 0 -0.0059305248578257847 0.015614172478570432 0 -0.0054202908063432928 0.013536874454850745 0 -0.0096319320092133308 0.017671246387076827 0 -0.010980538138924066 0.017318572095983906 0 -0.010622425916090453 0.018168903956485818 0 -0.0054202908063432928 0.013536874454850745 0 -0.0061907361550327424 0.014082711699552752 0 -0.010980538138924066 0.017318572095983906 0 -0.010622425916090453 0.018168903956485818 0 -0.011395408068249673 0.018551596333752092 0 -0.010622425916090453 0.018168903956485818 0 -0.010824629073761451 0.018722264133648334 0 -0.011395408068249673 0.018551596333752092 0 -0.0096319320092133308 0.017671246387076827 0 -0.010622425916090453 0.018168903956485818 0 -0.010250836967706596 0.018697264484766326 0 -0.010622425916090453 0.018168903956485818 0 -0.010824629073761451 0.018722264133648334 0 -0.010250836967706596 0.018697264484766326 0 -0.00293628145917291 0.009947333027972528 0 -0.0034958060506165684 0.0098381843799926465 0 -0.0030106306017618832 0.010869686843643615 0 -0.0041637806584730666 0.012564150184805757 0 -0.0043226281063884851 0.013032271159859493 0 -0.0045528589763629999 0.012457371565646044 0 -0.0061907361550327424 0.014082711699552752 0 -0.0017925447071735422 0.010451943948155979 0 -0.00293628145917291 0.009947333027972528 0 -0.0025145991587817232 0.010246579808018725 0 -0.0025907632530356465 0.009596547194852768 0 -0.00293628145917291 0.009947333027972528 0 -0.0030106306017618832 0.010869686843643615 0 -0.0025145991587817232 0.010246579808018725 0 5.2485962280778735e-08 0.010362584868119824 0 5.6641225068842831e-05 0.0098078398386452787 0 -1.2497588438656487e-07 0.0088362575143317839 0 -0.0017925447071735422 0.010451943948155979 0 -0.0012132301148696345 0.0085032339255050327 0 -5.1597335280963021e-05 0.0096243895630594278 0 6.8626550416548905e-06 0.0096704501165473123 0 5.6641225068842831e-05 0.0098078398386452787 0 -0.0054202908063432928 0.013536874454850745 0 -0.0017925447071735422 0.010451943948155979 0 -0.0017925447071735422 0.010451943948155979 0 -8.9794982102946457e-07 0.0088342024840974091 0 -2.5982207794162857e-05 0.0086372840847474749 0 1.8133662085740818e-08 0.0088324184665229209 0 3.0453484138972952e-05 0.0087017927545999518 0 6.8626550416548905e-06 0.0096704501165473123 0 5.6641225068842831e-05 0.0098078398386452787 0 -1.2497588438656487e-07 0.0088362575143317839 0 1.8133662085740818e-08 0.0088324184665229209 0 -3.8069450139254605e-08 0.0085139189018980672 0 3.0453484138972952e-05 0.0087017927545999518 0 -3.8069450139254605e-08 0.0085139189018980672 0 3.0453484138972952e-05 0.0087017927545999518 0 1.3840585641004063e-06 0.0087316823235985223 0 -6.6619515967446882e-07 0.0085109970848834798 0 -6.5952199808587164e-05 0.008037063684132666 0 -0.0001604797581580744 0.0069817333609459393 0 -9.3904903689102491e-07 0.0085121069451526525 0 -0.0012132301148696345 0.0085032339255050327 0 -2.5982207794162857e-05 0.0086372840847474749 0 3.0453484138972952e-05 0.0087017927545999518 0 1.3840585641004063e-06 0.0087316823235985223 0 -0.0030106306017618832 0.010869686843643615 0 -0.0022744331099859207 0.011039155418371705 0 -0.0025145991587817232 0.010246579808018725 0 -0.0012132301148696345 0.0085032339255050327 0 -0.00017794695192102419 0.0072546416464993671 0 -6.6619515967446882e-07 0.0085109970848834798 0 -0.0001604797581580744 0.0069817333609459393 0 -4.1247349209992744e-07 0.006736867741339231 0 -0.0001604797581580744 0.0069817333609459393 0 -4.1247349209992744e-07 0.006736867741339231 0 -7.3899455178713709e-05 0.0060198684146455898 0 -0.0001604797581580744 0.0069817333609459393 0 -7.3899455178713709e-05 0.0060198684146455898 0 -0.00052414146705351641 0.0058045681058057561 0 -0.0016652445752551779 0.0064299085428678278 0 -0.0001604797581580744 0.0069817333609459393 0 -0.00052414146705351641 0.0058045681058057561 0 -0.00052414146705351641 0.0058045681058057561 0 -0.00014428200311040419 0.0051498642427065264 0 -0.00096010292965696394 0.0048084006909326219 0 -0.00014428200311040419 0.0051498642427065264 0 -0.00096010292965696394 0.0048084006909326219 0 -0.00037643960856315604 0.0045139424727777839 0 -7.3899455178713709e-05 0.0060198684146455898 0 -0.00052414146705351641 0.0058045681058057561 0 -0.00014428200311040419 0.0051498642427065264 0 -0.0012132301148696345 0.0085032339255050327 0 -0.0014706888692736743 0.0073300753501159537 0 -0.0016652445752551779 0.0064299085428678278 0 -0.00052414146705351641 0.0058045681058057561 0 -0.00096010292965696394 0.0048084006909326219 0 -0.0022744331099859207 0.011039155418371705 0 -0.0018325166052250591 0.0097104767265878324 0 -0.0025145991587817232 0.010246579808018725 0 -0.0018325166052250591 0.0097104767265878324 0 -0.0025145991587817232 0.010246579808018725 0 -0.0025907632530356465 0.009596547194852768 0 6.6454294063124597e-07 0.0049608500988673147 0 0.00010269886001004731 0.0053932256191409752 0 0.00018000434275459239 0.0045552891668388046 0 -4.1247349209992744e-07 0.006736867741339231 0 6.6454294063124597e-07 0.0049608500988673147 0 0.00010269886001004731 0.0053932256191409752 0 -4.1247349209992744e-07 0.006736867741339231 0 -7.3899455178713709e-05 0.0060198684146455898 0 0.00010269886001004731 0.0053932256191409752 0 -7.3899455178713709e-05 0.0060198684146455898 0 -0.00014428200311040419 0.0051498642427065264 0 0.00010269886001004731 0.0053932256191409752 0 -0.00014428200311040419 0.0051498642427065264 0 9.1603009123234066e-05 0.0048171470864370198 0 -2.1251202768029659e-05 0.0045446548388379986 0 -0.00014428200311040419 0.0051498642427065264 0 0.00010269886001004731 0.0053932256191409752 0 9.1603009123234066e-05 0.0048171470864370198 0 0.00010269886001004731 0.0053932256191409752 0 9.1603009123234066e-05 0.0048171470864370198 0 0.00018000434275459239 0.0045552891668388046 0 9.1603009123234066e-05 0.0048171470864370198 0 0.00011185211907191567 0.0043929937890663292 0 -2.1251202768029659e-05 0.0045446548388379986 0 9.1603009123234066e-05 0.0048171470864370198 0 0.00018000434275459239 0.0045552891668388046 0 0.00011185211907191567 0.0043929937890663292 0 0.00018000434275459239 0.0045552891668388046 0 0.00011185211907191567 0.0043929937890663292 0 0.00011769678037388105 0.0042474790874167667 0 0.00011185211907191567 0.0043929937890663292 0 -4.7770093532480601e-06 0.0041789643665612079 0 5.9381654257257772e-05 0.0041421269992139853 0 0.00011185211907191567 0.0043929937890663292 0 -2.1251202768029659e-05 0.0045446548388379986 0 -4.7770093532480601e-06 0.0041789643665612079 0 -2.1251202768029659e-05 0.0045446548388379986 0 -0.00018840175702477096 0.0042469920851338052 0 -4.7770093532480601e-06 0.0041789643665612079 0 -0.00014428200311040419 0.0051498642427065264 0 -2.1251202768029659e-05 0.0045446548388379986 0 -0.00037643960856315604 0.0045139424727777839 0 -2.1251202768029659e-05 0.0045446548388379986 0 -0.00018840175702477096 0.0042469920851338052 0 -0.00037643960856315604 0.0045139424727777839 0 -0.00040379258359000416 0.0039192544598677641 0 -0.0011158352457769317 0.0063050964016226653 0 -0.00018840175702477096 0.0042469920851338052 0 -4.3317128965718569e-05 0.0039965615530563109 0 -0.00058357531084025308 0.0041016169204102261 0 -0.00018840175702477096 0.0042469920851338052 0 -4.3317128965718569e-05 0.0039965615530563109 0 -4.7770093532480601e-06 0.0041789643665612079 0 -4.3317128965718569e-05 0.0039965615530563109 0 -4.7770093532480601e-06 0.0041789643665612079 0 -3.441254580723158e-05 0.0039996276491516963 0 -4.7770093532480601e-06 0.0041789643665612079 0 9.3505076704845695e-06 0.0040510518939431209 0 5.9381654257257772e-05 0.0041421269992139853 0 -4.7770093532480601e-06 0.0041789643665612079 0 -3.441254580723158e-05 0.0039996276491516963 0 9.3505076704845695e-06 0.0040510518939431209 0 -0.0018325166052250591 0.0097104767265878324 0 -0.0021370238193286059 0.0088534691409646975 0 -0.0013663976382869345 0.0083204723516704382 0 -0.0026306118682372318 0.0096559638076046412 0 -0.0027010655060013566 0.0098143085119643206 0 -0.0021370238193286059 0.0088534691409646975 0 -0.0023681927941902477 0.0087450180258890186 0 -0.0024410142445811028 0.0092069600804652613 0 -0.0018325166052250591 0.0097104767265878324 0 -0.0025907632530356465 0.009596547194852768 0 -0.0024410142445811028 0.0092069600804652613 0 -0.0018325166052250591 0.0097104767265878324 0 -0.0021370238193286059 0.0088534691409646975 0 -0.0024410142445811028 0.0092069600804652613 0 -0.0014706888692736743 0.0073300753501159537 0 -0.0011158352457769317 0.0063050964016226653 0 -0.00096010292965696394 0.0048084006909326219 0 -0.00037643960856315604 0.0045139424727777839 0 -0.00058357531084025308 0.0041016169204102261 0 -0.00018840175702477096 0.0042469920851338052 0 -0.00037643960856315604 0.0045139424727777839 0 -0.00058357531084025308 0.0041016169204102261 0 -0.0010107995984145815 0.0086469219356040961 0 -0.0022236678104861122 0.0082402900492128239 0 -0.00048207362385697505 0.0070182219829326492 0 -0.00087987316541720748 0.0043865435195102383 0 -0.0016465359217813979 0.0047214572635475337 0 -0.0014848348618703875 0.004204867381933426 0 -0.0011158352457769317 0.0063050964016226653 0 -0.00089146929685106878 0.0051823801042541308 0 -0.0021370238193286059 0.0088534691409646975 0 -0.0023722668018200397 0.0087351524192454573 0 -0.0013663976382869345 0.0083204723516704382 0 -0.002611796069713253 0.0093033705178028926 0 -0.0010107995984145815 0.0086469219356040961 0 -0.0022236678104861122 0.0082402900492128239 0 -0.0027010655060013566 0.0098143085119643206 0 -0.0011158352457769317 0.0063050964016226653 0 -0.0037145108468641173 0.0087509281611064787 0 -0.002611796069713253 0.0093033705178028926 0 -0.0022236678104861122 0.0082402900492128239 0 -0.0029354355984358518 0.0092306778553251541 0 -0.00089146929685106878 0.0051823801042541308 0 -0.0021851438298528939 0.0045387439011430695 0 -0.0015996163800006782 0.0040768248944417782 0 -0.0013553645021205931 0.0043177760550312076 0 -0.003299014777002042 0.0074818891136282997 0 -0.0022236678104861122 0.0082402900492128239 0 -0.00048207362385697505 0.0070182219829326492 0 -0.0029354355984358518 0.0092306778553251541 0 -0.0021264391181738665 0.0086463893295862081 0 -0.0021851438298528939 0.0045387439011430695 0 -0.0019587954047165222 0.0038774725318142305 0 -0.0015996163800006782 0.0040768248944417782 0 -0.0019587954047165222 0.0038774725318142305 0 -0.0015732112013548073 0.0036710314528224687 0 -0.0015996163800006782 0.0040768248944417782 0 -0.0013243259208954158 0.0036366216532523793 0 -0.0014087752432714689 0.0038620433912245683 0 -0.0012126653881565316 0.0038195543421833096 0 -0.0013243259208954158 0.0036366216532523793 0 -0.0015732112013548073 0.0036710314528224687 0 -0.0014087752432714689 0.0038620433912245683 0 -0.0014087752432714689 0.0038620433912245683 0 -0.001338661405173347 0.0040450922457298238 0 -0.0015996163800006782 0.0040768248944417782 0 -0.0015732112013548073 0.0036710314528224687 0 -0.0014087752432714689 0.0038620433912245683 0 -0.0015996163800006782 0.0040768248944417782 0 -0.0012126653881565316 0.0038195543421833096 0 -0.001338661405173347 0.0040450922457298238 0 -0.0011444261012160213 0.0040285545869972921 0 -0.0014087752432714689 0.0038620433912245683 0 -0.0012126653881565316 0.0038195543421833096 0 -0.001338661405173347 0.0040450922457298238 0 -0.001338661405173347 0.0040450922457298238 0 -0.0013553645021205931 0.0043177760550312076 0 -0.0011444261012160213 0.0040285545869972921 0 -0.001338661405173347 0.0040450922457298238 0 -0.0015996163800006782 0.0040768248944417782 0 -0.0013553645021205931 0.0043177760550312076 0 -0.00087987316541720748 0.0043865435195102383 0 -0.0014848348618703875 0.004204867381933426 0 -0.0010145767149320527 0.0041175996867845004 0 -0.00089146929685106878 0.0051823801042541308 0 -0.0010340939473291765 0.0041902899930276079 0 -0.00095533342641678312 0.004167646256049211 0 -0.0011444261012160213 0.0040285545869972921 0 -0.00087586526193362256 0.0038168790538651801 0 -0.0013553645021205931 0.0043177760550312076 0 -0.00095533342641678312 0.004167646256049211 0 -0.0011444261012160213 0.0040285545869972921 0 -4.3317128965718569e-05 0.0039965615530563109 0 -3.441254580723158e-05 0.0039996276491516963 0 -0.00014025677591113919 0.0039331444770317877 0 -0.00087987316541720748 0.0043865435195102383 0 -0.00055717085867242055 0.0040036764421308973 0 -0.00014025677591113919 0.0039331444770317877 0 -0.00040379258359000416 0.0039192544598677641 0 -0.00019468636698735154 0.0040367579138274627 0 -0.00087987316541720748 0.0043865435195102383 0 -0.0010145767149320527 0.0041175996867845004 0 -0.00055717085867242055 0.0040036764421308973 0 -0.0010340939473291765 0.0041902899930276079 0 -0.00060287211259428639 0.0040427406322554567 0 -0.00095533342641678312 0.004167646256049211 0 -0.00055717085867242055 0.0040036764421308973 0 -0.00087586526193362256 0.0038168790538651801 0 -0.00055717085867242055 0.0040036764421308973 0 -0.00052944378312666919 0.0037812227559519025 0 -0.00014025677591113919 0.0039331444770317877 0 -0.00052944378312666919 0.0037812227559519025 0 -0.00071590389739617641 0.0035608435985465944 0 -0.00033421173305411324 0.0036127514664904461 0 -0.00055717085867242055 0.0040036764421308973 0 -0.00052944378312666919 0.0037812227559519025 0 -0.00087586526193362256 0.0038168790538651801 0 -0.00052944378312666919 0.0037812227559519025 0 -0.00071590389739617641 0.0035608435985465944 0 -0.00087586526193362256 0.0038168790538651801 0 -0.0012126653881565316 0.0038195543421833096 0 -0.0011444261012160213 0.0040285545869972921 0 -0.00087586526193362256 0.0038168790538651801 0 -0.00071590389739617641 0.0035608435985465944 0 -0.00087586526193362256 0.0038168790538651801 0 -0.001010522366288238 0.0035279103437840134 0 -0.0013243259208954158 0.0036366216532523793 0 -0.0012126653881565316 0.0038195543421833096 0 -0.001010522366288238 0.0035279103437840134 0 -0.0012126653881565316 0.0038195543421833096 0 -0.00087586526193362256 0.0038168790538651801 0 -0.001010522366288238 0.0035279103437840134 0 -0.001010522366288238 0.0035279103437840134 0 -0.00099366974130536494 0.0031549022018447811 0 -0.0013081316608031756 0.0034019067209581891 0 -0.001010522366288238 0.0035279103437840134 0 -0.00064422351606898732 0.0032915828814634777 0 -0.00099366974130536494 0.0031549022018447811 0 -0.00071590389739617641 0.0035608435985465944 0 -0.00064422351606898732 0.0032915828814634777 0 -0.00033421173305411324 0.0036127514664904461 0 -0.00071590389739617641 0.0035608435985465944 0 -0.001010522366288238 0.0035279103437840134 0 -0.00064422351606898732 0.0032915828814634777 0 -0.00064422351606898732 0.0032915828814634777 0 -0.00065714918147609803 0.0028829886319861908 0 -0.00099366974130536494 0.0031549022018447811 0 -0.00064422351606898732 0.0032915828814634777 0 -0.00065714918147609803 0.0028829886319861908 0 -0.00040971952914640829 0.003061533638381856 0 -0.0010297678613254524 0.0028099096457629689 0 -0.00099366974130536494 0.0031549022018447811 0 -0.0012796554801479682 0.0030839356306565291 0 -0.0010297678613254524 0.0028099096457629689 0 -0.00065714918147609803 0.0028829886319861908 0 -0.00099366974130536494 0.0031549022018447811 0 -0.00099366974130536494 0.0031549022018447811 0 -0.0012796554801479682 0.0030839356306565291 0 -0.0013081316608031756 0.0034019067209581891 0 -0.0014305777924095975 0.0027299797786050311 0 -0.0012796554801479682 0.0030839356306565291 0 -0.0016297555944850544 0.0033377708998189098 0 -0.0012660694897370793 0.0079256567918861848 0 -0.0013565699530444721 0.0078557610679894519 0 -0.001134038739172172 0.013038105786400717 0 -0.00062835579310483727 0.012597851598540996 0 -0.00086683032453322892 0.011995492109356477 0 -0.0019352157560030014 0.013932922406811914 0 -0.0013565699530444721 0.0078557610679894519 0 -0.0001032703149334158 0.012257818717113515 0 -0.00062835579310483727 0.012597851598540996 0 -0.00086683032453322892 0.011995492109356477 0 -0.0021264391181738665 0.0086463893295862081 0 -0.0013565699530444721 0.0078557610679894519 0 -0.0019587954047165222 0.0038774725318142305 0 -0.0015732112013548073 0.0036710314528224687 0 -0.0017372665150293769 0.0032985126280141914 0 -0.0025788414435997734 0.01286322409952138 0 -0.0022853697705866568 0.01337171930534045 0 -0.0019814790004865743 0.012522668433015386 0 -0.0015732112013548073 0.0036710314528224687 0 -0.0017372665150293769 0.0032985126280141914 0 -0.0013081316608031756 0.0034019067209581891 0 -0.0012796554801479682 0.0030839356306565291 0 -0.0016297555944850544 0.0033377708998189098 0 -0.0013081316608031756 0.0034019067209581891 0 -0.0013243259208954158 0.0036366216532523793 0 -0.0015732112013548073 0.0036710314528224687 0 -0.0013081316608031756 0.0034019067209581891 0 -0.0013243259208954158 0.0036366216532523793 0 -0.001010522366288238 0.0035279103437840134 0 -0.0013081316608031756 0.0034019067209581891 0 -0.0013565699530444721 0.0078557610679894519 0 -0.0018951278541041985 0.0034602629401447459 0 0.00025609915250971441 0.003197296401076698 0 6.9744328838008257e-05 0.0036413014997371319 0 0.00021869232012305988 0.0036448936138528832 0 0.00025609915250971441 0.003197296401076698 0 -9.1908077293235832e-05 0.003457892465791259 0 6.9744328838008257e-05 0.0036413014997371319 0 9.0323987696508967e-05 0.002796507585146369 0 6.7348249620381851e-06 0.0031020417819220716 0 -1.4747512507238057e-05 0.0023540405154834207 0 -0.0002036795910037578 0.0025539264283437908 0 7.9488582348299179e-06 0.0023518674504039807 0 -1.4747512507238057e-05 0.0023540405154834207 0 -4.5811590769269312e-05 0.0023874120137190335 0 -0.0002036795910037578 0.0025539264283437908 0 3.6776098869084728e-05 0.0024581755536581215 0 -1.4747512507238057e-05 0.0023540405154834207 0 -1.174309312742415e-05 0.0023979725038771392 0 3.6776098869084728e-05 0.0024581755536581215 0 -1.4747512507238057e-05 0.0023540405154834207 0 -4.5811590769269312e-05 0.0023874120137190335 0 6.2734157830625386e-05 0.0025456346565111082 0 0.00025609915250971441 0.003197296401076698 0 -0.00012160057443926533 0.0030942995726898244 0 6.5751082429072046e-05 0.0025660909813444528 0 9.0323987696508967e-05 0.002796507585146369 0 3.6776098869084728e-05 0.0024581755536581215 0 6.2734157830625386e-05 0.0025456346565111082 0 -4.5811590769269312e-05 0.0023874120137190335 0 -0.00028261818593747781 0.0025996271505374074 0 -0.00012160057443926533 0.0030942995726898244 0 -0.00040971952914640829 0.003061533638381856 0 -0.00012160057443926533 0.0030942995726898244 0 -0.00040971952914640829 0.003061533638381856 0 -0.0003103840449188902 0.0033237598260026269 0 -0.0003103840449188902 0.0033237598260026269 0 -9.1908077293235832e-05 0.003457892465791259 0 -0.00033421173305411324 0.0036127514664904461 0 -0.00064422351606898732 0.0032915828814634777 0 -0.00040971952914640829 0.003061533638381856 0 -0.0003103840449188902 0.0033237598260026269 0 -0.00064422351606898732 0.0032915828814634777 0 -0.0003103840449188902 0.0033237598260026269 0 -0.00033421173305411324 0.0036127514664904461 0 -0.00012160057443926533 0.0030942995726898244 0 -0.0003103840449188902 0.0033237598260026269 0 -9.1908077293235832e-05 0.003457892465791259 0 0.00025609915250971441 0.003197296401076698 0 -0.00012160057443926533 0.0030942995726898244 0 -9.1908077293235832e-05 0.003457892465791259 0 -9.1908077293235832e-05 0.003457892465791259 0 -9.759456231951448e-05 0.0037407126878757193 0 6.9744328838008257e-05 0.0036413014997371319 0 -9.759456231951448e-05 0.0037407126878757193 0 2.4641497258044958e-05 0.003774362470342644 0 6.9744328838008257e-05 0.0036413014997371319 0 -9.759456231951448e-05 0.0037407126878757193 0 -0.00033421173305411324 0.0036127514664904461 0 -0.00014025677591113919 0.0039331444770317877 0 -0.00052944378312666919 0.0037812227559519025 0 -0.00033421173305411324 0.0036127514664904461 0 -0.00014025677591113919 0.0039331444770317877 0 -9.1908077293235832e-05 0.003457892465791259 0 -9.759456231951448e-05 0.0037407126878757193 0 -0.00033421173305411324 0.0036127514664904461 0 -9.759456231951448e-05 0.0037407126878757193 0 -0.00014025677591113919 0.0039331444770317877 0 -1.2446067047785339e-05 0.0038829016656303345 0 -0.00014025677591113919 0.0039331444770317877 0 -1.2446067047785339e-05 0.0038829016656303345 0 -4.0826343885986038e-05 0.0039615992756623329 0 -3.441254580723158e-05 0.0039996276491516963 0 -0.00014025677591113919 0.0039331444770317877 0 -4.0826343885986038e-05 0.0039615992756623329 0 -9.759456231951448e-05 0.0037407126878757193 0 2.4641497258044958e-05 0.003774362470342644 0 -1.2446067047785339e-05 0.0038829016656303345 0 2.4641497258044958e-05 0.003774362470342644 0 -1.2446067047785339e-05 0.0038829016656303345 0 5.8839410457627587e-05 0.0037835190467965531 0 5.8839410457627587e-05 0.0037835190467965531 0 8.8934746699903772e-05 0.0037584636543198133 0 7.4035028766904323e-05 0.0036765826440963876 0 2.4641497258044958e-05 0.003774362470342644 0 5.8839410457627587e-05 0.0037835190467965531 0 8.8934746699903772e-05 0.0037584636543198133 0 8.8934746699903772e-05 0.0037584636543198133 0 -7.3804579316153066e-06 0.0037584219770188088 0 7.4035028766904323e-05 0.0036765826440963876 0 2.4641497258044958e-05 0.003774362470342644 0 8.8934746699903772e-05 0.0037584636543198133 0 6.9744328838008257e-05 0.0036413014997371319 0 8.8934746699903772e-05 0.0037584636543198133 0 6.9744328838008257e-05 0.0036413014997371319 0 0.00021869232012305988 0.0036448936138528832 0 6.7348249620381851e-06 0.0031020417819220716 0 -6.5051857297166739e-05 0.0033591438816979197 0 8.8934746699903772e-05 0.0037584636543198133 0 0.00021869232012305988 0.0036448936138528832 0 -7.3804579316153066e-06 0.0037584219770188088 0 -0.0002036795910037578 0.0025539264283437908 0 -0.00017108652266091526 0.003039972021223118 0 -5.6157378681533333e-05 0.0029049555636976717 0 -6.5051857297166739e-05 0.0033591438816979197 0 -9.2645270018266811e-05 0.0030552442650960787 0 -7.3804579316153066e-06 0.0037584219770188088 0 2.2551454467408718e-05 0.0034459491868572014 0 -7.244774496427578e-05 0.0030091646322278104 0 -0.00017108652266091526 0.003039972021223118 0 -7.244774496427578e-05 0.0030091646322278104 0 -0.0001455572149619075 0.0029895576038568988 0 -7.3804579316153066e-06 0.0037584219770188088 0 2.2551454467408718e-05 0.0034459491868572014 0 7.4035028766904323e-05 0.0036765826440963876 0 5.8839410457627587e-05 0.0037835190467965531 0 7.4035028766904323e-05 0.0036765826440963876 0 3.8372711264702142e-05 0.0038261616208850689 0 7.4035028766904323e-05 0.0036765826440963876 0 2.5727292925261026e-05 0.0037268965284476372 0 3.8372711264702142e-05 0.0038261616208850689 0 2.2551454467408718e-05 0.0034459491868572014 0 7.4035028766904323e-05 0.0036765826440963876 0 1.5925382523938649e-05 0.0035238815895296326 0 7.4035028766904323e-05 0.0036765826440963876 0 1.5925382523938649e-05 0.0035238815895296326 0 2.5727292925261026e-05 0.0037268965284476372 0 1.5925382523938649e-05 0.0035238815895296326 0 2.5727292925261026e-05 0.0037268965284476372 0 -2.1446008529237457e-05 0.0036491305033513216 0 -2.1446008529237457e-05 0.0036491305033513216 0 -1.3368220681685397e-05 0.0038368101423132579 0 -8.061922208035089e-05 0.0036902533212572531 0 2.5727292925261026e-05 0.0037268965284476372 0 -2.1446008529237457e-05 0.0036491305033513216 0 -1.3368220681685397e-05 0.0038368101423132579 0 -2.1446008529237457e-05 0.0036491305033513216 0 -2.2646241465905145e-05 0.0034760122978771597 0 -8.061922208035089e-05 0.0036902533212572531 0 1.5925382523938649e-05 0.0035238815895296326 0 -2.1446008529237457e-05 0.0036491305033513216 0 -2.2646241465905145e-05 0.0034760122978771597 0 -7.244774496427578e-05 0.0030091646322278104 0 8.3031465718026567e-06 0.0035443917517955286 0 -0.00012305728725174822 0.0026312518944560576 0 -2.2646241465905145e-05 0.0034760122978771597 0 -7.244774496427578e-05 0.0030091646322278104 0 8.3031465718026567e-06 0.0035443917517955286 0 2.2551454467408718e-05 0.0034459491868572014 0 -7.244774496427578e-05 0.0030091646322278104 0 -1.3342997789857858e-05 0.0033211602083128545 0 -2.2646241465905145e-05 0.0034760122978771597 0 -7.244774496427578e-05 0.0030091646322278104 0 -1.3342997789857858e-05 0.0033211602083128545 0 1.5925382523938649e-05 0.0035238815895296326 0 -2.2646241465905145e-05 0.0034760122978771597 0 -1.3342997789857858e-05 0.0033211602083128545 0 2.2551454467408718e-05 0.0034459491868572014 0 1.5925382523938649e-05 0.0035238815895296326 0 -1.3342997789857858e-05 0.0033211602083128545 0 9.3505076704845695e-06 0.0040510518939431209 0 2.7825823636027333e-05 0.003965084673886201 0 5.9381654257257772e-05 0.0041421269992139853 0 9.3505076704845695e-06 0.0040510518939431209 0 -4.0826343885986038e-05 0.0039615992756623329 0 2.7825823636027333e-05 0.003965084673886201 0 -3.441254580723158e-05 0.0039996276491516963 0 9.3505076704845695e-06 0.0040510518939431209 0 -4.0826343885986038e-05 0.0039615992756623329 0 -1.2446067047785339e-05 0.0038829016656303345 0 -4.0826343885986038e-05 0.0039615992756623329 0 2.7825823636027333e-05 0.003965084673886201 0 2.7825823636027333e-05 0.003965084673886201 0 3.8372711264702142e-05 0.0038261616208850689 0 3.0698836225462088e-05 0.0038690595383754304 0 -1.2446067047785339e-05 0.0038829016656303345 0 2.7825823636027333e-05 0.003965084673886201 0 3.8372711264702142e-05 0.0038261616208850689 0 -1.2446067047785339e-05 0.0038829016656303345 0 5.8839410457627587e-05 0.0037835190467965531 0 3.8372711264702142e-05 0.0038261616208850689 0 2.5727292925261026e-05 0.0037268965284476372 0 3.8372711264702142e-05 0.0038261616208850689 0 3.0698836225462088e-05 0.0038690595383754304 0 2.5727292925261026e-05 0.0037268965284476372 0 3.0698836225462088e-05 0.0038690595383754304 0 -1.3368220681685397e-05 0.0038368101423132579 0 -1.3368220681685397e-05 0.0038368101423132579 0 3.6092298129045877e-05 0.0039764013941348013 0 3.379005022984564e-05 0.0040318395836805862 0 3.0698836225462088e-05 0.0038690595383754304 0 -1.3368220681685397e-05 0.0038368101423132579 0 3.6092298129045877e-05 0.0039764013941348013 0 2.7825823636027333e-05 0.003965084673886201 0 3.0698836225462088e-05 0.0038690595383754304 0 3.6092298129045877e-05 0.0039764013941348013 0 2.7825823636027333e-05 0.003965084673886201 0 3.6092298129045877e-05 0.0039764013941348013 0 8.2371572958565793e-05 0.0041395770224469447 0 3.6092298129045877e-05 0.0039764013941348013 0 8.2371572958565793e-05 0.0041395770224469447 0 3.379005022984564e-05 0.0040318395836805862 0 0.00011185211907191567 0.0043929937890663292 0 8.2371572958565793e-05 0.0041395770224469447 0 0.00011769678037388105 0.0042474790874167667 0 0.00011185211907191567 0.0043929937890663292 0 8.2371572958565793e-05 0.0041395770224469447 0 5.9381654257257772e-05 0.0041421269992139853 0 2.7825823636027333e-05 0.003965084673886201 0 8.2371572958565793e-05 0.0041395770224469447 0 5.9381654257257772e-05 0.0041421269992139853 0 0.00018000434275459239 0.0045552891668388046 0 0.00011769678037388105 0.0042474790874167667 0 2.2521477019280928e-05 0.0039876381274494372 0 8.2371572958565793e-05 0.0041395770224469447 0 0.00011769678037388105 0.0042474790874167667 0 3.379005022984564e-05 0.0040318395836805862 0 0.00011769678037388105 0.0042474790874167667 0 2.2521477019280928e-05 0.0039876381274494372 0 3.379005022984564e-05 0.0040318395836805862 0 2.2521477019280928e-05 0.0039876381274494372 0 -5.7220427981482764e-05 0.0038722413154255396 0 -0.00019991967497760764 0.0037553530736613972 0 2.2521477019280928e-05 0.0039876381274494372 0 3.379005022984564e-05 0.0040318395836805862 0 -5.7220427981482764e-05 0.0038722413154255396 0 -1.3368220681685397e-05 0.0038368101423132579 0 3.379005022984564e-05 0.0040318395836805862 0 -5.7220427981482764e-05 0.0038722413154255396 0 -1.3368220681685397e-05 0.0038368101423132579 0 -5.7220427981482764e-05 0.0038722413154255396 0 -8.061922208035089e-05 0.0036902533212572531 0 1.7129814973986307e-07 0.00318613924179963 0 2.7890103490956607e-05 0.0025765414704831745 0 -6.1777411385013854e-07 0.0031850753915329639 0 2.2759080735530017e-05 0.0013798632932367134 0 3.7121880948458922e-07 0.0017325883858844747 0 2.2521477019280928e-05 0.0039876381274494372 0 -9.9302294541446005e-08 0.0031898807527404151 0 -0.00019991967497760764 0.0037553530736613972 0 6.6454294063124597e-07 0.0049608500988673147 0 0.00018000434275459239 0.0045552891668388046 0 -9.9302294541446005e-08 0.0031898807527404151 0 0.00018000434275459239 0.0045552891668388046 0 2.2521477019280928e-05 0.0039876381274494372 0 -9.9302294541446005e-08 0.0031898807527404151 0 0.00048330710871748281 0.0012259943445792798 0 0.00027881276489316814 0.0010524307882622732 0 7.0371427908427422e-05 0.00098403199207209593 0 0.0001482286229990342 0.0024393746509589532 0 -0.00016380771608260619 0.0026668682501281992 0 8.3031465718026567e-06 0.0035443917517955286 0 -8.061922208035089e-05 0.0036902533212572531 0 -0.00019991967497760764 0.0037553530736613972 0 -2.2646241465905145e-05 0.0034760122978771597 0 8.3031465718026567e-06 0.0035443917517955286 0 -8.061922208035089e-05 0.0036902533212572531 0 0.00048330710871748281 0.0012259943445792798 0 2.2759080735530017e-05 0.0013798632932367134 0 0.00027881276489316814 0.0010524307882622732 0 0.0001482286229990342 0.0024393746509589532 0 2.7890103490956607e-05 0.0025765414704831745 0 -5.7220427981482764e-05 0.0038722413154255396 0 -8.061922208035089e-05 0.0036902533212572531 0 -0.00019991967497760764 0.0037553530736613972 0 2.2759080735530017e-05 0.0013798632932367134 0 3.7121880948458922e-07 0.0017325883858844747 0 0.00027881276489316814 0.0010524307882622732 0 1.2698956713654454e-06 0.00027760991027451815 0 0.00027881276489316814 0.0010524307882622732 0 7.0371427908427422e-05 0.00098403199207209593 0 3.7121880948458922e-07 0.0017325883858844747 0 1.2698956713654454e-06 0.00027760991027451815 0 0.00027881276489316814 0.0010524307882622732 0 1.2698956713654454e-06 0.00027760991027451815 0 7.0371427908427422e-05 0.00098403199207209593 0 -2.5000189773256879e-06 -0.0011728756230282259 0 7.0371427908427422e-05 0.00098403199207209593 0 -0.00099068855696568775 0.00084797083635760272 0 -2.5000189773256879e-06 -0.0011728756230282259 0 0.00048330710871748281 0.0012259943445792798 0 7.0371427908427422e-05 0.00098403199207209593 0 -0.00012305728725174822 0.0026312518944560576 0 7.0371427908427422e-05 0.00098403199207209593 0 -0.00056073287471616591 0.0017849998431019244 0 -0.00012305728725174822 0.0026312518944560576 0 7.0371427908427422e-05 0.00098403199207209593 0 -0.00056073287471616591 0.0017849998431019244 0 -0.00099068855696568775 0.00084797083635760272 0 -0.0015226178880369042 -0.0047739902696298901 0 -0.00090142033852432381 -0.0058311955875977413 0 -0.0019641847336933998 -0.0061754525947311061 0 -0.00048442414050389867 -9.9686436648485334e-05 0 -0.0010018273049681879 -0.0018008237315577367 0 -2.2981420761768677e-05 -0.001786936654316877 0 -2.657335249352233e-06 -0.0016975557660830643 0 -2.4765946530367734e-05 -0.0018009845609286322 0 -0.00078736790759959745 -0.0036329241213609574 0 -0.0010018273049681879 -0.0018008237315577367 0 -0.00056073287471616591 0.0017849998431019244 0 -0.00099068855696568775 0.00084797083635760272 0 -0.0010626017729024268 0.0024283692913623115 0 -0.00078736790759959745 -0.0036329241213609574 0 -2.773272479902042e-07 -0.0023489013253502949 0 -0.00048442414050389867 -9.9686436648485334e-05 0 -2.0762518514373039e-07 -0.0011761045753333275 0 -2.2981420761768677e-05 -0.001786936654316877 0 -2.657335249352233e-06 -0.0016975557660830643 0 6.5968533724364485e-05 -0.0017212751238555304 0 -2.657335249352233e-06 -0.0016975557660830643 0 6.5968533724364485e-05 -0.0017212751238555304 0 6.2647119239737813e-09 -0.0023457861675061156 0 -2.2981420761768677e-05 -0.001786936654316877 0 -2.8276217054373206e-08 -0.0011792021073719627 0 6.5968533724364485e-05 -0.0017212751238555304 0 -2.8276217054373206e-08 -0.0011792021073719627 0 6.5968533724364485e-05 -0.0017212751238555304 0 6.2647119239737813e-09 -0.0023457861675061156 0 -0.0015226178880369042 -0.0047739902696298901 0 -3.9570347078119617e-06 -0.0023525968532681135 0 -0.00020678759643468658 -0.0049119001767835698 0 -3.9570347078119617e-06 -0.0023525968532681135 0 1.1140668651039793e-06 -0.0042954096713449068 0 -0.00020678759643468658 -0.0049119001767835698 0 1.1140668651039793e-06 -0.0042954096713449068 0 -0.00020678759643468658 -0.0049119001767835698 0 0.00013615793735299866 -0.0058234594852145998 0 -0.00020678759643468658 -0.0049119001767835698 0 -0.00018236629654995619 -0.006487478708902354 0 0.00013615793735299866 -0.0058234594852145998 0 -0.00020678759643468658 -0.0049119001767835698 0 -0.00090142033852432381 -0.0058311955875977413 0 -0.00018236629654995619 -0.006487478708902354 0 -0.0015226178880369042 -0.0047739902696298901 0 -0.00020678759643468658 -0.0049119001767835698 0 -0.00090142033852432381 -0.0058311955875977413 0 -0.00090142033852432381 -0.0058311955875977413 0 -0.00095738114045361574 -0.0066516534985852126 0 -0.00018236629654995619 -0.006487478708902354 0 -0.00090142033852432381 -0.0058311955875977413 0 -0.00095738114045361574 -0.0066516534985852126 0 -0.0019641847336933998 -0.0061754525947311061 0 -0.00095738114045361574 -0.0066516534985852126 0 -0.00018236629654995619 -0.006487478708902354 0 -0.00061267158847851653 -0.0073831299228311643 0 -0.00018236629654995619 -0.006487478708902354 0 -0.00061267158847851653 -0.0073831299228311643 0 -1.5142397692703747e-05 -0.0073409486529877627 0 -0.00061267158847851653 -0.0073831299228311643 0 -0.0017080916754273316 -0.0072950610319939442 0 -0.00084947375072598355 -0.0080677744463058497 0 -0.00095738114045361574 -0.0066516534985852126 0 -0.00061267158847851653 -0.0073831299228311643 0 -0.0017080916754273316 -0.0072950610319939442 0 -0.0010018273049681879 -0.0018008237315577367 0 -0.00023590784467932422 0.0015491388906292113 0 -0.0010845002787053654 -0.0021264202322667227 0 -0.001123381417501479 -0.0019198930466006912 0 -0.0012022929090115351 -0.0021981657275839828 0 -0.00013551917495424674 0.0031424214382655318 0 -0.0001455572149619075 0.0029895576038568988 0 -0.00034729390815731626 0.0034052176352979582 0 -0.0001455572149619075 0.0029895576038568988 0 -0.0010626017729024268 0.0024283692913623115 0 -0.00034729390815731626 0.0034052176352979582 0 -0.00054029076094012462 0.0027359060445865022 0 -0.00023590784467932422 0.0015491388906292113 0 -0.00017108652266091526 0.003039972021223118 0 -0.00013551917495424674 0.0031424214382655318 0 -0.0001455572149619075 0.0029895576038568988 0 -0.00056073287471616591 0.0017849998431019244 0 -0.00012305728725174822 0.0026312518944560576 0 -0.0010626017729024268 0.0024283692913623115 0 -0.0001455572149619075 0.0029895576038568988 0 -0.00012305728725174822 0.0026312518944560576 0 -0.0010626017729024268 0.0024283692913623115 0 -7.244774496427578e-05 0.0030091646322278104 0 -0.0001455572149619075 0.0029895576038568988 0 -0.00012305728725174822 0.0026312518944560576 0 -0.0012991209620220839 -0.0053846059246594 0 -0.0010018273049681879 -0.0018008237315577367 0 -0.00095738114045361574 -0.0066516534985852126 0 -0.0017080916754273316 -0.0072950610319939442 0 -0.0019641847336933998 -0.0061754525947311061 0 0.00037639436001986494 -0.0075849186508091969 0 3.7537729435581016e-07 -0.0062418946854835957 0 0.00036099839483352017 -0.0070321153727849663 0 0.00037639436001986494 -0.0075849186508091969 0 0.00057528862234775316 -0.0081187924119583404 0 0.0003613160780379474 -0.0087773057383916872 0 7.0691187996262325e-07 -0.0081875764299967797 0 0.00037639436001986494 -0.0075849186508091969 0 0.0003613160780379474 -0.0087773057383916872 0 7.0691187996262325e-07 -0.0081875764299967797 0 0.00037639436001986494 -0.0075849186508091969 0 3.7537729435581016e-07 -0.0062418946854835957 0 3.7537729435581016e-07 -0.0062418946854835957 0 0.00013615793735299866 -0.0058234594852145998 0 0.00036099839483352017 -0.0070321153727849663 0 1.1140668651039793e-06 -0.0042954096713449068 0 3.7537729435581016e-07 -0.0062418946854835957 0 0.00013615793735299866 -0.0058234594852145998 0 -0.00018236629654995619 -0.006487478708902354 0 0.00013615793735299866 -0.0058234594852145998 0 0.00036099839483352017 -0.0070321153727849663 0 -0.00018236629654995619 -0.006487478708902354 0 -1.5142397692703747e-05 -0.0073409486529877627 0 0.00036099839483352017 -0.0070321153727849663 0 -0.00061267158847851653 -0.0073831299228311643 0 -1.5142397692703747e-05 -0.0073409486529877627 0 -0.00016016779415046074 -0.0082034435840696047 0 0.00036099839483352017 -0.0070321153727849663 0 0.00057489352422194855 -0.0077453508719773911 0 0.00033773084374169582 -0.0078452983862382329 0 -1.5142397692703747e-05 -0.0073409486529877627 0 0.00036099839483352017 -0.0070321153727849663 0 0.00033773084374169582 -0.0078452983862382329 0 0.00037639436001986494 -0.0075849186508091969 0 0.00036099839483352017 -0.0070321153727849663 0 0.00057489352422194855 -0.0077453508719773911 0 0.00057489352422194855 -0.0077453508719773911 0 0.0007289282972226226 -0.0081042246788575311 0 0.00057528862234775316 -0.0081187924119583404 0 0.00037639436001986494 -0.0075849186508091969 0 0.00057489352422194855 -0.0077453508719773911 0 0.00057528862234775316 -0.0081187924119583404 0 0.00065374457869814338 -0.0083011389919381996 0 0.0010344469682652044 -0.0093193066641684801 0 0.0009360943921023965 -0.0084296630647319373 0 0.0007289282972226226 -0.0081042246788575311 0 0.00065374457869814338 -0.0083011389919381996 0 0.0009360943921023965 -0.0084296630647319373 0 0.00057489352422194855 -0.0077453508719773911 0 0.0007289282972226226 -0.0081042246788575311 0 0.00065374457869814338 -0.0083011389919381996 0 0.00057489352422194855 -0.0077453508719773911 0 0.00065374457869814338 -0.0083011389919381996 0 0.00033773084374169582 -0.0078452983862382329 0 0.00065374457869814338 -0.0083011389919381996 0 0.00022768056607656858 -0.00838422735994321 0 0.00034643297926956575 -0.0089839703827309051 0 0.00022768056607656858 -0.00838422735994321 0 -8.1794743513126592e-05 -0.0086883204268065339 0 0.00034643297926956575 -0.0089839703827309051 0 0.00065374457869814338 -0.0083011389919381996 0 0.00022768056607656858 -0.00838422735994321 0 0.00033773084374169582 -0.0078452983862382329 0 0.00022768056607656858 -0.00838422735994321 0 0.00033773084374169582 -0.0078452983862382329 0 -0.00016016779415046074 -0.0082034435840696047 0 -1.5142397692703747e-05 -0.0073409486529877627 0 0.00033773084374169582 -0.0078452983862382329 0 -0.00016016779415046074 -0.0082034435840696047 0 -0.00016016779415046074 -0.0082034435840696047 0 -8.1794743513126592e-05 -0.0086883204268065339 0 -0.00047546361516237392 -0.0086147306379220877 0 0.00022768056607656858 -0.00838422735994321 0 -0.00016016779415046074 -0.0082034435840696047 0 -8.1794743513126592e-05 -0.0086883204268065339 0 -8.1794743513126592e-05 -0.0086883204268065339 0 -0.00038607239703446075 -0.0092475150876038786 0 -0.00047546361516237392 -0.0086147306379220877 0 -8.1794743513126592e-05 -0.0086883204268065339 0 -0.00038607239703446075 -0.0092475150876038786 0 0.00034643297926956575 -0.0089839703827309051 0 -0.00097080885725118582 -0.0089502517287846396 0 0.00024921097100212038 -0.010109006296429583 0 -0.0015732498339116599 -0.0086817959921432087 0 -0.0021203930558857426 -0.010167666271078398 0 -0.0011600625823719247 -0.010271121677076301 0 -0.0015732498339116599 -0.0086817959921432087 0 -0.0011600625823719247 -0.010271121677076301 0 0.00029537243281445909 -0.010190209059612329 0 -0.0021203930558857426 -0.010167666271078398 0 -0.0011600625823719247 -0.010271121677076301 0 -0.0018131133458288659 -0.011328454802403047 0 -0.0011600625823719247 -0.010271121677076301 0 0.00029537243281445909 -0.010190209059612329 0 -0.00062077473358363247 -0.011111483871765816 0 -0.00038607239703446075 -0.0092475150876038786 0 0.00029537243281445909 -0.010190209059612329 0 0.00034643297926956575 -0.0089839703827309051 0 -0.0033178599708546409 -0.01854527409624827 0 -0.0048268946296052039 -0.018988070779938429 0 -0.0045179551451407091 -0.019304819659739098 0 0.00065374457869814338 -0.0083011389919381996 0 0.00034643297926956575 -0.0089839703827309051 0 0.0010344469682652044 -0.0093193066641684801 0 -0.0033178599708546409 -0.01854527409624827 0 -0.0020751222591112793 -0.016820542216641188 0 -0.0031147601053958876 -0.017184401856227164 0 0.00029537243281445909 -0.010190209059612329 0 0.0010344469682652044 -0.0093193066641684801 0 0.00054631821694903367 -0.011319256984354251 0 -0.0011607720489912113 -0.013950667155997879 0 -0.00086784056038228402 -0.014104861606346055 0 0.00029537243281445909 -0.010190209059612329 0 0.00034643297926956575 -0.0089839703827309051 0 0.0010344469682652044 -0.0093193066641684801 0 -0.0033178599708546409 -0.01854527409624827 0 -0.0037642158213909011 -0.017558084333521823 0 -0.0031147601053958876 -0.017184401856227164 0 -0.0033178599708546409 -0.01854527409624827 0 -0.0037642158213909011 -0.017558084333521823 0 -0.0043612901707666676 -0.018203982284684443 0 -0.0011607720489912113 -0.013950667155997879 0 -0.0017867251650177196 -0.013853247436074653 0 -0.00022430896502433892 0.0019797820484733128 0 -0.00020534803595565829 0.0022254565771310641 0 -9.8763371385208275e-05 0.0022277112446287802 0 9.4739066069216028e-06 0.0020730677440171327 0 -0.00022430896502433892 0.0019797820484733128 0 -9.8763371385208275e-05 0.0022277112446287802 0 9.4739066069216028e-06 0.0020730677440171327 0 -9.8763371385208275e-05 0.0022277112446287802 0 7.9488582348299179e-06 0.0023518674504039807 0 -0.0002036795910037578 0.0025539264283437908 0 7.2879976205558004e-05 0.0026822888151929137 0 -5.6157378681533333e-05 0.0029049555636976717 0 7.7224663596753493e-05 0.0025378816618846453 0 -2.0905226134473197e-06 0.0022879620579056973 0 -0.0002036795910037578 0.0025539264283437908 0 7.2879976205558004e-05 0.0026822888151929137 0 7.9488582348299179e-06 0.0023518674504039807 0 7.7224663596753493e-05 0.0025378816618846453 0 -0.00023590784467932422 0.0015491388906292113 0 7.2879976205558004e-05 0.0026822888151929137 0 -5.6157378681533333e-05 0.0029049555636976717 0 8.3060523875825703e-05 0.0030200517858451625 0 -0.00017108652266091526 0.003039972021223118 0 -0.00013551917495424674 0.0031424214382655318 0 -5.6157378681533333e-05 0.0029049555636976717 0 -0.00013551917495424674 0.0031424214382655318 0 -5.6157378681533333e-05 0.0029049555636976717 0 8.3060523875825703e-05 0.0030200517858451625 0 9.4739066069216028e-06 0.0020730677440171327 0 -4.7964977460424209e-05 0.0018372541128503107 0 -0.00022430896502433892 0.0019797820484733128 0 -0.00023590784467932422 0.0015491388906292113 0 -0.0021036661596088128 -0.0037852663448402139 0 -0.0010845002787053654 -0.0021264202322667227 0 -0.0012022929090115351 -0.0021981657275839828 0 -0.0010488357868454912 -0.0023396573694382558 0 -0.0012991209620220839 -0.0053846059246594 0 -0.0021036661596088128 -0.0037852663448402139 0 -0.0017080916754273316 -0.0072950610319939442 0 -0.0015591672072008387 -0.0081072213755100236 0 -0.00084947375072598355 -0.0080677744463058497 0 -0.00061267158847851653 -0.0073831299228311643 0 -0.00016016779415046074 -0.0082034435840696047 0 -0.00084947375072598355 -0.0080677744463058497 0 -0.00084947375072598355 -0.0080677744463058497 0 -0.00085739254433614138 -0.0086640771674280394 0 -0.00047546361516237392 -0.0086147306379220877 0 -0.00016016779415046074 -0.0082034435840696047 0 -0.00084947375072598355 -0.0080677744463058497 0 -0.00047546361516237392 -0.0086147306379220877 0 -0.0021036661596088128 -0.0037852663448402139 0 -0.0021472564419087099 -0.0083536421198170119 0 -0.0050599959388205372 -0.0059106738647551581 0 -0.0033803880518227082 -0.0072764203405894538 0 -0.0046803900273390412 -0.008185159584302262 0 -0.0021036661596088128 -0.0037852663448402139 0 -0.0025272266070010397 -0.0022319839410632858 0 -0.0015591672072008387 -0.0081072213755100236 0 -0.00084947375072598355 -0.0080677744463058497 0 -0.00085739254433614138 -0.0086640771674280394 0 -0.0033803880518227082 -0.0072764203405894538 0 -0.0046803900273390412 -0.008185159584302262 0 -0.0028607835543721753 -0.0090998886710863935 0 -0.00038607239703446075 -0.0092475150876038786 0 -0.00085739254433614138 -0.0086640771674280394 0 -0.00047546361516237392 -0.0086147306379220877 0 -0.00097080885725118582 -0.0089502517287846396 0 -0.0021472564419087099 -0.0083536421198170119 0 -0.0015732498339116599 -0.0086817959921432087 0 -0.0033803880518227082 -0.0072764203405894538 0 -0.0028607835543721753 -0.0090998886710863935 0 -0.0040925937943678548 -0.0107155546878051 0 -0.0025709033701793228 -0.0058449906504277364 0 -0.0028607835543721753 -0.0090998886710863935 0 -0.0047482214848871681 -0.010863008215229029 0 -0.0032763326162381346 -0.011590713056114324 0 -0.0021203930558857426 -0.010167666271078398 0 -0.0028607835543721753 -0.0090998886710863935 0 -0.0032763326162381346 -0.011590713056114324 0 -0.0015732498339116599 -0.0086817959921432087 0 -0.0021203930558857426 -0.010167666271078398 0 -0.0028607835543721753 -0.0090998886710863935 0 -0.0046803900273390412 -0.008185159584302262 0 -0.0028607835543721753 -0.0090998886710863935 0 -0.004257873424835734 -0.010345235552584476 0 -0.0025272266070010397 -0.0022319839410632858 0 -0.0025709033701793228 -0.0058449906504277364 0 -0.00020534803595565829 0.0022254565771310641 0 -6.9818594873618207e-05 0.0023390290327650587 0 -0.0001969657736039316 0.0023141510147462328 0 -0.00020534803595565829 0.0022254565771310641 0 -6.9818594873618207e-05 0.0023390290327650587 0 -9.8763371385208275e-05 0.0022277112446287802 0 -6.9818594873618207e-05 0.0023390290327650587 0 -9.8763371385208275e-05 0.0022277112446287802 0 7.9488582348299179e-06 0.0023518674504039807 0 -1.4747512507238057e-05 0.0023540405154834207 0 -6.9818594873618207e-05 0.0023390290327650587 0 -1.174309312742415e-05 0.0023979725038771392 0 -1.4747512507238057e-05 0.0023540405154834207 0 -6.9818594873618207e-05 0.0023390290327650587 0 7.9488582348299179e-06 0.0023518674504039807 0 -6.9818594873618207e-05 0.0023390290327650587 0 -1.174309312742415e-05 0.0023979725038771392 0 -2.9087105219139006e-05 0.0024071752151183746 0 -1.174309312742415e-05 0.0023979725038771392 0 -2.9087105219139006e-05 0.0024071752151183746 0 2.3321968388842354e-05 0.0024229382477920151 0 -6.9818594873618207e-05 0.0023390290327650587 0 -2.9087105219139006e-05 0.0024071752151183746 0 -0.00010448899265777186 0.0023975871951899277 0 -6.9818594873618207e-05 0.0023390290327650587 0 -0.00010448899265777186 0.0023975871951899277 0 -0.0001969657736039316 0.0023141510147462328 0 0.00044435267467700493 0.0013013089342791889 0 0.00048896763643541227 0.0013871599396643966 0 0.00044100747874657281 0.0013513318470985806 0 0.00010524329562868277 -0.0033671799574315655 0 -0.0001812899587052296 -0.001779020264178926 0 -0.0011620410202329906 -0.0029766140174323132 0 0.00049459506278877691 3.7878294267559436e-05 0 0.0007058971429311999 0.00089985606376571014 0 -2.9087105219139006e-05 0.0024071752151183746 0 -0.00010448899265777186 0.0023975871951899277 0 -2.0756337792148571e-05 0.0024513379047549494 0 0.00010524329562868277 -0.0033671799574315655 0 -0.0001812899587052296 -0.001779020264178926 0 0.0021132570782835206 -0.001417865522909776 0 0.00056535906432873394 -0.00038099926592308724 0 0.0007058971429311999 0.00089985606376571014 0 -2.9087105219139006e-05 0.0024071752151183746 0 2.3321968388842354e-05 0.0024229382477920151 0 -2.0756337792148571e-05 0.0024513379047549494 0 0.00048664115666163013 0.001621369623237903 0 0.00048896763643541227 0.0013871599396643966 0 0.00047971550656877794 0.0014376052234159433 0 0.00058139955186305636 0.0017833838716170122 0 0.0007058971429311999 0.00089985606376571014 0 0.00048664115666163013 0.001621369623237903 0 0.00047971550656877794 0.0014376052234159433 0 0.00048498422472745403 0.0014950903555771349 0 0.00048896763643541227 0.0013871599396643966 0 0.00047971550656877794 0.0014376052234159433 0 0.00044100747874657281 0.0013513318470985806 0 0.00047971550656877794 0.0014376052234159433 0 0.00044100747874657281 0.0013513318470985806 0 0.00043827982857245497 0.0013549251920289107 0 0.00047971550656877794 0.0014376052234159433 0 0.00048498422472745403 0.0014950903555771349 0 0.00047952951669649274 0.0013995059534139523 0 0.00047971550656877794 0.0014376052234159433 0 0.00043827982857245497 0.0013549251920289107 0 0.00047952951669649274 0.0013995059534139523 0 0.00048498422472745403 0.0014950903555771349 0 0.00048216151908040794 0.0014031633805344568 0 0.00047952951669649274 0.0013995059534139523 0 -0.00018290999139244528 -0.0090147601528184056 0 -0.0015016238288075596 -0.0061531597979789946 0 -0.0027442895450593262 -0.015452391064831874 0 -0.0031904206019659387 -0.014721357439845551 0 -0.0022675014035314182 -0.014953161090995495 0 0.00039885546241034357 0.0013083714358926406 0 0.00043827982857245497 0.0013549251920289107 0 0.00047952951669649274 0.0013995059534139523 0 0.00039885546241034357 0.0013083714358926406 0 0.00043827982857245497 0.0013549251920289107 0 0.00039479891453955224 0.0012979632175128485 0 -0.00018290999139244528 -0.0090147601528184056 0 0.0011474675067082707 -0.0020511301217764487 0 0.00044100747874657281 0.0013513318470985806 0 0.00039479891453955224 0.0012979632175128485 0 0.00038167475862493119 0.0012311804818688741 0 0.00044100747874657281 0.0013513318470985806 0 0.00043827982857245497 0.0013549251920289107 0 0.00039479891453955224 0.0012979632175128485 0 -0.0031904206019659387 -0.014721357439845551 0 -0.0022675014035314182 -0.014953161090995495 0 -0.0027987640157738458 -0.014189705391638991 0 -0.0022675014035314182 -0.014953161090995495 0 -0.0027987640157738458 -0.014189705391638991 0 -0.0016319913077152322 -0.014635465778437664 0 -0.0027987640157738458 -0.014189705391638991 0 -0.0033285049561031111 -0.013304277036175313 0 -0.0023796463773987911 -0.013446732733718247 0 -0.0027987640157738458 -0.014189705391638991 0 -0.0023796463773987911 -0.013446732733718247 0 -0.0016319913077152322 -0.014635465778437664 0 -0.0031904206019659387 -0.014721357439845551 0 -0.0027987640157738458 -0.014189705391638991 0 -0.0038295323900981123 -0.013429829053770706 0 -0.0027987640157738458 -0.014189705391638991 0 -0.0033285049561031111 -0.013304277036175313 0 -0.0038295323900981123 -0.013429829053770706 0 -0.0033285049561031111 -0.013304277036175313 0 -0.004241402508159289 -0.01338593481707076 0 -0.0032763326162381346 -0.011590713056114324 0 -0.0038382671661139033 -0.0097398480598460697 0 -0.0024230944042965188 -0.0071285666788334411 0 -0.0033285049561031111 -0.013304277036175313 0 -0.0023796463773987911 -0.013446732733718247 0 -0.0024529501239462198 -0.012501878943782256 0 -0.0015016238288075596 -0.0061531597979789946 0 -0.0024230944042965188 -0.0071285666788334411 0 0.00044435267467700493 0.0013013089342791889 0 0.00044100747874657281 0.0013513318470985806 0 0.00038167475862493119 0.0012311804818688741 0 -0.0001812899587052296 -0.001779020264178926 0 -0.0024762403169488871 -0.002143280667731332 0 -0.0011620410202329906 -0.0029766140174323132 0 0.00056535906432873394 -0.00038099926592308724 0 -0.0024230944042965188 -0.0071285666788334411 0 -0.0024230944042965188 -0.0071285666788334411 0 -0.0025709033701793228 -0.0058449906504277364 0 -0.0024762403169488871 -0.002143280667731332 0 -0.0011620410202329906 -0.0029766140174323132 0 -0.0019116321527391431 -0.0052992428588314409 0 -0.004241402508159289 -0.01338593481707076 0 -0.0047482214848871681 -0.010863008215229029 0 -0.0032763326162381346 -0.011590713056114324 0 0.00010524329562868277 -0.0033671799574315655 0 -0.0011620410202329906 -0.0029766140174323132 0 -0.0019116321527391431 -0.0052992428588314409 0 0.00049459506278877691 3.7878294267559436e-05 0 -0.0025709033701793228 -0.0058449906504277364 0 -0.0024529501239462198 -0.012501878943782256 0 -0.0032763326162381346 -0.011590713056114324 0 -0.0018131133458288659 -0.011328454802403047 0 -0.0033285049561031111 -0.013304277036175313 0 -0.0024529501239462198 -0.012501878943782256 0 -0.0032763326162381346 -0.011590713056114324 0 -0.0021203930558857426 -0.010167666271078398 0 -0.0032763326162381346 -0.011590713056114324 0 -0.0018131133458288659 -0.011328454802403047 0 -0.0024529501239462198 -0.012501878943782256 0 -0.0018131133458288659 -0.011328454802403047 0 -0.0014593112349028591 -0.012418591067761274 0 -0.0011600625823719247 -0.010271121677076301 0 -0.0018131133458288659 -0.011328454802403047 0 -0.00062077473358363247 -0.011111483871765816 0 -0.0018131133458288659 -0.011328454802403047 0 -0.0014593112349028591 -0.012418591067761274 0 -0.00062077473358363247 -0.011111483871765816 0 -0.0014593112349028591 -0.012418591067761274 0 -0.00062077473358363247 -0.011111483871765816 0 0.00054631821694903367 -0.011319256984354251 0 0.00029537243281445909 -0.010190209059612329 0 -0.00062077473358363247 -0.011111483871765816 0 0.00054631821694903367 -0.011319256984354251 0 -0.00086784056038228402 -0.014104861606346055 0 -0.0015949832778432661 -0.01468275141006809 0 -0.0020751222591112793 -0.016820542216641188 0 -0.0016319913077152322 -0.014635465778437664 0 -0.0025160622363484806 -0.015590290532299206 0 -0.0023796463773987911 -0.013446732733718247 0 -0.0014593112349028591 -0.012418591067761274 0 -0.0016319913077152322 -0.014635465778437664 0 -0.0014593112349028591 -0.012418591067761274 0 0.00054631821694903367 -0.011319256984354251 0 -0.0016319913077152322 -0.014635465778437664 0 -0.0023796463773987911 -0.013446732733718247 0 -0.0024529501239462198 -0.012501878943782256 0 -0.0014593112349028591 -0.012418591067761274 0 -0.0037642158213909011 -0.017558084333521823 0 -0.0031147601053958876 -0.017184401856227164 0 -0.0035713176202097166 -0.016420275541900377 0 -0.0037642158213909011 -0.017558084333521823 0 -0.0035713176202097166 -0.016420275541900377 0 -0.0043551431846726727 -0.017218613197360389 0 -0.0020751222591112793 -0.016820542216641188 0 -0.0031147601053958876 -0.017184401856227164 0 -0.0027702112332256765 -0.016485175584437513 0 -0.0031147601053958876 -0.017184401856227164 0 -0.0027702112332256765 -0.016485175584437513 0 -0.0035713176202097166 -0.016420275541900377 0 -0.0025160622363484806 -0.015590290532299206 0 -0.0035713176202097166 -0.016420275541900377 0 -0.0035908843285572096 -0.015568744159283074 0 -0.0020751222591112793 -0.016820542216641188 0 -0.0027702112332256765 -0.016485175584437513 0 -0.0025160622363484806 -0.015590290532299206 0 -0.0027702112332256765 -0.016485175584437513 0 -0.0025160622363484806 -0.015590290532299206 0 -0.0035713176202097166 -0.016420275541900377 0 -0.0035713176202097166 -0.016420275541900377 0 -0.0035908843285572096 -0.015568744159283074 0 -0.0043055211898354456 -0.016212228539485413 0 -0.0035713176202097166 -0.016420275541900377 0 -0.0043055211898354456 -0.016212228539485413 0 -0.0043551431846726727 -0.017218613197360389 0 -0.0028351081553739973 -0.015522131165297994 0 -0.0052459777725810302 -0.019377741281354437 0 -0.0035908843285572096 -0.015568744159283074 0 -0.0029280603226088855 -0.014747243106914354 0 -0.0046885179635578478 -0.015091145187893959 0 -0.0025160622363484806 -0.015590290532299206 0 -0.0035908843285572096 -0.015568744159283074 0 -0.0029280603226088855 -0.014747243106914354 0 -0.0025160622363484806 -0.015590290532299206 0 -0.0029280603226088855 -0.014747243106914354 0 -0.0020406799889500218 -0.014998165593449471 0 -0.0031719421412936882 -0.017391223329323621 0 -0.0028689943293023889 -0.016484501144668543 0 -0.0035801022022018806 -0.016341837975823222 0 -0.0031719421412936882 -0.017391223329323621 0 -0.0028689943293023889 -0.016484501144668543 0 -0.0021685316052049617 -0.016658756421686377 0 -0.0028689943293023889 -0.016484501144668543 0 -0.0021685316052049617 -0.016658756421686377 0 -0.0021286052946258532 -0.016142203295524547 0 -0.0031719421412936882 -0.017391223329323621 0 -0.0045824625688590465 -0.016615953991291531 0 -0.005034417075730096 -0.017821395321519162 0 -0.0031719421412936882 -0.017391223329323621 0 -0.0035801022022018806 -0.016341837975823222 0 -0.0045824625688590465 -0.016615953991291531 0 -0.0022675014035314182 -0.014953161090995495 0 -0.0018853841936501982 -0.014854398409436805 0 -0.001862623619489282 -0.014866420815845905 0 -0.0022675014035314182 -0.014953161090995495 0 -0.0016319913077152322 -0.014635465778437664 0 -0.0018853841936501982 -0.014854398409436805 0 -0.0016319913077152322 -0.014635465778437664 0 -0.0018853841936501982 -0.014854398409436805 0 -0.0020406799889500218 -0.014998165593449471 0 -0.0016319913077152322 -0.014635465778437664 0 -0.0025160622363484806 -0.015590290532299206 0 -0.0020406799889500218 -0.014998165593449471 0 -0.0029280603226088855 -0.014747243106914354 0 -0.0020406799889500218 -0.014998165593449471 0 -0.001862623619489282 -0.014866420815845905 0 -0.0018853841936501982 -0.014854398409436805 0 -0.0020406799889500218 -0.014998165593449471 0 -0.001862623619489282 -0.014866420815845905 0 -0.0031719421412936882 -0.017391223329323621 0 -0.0021685316052049617 -0.016658756421686377 0 -0.0013343585169828963 -0.016945629123363663 0 -0.0028351081553739973 -0.015522131165297994 0 -0.002004839598732371 -0.01696837965071403 0 -0.0021685316052049617 -0.016658756421686377 0 -0.001336890419105753 -0.016219568389133011 0 -0.0021286052946258532 -0.016142203295524547 0 -0.0021685316052049617 -0.016658756421686377 0 -0.0013343585169828963 -0.016945629123363663 0 -0.001336890419105753 -0.016219568389133011 0 -0.00018290999139244528 -0.0090147601528184056 0 -0.002004839598732371 -0.01696837965071403 0 -0.0013343585169828963 -0.016945629123363663 0 -0.00041508058543422862 -0.016254397517982216 0 -0.001336890419105753 -0.016219568389133011 0 0.00060316189753640691 -0.016455675614181948 0 -0.0013343585169828963 -0.016945629123363663 0 -0.00041508058543422862 -0.016254397517982216 0 -0.0027442895450593262 -0.015452391064831874 0 -0.0022675014035314182 -0.014953161090995495 0 -0.001862623619489282 -0.014866420815845905 0 -0.0014956338742511508 -0.016917646479877719 0 0.0005029639926875547 -0.012827406669717038 0 -0.001336890419105753 -0.016219568389133011 0 -0.00096756356961656752 -0.015299476832849029 0 0.00021981419469319937 -0.015571926326711026 0 -0.00041508058543422862 -0.016254397517982216 0 -0.001336890419105753 -0.016219568389133011 0 0.00041531259057943386 -0.01538310940720058 0 -0.001336890419105753 -0.016219568389133011 0 -0.0016429485103041275 -0.015507746936532403 0 -0.00096756356961656752 -0.015299476832849029 0 -0.001336890419105753 -0.016219568389133011 0 -0.0021286052946258532 -0.016142203295524547 0 -0.0016429485103041275 -0.015507746936532403 0 -0.0021286052946258532 -0.016142203295524547 0 -0.0016429485103041275 -0.015507746936532403 0 -0.0022877338645264896 -0.015218401394215058 0 -0.0016429485103041275 -0.015507746936532403 0 -0.0022877338645264896 -0.015218401394215058 0 -0.0015042442454208254 -0.014663838182689929 0 -0.0022877338645264896 -0.015218401394215058 0 -0.0015042442454208254 -0.014663838182689929 0 -0.0023298618178674772 -0.013902121999060634 0 -0.0016429485103041275 -0.015507746936532403 0 -0.0015042442454208254 -0.014663838182689929 0 -0.00096756356961656752 -0.015299476832849029 0 -0.00069277484701055865 -0.014588220366071263 0 -0.00096756356961656752 -0.015299476832849029 0 0.00021981419469319937 -0.015571926326711026 0 -0.0015042442454208254 -0.014663838182689929 0 -0.00069277484701055865 -0.014588220366071263 0 -0.00096756356961656752 -0.015299476832849029 0 -0.0041315780581932223 -0.015439732534139106 0 -0.0035801022022018806 -0.016341837975823222 0 -0.0045824625688590465 -0.016615953991291531 0 -0.0042822306257832852 -0.01918172955020302 0 -0.005187225618652945 -0.020200800944109785 0 -0.0041315780581932223 -0.015439732534139106 0 -0.0035801022022018806 -0.016341837975823222 0 -0.0031405370213674027 -0.015796328872243148 0 -0.0042822306257832852 -0.01918172955020302 0 -0.0032773462954129688 -0.015801694144696857 0 -0.0039764295904677607 -0.015450644325251946 0 -0.0030474307341513481 -0.015790705632040464 0 -0.0030807954160978423 -0.014888250074744343 0 -0.0028689943293023889 -0.016484501144668543 0 -0.0035801022022018806 -0.016341837975823222 0 -0.0031405370213674027 -0.015796328872243148 0 -0.0028689943293023889 -0.016484501144668543 0 -0.0021286052946258532 -0.016142203295524547 0 -0.0031405370213674027 -0.015796328872243148 0 -0.0021991568118397103 -0.016128989858736616 0 -0.0032773462954129688 -0.015801694144696857 0 -0.0021286052946258532 -0.016142203295524547 0 -0.0022877338645264896 -0.015218401394215058 0 -0.0030474307341513481 -0.015790705632040464 0 -0.0022877338645264896 -0.015218401394215058 0 -0.0030807954160978423 -0.014888250074744343 0 -0.0023298618178674772 -0.013902121999060634 0 -0.0022877338645264896 -0.015218401394215058 0 -0.0030474307341513481 -0.015790705632040464 0 -0.0030807954160978423 -0.014888250074744343 0 -0.0040352798524433886 -0.021618721904662588 0 -0.0039461040412170261 -0.021416562815724537 0 -0.0040860612064509754 -0.021496247188549561 0 -0.0039764295904677607 -0.015450644325251946 0 -0.0030807954160978423 -0.014888250074744343 0 -0.0034521831986148378 -0.014030167942407622 0 -0.0042822306257832852 -0.01918172955020302 0 -0.0035240643187405968 -0.016694927073209603 0 -0.0039461040412170261 -0.021416562815724537 0 -0.0041041185816500488 -0.021300805706985605 0 -0.0040860612064509754 -0.021496247188549561 0 -0.0030807954160978423 -0.014888250074744343 0 -0.0034521831986148378 -0.014030167942407622 0 -0.0023298618178674772 -0.013902121999060634 0 -0.0034521831986148378 -0.014030167942407622 0 -0.0023298618178674772 -0.013902121999060634 0 -0.0029318423000004199 -0.01261628104723659 0 -0.0035240643187405968 -0.016694927073209603 0 -0.003032449537314923 -0.021601554053269877 0 -0.0023298618178674772 -0.013902121999060634 0 -0.0029318423000004199 -0.01261628104723659 0 -0.0019266310843404062 -0.013013689485755977 0 -0.0039461040412170261 -0.021416562815724537 0 -0.0038568403691236828 -0.021214242436412938 0 -0.0041041185816500488 -0.021300805706985605 0 -0.003032449537314923 -0.021601554053269877 0 -0.0042978278698223892 -0.024174626811843868 0 -0.00069277484701055865 -0.014588220366071263 0 -0.0011644159338688414 -0.013434195237065745 0 -6.0420046019276281e-05 -0.013950064093082696 0 -0.0015042442454208254 -0.014663838182689929 0 -0.00069277484701055865 -0.014588220366071263 0 -0.0011644159338688414 -0.013434195237065745 0 -0.0015042442454208254 -0.014663838182689929 0 -0.0023298618178674772 -0.013902121999060634 0 -0.0011644159338688414 -0.013434195237065745 0 -0.0023298618178674772 -0.013902121999060634 0 -0.0011644159338688414 -0.013434195237065745 0 -0.0019266310843404062 -0.013013689485755977 0 -0.0011644159338688414 -0.013434195237065745 0 -0.0019266310843404062 -0.013013689485755977 0 -0.0012890461165764974 -0.012077225721510992 0 -0.0029318423000004199 -0.01261628104723659 0 -0.0019266310843404062 -0.013013689485755977 0 -0.0012890461165764974 -0.012077225721510992 0 -0.0011644159338688414 -0.013434195237065745 0 -0.00039454003122536244 -0.012236383257744558 0 -0.0012890461165764974 -0.012077225721510992 0 -0.0011644159338688414 -0.013434195237065745 0 -6.0420046019276281e-05 -0.013950064093082696 0 -0.00039454003122536244 -0.012236383257744558 0 -0.00016030734495921611 -0.012222698620163334 0 -0.00022434275986369273 -0.012362195144148332 0 -0.00039454003122536244 -0.012236383257744558 0 -0.00016030734495921611 -0.012222698620163334 0 -0.00039454003122536244 -0.012236383257744558 0 -9.3072311605162361e-05 -0.01209325638920076 0 -0.00019401761567402315 -0.01345283055067536 0 -0.00036998377072890019 -0.012149029221279004 0 -0.00016030734495921611 -0.012222698620163334 0 2.4013958598724869e-05 -0.012092103391133391 0 -9.3072311605162361e-05 -0.01209325638920076 0 -0.00016030734495921611 -0.012222698620163334 0 -0.00022434275986369273 -0.012362195144148332 0 -6.3505756066285557e-05 -0.012234453797590495 0 -0.00022434275986369273 -0.012362195144148332 0 -0.00010680009096826109 -0.012376993678540367 0 -6.3505756066285557e-05 -0.012234453797590495 0 -0.00022434275986369273 -0.012362195144148332 0 -0.00010680009096826109 -0.012376993678540367 0 -0.00013461693040375008 -0.012505034362556115 0 3.6403279555442208e-05 -0.012253437976832015 0 0.00027494101646901664 -0.012028603724468302 0 -7.4624690038204564e-05 -0.012623134454241704 0 3.6403279555442208e-05 -0.012253437976832015 0 -0.00010680009096826109 -0.012376993678540367 0 -7.4624690038204564e-05 -0.012623134454241704 0 -0.00010680009096826109 -0.012376993678540367 0 -0.00013461693040375008 -0.012505034362556115 0 -7.4624690038204564e-05 -0.012623134454241704 0 3.6403279555442208e-05 -0.012253437976832015 0 -0.00010680009096826109 -0.012376993678540367 0 -6.3505756066285557e-05 -0.012234453797590495 0 3.6403279555442208e-05 -0.012253437976832015 0 -6.3505756066285557e-05 -0.012234453797590495 0 0.00016726169313673698 -0.012063090793881804 0 3.6403279555442208e-05 -0.012253437976832015 0 0.00016726169313673698 -0.012063090793881804 0 0.00027494101646901664 -0.012028603724468302 0 -6.3505756066285557e-05 -0.012234453797590495 0 0.00016726169313673698 -0.012063090793881804 0 2.4013958598724869e-05 -0.012092103391133391 0 -0.00016030734495921611 -0.012222698620163334 0 -6.3505756066285557e-05 -0.012234453797590495 0 2.4013958598724869e-05 -0.012092103391133391 0 0.00016726169313673698 -0.012063090793881804 0 2.4013958598724869e-05 -0.012092103391133391 0 0.00015119464699791141 -0.012025207898403173 0 0.00023048335326517861 -0.012381153317557932 0 0.00048844448645963461 -0.0096412446696406973 0 0.00027494101646901664 -0.012028603724468302 0 0.00086141757452195395 -0.011499586529187943 0 0.0010282081805371387 -0.0095689293366617387 0 0.00016726169313673698 -0.012063090793881804 0 0.00027494101646901664 -0.012028603724468302 0 0.00020066408631427786 -0.012041970063668942 0 0.00016726169313673698 -0.012063090793881804 0 0.00015119464699791141 -0.012025207898403173 0 0.00020066408631427786 -0.012041970063668942 0 0.0049842801850422148 -0.0061580735307499553 0 0.0049115742219090182 -0.006511252576474556 0 0.0044826791888306636 -0.0064476172438471925 0 0.0051516638201181894 -0.0063561967032204868 0 0.0049842801850422148 -0.0061580735307499553 0 0.0049115742219090182 -0.006511252576474556 0 0.0037190234183881606 -0.0080183089236019241 0 0.0028131093538295128 -0.0088573719902495587 0 0.0025383822331883029 -0.0098099338925332468 0 0.00086141757452195395 -0.011499586529187943 0 0.0010282081805371387 -0.0095689293366617387 0 0.0049115742219090182 -0.006511252576474556 0 0.0046714051838631938 -0.0066794048061323405 0 0.0044826791888306636 -0.0064476172438471925 0 0.0046714051838631938 -0.0066794048061323405 0 0.0046102156532236574 -0.0070112999972319883 0 0.0049177951119517413 -0.0067958290668801557 0 0.0049115742219090182 -0.006511252576474556 0 0.0046714051838631938 -0.0066794048061323405 0 0.0049177951119517413 -0.0067958290668801557 0 0.0028131093538295128 -0.0088573719902495587 0 0.0012509264289447279 -0.010372061643833747 0 0.0044826791888306636 -0.0064476172438471925 0 0.0042739481331048428 -0.0067862876557747793 0 0.0038745722704137705 -0.0069377779580427389 0 0.00027494101646901664 -0.012028603724468302 0 0.00086141757452195395 -0.011499586529187943 0 -7.4624690038204564e-05 -0.012623134454241704 0 0.0046714051838631938 -0.0066794048061323405 0 0.0044826791888306636 -0.0064476172438471925 0 0.0044840060536859971 -0.0066727418257909229 0 0.0044826791888306636 -0.0064476172438471925 0 0.0044840060536859971 -0.0066727418257909229 0 0.0042739481331048428 -0.0067862876557747793 0 0.0046714051838631938 -0.0066794048061323405 0 0.0045024812102442881 -0.0067791005335131865 0 0.0046102156532236574 -0.0070112999972319883 0 0.0044840060536859971 -0.0066727418257909229 0 0.0045024812102442881 -0.0067791005335131865 0 0.0042739481331048428 -0.0067862876557747793 0 0.0045024812102442881 -0.0067791005335131865 0 0.0042739481331048428 -0.0067862876557747793 0 0.0046102156532236574 -0.0070112999972319883 0 0.0046714051838631938 -0.0066794048061323405 0 0.0044840060536859971 -0.0066727418257909229 0 0.0045024812102442881 -0.0067791005335131865 0 0.0042739481331048428 -0.0067862876557747793 0 0.0046102156532236574 -0.0070112999972319883 0 0.0038745722704137705 -0.0069377779580427389 0 0.0016900569975934318 -0.0058383408911122873 0 0.0016770016137813185 -0.006318199541930079 0 0.0010160299990051918 -0.0061266588179081606 0 0.0031037254115658993 -0.0083295826734352072 0 0.0012509264289447279 -0.010372061643833747 0 0.0014260452281668083 -0.012229770711899624 0 0.00028151581478299642 -0.012100498397942906 0 0.00050893565041923103 -0.012365732782601628 0 0.0031037254115658993 -0.0083295826734352072 0 0.00055572143915369205 -0.0093090811920490558 0 0.0014260452281668083 -0.012229770711899624 0 0.00050893565041923103 -0.012365732782601628 0 0.00048813694387466399 -0.012644617273464909 0 0.0050971727766985671 -0.0068941819169327052 0 0.0046956584044914318 -0.0069043636412395 0 0.0049177951119517413 -0.0067958290668801557 0 0.0023781833163598453 -0.0059388057500489727 0 0.0016900569975934318 -0.0058383408911122873 0 0.0016770016137813185 -0.006318199541930079 0 0.0036166249317722897 -0.0062837051624913196 0 0.0031037254115658993 -0.0083295826734352072 0 0.0031037254115658993 -0.0083295826734352072 0 0.005275170735971532 -0.0068700925168718955 0 0.0021341399145504026 -0.0065152304038927347 0 0.0016770016137813185 -0.006318199541930079 0 0.0013042313099784833 -0.0067599800402206459 0 0.0023781833163598453 -0.0059388057500489727 0 0.0021341399145504026 -0.0065152304038927347 0 0.0016770016137813185 -0.006318199541930079 0 0.0012878511051204139 -0.0026197494784818264 0 0.0011474675067082707 -0.0020511301217764487 0 0.0016770016137813185 -0.006318199541930079 0 0.0013042313099784833 -0.0067599800402206459 0 0.0010160299990051918 -0.0061266588179081606 0 0.0004270036928832412 -0.0070022944566647208 0 0.0013042313099784833 -0.0067599800402206459 0 0.00076888972505743491 -0.0065819071812855444 0 0.00076888972505743491 -0.0065819071812855444 0 0.00032435253471928288 -0.0064403905476030469 0 0.0010160299990051918 -0.0061266588179081606 0 0.0013042313099784833 -0.0067599800402206459 0 0.00076888972505743491 -0.0065819071812855444 0 0.0010160299990051918 -0.0061266588179081606 0 0.0005029639926875547 -0.012827406669717038 0 0.00055572143915369205 -0.0093090811920490558 0 0.0004270036928832412 -0.0070022944566647208 0 0.00076888972505743491 -0.0065819071812855444 0 0.00032435253471928288 -0.0064403905476030469 0 -0.00018290999139244528 -0.0090147601528184056 0 0.0005029639926875547 -0.012827406669717038 0 0.00060316189753640691 -0.016455675614181948 0 -0.00041508058543422862 -0.016254397517982216 0 0.00041531259057943386 -0.01538310940720058 0 -0.00019401761567402315 -0.01345283055067536 0 0.0005029639926875547 -0.012827406669717038 0 -0.00022434275986369273 -0.012362195144148332 0 -0.00012393313578323647 -0.012600993248081414 0 -0.00013461693040375008 -0.012505034362556115 0 -0.00022434275986369273 -0.012362195144148332 0 -0.00020632856906159646 -0.012796679630239864 0 -0.00012393313578323647 -0.012600993248081414 0 -0.00020632856906159646 -0.012796679630239864 0 -0.00012393313578323647 -0.012600993248081414 0 0.00016973727789901187 -0.012533088728157931 0 -0.00069277484701055865 -0.014588220366071263 0 -6.0420046019276281e-05 -0.013950064093082696 0 0.00021981419469319937 -0.015571926326711026 0 -0.00012393313578323647 -0.012600993248081414 0 -0.00013461693040375008 -0.012505034362556115 0 -7.4624690038204564e-05 -0.012623134454241704 0 -0.00058912608488754787 -0.012880462544288733 0 0.0012509264289447279 -0.010372061643833747 0 -0.00012393313578323647 -0.012600993248081414 0 0.00020107614765719448 -0.012397836505160144 0 0.00028151581478299642 -0.012100498397942906 0 -0.00020632856906159646 -0.012796679630239864 0 0.00048813694387466399 -0.012644617273464909 0 0.00016973727789901187 -0.012533088728157931 0 0.00020107614765719448 -0.012397836505160144 0 0.00028151581478299642 -0.012100498397942906 0 0.00050893565041923103 -0.012365732782601628 0 0.00050893565041923103 -0.012365732782601628 0 0.00048813694387466399 -0.012644617273464909 0 0.00016973727789901187 -0.012533088728157931 0 0.00020107614765719448 -0.012397836505160144 0 0.00050893565041923103 -0.012365732782601628 0 0.00016973727789901187 -0.012533088728157931 0 -0.00012393313578323647 -0.012600993248081414 0 0.00020107614765719448 -0.012397836505160144 0 0.00016973727789901187 -0.012533088728157931 0 -0.0050505055657547081 -0.025787493927161672 0 -0.0046856711554658127 -0.02567603814736686 0 -0.004818299592765563 -0.02591929446720493 0 -0.0048502821869971877 -0.024918439258630815 0 -0.0044127834367638152 -0.024712925661150371 0 -0.0043932034610202134 -0.023817664304010375 0 -0.0044951687837260423 -0.023910602173564902 0 -0.0042324177429333811 -0.023847280752890169 0 -0.0043932034610202134 -0.023817664304010375 0 -0.0044981431867709793 -0.023729737357206217 0 -0.0043310884517715996 -0.023640305429215188 0 -0.0043752702690200993 -0.023818798885607707 0 -0.0041709383432193357 -0.023733382984193377 0 -0.0043932034610202134 -0.023817664304010375 0 -0.0043310884517715996 -0.023640305429215188 0 -0.0041489250639981266 -0.02371653622087478 0 -0.0043932034610202134 -0.023817664304010375 0 -0.0044951687837260423 -0.023910602173564902 0 -0.0044981431867709793 -0.023729737357206217 0 -0.0044951687837260423 -0.023910602173564902 0 -0.0046977870348472138 -0.023725182992479391 0 -0.0048451021880495963 -0.023985770448304744 0 -0.0044951687837260423 -0.023910602173564902 0 -0.0046977870348472138 -0.023725182992479391 0 -0.0044981431867709793 -0.023729737357206217 0 -0.0046977870348472138 -0.023725182992479391 0 -0.0044981431867709793 -0.023729737357206217 0 -0.0045699837311048846 -0.023535661287473846 0 -0.0046977870348472138 -0.023725182992479391 0 -0.0045699837311048846 -0.023535661287473846 0 -0.004792738203125071 -0.023474626276509772 0 -0.0043310884517715996 -0.023640305429215188 0 -0.0044358489502364018 -0.023373359132750692 0 -0.0042028503993205846 -0.023526652932488838 0 -0.0045699837311048846 -0.023535661287473846 0 -0.0043310884517715996 -0.023640305429215188 0 -0.0044358489502364018 -0.023373359132750692 0 -0.0044981431867709793 -0.023729737357206217 0 -0.0045699837311048846 -0.023535661287473846 0 -0.0043310884517715996 -0.023640305429215188 0 -0.0043310884517715996 -0.023640305429215188 0 -0.0041960250603318688 -0.023620445316998601 0 -0.0042028503993205846 -0.023526652932488838 0 -0.0041176252902627875 -0.02362188776232169 0 -0.0041960250603318688 -0.023620445316998601 0 -0.0042028503993205846 -0.023526652932488838 0 -0.0036999401854634602 -0.023823427120774031 0 -0.003887980650278601 -0.023512514373040059 0 -0.0042028503993205846 -0.023526652932488838 0 -0.0040425367374271734 -0.024133457167939531 0 -0.004131779515770628 -0.023480199284070573 0 -0.0041709383432193357 -0.023733382984193377 0 -0.0040425367374271734 -0.024133457167939531 0 -0.0041176252902627875 -0.02362188776232169 0 -0.0041489250639981266 -0.02371653622087478 0 -0.0039694732590539262 -0.023631070985269786 0 -0.0041176252902627875 -0.02362188776232169 0 -0.0039694732590539262 -0.023631070985269786 0 -0.0042028503993205846 -0.023526652932488838 0 -0.0042292317840050987 -0.023776923259687631 0 -0.0041347299065425279 -0.023772670703019159 0 -0.0041477621898143866 -0.023803348044966845 0 -0.0043310884517715996 -0.023640305429215188 0 -0.0041489250639981266 -0.02371653622087478 0 -0.0041960250603318688 -0.023620445316998601 0 -0.0041176252902627875 -0.02362188776232169 0 -0.0041489250639981266 -0.02371653622087478 0 -0.0041960250603318688 -0.023620445316998601 0 -0.0042292317840050987 -0.023776923259687631 0 -0.0041347299065425279 -0.023772670703019159 0 -0.0041187078473606496 -0.023745565262944999 0 -0.0036516332785231083 -0.023926618793584622 0 -0.0034747753379347338 -0.023580683138742398 0 -0.0036744012682234603 -0.023665486873235168 0 -0.0036516332785231083 -0.023926618793584622 0 -0.0036744012682234603 -0.023665486873235168 0 -0.003887980650278601 -0.023512514373040059 0 -0.0040425367374271734 -0.024133457167939531 0 -0.0038938572359613548 -0.023578176971779632 0 -0.0041200884106680673 -0.023781948473387691 0 -0.0041347299065425279 -0.023772670703019159 0 -0.0041477621898143866 -0.023803348044966845 0 -0.0041200884106680673 -0.023781948473387691 0 -0.0041347299065425279 -0.023772670703019159 0 -0.0041187078473606496 -0.023745565262944999 0 -0.0043005487055334116 -0.024797704035832382 0 -0.0042247215965212186 -0.024921275531740526 0 -0.0041000754894241487 -0.024886310355299261 0 -0.0040425367374271734 -0.024133457167939531 0 -0.0042831757765794086 -0.025070099936590647 0 -0.0040425367374271734 -0.024133457167939531 0 -0.004291450519755464 -0.0254971473913632 0 -0.0041200884106680673 -0.023781948473387691 0 -0.0041187078473606496 -0.023745565262944999 0 -0.0040795869922474279 -0.023807058137900114 0 -0.0044483070694068495 -0.025648180532954173 0 -0.0042499252488994079 -0.025765866757475258 0 -0.0041508551092671311 -0.026059498971910868 0 -0.0040795869922474279 -0.023807058137900114 0 -0.0041477621898143866 -0.023803348044966845 0 -0.0042324177429333811 -0.023847280752890169 0 -0.0042948734832851483 -0.025576682311003855 0 -0.0044483070694068495 -0.025648180532954173 0 -0.0046856711554658127 -0.02567603814736686 0 -0.0042831757765794086 -0.025070099936590647 0 -0.0044127834367638152 -0.024712925661150371 0 -0.0042948734832851483 -0.025576682311003855 0 -0.0043401364712494332 -0.025668060996355553 0 -0.0044483070694068495 -0.025648180532954173 0 -0.0042376327366681005 -0.025631147563780148 0 -0.0043401364712494332 -0.025668060996355553 0 -0.0042499252488994079 -0.025765866757475258 0 -0.0042588460290212075 -0.025633192056906128 0 -0.0042948734832851483 -0.025576682311003855 0 -0.0043401364712494332 -0.025668060996355553 0 -0.0044177310285516483 -0.026157342748680774 0 -0.0042841375085374816 -0.025994021094316356 0 -0.0044177310285516483 -0.026157342748680774 0 -0.0042831757765794086 -0.025070099936590647 0 -0.0041200884106680673 -0.023781948473387691 0 -0.0040795869922474279 -0.023807058137900114 0 -0.0041477621898143866 -0.023803348044966845 0 -0.0044483070694068495 -0.025648180532954173 0 -0.0045465463310469289 -0.025782126699314074 0 -0.0044076180571870887 -0.025858952793327367 0 -0.0043401364712494332 -0.025668060996355553 0 -0.0044483070694068495 -0.025648180532954173 0 -0.0042499252488994079 -0.025765866757475258 0 -0.0043932034610202134 -0.023817664304010375 0 -0.0042292317840050987 -0.023776923259687631 0 -0.0042324177429333811 -0.023847280752890169 0 -0.0042292317840050987 -0.023776923259687631 0 -0.0041477621898143866 -0.023803348044966845 0 -0.0042324177429333811 -0.023847280752890169 0 -0.0045465463310469289 -0.025782126699314074 0 -0.0046856711554658127 -0.02567603814736686 0 -0.0046452125351521068 -0.025863481690953601 0 -0.0044483070694068495 -0.025648180532954173 0 -0.0045465463310469289 -0.025782126699314074 0 -0.0046856711554658127 -0.02567603814736686 0 -0.0046452125351521068 -0.025863481690953601 0 -0.0046704924235040348 -0.025997174026682085 0 -0.004818299592765563 -0.02591929446720493 0 -0.0046704924235040348 -0.025997174026682085 0 -0.0047017877303770841 -0.026217086488203634 0 -0.004818299592765563 -0.02591929446720493 0 -0.0046856711554658127 -0.02567603814736686 0 -0.0046452125351521068 -0.025863481690953601 0 -0.004818299592765563 -0.02591929446720493 0 -0.0045465463310469289 -0.025782126699314074 0 -0.0046452125351521068 -0.025863481690953601 0 -0.0045026779084221466 -0.025943098793355886 0 -0.0046452125351521068 -0.025863481690953601 0 -0.0046704924235040348 -0.025997174026682085 0 -0.0045026779084221466 -0.025943098793355886 0 -0.0046704924235040348 -0.025997174026682085 0 -0.0045026779084221466 -0.025943098793355886 0 -0.0047017877303770841 -0.026217086488203634 0 -0.0044559577325179508 -0.025502020563815429 0 -0.0043019646571297067 -0.026575166684999395 0 -0.0044483070694068495 -0.025648180532954173 0 -0.0044076180571870887 -0.025858952793327367 0 -0.0041964835340639241 -0.025951146378586351 0 -0.0044076180571870887 -0.025858952793327367 0 -0.0045026779084221466 -0.025943098793355886 0 -0.0043481382850687512 -0.025970597483682412 0 -0.0045465463310469289 -0.025782126699314074 0 -0.0044076180571870887 -0.025858952793327367 0 -0.0045026779084221466 -0.025943098793355886 0 -0.0045026779084221466 -0.025943098793355886 0 -0.0043481382850687512 -0.025970597483682412 0 -0.0043626444653064138 -0.026120369053505208 0 -0.0043481382850687512 -0.025970597483682412 0 -0.0043626444653064138 -0.026120369053505208 0 -0.0041964835340639241 -0.025951146378586351 0 -0.0044076180571870887 -0.025858952793327367 0 -0.0043481382850687512 -0.025970597483682412 0 -0.0041964835340639241 -0.025951146378586351 0 -0.0043626444653064138 -0.026120369053505208 0 -0.0047017877303770841 -0.026217086488203634 0 -0.0044871676330834583 -0.026331934556036492 0 -0.0043626444653064138 -0.026120369053505208 0 -0.0041964835340639241 -0.025951146378586351 0 -0.0041918353603577442 -0.026311694459356411 0 -0.0043626444653064138 -0.026120369053505208 0 -0.0041918353603577442 -0.026311694459356411 0 -0.0044871676330834583 -0.026331934556036492 0 -0.0045026779084221466 -0.025943098793355886 0 -0.0043626444653064138 -0.026120369053505208 0 -0.0047017877303770841 -0.026217086488203634 0 -0.0047412876955623372 -0.026176839565808987 0 -0.0049123175718045536 -0.026363497383951367 0 -0.0047017877303770841 -0.026217086488203634 0 -0.0048663918720574274 -0.026291758360149058 0 -0.0049104238113614387 -0.026351040321870051 0 -0.0047017877303770841 -0.026217086488203634 0 -0.004818299592765563 -0.02591929446720493 0 -0.0050539668080721205 -0.026035540244534708 0 -0.0050505055657547081 -0.025787493927161672 0 -0.004818299592765563 -0.02591929446720493 0 -0.0050539668080721205 -0.026035540244534708 0 -0.0048502821869971877 -0.024918439258630815 0 -0.0048615651948897493 -0.02435726163742918 0 -0.0050505055657547081 -0.025787493927161672 0 -0.0050539668080721205 -0.026035540244534708 0 -0.0053883426585475411 -0.025877324266461811 0 -0.0049123175718045536 -0.026363497383951367 0 -0.0048615651948897493 -0.02435726163742918 0 -0.0048663918720574274 -0.026291758360149058 0 -0.0048171136032952493 -0.026301148357183654 0 -0.0047751700684604262 -0.026426384552222515 0 -0.0048663918720574274 -0.026291758360149058 0 -0.0048171136032952493 -0.026301148357183654 0 -0.0049104238113614387 -0.026351040321870051 0 -0.0048171136032952493 -0.026301148357183654 0 -0.0046780500588932449 -0.026291185395737111 0 -0.0047751700684604262 -0.026426384552222515 0 -0.0046780500588932449 -0.026291185395737111 0 -0.0047751700684604262 -0.026426384552222515 0 -0.0045147877157476861 -0.02645391588531593 0 -0.0046780500588932449 -0.026291185395737111 0 -0.0045147877157476861 -0.02645391588531593 0 -0.0044484544624781679 -0.026085971048860113 0 -0.0045925032953821757 -0.021510377676539561 0 -0.0043479798730825317 -0.02139920463965558 0 -0.0044017355656357548 -0.021547710061052123 0 -0.0048615651948897493 -0.02435726163742918 0 -0.0048405125915583561 -0.022545582037676509 0 -0.0048615651948897493 -0.02435726163742918 0 -0.0043269817386757739 -0.023826608431306094 0 -0.0042978278698223892 -0.024174626811843868 0 -0.0043269817386757739 -0.023826608431306094 0 -0.0041021260125235154 -0.02643262429128479 0 -0.0045147877157476861 -0.02645391588531593 0 -0.0044484544624781679 -0.026085971048860113 0 -0.0043479798730825317 -0.02139920463965558 0 -0.0041968638882145292 -0.021435343582773679 0 -0.0044017355656357548 -0.021547710061052123 0 -0.0041041185816500488 -0.021300805706985605 0 -0.0043479798730825317 -0.02139920463965558 0 -0.0041968638882145292 -0.021435343582773679 0 -0.0041041185816500488 -0.021300805706985605 0 -0.0041968638882145292 -0.021435343582773679 0 -0.0040860612064509754 -0.021496247188549561 0 -0.0042822306257832852 -0.01918172955020302 0 -0.0047469615961545884 -0.022886489032277819 0 -0.0041968638882145292 -0.021435343582773679 0 -0.004213010977730111 -0.021584058241250391 0 -0.0040860612064509754 -0.021496247188549561 0 -0.0040352798524433886 -0.021618721904662588 0 -0.004213010977730111 -0.021584058241250391 0 -0.0040860612064509754 -0.021496247188549561 0 -0.0054190420182649622 -0.02367401404315627 0 -0.0052198131123014774 -0.023594185075483051 0 -0.0051410503071857485 -0.023833092847996045 0 -0.0041968638882145292 -0.021435343582773679 0 -0.004213010977730111 -0.021584058241250391 0 -0.0044017355656357548 -0.021547710061052123 0 -0.0047469615961545884 -0.022886489032277819 0 -0.0048405125915583561 -0.022545582037676509 0 -0.0054190420182649622 -0.02367401404315627 0 -0.0052198131123014774 -0.023594185075483051 0 -0.0054241037125041707 -0.023443381205760144 0 -0.0052198131123014774 -0.023594185075483051 0 -0.0054241037125041707 -0.023443381205760144 0 -0.005208157230177095 -0.023363523191829289 0 -0.0056833845805607155 -0.023522317901925542 0 -0.0054241037125041707 -0.023443381205760144 0 -0.0055943519444865948 -0.023280728493231189 0 -0.0056833845805607155 -0.023522317901925542 0 -0.0054190420182649622 -0.02367401404315627 0 -0.0054241037125041707 -0.023443381205760144 0 -0.0046977870348472138 -0.023725182992479391 0 -0.0048451021880495963 -0.023985770448304744 0 -0.0049894364880042697 -0.023603573389761438 0 -0.0052198131123014774 -0.023594185075483051 0 -0.0051410503071857485 -0.023833092847996045 0 -0.0049894364880042697 -0.023603573389761438 0 -0.0048451021880495963 -0.023985770448304744 0 -0.0051410503071857485 -0.023833092847996045 0 -0.0049894364880042697 -0.023603573389761438 0 -0.0052198131123014774 -0.023594185075483051 0 -0.0049894364880042697 -0.023603573389761438 0 -0.005208157230177095 -0.023363523191829289 0 -0.0049894364880042697 -0.023603573389761438 0 -0.0049997914530408747 -0.023278648808638735 0 -0.005208157230177095 -0.023363523191829289 0 -0.0046977870348472138 -0.023725182992479391 0 -0.0049894364880042697 -0.023603573389761438 0 -0.004792738203125071 -0.023474626276509772 0 -0.0049894364880042697 -0.023603573389761438 0 -0.004792738203125071 -0.023474626276509772 0 -0.0049997914530408747 -0.023278648808638735 0 -0.004792738203125071 -0.023474626276509772 0 -0.004771646240107682 -0.023192894977550425 0 -0.0049997914530408747 -0.023278648808638735 0 -0.0049997914530408747 -0.023278648808638735 0 -0.0051426487024902661 -0.022974428778641441 0 -0.005208157230177095 -0.023363523191829289 0 -0.0053411990537549593 -0.022846370553356997 0 -0.0045227350272756149 -0.022247745282508741 0 -0.004771646240107682 -0.023192894977550425 0 -0.0049997914530408747 -0.023278648808638735 0 -0.0051426487024902661 -0.022974428778641441 0 -0.004771646240107682 -0.023192894977550425 0 -0.0051426487024902661 -0.022974428778641441 0 -0.0047679253659320903 -0.022885646441289053 0 -0.0055943519444865948 -0.023280728493231189 0 -0.0053884217727502379 -0.023221348989674016 0 -0.0055027142101731555 -0.023027304097198727 0 -0.005187225618652945 -0.020200800944109785 0 -0.0052459777725810302 -0.019377741281354437 0 -0.0054241037125041707 -0.023443381205760144 0 -0.0055943519444865948 -0.023280728493231189 0 -0.0053884217727502379 -0.023221348989674016 0 -0.0051426487024902661 -0.022974428778641441 0 -0.0053884217727502379 -0.023221348989674016 0 -0.005208157230177095 -0.023363523191829289 0 -0.0054241037125041707 -0.023443381205760144 0 -0.0053884217727502379 -0.023221348989674016 0 -0.005208157230177095 -0.023363523191829289 0 -0.0053411990537549593 -0.022846370553356997 0 -0.0052459777725810302 -0.019377741281354437 0 -0.0051426487024902661 -0.022974428778641441 0 -0.0053884217727502379 -0.023221348989674016 0 -0.0055027142101731555 -0.023027304097198727 0 -0.0035908843285572096 -0.015568744159283074 0 -0.0046885179635578478 -0.015091145187893959 0 -0.0043055211898354456 -0.016212228539485413 0 -0.0052459777725810302 -0.019377741281354437 0 -0.0055300009508304545 -0.018808074210613469 0 -0.0046885179635578478 -0.015091145187893959 0 -0.0043055211898354456 -0.016212228539485413 0 -0.0052963695767654006 -0.016933376351051313 0 -0.0051413358282446885 -0.021885080482652006 0 -0.0062010998305625786 -0.022071655396875368 0 -0.0058578954119112726 -0.021050864645711608 0 -0.0053616527985012076 -0.02037278655598455 0 -0.0058578954119112726 -0.021050864645711608 0 -0.0049464933507711566 -0.021232647500074971 0 -0.0055300009508304545 -0.018808074210613469 0 -0.0052816745578969076 -0.019283809611311414 0 -0.0053616527985012076 -0.02037278655598455 0 -0.0058578954119112726 -0.021050864645711608 0 -0.0052157379881529083 -0.019289593278644851 0 -0.0052963695767654006 -0.016933376351051313 0 -0.0043551431846726727 -0.017218613197360389 0 -0.0047969501165379394 -0.018230132813354609 0 -0.0043055211898354456 -0.016212228539485413 0 -0.0052963695767654006 -0.016933376351051313 0 -0.0043551431846726727 -0.017218613197360389 0 -0.0037642158213909011 -0.017558084333521823 0 -0.0043551431846726727 -0.017218613197360389 0 -0.0043612901707666676 -0.018203982284684443 0 -0.004374774132818374 -0.021719759460679316 0 -0.0049464933507711566 -0.021232647500074971 0 -0.0044999510846760607 -0.021048851706592951 0 -0.0051413358282446885 -0.021885080482652006 0 -0.004374774132818374 -0.021719759460679316 0 -0.0049464933507711566 -0.021232647500074971 0 -0.0051413358282446885 -0.021885080482652006 0 -0.0058578954119112726 -0.021050864645711608 0 -0.0049464933507711566 -0.021232647500074971 0 -0.0053616527985012076 -0.02037278655598455 0 -0.0049464933507711566 -0.021232647500074971 0 -0.0044999510846760607 -0.021048851706592951 0 -0.0053444176921183181 -0.020428614171279971 0 -0.0044292021925068231 -0.020675716180561975 0 -0.004374774132818374 -0.021719759460679316 0 -0.0044999510846760607 -0.021048851706592951 0 -0.0042327132923633409 -0.02154002802634326 0 -0.0044292021925068231 -0.020675716180561975 0 -0.0038282088623595107 -0.021030091852806482 0 -0.0044999510846760607 -0.021048851706592951 0 -0.0042327132923633409 -0.02154002802634326 0 -0.0041096743890020543 -0.021496751211195684 0 -0.0042327132923633409 -0.02154002802634326 0 -0.0041096743890020543 -0.021496751211195684 0 -0.0040483179863137443 -0.021823585410406632 0 -0.0041096743890020543 -0.021496751211195684 0 -0.0040483179863137443 -0.021823585410406632 0 -0.003920883130468877 -0.021846825238992659 0 -0.0045227350272756149 -0.022247745282508741 0 -0.0041717259783355621 -0.022276382137954576 0 -0.004374774132818374 -0.021719759460679316 0 -0.0042327132923633409 -0.02154002802634326 0 -0.0040483179863137443 -0.021823585410406632 0 -0.0047679253659320903 -0.022885646441289053 0 -0.0043477508019111391 -0.022697189449826537 0 -0.0045069906834170233 -0.023078331004685527 0 -0.004771646240107682 -0.023192894977550425 0 -0.0047679253659320903 -0.022885646441289053 0 -0.0045069906834170233 -0.023078331004685527 0 -0.0043477508019111391 -0.022697189449826537 0 -0.0045069906834170233 -0.023078331004685527 0 -0.0041703503982100038 -0.023196625341844773 0 -0.0045069906834170233 -0.023078331004685527 0 -0.0044358489502364018 -0.023373359132750692 0 -0.0041703503982100038 -0.023196625341844773 0 -0.0044358489502364018 -0.023373359132750692 0 -0.0042028503993205846 -0.023526652932488838 0 -0.0041703503982100038 -0.023196625341844773 0 -0.0045699837311048846 -0.023535661287473846 0 -0.004792738203125071 -0.023474626276509772 0 -0.004771646240107682 -0.023192894977550425 0 -0.0045699837311048846 -0.023535661287473846 0 -0.004771646240107682 -0.023192894977550425 0 -0.0044358489502364018 -0.023373359132750692 0 -0.004771646240107682 -0.023192894977550425 0 -0.0045069906834170233 -0.023078331004685527 0 -0.0044358489502364018 -0.023373359132750692 0 -0.0037482254928899671 -0.023273019497935823 0 -0.0034747753379347338 -0.023580683138742398 0 -0.0034329279088606297 -0.023143190162723381 0 -0.0037482254928899671 -0.023273019497935823 0 -0.0034747753379347338 -0.023580683138742398 0 -0.0036744012682234603 -0.023665486873235168 0 -0.0037482254928899671 -0.023273019497935823 0 -0.0036744012682234603 -0.023665486873235168 0 -0.003887980650278601 -0.023512514373040059 0 -0.0037482254928899671 -0.023273019497935823 0 -0.003887980650278601 -0.023512514373040059 0 -0.0041703503982100038 -0.023196625341844773 0 -0.003887980650278601 -0.023512514373040059 0 -0.0042028503993205846 -0.023526652932488838 0 -0.0041703503982100038 -0.023196625341844773 0 -0.0037482254928899671 -0.023273019497935823 0 -0.0041703503982100038 -0.023196625341844773 0 -0.0039228440769056832 -0.022888357236929713 0 -0.0043477508019111391 -0.022697189449826537 0 -0.0041703503982100038 -0.023196625341844773 0 -0.0039228440769056832 -0.022888357236929713 0 -0.0037482254928899671 -0.023273019497935823 0 -0.0039228440769056832 -0.022888357236929713 0 -0.0036030508371618533 -0.022896757719344223 0 -0.0037482254928899671 -0.023273019497935823 0 -0.0034329279088606297 -0.023143190162723381 0 -0.0036030508371618533 -0.022896757719344223 0 -0.0034329279088606297 -0.023143190162723381 0 -0.0036030508371618533 -0.022896757719344223 0 -0.0033083000839751304 -0.022772413347100035 0 -0.0036030508371618533 -0.022896757719344223 0 -0.0036483356053163131 -0.022319266006751416 0 -0.0033083000839751304 -0.022772413347100035 0 -0.0036483356053163131 -0.022319266006751416 0 -0.003586151834527537 -0.022090892090245392 0 -0.0033083000839751304 -0.022772413347100035 0 -0.0039228440769056832 -0.022888357236929713 0 -0.0036030508371618533 -0.022896757719344223 0 -0.0036483356053163131 -0.022319266006751416 0 -0.0041717259783355621 -0.022276382137954576 0 -0.0036385341726288749 -0.022282442902580215 0 -0.0043477508019111391 -0.022697189449826537 0 -0.0039228440769056832 -0.022888357236929713 0 -0.0036483356053163131 -0.022319266006751416 0 -0.0040483179863137443 -0.021823585410406632 0 -0.0036483356053163131 -0.022319266006751416 0 -0.003920883130468877 -0.021846825238992659 0 -0.0041096743890020543 -0.021496751211195684 0 -0.003920883130468877 -0.021846825238992659 0 -0.0038000669430621795 -0.021851914335131215 0 -0.0041096743890020543 -0.021496751211195684 0 -0.0038000669430621795 -0.021851914335131215 0 -0.0037202505773229247 -0.021686615404941257 0 -0.0036483356053163131 -0.022319266006751416 0 -0.003920883130468877 -0.021846825238992659 0 -0.0038000669430621795 -0.021851914335131215 0 -0.003586151834527537 -0.022090892090245392 0 -0.0037202505773229247 -0.021686615404941257 0 -0.0030285303492592034 -0.022050068458666961 0 -0.0036483356053163131 -0.022319266006751416 0 -0.0038000669430621795 -0.021851914335131215 0 -0.003586151834527537 -0.022090892090245392 0 -0.0038000669430621795 -0.021851914335131215 0 -0.003586151834527537 -0.022090892090245392 0 -0.0037202505773229247 -0.021686615404941257 0 -0.002945955406108446 -0.020929671907714782 0 -0.0029425300058781938 -0.020832866656329357 0 -0.0028395187670570477 -0.021090720116843081 0 -0.0029425300058781938 -0.020832866656329357 0 -0.0028395187670570477 -0.021090720116843081 0 -0.0029261324830608835 -0.020872423231709479 0 -0.0026631305732188995 -0.020430685399278094 0 -0.0030768624793472039 -0.020460239942033925 0 -0.0023062188199322376 -0.020082864128251797 0 -0.003104140176808302 -0.020392926662350975 0 -0.0025948819196026304 -0.019352902588994664 0 -0.0029425300058781938 -0.020832866656329357 0 -0.0029261324830608835 -0.020872423231709479 0 -0.003104140176808302 -0.020392926662350975 0 -0.003104140176808302 -0.020392926662350975 0 -0.0033447810063685413 -0.019484143021229874 0 -0.0025948819196026304 -0.019352902588994664 0 -0.0038282088623595107 -0.021030091852806482 0 -0.0033006918406419208 -0.021321450478997632 0 -0.0035480871628885149 -0.020582068661169232 0 -0.002945955406108446 -0.020929671907714782 0 -0.003104140176808302 -0.020392926662350975 0 -0.002945955406108446 -0.020929671907714782 0 -0.0029425300058781938 -0.020832866656329357 0 -0.003104140176808302 -0.020392926662350975 0 -0.0035480871628885149 -0.020582068661169232 0 -0.003104140176808302 -0.020392926662350975 0 -0.0037907985812039575 -0.019940409830010938 0 -0.004275791950938199 -0.020304738628144279 0 -0.0035480871628885149 -0.020582068661169232 0 -0.0037907985812039575 -0.019940409830010938 0 -0.0037907985812039575 -0.019940409830010938 0 -0.0038761680734767266 -0.019342532451231874 0 -0.0044994219193746658 -0.019394251180590717 0 -0.0037907985812039575 -0.019940409830010938 0 -0.0033447810063685413 -0.019484143021229874 0 -0.0038761680734767266 -0.019342532451231874 0 -0.003104140176808302 -0.020392926662350975 0 -0.0037907985812039575 -0.019940409830010938 0 -0.0033447810063685413 -0.019484143021229874 0 -0.0033447810063685413 -0.019484143021229874 0 -0.0038761680734767266 -0.019342532451231874 0 -0.0035724727834593579 -0.018950064344741797 0 -0.0038761680734767266 -0.019342532451231874 0 -0.0039975198045560456 -0.018652008530766484 0 -0.0035724727834593579 -0.018950064344741797 0 -0.0038769967182385556 -0.019337541828688676 0 -0.0039823548671464532 -0.018612688984853559 0 -0.0038761680734767266 -0.019342532451231874 0 -0.0039710313459374912 -0.018757423387073473 0 -0.0043074908778366972 -0.019067585958372275 0 -0.0035724727834593579 -0.018950064344741797 0 -0.0030587547196998573 -0.018832213725575937 0 -0.0035388002169399538 -0.018331509852869375 0 -0.0039975198045560456 -0.018652008530766484 0 -0.0035724727834593579 -0.018950064344741797 0 -0.0035388002169399538 -0.018331509852869375 0 -0.0033447810063685413 -0.019484143021229874 0 -0.0035724727834593579 -0.018950064344741797 0 -0.0030587547196998573 -0.018832213725575937 0 -0.0030587547196998573 -0.018832213725575937 0 -0.0026471461263691274 -0.018677804550605741 0 -0.0025948819196026304 -0.019352902588994664 0 -0.0030587547196998573 -0.018832213725575937 0 -0.0026471461263691274 -0.018677804550605741 0 -0.0030031075600268236 -0.018301982444889182 0 -0.0026471461263691274 -0.018677804550605741 0 -0.0025948819196026304 -0.019352902588994664 0 -0.0020719760701730116 -0.018879224742901449 0 -0.0023062188199322376 -0.020082864128251797 0 -0.0021342706450152822 -0.019519619783191989 0 -0.0025948819196026304 -0.019352902588994664 0 -0.0021342706450152822 -0.019519619783191989 0 -0.0025948819196026304 -0.019352902588994664 0 -0.0020719760701730116 -0.018879224742901449 0 -0.0033447810063685413 -0.019484143021229874 0 -0.0030587547196998573 -0.018832213725575937 0 -0.0025948819196026304 -0.019352902588994664 0 -0.0033178599708546409 -0.01854527409624827 0 -0.0048268946296052039 -0.018988070779938429 0 -0.0043612901707666676 -0.018203982284684443 0 -0.0048268946296052039 -0.018988070779938429 0 -0.0049123937804907581 -0.019188307049043504 0 -0.0045179551451407091 -0.019304819659739098 0 -0.0048268946296052039 -0.018988070779938429 0 -0.0043612901707666676 -0.018203982284684443 0 -0.0047969501165379394 -0.018230132813354609 0 -0.0043551431846726727 -0.017218613197360389 0 -0.0043612901707666676 -0.018203982284684443 0 -0.0047969501165379394 -0.018230132813354609 0 -0.0048268946296052039 -0.018988070779938429 0 -0.0047969501165379394 -0.018230132813354609 0 -0.0052157379881529083 -0.019289593278644851 0 -0.0052963695767654006 -0.016933376351051313 0 -0.0047969501165379394 -0.018230132813354609 0 -0.0052157379881529083 -0.019289593278644851 0 -0.0048268946296052039 -0.018988070779938429 0 -0.0052157379881529083 -0.019289593278644851 0 -0.0049123937804907581 -0.019188307049043504 0 -0.0052157379881529083 -0.019289593278644851 0 -0.0044994219193746658 -0.019394251180590717 0 -0.0049123937804907581 -0.019188307049043504 0 -0.0053616527985012076 -0.02037278655598455 0 -0.004275791950938199 -0.020304738628144279 0 -0.0052157379881529083 -0.019289593278644851 0 -0.004275791950938199 -0.020304738628144279 0 -0.0052157379881529083 -0.019289593278644851 0 -0.0044994219193746658 -0.019394251180590717 0 -0.004275791950938199 -0.020304738628144279 0 -0.0037907985812039575 -0.019940409830010938 0 -0.0044994219193746658 -0.019394251180590717 0 -0.0044994219193746658 -0.019394251180590717 0 -0.0043074908778366972 -0.019067585958372275 0 -0.0046444596577134654 -0.019084754555111275 0 -0.0038761680734767266 -0.019342532451231874 0 -0.0044994219193746658 -0.019394251180590717 0 -0.0043074908778366972 -0.019067585958372275 0 -0.0043074908778366972 -0.019067585958372275 0 -0.0046444596577134654 -0.019084754555111275 0 -0.0044366593622379401 -0.018733692024185906 0 -0.0039710313459374912 -0.018757423387073473 0 -0.0043074908778366972 -0.019067585958372275 0 -0.0044366593622379401 -0.018733692024185906 0 -0.0046444596577134654 -0.019084754555111275 0 -0.0048837463610865847 -0.018896839399307613 0 -0.0044366593622379401 -0.018733692024185906 0 -0.0044994219193746658 -0.019394251180590717 0 -0.0046444596577134654 -0.019084754555111275 0 -0.0049123937804907581 -0.019188307049043504 0 -0.0049123937804907581 -0.019188307049043504 0 -0.0048837463610865847 -0.018896839399307613 0 -0.0045179551451407091 -0.019304819659739098 0 -0.0046444596577134654 -0.019084754555111275 0 -0.0049123937804907581 -0.019188307049043504 0 -0.0048837463610865847 -0.018896839399307613 0 0.0007289282972226226 -0.0081042246788575311 0 0.00045552642430183633 -0.0081411018249821845 0 0.0009360943921023965 -0.0084296630647319373 0 -0.0022063348128985635 -0.013569368680310275 0 -0.0017867251650177196 -0.013853247436074653 0 0.00057528862234775316 -0.0081187924119583404 0 0.00043045854504647718 -0.0085229484621023987 0 0.0003613160780379474 -0.0087773057383916872 0 0.0007289282972226226 -0.0081042246788575311 0 0.00045552642430183633 -0.0081411018249821845 0 0.00043045854504647718 -0.0085229484621023987 0 0.0007289282972226226 -0.0081042246788575311 0 0.00057528862234775316 -0.0081187924119583404 0 0.00043045854504647718 -0.0085229484621023987 0 -0.0022063348128985635 -0.013569368680310275 0 -0.0024416948157902261 -0.013302584554717212 0 0.00045552642430183633 -0.0081411018249821845 0 0.00043045854504647718 -0.0085229484621023987 0 -0.00031323820364893287 -0.0087183517572845606 0 0.00043045854504647718 -0.0085229484621023987 0 -0.00031323820364893287 -0.0087183517572845606 0 7.9482456727798128e-05 -0.0096278450508891274 0 -0.0048837463610865847 -0.018896839399307613 0 -0.0045876776073110817 -0.018208541971237502 0 -0.0044366593622379401 -0.018733692024185906 0 -0.0045876776073110817 -0.018208541971237502 0 -0.0044366593622379401 -0.018733692024185906 0 -0.0040043112324248285 -0.018202749083222412 0 -0.0039710313459374912 -0.018757423387073473 0 -0.0044366593622379401 -0.018733692024185906 0 -0.0040043112324248285 -0.018202749083222412 0 -0.0045876776073110817 -0.018208541971237502 0 -0.0040926546899742455 -0.017540082035458645 0 -0.0040043112324248285 -0.018202749083222412 0 -0.0026202976841247639 -0.014885681392008878 0 -0.0041620207018556983 -0.018503476869195751 0 -0.0024416948157902261 -0.013302584554717212 0 -0.0026202976841247639 -0.014885681392008878 0 -0.00031323820364893287 -0.0087183517572845606 0 -0.00073871925865252213 -0.010288515449906924 0 -0.0015728818522300451 -0.01036278933540959 0 -0.00073871925865252213 -0.010288515449906924 0 -0.0011931677769741219 -0.01056438314882371 0 -0.0015728818522300451 -0.01036278933540959 0 -0.0026202976841247639 -0.014885681392008878 0 -0.0018010254486004256 -0.014491425198738389 0 -0.0020005910833665779 -0.014233681273509709 0 -0.0020160486176983533 -0.014135102026777899 0 -0.0019353176749458015 -0.014156163780052751 0 -0.0026202976841247639 -0.014885681392008878 0 -0.0018429645513533086 -0.013208710055423534 0 -7.488958119598692e-05 -0.012508960259879768 0 -5.1802380584179822e-05 -0.012387053406639214 0 -9.4612223818546062e-05 -0.012590935243732101 0 -5.1802380584179822e-05 -0.012387053406639214 0 -8.3318422919691948e-07 -0.012079557237084941 0 -2.3897228154600807e-07 -0.014024874224873723 0 -0.0018429645513533086 -0.013208710055423534 0 -0.0018010254486004256 -0.014491425198738389 0 -0.0011931677769741219 -0.01056438314882371 0 -0.0015728818522300451 -0.01036278933540959 0 -0.0015952107716273494 -0.010912814043536371 0 -5.1802380584179822e-05 -0.012387053406639214 0 -8.3318422919691948e-07 -0.012079557237084941 0 -0.00018664936991935721 -0.011357921670650651 0 -0.0011931677769741219 -0.01056438314882371 0 -0.0015952107716273494 -0.010912814043536371 0 -0.00018664936991935721 -0.011357921670650651 0 -0.0018429645513533086 -0.013208710055423534 0 -0.00010689763495486309 -0.011882009883175759 0 -0.00073871925865252213 -0.010288515449906924 0 -0.0011931677769741219 -0.01056438314882371 0 -0.00018664936991935721 -0.011357921670650651 0 -7.488958119598692e-05 -0.012508960259879768 0 -5.1802380584179822e-05 -0.012387053406639214 0 -0.00018664936991935721 -0.011357921670650651 0 -0.00018664936991935721 -0.011357921670650651 0 7.9482456727798128e-05 -0.0096278450508891274 0 7.1422642164015415e-07 -0.010133493695168201 0 -8.3318422919691948e-07 -0.012079557237084941 0 -0.00018664936991935721 -0.011357921670650651 0 7.1422642164015415e-07 -0.010133493695168201 0 -0.00073871925865252213 -0.010288515449906924 0 -0.00018664936991935721 -0.011357921670650651 0 7.9482456727798128e-05 -0.0096278450508891274 0 -0.00031323820364893287 -0.0087183517572845606 0 -0.00073871925865252213 -0.010288515449906924 0 7.9482456727798128e-05 -0.0096278450508891274 0 0.00043045854504647718 -0.0085229484621023987 0 7.9482456727798128e-05 -0.0096278450508891274 0 0.0003613160780379474 -0.0087773057383916872 0 7.9482456727798128e-05 -0.0096278450508891274 0 7.1422642164015415e-07 -0.010133493695168201 0 0.0003613160780379474 -0.0087773057383916872 0 7.0691187996262325e-07 -0.0081875764299967797 0 7.1422642164015415e-07 -0.010133493695168201 0 0.0003613160780379474 -0.0087773057383916872 0 -0.0030054996248661046 -0.017816063634340962 0 -0.0025288490345899122 -0.018060246816250961 0 -0.0029351771222223713 -0.017260802289115931 0 -0.0020656357900543502 -0.019660551813515066 0 -0.0013506247480205072 -0.017850979880035662 0 -0.0030054996248661046 -0.017816063634340962 0 -0.0025288490345899122 -0.018060246816250961 0 -0.0030031075600268236 -0.018301982444889182 0 -0.0030054996248661046 -0.017816063634340962 0 -0.0030031075600268236 -0.018301982444889182 0 -0.0032813707554618845 -0.017945344647431975 0 -0.0013578839476881674 -0.021014693267533243 0 -0.0018234710762041583 -0.020137435438297661 0 -0.00096616903905149729 -0.020377074223596484 0 -0.0013578839476881674 -0.021014693267533243 0 -0.00096616903905149729 -0.020377074223596484 0 -0.00063946431703904201 -0.020796990120079985 0 -0.0026471461263691274 -0.018677804550605741 0 -0.0025288490345899122 -0.018060246816250961 0 -0.0020719760701730116 -0.018879224742901449 0 -0.0013578839476881674 -0.021014693267533243 0 -0.0010385233859294457 -0.021172553561845872 0 -0.0010496062777659433 -0.021262366370716074 0 -0.0020656357900543502 -0.019660551813515066 0 -0.0014933303950284014 -0.020006648541545494 0 -0.0026471461263691274 -0.018677804550605741 0 -0.0025288490345899122 -0.018060246816250961 0 -0.0030031075600268236 -0.018301982444889182 0 -0.0030031075600268236 -0.018301982444889182 0 -0.0035388002169399538 -0.018331509852869375 0 -0.0032813707554618845 -0.017945344647431975 0 -0.0030587547196998573 -0.018832213725575937 0 -0.0030031075600268236 -0.018301982444889182 0 -0.0035388002169399538 -0.018331509852869375 0 -0.0039823548671464532 -0.018612688984853559 0 -0.0041620207018556983 -0.018503476869195751 0 -0.0039975198045560456 -0.018652008530766484 0 -0.0035388002169399538 -0.018331509852869375 0 -0.0041290017139168867 -0.017879640955605756 0 -0.0041290017139168867 -0.017879640955605756 0 -0.0036684651143396776 -0.017684969738558556 0 -0.0039105742410441846 -0.017295531344302818 0 -0.0035388002169399538 -0.018331509852869375 0 -0.0041290017139168867 -0.017879640955605756 0 -0.0036684651143396776 -0.017684969738558556 0 -0.0035388002169399538 -0.018331509852869375 0 -0.0032813707554618845 -0.017945344647431975 0 -0.0036684651143396776 -0.017684969738558556 0 -0.0032813707554618845 -0.017945344647431975 0 -0.0036684651143396776 -0.017684969738558556 0 -0.0033076023855739328 -0.017517749723767191 0 -0.0030054996248661046 -0.017816063634340962 0 -0.0032813707554618845 -0.017945344647431975 0 -0.0033076023855739328 -0.017517749723767191 0 -4.8738287089588613e-05 -0.015776556917650432 0 -4.8617978065074974e-05 -0.016252366330821059 0 -6.7404951613934185e-05 -0.016273924047417954 0 -0.0019489284023756267 -0.016439752904594009 0 -0.0013506247480205072 -0.017850979880035662 0 -0.0035296448438980497 -0.017100012629356235 0 -0.0033076023855739328 -0.017517749723767191 0 -0.0029351771222223713 -0.017260802289115931 0 -0.0036684651143396776 -0.017684969738558556 0 -0.0035296448438980497 -0.017100012629356235 0 -0.0033076023855739328 -0.017517749723767191 0 -0.0019489284023756267 -0.016439752904594009 0 -0.0018010254486004256 -0.014491425198738389 0 -0.0042581479490747054 -0.017090823259025837 0 -0.0041290017139168867 -0.017879640955605756 0 -0.0039105742410441846 -0.017295531344302818 0 -0.0036684651143396776 -0.017684969738558556 0 -0.0035296448438980497 -0.017100012629356235 0 -0.0039105742410441846 -0.017295531344302818 0 -0.0035296448438980497 -0.017100012629356235 0 -0.0039105742410441846 -0.017295531344302818 0 -0.0041234070859888713 -0.016935053616646437 0 -0.0042581479490747054 -0.017090823259025837 0 -0.0039105742410441846 -0.017295531344302818 0 -0.0041234070859888713 -0.016935053616646437 0 -4.8738287089588613e-05 -0.015776556917650432 0 -0.0012483678465503502 -0.015268643379508673 0 -1.7250883994604693e-06 -0.014029629976666668 0 -5.1802380584179822e-05 -0.012387053406639214 0 -9.4612223818546062e-05 -0.012590935243732101 0 -2.3897228154600807e-07 -0.014024874224873723 0 -0.0018010254486004256 -0.014491425198738389 0 4.9209926140179218e-07 -0.014025421405574908 0 -4.8738287089588613e-05 -0.015776556917650432 0 -1.7250883994604693e-06 -0.014029629976666668 0 -4.8617978065074974e-05 -0.016252366330821059 0 -1.7250883994604693e-06 -0.014029629976666668 0 2.419706252887866e-07 -0.016154031670988153 0 -4.8617978065074974e-05 -0.016252366330821059 0 2.419706252887866e-07 -0.016154031670988153 0 -4.8617978065074974e-05 -0.016252366330821059 0 -2.1756231156703072e-05 -0.017376697073138783 0 2.419706252887866e-07 -0.016154031670988153 0 -2.1756231156703072e-05 -0.017376697073138783 0 4.0398291943205536e-07 -0.019018420589801421 0 -4.8617978065074974e-05 -0.016252366330821059 0 -0.00013119732709246737 -0.016963103656831003 0 -2.1756231156703072e-05 -0.017376697073138783 0 -0.0030054996248661046 -0.017816063634340962 0 -0.0033076023855739328 -0.017517749723767191 0 -0.0029351771222223713 -0.017260802289115931 0 -0.00085585918194954901 -0.016853571988100245 0 -0.0013506247480205072 -0.017850979880035662 0 -0.0013506247480205072 -0.017850979880035662 0 -0.00031788040363217286 -0.019665587731223826 0 -0.00013119732709246737 -0.016963103656831003 0 -2.1756231156703072e-05 -0.017376697073138783 0 -7.4511586032360313e-05 -0.018652210506486546 0 -2.1756231156703072e-05 -0.017376697073138783 0 4.0398291943205536e-07 -0.019018420589801421 0 -7.4511586032360313e-05 -0.018652210506486546 0 4.0398291943205536e-07 -0.019018420589801421 0 -5.1629712825778171e-05 -0.02058172303613973 0 4.8517660202061128e-05 -0.020927515406340351 0 4.0398291943205536e-07 -0.019018420589801421 0 -7.4511586032360313e-05 -0.018652210506486546 0 -5.1629712825778171e-05 -0.02058172303613973 0 -0.00031788040363217286 -0.019665587731223826 0 -1.2946867527325353e-05 -0.020396513687279839 0 -0.00096616903905149729 -0.020377074223596484 0 -0.00063946431703904201 -0.020796990120079985 0 -5.1629712825778171e-05 -0.02058172303613973 0 -0.00063946431703904201 -0.020796990120079985 0 -5.1629712825778171e-05 -0.02058172303613973 0 -3.238760009282376e-05 -0.021449393459604615 0 -0.0011721144822427637 -0.021279260782025425 0 -0.0010385233859294457 -0.021172553561845872 0 -0.0011289801046560867 -0.021227462382054051 0 -0.00061794819639340057 -0.021342976241174087 0 -0.0010144570615160686 -0.021200775367603321 0 -0.0013578839476881674 -0.021014693267533243 0 -0.00063946431703904201 -0.020796990120079985 0 -0.0010385233859294457 -0.021172553561845872 0 -0.00063946431703904201 -0.020796990120079985 0 -3.238760009282376e-05 -0.021449393459604615 0 -0.0010385233859294457 -0.021172553561845872 0 0.00014372196225413496 -0.021427473912963693 0 -0.00025119415580244781 -0.021803974029558259 0 5.7081869334388009e-05 -0.021392153820126533 0 -0.00061794819639340057 -0.021342976241174087 0 -0.00064855017776204186 -0.021320677470369549 0 -3.238760009282376e-05 -0.021449393459604615 0 0.00014372196225413496 -0.021427473912963693 0 5.7081869334388009e-05 -0.021392153820126533 0 -5.1629712825778171e-05 -0.02058172303613973 0 -3.238760009282376e-05 -0.021449393459604615 0 0.00014372196225413496 -0.021427473912963693 0 -5.1629712825778171e-05 -0.02058172303613973 0 0.00014372196225413496 -0.021427473912963693 0 0.00012587245457492535 -0.021647938002958313 0 0.00014372196225413496 -0.021427473912963693 0 0.00012587245457492535 -0.021647938002958313 0 -0.00025119415580244781 -0.021803974029558259 0 -9.4206021935252713e-05 -0.02223218234384081 0 4.8517660202061128e-05 -0.020927515406340351 0 -1.4453409673497772e-06 -0.022872793286218818 0 0.00012587245457492535 -0.021647938002958313 0 -9.4206021935252713e-05 -0.02223218234384081 0 4.8517660202061128e-05 -0.020927515406340351 0 4.0398291943205536e-07 -0.019018420589801421 0 4.8517660202061128e-05 -0.020927515406340351 0 -1.4453409673497772e-06 -0.022872793286218818 0 0.00012587245457492535 -0.021647938002958313 0 -9.4206021935252713e-05 -0.02223218234384081 0 -0.00046216750998964956 -0.023215683485585639 0 -5.1629712825778171e-05 -0.02058172303613973 0 0.00012587245457492535 -0.021647938002958313 0 4.8517660202061128e-05 -0.020927515406340351 0 -1.4453409673497772e-06 -0.022872793286218818 0 -0.00043047821509570284 -0.024420989274344621 0 -0.00028062130727221732 -0.026052324505648292 0 -1.4453409673497772e-06 -0.022872793286218818 0 -0.00028062130727221732 -0.026052324505648292 0 6.9323026944843946e-07 -0.028062787078885616 0 -1.4453409673497772e-06 -0.022872793286218818 0 -0.00043047821509570284 -0.024420989274344621 0 -0.00046216750998964956 -0.023215683485585639 0 -9.4206021935252713e-05 -0.02223218234384081 0 -1.4453409673497772e-06 -0.022872793286218818 0 -0.00046216750998964956 -0.023215683485585639 0 -0.00043047821509570284 -0.024420989274344621 0 -0.00028062130727221732 -0.026052324505648292 0 -0.00080268484844176001 -0.026412376768913958 0 -0.00028062130727221732 -0.026052324505648292 0 -0.00047599749666324463 -0.027262720957554755 0 -0.00020380744439231575 -0.028136831256720448 0 -0.00047599749666324463 -0.027262720957554755 0 -0.000522519426507748 -0.028315180861622075 0 -0.00020380744439231575 -0.028136831256720448 0 -0.00047599749666324463 -0.027262720957554755 0 -0.00074524261446489337 -0.027653976444302286 0 -0.00080268484844176001 -0.026412376768913958 0 -0.00028062130727221732 -0.026052324505648292 0 -0.00047599749666324463 -0.027262720957554755 0 -0.00080268484844176001 -0.026412376768913958 0 -0.0010804406190160481 -0.021598716346324875 0 -0.0010333116607155488 -0.021482513161516267 0 -0.0011782268749001513 -0.02198790644529704 0 -0.00086754554918549716 -0.024639653988041767 0 -0.00079855416087446732 -0.024253113088927043 0 -0.00074524261446489337 -0.027653976444302286 0 -0.0007470383483314494 -0.02818416894700717 0 -0.00080268484844176001 -0.026412376768913958 0 -0.0010804406190160481 -0.021598716346324875 0 -0.0010333116607155488 -0.021482513161516267 0 -0.0010200316559140219 -0.021494036325429806 0 -0.00047599749666324463 -0.027262720957554755 0 -0.00074524261446489337 -0.027653976444302286 0 -0.000522519426507748 -0.028315180861622075 0 -0.00074524261446489337 -0.027653976444302286 0 -0.00080705361946702885 -0.029335276135798907 0 -0.000522519426507748 -0.028315180861622075 0 -0.00087294935681331862 -0.027925371255549773 0 -0.00026234216039659232 -0.029045125968424814 0 -0.00074524261446489337 -0.027653976444302286 0 -0.0007470383483314494 -0.02818416894700717 0 -0.00046340062842076263 -0.028380831289865762 0 -0.00080705361946702885 -0.029335276135798907 0 -0.000522519426507748 -0.028315180861622075 0 -0.00027078172108024179 -0.029567873762713921 0 0.00012587245457492535 -0.021647938002958313 0 -0.00046216750998964956 -0.023215683485585639 0 -0.00025119415580244781 -0.021803974029558259 0 -0.00046216750998964956 -0.023215683485585639 0 -0.0011782268749001513 -0.02198790644529704 0 -0.00025119415580244781 -0.021803974029558259 0 -0.00048148397786833416 -0.023525437254435577 0 -0.00079855416087446732 -0.024253113088927043 0 -0.00043047821509570284 -0.024420989274344621 0 -0.00046216750998964956 -0.023215683485585639 0 -0.00080268484844176001 -0.026412376768913958 0 -0.0010804406190160481 -0.021598716346324875 0 -0.0011782268749001513 -0.02198790644529704 0 -0.00093048191933255587 -0.021330929506068578 0 -0.0011782268749001513 -0.02198790644529704 0 -0.00025119415580244781 -0.021803974029558259 0 -0.00093048191933255587 -0.021330929506068578 0 -0.00025119415580244781 -0.021803974029558259 0 -0.00093048191933255587 -0.021330929506068578 0 5.7081869334388009e-05 -0.021392153820126533 0 -0.00093048191933255587 -0.021330929506068578 0 -0.0013399678654330326 -0.021222943412821819 0 -0.0013548081355143949 -0.021277380993270405 0 -0.00093048191933255587 -0.021330929506068578 0 -0.0011100592373632684 -0.021488569865019635 0 -0.0013548081355143949 -0.021277380993270405 0 -0.00090893957386927924 -0.021319151751802243 0 -0.00064855017776204186 -0.021320677470369549 0 -0.00093048191933255587 -0.021330929506068578 0 -0.0010200316559140219 -0.021494036325429806 0 -0.00096922172274234452 -0.021576193397264652 0 -0.0010804406190160481 -0.021598716346324875 0 -0.00093048191933255587 -0.021330929506068578 0 -0.0010200316559140219 -0.021494036325429806 0 -0.00093048191933255587 -0.021330929506068578 0 -0.0011100592373632684 -0.021488569865019635 0 -0.00096922172274234452 -0.021576193397264652 0 -0.0011100592373632684 -0.021488569865019635 0 -0.00096922172274234452 -0.021576193397264652 0 -0.0010564281409131285 -0.021722744574384674 0 -0.0011100592373632684 -0.021488569865019635 0 -0.0013705365308822705 -0.02154984410548785 0 -0.0013548081355143949 -0.021277380993270405 0 -0.00086754554918549716 -0.024639653988041767 0 -0.00050072158395471377 -0.026727013751812825 0 -0.0010333116607155488 -0.021482513161516267 0 -0.00089490900340297326 -0.021564259318129334 0 -0.000513075708153174 -0.021505787991441296 0 -0.0007470383483314494 -0.02818416894700717 0 -0.00046340062842076263 -0.028380831289865762 0 -5.8675821049362623e-05 -0.028902181585305237 0 -0.00026234216039659232 -0.029045125968424814 0 -0.00050072158395471377 -0.026727013751812825 0 -0.00089490900340297326 -0.021564259318129334 0 -0.0010200316559140219 -0.021494036325429806 0 -0.00096922172274234452 -0.021576193397264652 0 -0.0010333116607155488 -0.021482513161516267 0 -0.00089490900340297326 -0.021564259318129334 0 -0.0010200316559140219 -0.021494036325429806 0 -0.00089490900340297326 -0.021564259318129334 0 -0.00096922172274234452 -0.021576193397264652 0 -0.00085869608507651294 -0.021826417952409312 0 -0.00096922172274234452 -0.021576193397264652 0 -0.00085869608507651294 -0.021826417952409312 0 -0.00087696390506105868 -0.021797196651655124 0 -0.00089490900340297326 -0.021564259318129334 0 -0.000513075708153174 -0.021505787991441296 0 -0.00043910215051867231 -0.021864590712954639 0 -0.00089490900340297326 -0.021564259318129334 0 -0.00085869608507651294 -0.021826417952409312 0 -0.00043910215051867231 -0.021864590712954639 0 -0.00086890507759066003 -0.02184486050044961 0 -0.00069674564785856511 -0.022473028148987693 0 -0.00085869608507651294 -0.021826417952409312 0 -0.00087696390506105868 -0.021797196651655124 0 -0.00069517921822553474 -0.021894120948936325 0 -0.00085869608507651294 -0.021826417952409312 0 -0.00079974373572174601 -0.022771649673253895 0 -0.00043910215051867231 -0.021864590712954639 0 -0.00087696390506105868 -0.021797196651655124 0 -0.00088767323220902659 -0.021977614536635309 0 -0.00069517921822553474 -0.021894120948936325 0 -0.00069517921822553474 -0.021894120948936325 0 -0.0005386129543884005 -0.022135661636023551 0 -0.00073391363745593731 -0.022078371380820895 0 -0.00069674564785856511 -0.022473028148987693 0 -0.00069139966403625067 -0.022360140472141521 0 -0.00088767323220902659 -0.021977614536635309 0 -0.00069517921822553474 -0.021894120948936325 0 -0.00073391363745593731 -0.022078371380820895 0 -0.0010564281409131285 -0.021722744574384674 0 -0.0013531856710801825 -0.021829029141512073 0 -0.0013705365308822705 -0.02154984410548785 0 -0.0011100592373632684 -0.021488569865019635 0 -0.0010564281409131285 -0.021722744574384674 0 -0.0013705365308822705 -0.02154984410548785 0 -0.00096922172274234452 -0.021576193397264652 0 -0.00087696390506105868 -0.021797196651655124 0 -0.0010564281409131285 -0.021722744574384674 0 -0.00087696390506105868 -0.021797196651655124 0 -0.00088767323220902659 -0.021977614536635309 0 -0.0010564281409131285 -0.021722744574384674 0 -0.00088767323220902659 -0.021977614536635309 0 -0.0010564281409131285 -0.021722744574384674 0 -0.0010575265249197626 -0.022129139893924947 0 -0.0013531856710801825 -0.021829029141512073 0 -0.0015537039469231695 -0.022197965319154019 0 -0.0010575265249197626 -0.022129139893924947 0 -0.0010564281409131285 -0.021722744574384674 0 -0.0013531856710801825 -0.021829029141512073 0 -0.0010575265249197626 -0.022129139893924947 0 -0.0013531856710801825 -0.021829029141512073 0 -0.0017470532619796241 -0.021655192231251733 0 -0.0015537039469231695 -0.022197965319154019 0 -0.0017470532619796241 -0.021655192231251733 0 -0.0019989112077376829 -0.022233660467362804 0 -0.0015537039469231695 -0.022197965319154019 0 -0.0013531856710801825 -0.021829029141512073 0 -0.0013705365308822705 -0.02154984410548785 0 -0.0017470532619796241 -0.021655192231251733 0 -0.0013705365308822705 -0.02154984410548785 0 -0.0017470532619796241 -0.021655192231251733 0 -0.0019691730728588906 -0.021245533174776857 0 -0.0017470532619796241 -0.021655192231251733 0 -0.0021416056025682232 -0.021437189981494003 0 -0.0019691730728588906 -0.021245533174776857 0 -0.0017470532619796241 -0.021655192231251733 0 -0.0020960935448225636 -0.021688511181336217 0 -0.0021416056025682232 -0.021437189981494003 0 -0.0020960935448225636 -0.021688511181336217 0 -0.0022970523398476912 -0.021825818421777152 0 -0.0019989112077376829 -0.022233660467362804 0 -0.0017470532619796241 -0.021655192231251733 0 -0.0020960935448225636 -0.021688511181336217 0 -0.0019989112077376829 -0.022233660467362804 0 -0.0022970523398476912 -0.021825818421777152 0 -0.0023313446253643731 -0.021459717997735026 0 -0.0026536828344754944 -0.021638068924896624 0 -0.0020960935448225636 -0.021688511181336217 0 -0.0022970523398476912 -0.021825818421777152 0 -0.0023313446253643731 -0.021459717997735026 0 -0.0020960935448225636 -0.021688511181336217 0 -0.0023313446253643731 -0.021459717997735026 0 -0.0021416056025682232 -0.021437189981494003 0 -0.002945955406108446 -0.020929671907714782 0 -0.0028395187670570477 -0.021090720116843081 0 -0.0026536828344754944 -0.021638068924896624 0 -0.0033006918406419208 -0.021321450478997632 0 -0.0026544227207780722 -0.021576421804627221 0 -0.0023313446253643731 -0.021459717997735026 0 -0.0026536828344754944 -0.021638068924896624 0 -0.0026903472992813658 -0.02119484186680335 0 -0.0028395187670570477 -0.021090720116843081 0 -0.0026536828344754944 -0.021638068924896624 0 -0.0026903472992813658 -0.02119484186680335 0 -0.0029261324830608835 -0.020872423231709479 0 -0.0026903472992813658 -0.02119484186680335 0 -0.0025786772499904235 -0.020805946136230883 0 -0.0023062188199322376 -0.020082864128251797 0 -0.0021342706450152822 -0.019519619783191989 0 -0.0015723627969912674 -0.019789103294345769 0 -0.0026631305732188995 -0.020430685399278094 0 -0.0018591782214505445 -0.020749581312594727 0 -0.0023313446253643731 -0.021459717997735026 0 -0.0026903472992813658 -0.02119484186680335 0 -0.0025786772499904235 -0.020805946136230883 0 -0.0028395187670570477 -0.021090720116843081 0 -0.0029261324830608835 -0.020872423231709479 0 -0.0026903472992813658 -0.02119484186680335 0 -0.0023313446253643731 -0.021459717997735026 0 -0.0023588685501078682 -0.02133657196992857 0 -0.0021416056025682232 -0.021437189981494003 0 -0.0023845579144011636 -0.021443015604585749 0 -0.0018591782214505445 -0.020749581312594727 0 -0.0023588685501078682 -0.02133657196992857 0 -0.0021416056025682232 -0.021437189981494003 0 -0.0019691730728588906 -0.021245533174776857 0 -0.0018591782214505445 -0.020749581312594727 0 -0.0015893169170231455 -0.02126832692143563 0 -0.0011009882414020314 -0.021112062019278951 0 -0.0011289801046560867 -0.021227462382054051 0 -0.001234639600804918 -0.021157186329591324 0 -0.0011009882414020314 -0.021112062019278951 0 -0.0010496062777659433 -0.021262366370716074 0 -0.0011289801046560867 -0.021227462382054051 0 -0.0021342706450152822 -0.019519619783191989 0 -0.0015723627969912674 -0.019789103294345769 0 -0.0020719760701730116 -0.018879224742901449 0 -0.0018591782214505445 -0.020749581312594727 0 -0.0014933303950284014 -0.020006648541545494 0 -0.0010385233859294457 -0.021172553561845872 0 -0.0010496062777659433 -0.021262366370716074 0 -0.0011289801046560867 -0.021227462382054051 0 -0.0011721144822427637 -0.021279260782025425 0 -0.0011289801046560867 -0.021227462382054051 0 -0.0012573566412528191 -0.021229825880808323 0 -0.0011289801046560867 -0.021227462382054051 0 -0.0012573566412528191 -0.021229825880808323 0 -0.001234639600804918 -0.021157186329591324 0 -0.0011721144822427637 -0.021279260782025425 0 -0.0012573566412528191 -0.021229825880808323 0 -0.0013399678654330326 -0.021222943412821819 0 -0.0012573566412528191 -0.021229825880808323 0 -0.0013399678654330326 -0.021222943412821819 0 -0.0013548081355143949 -0.021277380993270405 0 -0.0013893913864129477 -0.021242217091399517 0 -0.0015893169170231455 -0.02126832692143563 0 -0.0013705365308822705 -0.02154984410548785 0 -0.0013548081355143949 -0.021277380993270405 0 -0.0019691730728588906 -0.021245533174776857 0 -0.0012573566412528191 -0.021229825880808323 0 -0.0013548081355143949 -0.021277380993270405 0 -0.001234639600804918 -0.021157186329591324 0 4.3277777352048132e-07 -0.034998564790007847 0 0.00028640936818445645 -0.030904670593424367 0 6.9323026944843946e-07 -0.028062787078885616 0 4.3277777352048132e-07 -0.034998564790007847 0 0.0002986543609167047 -0.033099228882520884 0 0.00028640936818445645 -0.030904670593424367 0 1.7667273515204435e-07 -0.034997917134283185 0 0.0002986543609167047 -0.033099228882520884 0 0.00029519819407111133 -0.033803022918940225 0 1.7667273515204435e-07 -0.034997917134283185 0 4.3277777352048132e-07 -0.034998564790007847 0 0.0002986543609167047 -0.033099228882520884 0 0.0002986543609167047 -0.033099228882520884 0 0.00038835683689987131 -0.031821358630359509 0 0.00037483040774165287 -0.032991190149963462 0 0.0002986543609167047 -0.033099228882520884 0 0.00038835683689987131 -0.031821358630359509 0 0.00028640936818445645 -0.030904670593424367 0 0.0002986543609167047 -0.033099228882520884 0 0.00037483040774165287 -0.032991190149963462 0 0.00029519819407111133 -0.033803022918940225 0 0.00025611098905282118 -0.030855453709209675 0 0.00028640936818445645 -0.030904670593424367 0 5.8449276893998489e-05 -0.029454562988595504 0 0.00038835683689987131 -0.031821358630359509 0 0.00025611098905282118 -0.030855453709209675 0 0.00028640936818445645 -0.030904670593424367 0 0.00028640936818445645 -0.030904670593424367 0 6.9323026944843946e-07 -0.028062787078885616 0 5.8449276893998489e-05 -0.029454562988595504 0 6.9323026944843946e-07 -0.028062787078885616 0 -0.00020380744439231575 -0.028136831256720448 0 5.8449276893998489e-05 -0.029454562988595504 0 -0.00028062130727221732 -0.026052324505648292 0 6.9323026944843946e-07 -0.028062787078885616 0 -0.00020380744439231575 -0.028136831256720448 0 0.00025611098905282118 -0.030855453709209675 0 5.8449276893998489e-05 -0.029454562988595504 0 2.3574457232785405e-05 -0.030556392458937511 0 5.8449276893998489e-05 -0.029454562988595504 0 -0.00027078172108024179 -0.029567873762713921 0 2.3574457232785405e-05 -0.030556392458937511 0 -0.00020380744439231575 -0.028136831256720448 0 5.8449276893998489e-05 -0.029454562988595504 0 -0.00027078172108024179 -0.029567873762713921 0 -0.000522519426507748 -0.028315180861622075 0 -0.00020380744439231575 -0.028136831256720448 0 -0.00027078172108024179 -0.029567873762713921 0 -0.00027078172108024179 -0.029567873762713921 0 -0.00020411472102387611 -0.030678282995651267 0 2.3574457232785405e-05 -0.030556392458937511 0 -0.00020411472102387611 -0.030678282995651267 0 -0.00059761275871275427 -0.03053017375022497 0 -0.00024443721136931828 -0.031298437594574249 0 -0.00080705361946702885 -0.029335276135798907 0 -0.00027078172108024179 -0.029567873762713921 0 -0.00059761275871275427 -0.03053017375022497 0 -0.00027078172108024179 -0.029567873762713921 0 -0.00020411472102387611 -0.030678282995651267 0 -0.00059761275871275427 -0.03053017375022497 0 2.3574457232785405e-05 -0.030556392458937511 0 -1.4805474616693865e-05 -0.031401850831120459 0 0.0003009220850463626 -0.03174152976685516 0 -0.00020411472102387611 -0.030678282995651267 0 -0.00024443721136931828 -0.031298437594574249 0 -1.4805474616693865e-05 -0.031401850831120459 0 -0.00020411472102387611 -0.030678282995651267 0 2.3574457232785405e-05 -0.030556392458937511 0 -1.4805474616693865e-05 -0.031401850831120459 0 -0.0017483774647467441 -0.028759108041069244 0 -0.0016188993298876014 -0.029160579692023608 0 -0.00023110417553402334 -0.030027573636270847 0 -0.00048952138116678469 -0.029539026808674616 0 3.4730212585308045e-06 -0.031157143423889446 0 -0.00024443721136931828 -0.031298437594574249 0 -0.00023772589544925635 -0.031505591601733079 0 -1.4805474616693865e-05 -0.031401850831120459 0 -0.00023772589544925635 -0.031505591601733079 0 -1.4805474616693865e-05 -0.031401850831120459 0 0.00016564186493030973 -0.032368472873603997 0 -0.00032374377461257301 -0.03015685374001047 0 -0.00048952138116678469 -0.029539026808674616 0 -0.00048952138116678469 -0.029539026808674616 0 -0.0010554878260010316 -0.025871930532585862 0 -0.00062211573116696228 -0.027145078624689581 0 -0.00050155680198158087 -0.027221051501644382 0 -0.00048620108274149179 -0.027253917769390415 0 -0.00050072158395471377 -0.026727013751812825 0 -0.0010554878260010316 -0.025871930532585862 0 -0.000513075708153174 -0.021505787991441296 0 0.00015055256082263484 -0.021917914043807152 0 -0.00043910215051867231 -0.021864590712954639 0 -0.00059761275871275427 -0.03053017375022497 0 -0.00024443721136931828 -0.031298437594574249 0 -0.00023699304018267523 -0.031510733569175539 0 -0.00050072158395471377 -0.026727013751812825 0 -0.00048952138116678469 -0.029539026808674616 0 0.00015055256082263484 -0.021917914043807152 0 -0.00043910215051867231 -0.021864590712954639 0 -7.2744745095442993e-05 -0.022570855084778366 0 -0.00079974373572174601 -0.022771649673253895 0 -0.00043910215051867231 -0.021864590712954639 0 -7.2744745095442993e-05 -0.022570855084778366 0 -0.00079974373572174601 -0.022771649673253895 0 0.00013864695689125281 -0.023543037939853965 0 -0.00055185479896457772 -0.023828147619185055 0 -0.00079974373572174601 -0.022771649673253895 0 -7.2744745095442993e-05 -0.022570855084778366 0 0.00013864695689125281 -0.023543037939853965 0 0.00013864695689125281 -0.023543037939853965 0 0.00056763622496002299 -0.022865290650869015 0 0.00094484634873135266 -0.023952389312295218 0 -7.2744745095442993e-05 -0.022570855084778366 0 0.00013864695689125281 -0.023543037939853965 0 0.00056763622496002299 -0.022865290650869015 0 -0.00032068260325079044 -0.024613437912567232 0 0.00013449744606922379 -0.030536957617493182 0 -0.0016461897907238917 -0.026048453023445058 0 -0.00092590910463819409 -0.028246782574238415 0 -0.000143159573805834 -0.027633576767579875 0 -0.0010554878260010316 -0.025871930532585862 0 -0.00032068260325079044 -0.024613437912567232 0 0.00015055256082263484 -0.021917914043807152 0 -7.2744745095442993e-05 -0.022570855084778366 0 0.00056763622496002299 -0.022865290650869015 0 -0.0016188993298876014 -0.029160579692023608 0 -0.00023110417553402334 -0.030027573636270847 0 -0.00042682403875194286 -0.030432129557077733 0 -0.0010554878260010316 -0.025871930532585862 0 -0.00027103037723151145 -0.029029577318600199 0 3.4730212585308045e-06 -0.031157143423889446 0 9.064907078163353e-05 -0.032947253841007412 0 -0.00023110417553402334 -0.030027573636270847 0 -0.00042682403875194286 -0.030432129557077733 0 0.0012750773373051594 -0.031294723683895187 0 -0.00092590910463819409 -0.028246782574238415 0 0.0013593867168478918 -0.029227990400922232 0 -0.00020279714765976257 -0.030453897930632214 0 -0.00042682403875194286 -0.030432129557077733 0 0.0007567154652893829 -0.031702193908204924 0 0.0012750773373051594 -0.031294723683895187 0 -0.00092590910463819409 -0.028246782574238415 0 -0.000143159573805834 -0.027633576767579875 0 0.0013593867168478918 -0.029227990400922232 0 -0.00027103037723151145 -0.029029577318600199 0 0.00030132601879872504 -0.032321079138623872 0 -0.00023312836895314376 -0.034291449098247676 0 -0.00017774721773334689 -0.034247223247773281 0 -3.1622598307761899e-05 -0.034402498046010171 0 0.00030132601879872504 -0.032321079138623872 0 9.064907078163353e-05 -0.032947253841007412 0 9.064907078163353e-05 -0.032947253841007412 0 -1.4280142105995232e-05 -0.033257568658993542 0 0.00038982222581723645 -0.03248847197619107 0 0.00041239346196391015 -0.032574321437195186 0 0.00041825488314840446 -0.032718405957822556 0 0.00016564186493030973 -0.032368472873603997 0 0.00038431040517024453 -0.032708143716186085 0 0.00038982222581723645 -0.03248847197619107 0 0.00038431040517024453 -0.032708143716186085 0 0.00038982222581723645 -0.03248847197619107 0 0.00041825488314840446 -0.032718405957822556 0 0.00038982222581723645 -0.03248847197619107 0 0.00041239346196391015 -0.032574321437195186 0 0.0003009220850463626 -0.03174152976685516 0 -1.4805474616693865e-05 -0.031401850831120459 0 0.00016564186493030973 -0.032368472873603997 0 0.0003009220850463626 -0.03174152976685516 0 0.00016564186493030973 -0.032368472873603997 0 0.00038982222581723645 -0.03248847197619107 0 0.0003009220850463626 -0.03174152976685516 0 0.00025611098905282118 -0.030855453709209675 0 2.3574457232785405e-05 -0.030556392458937511 0 0.0003009220850463626 -0.03174152976685516 0 0.00038835683689987131 -0.031821358630359509 0 0.00025611098905282118 -0.030855453709209675 0 0.0003009220850463626 -0.03174152976685516 0 0.00038835683689987131 -0.031821358630359509 0 0.00041239346196391015 -0.032574321437195186 0 0.0003009220850463626 -0.03174152976685516 0 0.00038835683689987131 -0.031821358630359509 0 0.00041239346196391015 -0.032574321437195186 0 0.00037483040774165287 -0.032991190149963462 0 0.00037483040774165287 -0.032991190149963462 0 0.00037291215615092204 -0.033815421068331353 0 0.00029519819407111133 -0.033803022918940225 0 0.00037483040774165287 -0.032991190149963462 0 0.00026441376036656237 -0.033240163685609336 0 0.00037291215615092204 -0.033815421068331353 0 0.00041239346196391015 -0.032574321437195186 0 0.00037483040774165287 -0.032991190149963462 0 0.00026441376036656237 -0.033240163685609336 0 0.00041239346196391015 -0.032574321437195186 0 0.00041825488314840446 -0.032718405957822556 0 0.00026441376036656237 -0.033240163685609336 0 -0.00035329814898057749 -0.033655169699666226 0 0.00012764061053613059 -0.033887042445969219 0 0.00026441376036656237 -0.033240163685609336 0 -1.4280142105995232e-05 -0.033257568658993542 0 0.0002493837152990253 -0.033168205873902352 0 -0.00082699631886197728 -0.03402559667949074 0 -0.00022289822823778945 -0.034105108671617534 0 -0.0001684075196633506 -0.034571536811781052 0 9.064907078163353e-05 -0.032947253841007412 0 -0.00013160430632442715 -0.034613000204663263 0 -0.00082699631886197728 -0.03402559667949074 0 -0.00035329814898057749 -0.033655169699666226 0 -0.00022289822823778945 -0.034105108671617534 0 -0.00035329814898057749 -0.033655169699666226 0 -0.00022289822823778945 -0.034105108671617534 0 0.00012764061053613059 -0.033887042445969219 0 -0.00022289822823778945 -0.034105108671617534 0 3.1765384890986058e-05 -0.034272563789002487 0 0.00012764061053613059 -0.033887042445969219 0 -0.00022289822823778945 -0.034105108671617534 0 3.1765384890986058e-05 -0.034272563789002487 0 -0.0001684075196633506 -0.034571536811781052 0 0.00012764061053613059 -0.033887042445969219 0 0.00039438762559887029 -0.03375431897976295 0 0.00045048478269787539 -0.034068324622207574 0 3.1765384890986058e-05 -0.034272563789002487 0 0.00012764061053613059 -0.033887042445969219 0 0.00045048478269787539 -0.034068324622207574 0 0.00012764061053613059 -0.033887042445969219 0 0.00039438762559887029 -0.03375431897976295 0 0.00026441376036656237 -0.033240163685609336 0 0.00039438762559887029 -0.03375431897976295 0 0.00026441376036656237 -0.033240163685609336 0 0.00037291215615092204 -0.033815421068331353 0 0.00039438762559887029 -0.03375431897976295 0 0.00033242014048410123 -0.0339100187460862 0 0.00037291215615092204 -0.033815421068331353 0 0.00039438762559887029 -0.03375431897976295 0 0.00045048478269787539 -0.034068324622207574 0 0.00033242014048410123 -0.0339100187460862 0 4.6546079263706897e-05 -0.034931338479470955 0 2.1031654100001836e-05 -0.034967055495855007 0 2.5782419937954627e-05 -0.034949135952837364 0 0.00020494146149303269 -0.034513911798067336 0 0.00020764288106449571 -0.034483697436930513 0 4.6546079263706897e-05 -0.034931338479470955 0 2.1031654100001836e-05 -0.034967055495855007 0 1.5188024118105829e-05 -0.034995888534140755 0 -2.5846412283515012e-09 -0.034999947124468807 0 2.1031654100001836e-05 -0.034967055495855007 0 2.5782419937954627e-05 -0.034949135952837364 0 -2.5846412283515012e-09 -0.034999947124468807 0 2.1031654100001836e-05 -0.034967055495855007 0 1.5188024118105829e-05 -0.034995888534140755 0 -2.5846412283515012e-09 -0.034999947124468807 0 1.5188024118105829e-05 -0.034995888534140755 0 1.162254259906443e-08 -0.035000030165806301 0 0.00033242014048410123 -0.0339100187460862 0 4.2686815199844133e-07 -0.034996108697703039 0 0.00037291215615092204 -0.033815421068331353 0 0.00020764288106449571 -0.034483697436930513 0 8.667967823292816e-08 -0.034999719212109391 0 1.7667273515204435e-07 -0.034997917134283185 0 4.2686815199844133e-07 -0.034996108697703039 0 0.00029519819407111133 -0.033803022918940225 0 4.2686815199844133e-07 -0.034996108697703039 0 0.00037291215615092204 -0.033815421068331353 0 0.00029519819407111133 -0.033803022918940225 0 1.986118768497515e-07 -0.034999663713590909 0 4.4925815609977682e-05 -0.034900721775468567 0 -2.2473007728420135e-08 -0.03499988917638272 0 4.4925815609977682e-05 -0.034900721775468567 0 7.3440350633693943e-05 -0.034779637184233395 0 1.530420481271806e-05 -0.034735117312122678 0 -9.4711229192620292e-09 -0.034999999414230702 0 1.8473762934697603e-05 -0.034975130469144328 0 3.9803624578358745e-08 -0.034999917024535268 0 -2.7954563554160486e-10 -0.034999927530075137 0 3.7599353804856076e-05 -0.034875732021994427 0 1.986118768497515e-07 -0.034999663713590909 0 4.4925815609977682e-05 -0.034900721775468567 0 7.3440350633693943e-05 -0.034779637184233395 0 1.8473762934697603e-05 -0.034975130469144328 0 3.9803624578358745e-08 -0.034999917024535268 0 2.5782419937954627e-05 -0.034949135952837364 0 -2.5846412283515012e-09 -0.034999947124468807 0 3.9803624578358745e-08 -0.034999917024535268 0 2.5782419937954627e-05 -0.034949135952837364 0 2.5782419937954627e-05 -0.034949135952837364 0 6.3414491428699925e-05 -0.03494179032653074 0 4.0750709092917753e-05 -0.034871602527700898 0 4.6546079263706897e-05 -0.034931338479470955 0 2.5782419937954627e-05 -0.034949135952837364 0 4.0750709092917753e-05 -0.034871602527700898 0 1.8473762934697603e-05 -0.034975130469144328 0 2.5782419937954627e-05 -0.034949135952837364 0 6.3414491428699925e-05 -0.03494179032653074 0 3.7599353804856076e-05 -0.034875732021994427 0 4.9381427225991624e-05 -0.034740176992231885 0 7.3440350633693943e-05 -0.034779637184233395 0 4.8960147334556121e-05 -0.034580153686322689 0 1.530420481271806e-05 -0.034735117312122678 0 4.8960147334556121e-05 -0.034580153686322689 0 -2.1346126894498393e-05 -0.034600676390183938 0 1.530420481271806e-05 -0.034735117312122678 0 4.9381427225991624e-05 -0.034740176992231885 0 -0.00013160430632442715 -0.034613000204663263 0 6.3414491428699925e-05 -0.03494179032653074 0 -3.8389678351238823e-05 -0.034715794757612349 0 -0.0001684075196633506 -0.034571536811781052 0 6.3414491428699925e-05 -0.03494179032653074 0 -3.8389678351238823e-05 -0.034715794757612349 0 4.0750709092917753e-05 -0.034871602527700898 0 3.1765384890986058e-05 -0.034272563789002487 0 0.00045048478269787539 -0.034068324622207574 0 -3.8389678351238823e-05 -0.034715794757612349 0 0.00020494146149303269 -0.034513911798067336 0 -1.6234788184281914e-05 -0.034714711567675124 0 4.6546079263706897e-05 -0.034931338479470955 0 -3.8389678351238823e-05 -0.034715794757612349 0 4.0750709092917753e-05 -0.034871602527700898 0 4.8960147334556121e-05 -0.034580153686322689 0 -6.9233802802099652e-05 -0.034482786412558558 0 -3.1622598307761899e-05 -0.034402498046010171 0 3.1765384890986058e-05 -0.034272563789002487 0 -3.8389678351238823e-05 -0.034715794757612349 0 -0.0001684075196633506 -0.034571536811781052 0 -2.1346126894498393e-05 -0.034600676390183938 0 -6.7192320982428547e-05 -0.034618632187276094 0 -0.00010434873200079368 -0.034514742844775091 0 -6.9233802802099652e-05 -0.034482786412558558 0 -2.1346126894498393e-05 -0.034600676390183938 0 -0.00010434873200079368 -0.034514742844775091 0 4.8960147334556121e-05 -0.034580153686322689 0 -6.9233802802099652e-05 -0.034482786412558558 0 -2.1346126894498393e-05 -0.034600676390183938 0 -6.7192320982428547e-05 -0.034618632187276094 0 1.530420481271806e-05 -0.034735117312122678 0 -6.7387727426988759e-05 -0.03472621034633127 0 -2.1346126894498393e-05 -0.034600676390183938 0 -6.7192320982428547e-05 -0.034618632187276094 0 1.530420481271806e-05 -0.034735117312122678 0 4.4925815609977682e-05 -0.034900721775468567 0 1.530420481271806e-05 -0.034735117312122678 0 2.312473199405224e-05 -0.034851396965317603 0 1.530420481271806e-05 -0.034735117312122678 0 -6.7387727426988759e-05 -0.03472621034633127 0 2.312473199405224e-05 -0.034851396965317603 0 0.0023036859546727169 -0.030358560150395231 0 0.0016643536709350843 -0.030273546127498538 0 -6.7387727426988759e-05 -0.03472621034633127 0 -0.00022587848062147721 -0.034614981942580912 0 -0.00011762446677427243 -0.034587461483675981 0 0.0047868833240113547 -0.026061621701538723 0 0.0036960252868667881 -0.025331185991909623 0 0.003814389919146718 -0.026255900465393448 0 0.0036960252868667881 -0.025331185991909623 0 0.0030098981310740076 -0.025633810668308658 0 0.003814389919146718 -0.026255900465393448 0 -0.00022587848062147721 -0.034614981942580912 0 -0.00016312953781126666 -0.034456809985484123 0 -0.00011762446677427243 -0.034587461483675981 0 -0.00022587848062147721 -0.034614981942580912 0 -0.00016312953781126666 -0.034456809985484123 0 -0.00036390577516526328 -0.034434958958378808 0 -6.7192320982428547e-05 -0.034618632187276094 0 -6.7387727426988759e-05 -0.03472621034633127 0 -0.00011762446677427243 -0.034587461483675981 0 -0.00016312953781126666 -0.034456809985484123 0 -0.00011762446677427243 -0.034587461483675981 0 -0.00010434873200079368 -0.034514742844775091 0 -6.7192320982428547e-05 -0.034618632187276094 0 -0.00011762446677427243 -0.034587461483675981 0 -0.00010434873200079368 -0.034514742844775091 0 -6.9233802802099652e-05 -0.034482786412558558 0 -0.00010434873200079368 -0.034514742844775091 0 -0.00013606864060048001 -0.034438593697076976 0 -0.00016312953781126666 -0.034456809985484123 0 -0.00010434873200079368 -0.034514742844775091 0 -0.00013606864060048001 -0.034438593697076976 0 -0.00023312836895314376 -0.034291449098247676 0 -6.9233802802099652e-05 -0.034482786412558558 0 -3.1622598307761899e-05 -0.034402498046010171 0 0.00030132601879872504 -0.032321079138623872 0 -5.5942999471933717e-05 -0.035108899509718752 0 -0.00013406696232791699 -0.034342763393276049 0 -6.9233802802099652e-05 -0.034482786412558558 0 -0.00013606864060048001 -0.034438593697076976 0 -0.00013406696232791699 -0.034342763393276049 0 -0.00013606864060048001 -0.034438593697076976 0 -0.00018366796397431564 -0.034396441488904292 0 0.00030132601879872504 -0.032321079138623872 0 0.00013449744606922379 -0.030536957617493182 0 -0.00016312953781126666 -0.034456809985484123 0 -0.00027388423732665145 -0.033831212265542553 0 -0.00043236287886711742 -0.034277297642479748 0 -4.9156340707741921e-05 -0.035852472041330748 0 0.00013449744606922379 -0.030536957617493182 0 -0.00016312953781126666 -0.034456809985484123 0 -0.00013606864060048001 -0.034438593697076976 0 -0.00018366796397431564 -0.034396441488904292 0 -0.00016312953781126666 -0.034456809985484123 0 -0.00043236287886711742 -0.034277297642479748 0 -0.00036390577516526328 -0.034434958958378808 0 -0.00027388423732665145 -0.033831212265542553 0 -0.00043236287886711742 -0.034277297642479748 0 -0.00073590634949112044 -0.034205828368233868 0 -0.00043236287886711742 -0.034277297642479748 0 -0.00073590634949112044 -0.034205828368233868 0 -0.00065598605418217102 -0.034396067410133818 0 0.00013449744606922379 -0.030536957617493182 0 -0.00025226761832368905 -0.027037985968027228 0 0.00013864695689125281 -0.023543037939853965 0 0.00094484634873135266 -0.023952389312295218 0 -0.00022100904829005044 -0.024876587553179196 0 -0.00069139966403625067 -0.022360140472141521 0 -0.00025226761832368905 -0.027037985968027228 0 0.00013864695689125281 -0.023543037939853965 0 -0.00055185479896457772 -0.023828147619185055 0 -0.00022100904829005044 -0.024876587553179196 0 -0.0005386129543884005 -0.022135661636023551 0 -0.00041673403284759355 -0.022443166110326263 0 -0.00060677110866183255 -0.022287845837494144 0 0.00094455135765737514 -0.025646276524769668 0 0.00050788585082085747 -0.025988848071750958 0 0.0011855569309446284 -0.026323799190247209 0 -0.00025226761832368905 -0.027037985968027228 0 0.0018824020281828153 -0.027258050985113493 0 -0.00041673403284759355 -0.022443166110326263 0 -0.00050888486535448959 -0.022509252836888826 0 -0.00060677110866183255 -0.022287845837494144 0 -0.00025226761832368905 -0.027037985968027228 0 0.0011199377592143243 -0.024268413934673612 0 0.0020374982775560858 -0.023939723252625354 0 0.0025898383878965865 -0.024201674209423239 0 0.0019879972737676171 -0.024975539685628538 0 0.0025898383878965865 -0.024201674209423239 0 0.0030098981310740076 -0.025633810668308658 0 0.0019879972737676171 -0.024975539685628538 0 0.0011199377592143243 -0.024268413934673612 0 0.0018824020281828153 -0.027258050985113493 0 -0.00043236287886711742 -0.034277297642479748 0 -0.00065598605418217102 -0.034396067410133818 0 -0.00036390577516526328 -0.034434958958378808 0 0.0036960252868667881 -0.025331185991909623 0 0.0027321108702660782 -0.024871684836863906 0 0.0030098981310740076 -0.025633810668308658 0 0.0016643536709350843 -0.030273546127498538 0 0.0018824020281828153 -0.027258050985113493 0 0.0018824020281828153 -0.027258050985113493 0 0.0029310355295596776 -0.024597633854745463 0 -0.00022587848062147721 -0.034614981942580912 0 -0.00065598605418217102 -0.034396067410133818 0 -0.00036390577516526328 -0.034434958958378808 0 0.0030098981310740076 -0.025633810668308658 0 0.0019879972737676171 -0.024975539685628538 0 0.0016558104151761291 -0.026398935587707464 0 0.0030098981310740076 -0.025633810668308658 0 0.0031016922944291214 -0.026661857160142466 0 0.0016558104151761291 -0.026398935587707464 0 0.0030098981310740076 -0.025633810668308658 0 0.0031016922944291214 -0.026661857160142466 0 0.003814389919146718 -0.026255900465393448 0 0.0031016922944291214 -0.026661857160142466 0 0.0028293256770428789 -0.027625589017475163 0 0.0035913980109203514 -0.027425592702639459 0 0.0028293256770428789 -0.027625589017475163 0 0.0034840526771008152 -0.028029115199678042 0 0.0035913980109203514 -0.027425592702639459 0 0.0028293256770428789 -0.027625589017475163 0 0.0016558104151761291 -0.026398935587707464 0 0.0014956262542634477 -0.028139659082347536 0 0.0031016922944291214 -0.026661857160142466 0 0.0028293256770428789 -0.027625589017475163 0 0.0016558104151761291 -0.026398935587707464 0 0.0028293256770428789 -0.027625589017475163 0 0.0028922568986975285 -0.029244978799237289 0 0.0014956262542634477 -0.028139659082347536 0 0.0012160106188000253 -0.030863939675207203 0 0.00049202790920754489 -0.031101214595633368 0 0.0028922568986975285 -0.029244978799237289 0 0.0014956262542634477 -0.028139659082347536 0 0.0014619437816681387 -0.030107501999489996 0 0.0012160106188000253 -0.030863939675207203 0 0.0015714360094502761 -0.031897009464244369 0 0.0028922568986975285 -0.029244978799237289 0 0.0034840526771008152 -0.028029115199678042 0 0.0039991301825875866 -0.028462769128462656 0 0.0028293256770428789 -0.027625589017475163 0 0.0028922568986975285 -0.029244978799237289 0 0.0034840526771008152 -0.028029115199678042 0 0.0034840526771008152 -0.028029115199678042 0 0.0040522508814310448 -0.02792727331728239 0 0.0035913980109203514 -0.027425592702639459 0 0.0040522508814310448 -0.02792727331728239 0 0.0040761353116492548 -0.028466598313364407 0 0.0044419566495973624 -0.027759355260803101 0 0.0040522508814310448 -0.02792727331728239 0 0.0039991301825875866 -0.028462769128462656 0 0.0040761353116492548 -0.028466598313364407 0 0.0017984129829362136 -0.031817207811145318 0 0.0015714360094502761 -0.031897009464244369 0 0.0034840526771008152 -0.028029115199678042 0 0.0040522508814310448 -0.02792727331728239 0 0.0039991301825875866 -0.028462769128462656 0 -0.00083018289356196037 -0.033201381609912858 0 -0.00083506983041250582 -0.033109987762356227 0 -0.00075036836738578093 -0.032946644073147686 0 0.0028922568986975285 -0.029244978799237289 0 0.0039991301825875866 -0.028462769128462656 0 0.004087175097369433 -0.028472244820188109 0 -0.00049016630931072894 -0.03277071019793007 0 -0.00083018289356196037 -0.033201381609912858 0 -0.00075036836738578093 -0.032946644073147686 0 -0.00083018289356196037 -0.033201381609912858 0 -0.00089162799057945557 -0.033242514991619856 0 -0.00084338504802486923 -0.033350634331776499 0 0.0015714360094502761 -0.031897009464244369 0 -0.00043742039300278217 -0.034271602124673048 0 -0.00083018289356196037 -0.033201381609912858 0 -0.00083506983041250582 -0.033109987762356227 0 -0.00089162799057945557 -0.033242514991619856 0 0.00095087193090490399 -0.03474618724066144 0 0.0006105388721281299 -0.034920165380617985 0 0.00053977650120509008 -0.034727190932987637 0 0.0040761353116492548 -0.028466598313364407 0 0.0044419566495973624 -0.027759355260803101 0 0.0049574865355170644 -0.027897789207790808 0 0.0015714360094502761 -0.031897009464244369 0 0.0028958148173169451 -0.031376760424554624 0 0.0044419566495973624 -0.027759355260803101 0 0.0046296397278862119 -0.027337913323186951 0 0.0049574865355170644 -0.027897789207790808 0 0.0046296397278862119 -0.027337913323186951 0 0.0044212139523503342 -0.026755938201593579 0 0.0050535543764286461 -0.027040916308288407 0 0.0046296397278862119 -0.027337913323186951 0 0.0042129764140754877 -0.02737862147549467 0 0.0044212139523503342 -0.026755938201593579 0 0.0040522508814310448 -0.02792727331728239 0 0.0044419566495973624 -0.027759355260803101 0 0.0042129764140754877 -0.02737862147549467 0 0.0044419566495973624 -0.027759355260803101 0 0.0046296397278862119 -0.027337913323186951 0 0.0042129764140754877 -0.02737862147549467 0 0.0040522508814310448 -0.02792727331728239 0 0.0042129764140754877 -0.02737862147549467 0 0.0035913980109203514 -0.027425592702639459 0 0.0031016922944291214 -0.026661857160142466 0 0.0035913980109203514 -0.027425592702639459 0 0.003837627162582828 -0.026896022466237044 0 0.0042129764140754877 -0.02737862147549467 0 0.0035913980109203514 -0.027425592702639459 0 0.003837627162582828 -0.026896022466237044 0 0.0042129764140754877 -0.02737862147549467 0 0.003837627162582828 -0.026896022466237044 0 0.0044212139523503342 -0.026755938201593579 0 0.003837627162582828 -0.026896022466237044 0 0.003814389919146718 -0.026255900465393448 0 0.0044212139523503342 -0.026755938201593579 0 0.0031016922944291214 -0.026661857160142466 0 0.003837627162582828 -0.026896022466237044 0 0.003814389919146718 -0.026255900465393448 0 0.0047868833240113547 -0.026061621701538723 0 0.0044212139523503342 -0.026755938201593579 0 0.0050535543764286461 -0.027040916308288407 0 0.0047868833240113547 -0.026061621701538723 0 0.003814389919146718 -0.026255900465393448 0 0.0044212139523503342 -0.026755938201593579 0 0.0047868833240113547 -0.026061621701538723 0 0.0056505067334070283 -0.026730241586868663 0 0.0050535543764286461 -0.027040916308288407 0 0.0023036859546727169 -0.030358560150395231 0 0.0030870871362386619 -0.030684188377047301 0 0.0056505067334070283 -0.026730241586868663 0 0.0057084860651387282 -0.027478162995090129 0 0.0050535543764286461 -0.027040916308288407 0 0.0056505067334070283 -0.026730241586868663 0 0.0057084860651387282 -0.027478162995090129 0 0.0063363200245755156 -0.027210716754677941 0 0.0046296397278862119 -0.027337913323186951 0 0.0050535543764286461 -0.027040916308288407 0 0.0049574865355170644 -0.027897789207790808 0 0.0057084860651387282 -0.027478162995090129 0 0.0050535543764286461 -0.027040916308288407 0 0.0049574865355170644 -0.027897789207790808 0 0.00032351787640078029 -0.035020594551310839 0 0.0006105388721281299 -0.034920165380617985 0 0.00036053879872046833 -0.034876301161264604 0 0.0006105388721281299 -0.034920165380617985 0 0.00053977650120509008 -0.034727190932987637 0 0.00036053879872046833 -0.034876301161264604 0 0.0033237733611153177 -0.031077743946137978 0 0.0028958148173169451 -0.031376760424554624 0 -0.00089162799057945557 -0.033242514991619856 0 -0.00084338504802486923 -0.033350634331776499 0 -0.00087214855516971727 -0.03363108569577488 0 -0.00084338504802486923 -0.033350634331776499 0 -0.00023033341653423825 -0.033977741516532163 0 -0.00087214855516971727 -0.03363108569577488 0 0.00053977650120509008 -0.034727190932987637 0 0.00036053879872046833 -0.034876301161264604 0 0.00021661984204376198 -0.034782048539438705 0 -0.00043742039300278217 -0.034271602124673048 0 1.784626005797333e-05 -0.034379544074080774 0 0.00036053879872046833 -0.034876301161264604 0 0.00017555042071431125 -0.034943447311348068 0 0.00021661984204376198 -0.034782048539438705 0 0.00032351787640078029 -0.035020594551310839 0 0.00036053879872046833 -0.034876301161264604 0 0.00017555042071431125 -0.034943447311348068 0 0.00017555042071431125 -0.034943447311348068 0 8.2725279457577798e-05 -0.034922095358797117 0 5.5375615651555876e-05 -0.034996069046168615 0 0.00017555042071431125 -0.034943447311348068 0 5.5375615651555876e-05 -0.034996069046168615 0 0.00013997706857828 -0.035006327627843038 0 0.00017555042071431125 -0.034943447311348068 0 0.00021661984204376198 -0.034782048539438705 0 8.2725279457577798e-05 -0.034922095358797117 0 0.00021661984204376198 -0.034782048539438705 0 2.0782613189622351e-05 -0.034891126967562712 0 8.2725279457577798e-05 -0.034922095358797117 0 1.784626005797333e-05 -0.034379544074080774 0 -2.4244721594765478e-05 -0.034791549426959986 0 2.0782613189622351e-05 -0.034891126967562712 0 4.2336233127443056e-08 -0.034999978423781608 0 8.2725279457577798e-05 -0.034922095358797117 0 2.0782613189622351e-05 -0.034891126967562712 0 4.2336233127443056e-08 -0.034999978423781608 0 2.1921365936664341e-08 -0.034999174382853777 0 4.2336233127443056e-08 -0.034999978423781608 0 8.2725279457577798e-05 -0.034922095358797117 0 5.5375615651555876e-05 -0.034996069046168615 0 4.2336233127443056e-08 -0.034999978423781608 0 5.5375615651555876e-05 -0.034996069046168615 0 5.6964309527644824e-08 -0.035000106624605738 0 6.924749069233416e-05 -0.035020556177912623 0 8.594973862075878e-05 -0.035027416743950733 0 5.6964309527644824e-08 -0.035000106624605738 0 5.5375615651555876e-05 -0.034996069046168615 0 6.924749069233416e-05 -0.035020556177912623 0 5.6964309527644824e-08 -0.035000106624605738 0 0.0013320086279585827 -0.032706261223518038 0 0.0016810019551244742 -0.032256940747919814 0 5.5375615651555876e-05 -0.034996069046168615 0 6.924749069233416e-05 -0.035020556177912623 0 0.00013997706857828 -0.035006327627843038 0 0.00032351787640078029 -0.035020594551310839 0 0.00017555042071431125 -0.034943447311348068 0 0.00013997706857828 -0.035006327627843038 0 0.00032351787640078029 -0.035020594551310839 0 0.00013997706857828 -0.035006327627843038 0 0.00010657670072694022 -0.035050374663379229 0 0.0033237733611153177 -0.031077743946137978 0 0.0016810019551244742 -0.032256940747919814 0 6.924749069233416e-05 -0.035020556177912623 0 0.00013997706857828 -0.035006327627843038 0 0.00010657670072694022 -0.035050374663379229 0 0.0030870871362386619 -0.030684188377047301 0 0.0016810019551244742 -0.032256940747919814 0 4.4925815609977682e-05 -0.034900721775468567 0 2.312473199405224e-05 -0.034851396965317603 0 4.3941780744931472e-05 -0.034918182156897584 0 4.4925815609977682e-05 -0.034900721775468567 0 4.3941780744931472e-05 -0.034918182156897584 0 -2.2473007728420135e-08 -0.03499988917638272 0 0.0016810019551244742 -0.032256940747919814 0 -2.2548647711208521e-06 -0.035001208503040358 0 -0.002211583387509322 -0.023366357675180253 0 -0.0025557934169166052 -0.023754308699580888 0 -0.0029733700822802303 -0.023329502580237121 0 -0.002211583387509322 -0.023366357675180253 0 -0.0021645718932062088 -0.02399425470633381 0 -0.0025557934169166052 -0.023754308699580888 0 -0.002211583387509322 -0.023366357675180253 0 -0.0018288509248448278 -0.024083139689276684 0 -0.0012459676317454124 -0.024196772687174871 0 -0.0021003735333421768 -0.023348476066973173 0 -0.0012619520635188933 -0.02410888630252634 0 -0.002211583387509322 -0.023366357675180253 0 -0.0018288509248448278 -0.024083139689276684 0 -0.0021645718932062088 -0.02399425470633381 0 -0.0018288509248448278 -0.024083139689276684 0 -0.0021645718932062088 -0.02399425470633381 0 -0.0019620250517271448 -0.024457946096289766 0 -0.0014230475603437341 -0.024665107842529489 0 -0.0024401570495608906 -0.024956855222965917 0 -0.0016209628122618323 -0.024395298395239573 0 -0.0013489801133136979 -0.024684874376911605 0 -0.0019620250517271448 -0.024457946096289766 0 -0.0018288509248448278 -0.024083139689276684 0 -0.0016209628122618323 -0.024395298395239573 0 -0.0019620250517271448 -0.024457946096289766 0 -0.0023213781512871137 -0.024210332999500341 0 -0.0021645718932062088 -0.02399425470633381 0 -0.0019620250517271448 -0.024457946096289766 0 -0.0023213781512871137 -0.024210332999500341 0 -0.0021645718932062088 -0.02399425470633381 0 -0.0025557934169166052 -0.023754308699580888 0 -0.0023213781512871137 -0.024210332999500341 0 -0.0025557934169166052 -0.023754308699580888 0 -0.0028941377909911981 -0.024307396238121684 0 -0.0023213781512871137 -0.024210332999500341 0 -0.0028941377909911981 -0.024307396238121684 0 -0.0024607397754390116 -0.024638829678013095 0 -0.0025557934169166052 -0.023754308699580888 0 -0.0030926343351895271 -0.023703873187645309 0 -0.0029733700822802303 -0.023329502580237121 0 -0.0025921363740621537 -0.023735005355053625 0 -0.0033099302323988241 -0.024011199202109569 0 -0.0025557934169166052 -0.023754308699580888 0 -0.0028941377909911981 -0.024307396238121684 0 -0.0035445203588334905 -0.024258242095022149 0 -0.0028941377909911981 -0.024307396238121684 0 -0.0035445203588334905 -0.024258242095022149 0 -0.0032734021553076794 -0.024520956141919507 0 -0.0036516332785231083 -0.023926618793584622 0 -0.0034747753379347338 -0.023580683138742398 0 -0.0030926343351895271 -0.023703873187645309 0 -0.0034747753379347338 -0.023580683138742398 0 -0.0034329279088606297 -0.023143190162723381 0 -0.0032315635437614718 -0.023429964248853637 0 -0.0030926343351895271 -0.023703873187645309 0 -0.0032315635437614718 -0.023429964248853637 0 -0.0029733700822802303 -0.023329502580237121 0 -0.0034747753379347338 -0.023580683138742398 0 -0.0030926343351895271 -0.023703873187645309 0 -0.0032315635437614718 -0.023429964248853637 0 -0.0034329279088606297 -0.023143190162723381 0 -0.0029733700822802303 -0.023329502580237121 0 -0.0033083000839751304 -0.022772413347100035 0 -0.0034329279088606297 -0.023143190162723381 0 -0.0032315635437614718 -0.023429964248853637 0 -0.0029733700822802303 -0.023329502580237121 0 -0.002211583387509322 -0.023366357675180253 0 -0.0029733700822802303 -0.023329502580237121 0 -0.00291521327358073 -0.02274235687766904 0 -0.0021003735333421768 -0.023348476066973173 0 -0.0027985103068849443 -0.022692384810392621 0 -0.0029733700822802303 -0.023329502580237121 0 -0.00291521327358073 -0.02274235687766904 0 -0.0033083000839751304 -0.022772413347100035 0 -0.003586151834527537 -0.022090892090245392 0 -0.00291521327358073 -0.02274235687766904 0 -0.0033083000839751304 -0.022772413347100035 0 -0.0035637409292508969 -0.02214042683148636 0 -0.0027985103068849443 -0.022692384810392621 0 -0.0037202505773229247 -0.021686615404941257 0 -0.0026536828344754944 -0.021638068924896624 0 -0.0030285303492592034 -0.022050068458666961 0 -0.003586151834527537 -0.022090892090245392 0 -0.0026432129891285987 -0.022668320866796328 0 -0.0030285303492592034 -0.022050068458666961 0 -0.0026432129891285987 -0.022668320866796328 0 -0.0030285303492592034 -0.022050068458666961 0 -0.00250424596344397 -0.022119449994987793 0 -0.0026536828344754944 -0.021638068924896624 0 -0.0030285303492592034 -0.022050068458666961 0 -0.00250424596344397 -0.022119449994987793 0 -0.0022970523398476912 -0.021825818421777152 0 -0.00250424596344397 -0.022119449994987793 0 -0.0019989112077376829 -0.022233660467362804 0 -0.0026432129891285987 -0.022668320866796328 0 -0.00250424596344397 -0.022119449994987793 0 -0.0019989112077376829 -0.022233660467362804 0 -0.0022970523398476912 -0.021825818421777152 0 -0.0026536828344754944 -0.021638068924896624 0 -0.00250424596344397 -0.022119449994987793 0 -0.0020213315567324378 -0.023266334691678416 0 -0.0026432129891285987 -0.022668320866796328 0 -0.0018057658500851392 -0.022744730548406117 0 -0.0026432129891285987 -0.022668320866796328 0 -0.0019989112077376829 -0.022233660467362804 0 -0.0018057658500851392 -0.022744730548406117 0 -0.0020213315567324378 -0.023266334691678416 0 -0.0018057658500851392 -0.022744730548406117 0 -0.0013984589789852275 -0.022880386524864293 0 -0.0018057658500851392 -0.022744730548406117 0 -0.0015537039469231695 -0.022197965319154019 0 -0.0013984589789852275 -0.022880386524864293 0 -0.0020213315567324378 -0.023266334691678416 0 -0.0013984589789852275 -0.022880386524864293 0 -0.001079457415205925 -0.023569457931586196 0 -0.0019989112077376829 -0.022233660467362804 0 -0.0018057658500851392 -0.022744730548406117 0 -0.0015537039469231695 -0.022197965319154019 0 -0.0015537039469231695 -0.022197965319154019 0 -0.0010575265249197626 -0.022129139893924947 0 -0.0013984589789852275 -0.022880386524864293 0 -0.00095217537783124631 -0.022216501927600191 0 -0.000323565518365674 -0.022267063126448983 0 -0.00088767323220902659 -0.021977614536635309 0 -0.0010575265249197626 -0.022129139893924947 0 -0.00085365993052329426 -0.022262384001284097 0 -0.0010575265249197626 -0.022129139893924947 0 0.00043108560392758215 -0.022699427990889743 0 -0.00039067315129095488 -0.023471698566277274 0 -0.0013984589789852275 -0.022880386524864293 0 -0.001079457415205925 -0.023569457931586196 0 -0.00039067315129095488 -0.023471698566277274 0 -0.0010575265249197626 -0.022129139893924947 0 -0.0013984589789852275 -0.022880386524864293 0 -0.00039067315129095488 -0.023471698566277274 0 -0.00073391363745593731 -0.022078371380820895 0 -0.00085365993052329426 -0.022262384001284097 0 -0.00060677110866183255 -0.022287845837494144 0 -0.0005386129543884005 -0.022135661636023551 0 -0.00073391363745593731 -0.022078371380820895 0 -0.00060677110866183255 -0.022287845837494144 0 -0.00088767323220902659 -0.021977614536635309 0 -0.00073391363745593731 -0.022078371380820895 0 -0.00085365993052329426 -0.022262384001284097 0 0.00043108560392758215 -0.022699427990889743 0 0.00095683118595304756 -0.023617991543865447 0 -0.00039067315129095488 -0.023471698566277274 0 0.0011199377592143243 -0.024268413934673612 0 -0.000323565518365674 -0.022267063126448983 0 0.0021680130436846118 -0.023483427452486279 0 0.00043108560392758215 -0.022699427990889743 0 0.00095683118595304756 -0.023617991543865447 0 -0.00050888486535448959 -0.022509252836888826 0 -0.00085365993052329426 -0.022262384001284097 0 -0.00060677110866183255 -0.022287845837494144 0 0.0011199377592143243 -0.024268413934673612 0 0.0011492472555438608 -0.024457580153826378 0 0.0020374982775560858 -0.023939723252625354 0 0.0019879972737676171 -0.024975539685628538 0 0.000685608003112824 -0.02474952641949215 0 0.0021680130436846118 -0.023483427452486279 0 0.00095683118595304756 -0.023617991543865447 0 0.000685608003112824 -0.02474952641949215 0 0.00095683118595304756 -0.023617991543865447 0 0.000685608003112824 -0.02474952641949215 0 -0.00039067315129095488 -0.023471698566277274 0 0.000685608003112824 -0.02474952641949215 0 -0.00033022625428272463 -0.024707043574461202 0 8.7917817468145928e-05 -0.02574381495156813 0 0.000685608003112824 -0.02474952641949215 0 0.0016558104151761291 -0.026398935587707464 0 8.7917817468145928e-05 -0.02574381495156813 0 0.0019879972737676171 -0.024975539685628538 0 0.000685608003112824 -0.02474952641949215 0 0.0016558104151761291 -0.026398935587707464 0 -0.0020213315567324378 -0.023266334691678416 0 -0.001079457415205925 -0.023569457931586196 0 -0.0012459676317454124 -0.024196772687174871 0 -0.001079457415205925 -0.023569457931586196 0 -0.00079658592394788472 -0.024093713996768931 0 -0.0012459676317454124 -0.024196772687174871 0 0.000685608003112824 -0.02474952641949215 0 -0.00039067315129095488 -0.023471698566277274 0 -0.00033022625428272463 -0.024707043574461202 0 -0.001079457415205925 -0.023569457931586196 0 -0.00039067315129095488 -0.023471698566277274 0 -0.00079658592394788472 -0.024093713996768931 0 -0.00039067315129095488 -0.023471698566277274 0 -0.00079658592394788472 -0.024093713996768931 0 -0.00033022625428272463 -0.024707043574461202 0 -0.00079658592394788472 -0.024093713996768931 0 -0.00087732609148746983 -0.024591228555424324 0 -0.00033022625428272463 -0.024707043574461202 0 -0.00033022625428272463 -0.024707043574461202 0 -0.00082680059031425607 -0.025630714119652152 0 8.7917817468145928e-05 -0.02574381495156813 0 -0.00087732609148746983 -0.024591228555424324 0 -0.00033022625428272463 -0.024707043574461202 0 -0.00082680059031425607 -0.025630714119652152 0 -0.00087732609148746983 -0.024591228555424324 0 -0.0013489801133136979 -0.024684874376911605 0 -0.00082680059031425607 -0.025630714119652152 0 -0.0013489801133136979 -0.024684874376911605 0 -0.001866980081466945 -0.025836402329552949 0 -0.0030249302270847437 -0.025436042577262837 0 -0.00079658592394788472 -0.024093713996768931 0 -0.00087732609148746983 -0.024591228555424324 0 -0.0012459676317454124 -0.024196772687174871 0 -0.00087732609148746983 -0.024591228555424324 0 -0.0013489801133136979 -0.024684874376911605 0 -0.0012459676317454124 -0.024196772687174871 0 -0.0018288509248448278 -0.024083139689276684 0 -0.0016209628122618323 -0.024395298395239573 0 -0.0012459676317454124 -0.024196772687174871 0 -0.0016209628122618323 -0.024395298395239573 0 -0.0013489801133136979 -0.024684874376911605 0 -0.0012459676317454124 -0.024196772687174871 0 -0.001866980081466945 -0.025836402329552949 0 -0.0014770835212536777 -0.026702868428133061 0 -0.0026025405079759278 -0.026711423238416913 0 -0.001866980081466945 -0.025836402329552949 0 -0.00082680059031425607 -0.025630714119652152 0 -0.0014770835212536777 -0.026702868428133061 0 -0.0013489801133136979 -0.024684874376911605 0 -0.001866980081466945 -0.025836402329552949 0 -0.00082680059031425607 -0.025630714119652152 0 -0.00082680059031425607 -0.025630714119652152 0 -0.00014625494541057105 -0.027145794630863997 0 -0.0014770835212536777 -0.026702868428133061 0 -0.00082680059031425607 -0.025630714119652152 0 -0.00014625494541057105 -0.027145794630863997 0 8.7917817468145928e-05 -0.02574381495156813 0 -0.00014625494541057105 -0.027145794630863997 0 -0.0014770835212536777 -0.026702868428133061 0 -0.0017995337090441867 -0.028396575102810993 0 -0.0014770835212536777 -0.026702868428133061 0 -0.0017995337090441867 -0.028396575102810993 0 -0.0026025405079759278 -0.026711423238416913 0 -0.00014625494541057105 -0.027145794630863997 0 0.0016558104151761291 -0.026398935587707464 0 8.7917817468145928e-05 -0.02574381495156813 0 -0.00014625494541057105 -0.027145794630863997 0 0.0016558104151761291 -0.026398935587707464 0 0.0014956262542634477 -0.028139659082347536 0 -0.00014625494541057105 -0.027145794630863997 0 0.0014956262542634477 -0.028139659082347536 0 2.3527295532358199e-05 -0.028873094940510591 0 0.0014956262542634477 -0.028139659082347536 0 2.3527295532358199e-05 -0.028873094940510591 0 0.0014619437816681387 -0.030107501999489996 0 -0.00014625494541057105 -0.027145794630863997 0 2.3527295532358199e-05 -0.028873094940510591 0 -0.0017995337090441867 -0.028396575102810993 0 2.3527295532358199e-05 -0.028873094940510591 0 -0.0011993597916849824 -0.029819062409092427 0 -0.00036930346668367659 -0.031066418203702081 0 2.3527295532358199e-05 -0.028873094940510591 0 -0.0017995337090441867 -0.028396575102810993 0 -0.0011993597916849824 -0.029819062409092427 0 -0.0017995337090441867 -0.028396575102810993 0 -0.0011993597916849824 -0.029819062409092427 0 -0.0023873973927027326 -0.029700801376053326 0 -0.0017995337090441867 -0.028396575102810993 0 -0.0023873973927027326 -0.029700801376053326 0 -0.0028286515547961419 -0.028773709171413923 0 -0.0023873973927027326 -0.029700801376053326 0 -0.0032140370302446942 -0.02928372164682989 0 -0.0032560264757630964 -0.029883523113095341 0 -0.0023873973927027326 -0.029700801376053326 0 -0.0032140370302446942 -0.02928372164682989 0 -0.0028286515547961419 -0.028773709171413923 0 -0.0032140370302446942 -0.02928372164682989 0 -0.0038574245354144917 -0.029561498549961148 0 -0.0032560264757630964 -0.029883523113095341 0 -0.0032140370302446942 -0.02928372164682989 0 -0.0028286515547961419 -0.028773709171413923 0 -0.0035963544086491353 -0.028659051740578617 0 -0.0028286515547961419 -0.028773709171413923 0 -0.0031372826876284688 -0.027904165618032353 0 -0.0035963544086491353 -0.028659051740578617 0 -0.0017995337090441867 -0.028396575102810993 0 -0.0028286515547961419 -0.028773709171413923 0 -0.0031372826876284688 -0.027904165618032353 0 -0.0018458812093298078 -0.028341527811814989 0 -0.0035979905246241299 -0.02780928829054622 0 -0.0017995337090441867 -0.028396575102810993 0 -0.0026025405079759278 -0.026711423238416913 0 -0.0039382830669748171 -0.027497241560355688 0 -0.0026025405079759278 -0.026711423238416913 0 -0.0039382830669748171 -0.027497241560355688 0 -0.0035106808710127328 -0.026360779566058173 0 -0.0039382830669748171 -0.027497241560355688 0 -0.0035106808710127328 -0.026360779566058173 0 -0.0044964927662029834 -0.026063708570537428 0 -0.0035106808710127328 -0.026360779566058173 0 -0.0040479947581040475 -0.025880519272888154 0 -0.0044964927662029834 -0.026063708570537428 0 -0.0033019514393259142 -0.025284490807130734 0 -0.0041607423218457925 -0.025717635863455872 0 -0.0023213781512871137 -0.024210332999500341 0 -0.0024607397754390116 -0.024638829678013095 0 -0.0019620250517271448 -0.024457946096289766 0 -0.0035106808710127328 -0.026360779566058173 0 -0.0040479947581040475 -0.025880519272888154 0 -0.0030249302270847437 -0.025436042577262837 0 -0.0033019514393259142 -0.025284490807130734 0 -0.0024401570495608906 -0.024956855222965917 0 -0.0026025405079759278 -0.026711423238416913 0 -0.0035106808710127328 -0.026360779566058173 0 -0.0030249302270847437 -0.025436042577262837 0 -0.001866980081466945 -0.025836402329552949 0 -0.0026025405079759278 -0.026711423238416913 0 -0.0030249302270847437 -0.025436042577262837 0 -0.0044616728110515608 -0.024745124366560872 0 -0.0035445203588334905 -0.024258242095022149 0 -0.0035313108007498156 -0.024686033703487441 0 -0.0040425367374271734 -0.024133457167939531 0 -0.0033099302323988241 -0.024011199202109569 0 -0.0044616728110515608 -0.024745124366560872 0 -0.0037909118367899885 -0.025024763997165758 0 -0.0035313108007498156 -0.024686033703487441 0 -0.004291450519755464 -0.0254971473913632 0 -0.003490469579906885 -0.025161670037700888 0 -0.0037909118367899885 -0.025024763997165758 0 -0.0035313108007498156 -0.024686033703487441 0 -0.0031222957939538217 -0.024829617798262808 0 -0.0045685289208804887 -0.025693407607440294 0 -0.0040180834232773762 -0.025521354077847162 0 -0.0044247835921731272 -0.025751427824996235 0 -0.004291450519755464 -0.0254971473913632 0 -0.0048137459063673635 -0.026226603163672067 0 -0.0035445203588334905 -0.024258242095022149 0 -0.0035313108007498156 -0.024686033703487441 0 -0.0032734021553076794 -0.024520956141919507 0 -0.0041607423218457925 -0.025717635863455872 0 -0.0048137459063673635 -0.026226603163672067 0 -0.0036868384458505466 -0.025453273663702383 0 -0.0040180834232773762 -0.025521354077847162 0 -0.0044247835921731272 -0.025751427824996235 0 -0.0035313108007498156 -0.024686033703487441 0 -0.0032734021553076794 -0.024520956141919507 0 -0.0031222957939538217 -0.024829617798262808 0 -0.0028941377909911981 -0.024307396238121684 0 -0.0032734021553076794 -0.024520956141919507 0 -0.0031222957939538217 -0.024829617798262808 0 -0.0028941377909911981 -0.024307396238121684 0 -0.0024607397754390116 -0.024638829678013095 0 -0.0031222957939538217 -0.024829617798262808 0 -0.0033019514393259142 -0.025284490807130734 0 -0.003490469579906885 -0.025161670037700888 0 -0.0034625625513082748 -0.025362423259408892 0 -0.0036868384458505466 -0.025453273663702383 0 -0.0040180834232773762 -0.025521354077847162 0 -0.0039382830669748171 -0.027497241560355688 0 -0.0044964927662029834 -0.026063708570537428 0 -0.0059595963076400369 -0.026636390097511679 0 -0.0031372826876284688 -0.027904165618032353 0 -0.0041884821945286452 -0.027847228827084809 0 -0.004569776239071969 -0.027284483445983228 0 -0.0035979905246241299 -0.02780928829054622 0 -0.0048137459063673635 -0.026226603163672067 0 -0.0031372826876284688 -0.027904165618032353 0 -0.0041884821945286452 -0.027847228827084809 0 -0.0039019314471609545 -0.028192751523243964 0 -0.0041884821945286452 -0.027847228827084809 0 -0.0039019314471609545 -0.028192751523243964 0 -0.0043001901658626506 -0.028175783720968139 0 -0.0041884821945286452 -0.027847228827084809 0 -0.0046676815897711433 -0.027918129524017815 0 -0.0043001901658626506 -0.028175783720968139 0 -0.0041884821945286452 -0.027847228827084809 0 -0.0046676815897711433 -0.027918129524017815 0 -0.0045763189988992934 -0.027679874642355932 0 -0.0046676815897711433 -0.027918129524017815 0 -0.0045763189988992934 -0.027679874642355932 0 -0.0047444224797838688 -0.02759849144321485 0 -0.0041884821945286452 -0.027847228827084809 0 -0.0045763189988992934 -0.027679874642355932 0 -0.004569776239071969 -0.027284483445983228 0 -0.0045763189988992934 -0.027679874642355932 0 -0.004569776239071969 -0.027284483445983228 0 -0.0047444224797838688 -0.02759849144321485 0 -0.0044177310285516483 -0.026157342748680774 0 -0.0048137459063673635 -0.026226603163672067 0 -0.0042342404052107332 -0.025608603644633229 0 -0.0041604166751910473 -0.025722828221028872 0 -0.0045041205428679176 -0.025827249905142357 0 -0.0042831757765794086 -0.025070099936590647 0 -0.004291450519755464 -0.0254971473913632 0 -0.0042342404052107332 -0.025608603644633229 0 -0.0045041205428679176 -0.025827249905142357 0 -0.0046461617737590336 -0.025770302139149132 0 -0.0051638710377155299 -0.027511196240996995 0 -0.004569776239071969 -0.027284483445983228 0 -0.0047444224797838688 -0.02759849144321485 0 -0.0051638710377155299 -0.027511196240996995 0 -0.0046676815897711433 -0.027918129524017815 0 -0.0048623369540159488 -0.027991403606716883 0 -0.0044177310285516483 -0.026157342748680774 0 -0.0047091165936454099 -0.02708991298369216 0 -0.0051638710377155299 -0.027511196240996995 0 -0.0046676815897711433 -0.027918129524017815 0 -0.0047444224797838688 -0.02759849144321485 0 -0.0042376327366681005 -0.025631147563780148 0 -0.0042499252488994079 -0.025765866757475258 0 -0.0041174765401856056 -0.025825103001143244 0 -0.0051638351139019116 -0.02741676177045831 0 -0.0046967867065989743 -0.028160747351491499 0 -0.0052551549560183033 -0.028189978669176861 0 -0.0047091165936454099 -0.02708991298369216 0 -0.0043019646571297067 -0.026575166684999395 0 -0.0042499252488994079 -0.025765866757475258 0 -0.0041174765401856056 -0.025825103001143244 0 -0.0041508551092671311 -0.026059498971910868 0 -0.0047091165936454099 -0.02708991298369216 0 -0.0045233630000736363 -0.028363698552117643 0 -0.0046676815897711433 -0.027918129524017815 0 -0.0045140725223087727 -0.028542375687017521 0 -0.0043001901658626506 -0.028175783720968139 0 -0.0046676815897711433 -0.027918129524017815 0 -0.0048623369540159488 -0.027991403606716883 0 -0.0045140725223087727 -0.028542375687017521 0 -0.0039019314471609545 -0.028192751523243964 0 -0.004102048950390908 -0.028482950976507406 0 -0.0035963544086491353 -0.028659051740578617 0 -0.0031372826876284688 -0.027904165618032353 0 -0.0039019314471609545 -0.028192751523243964 0 -0.0035963544086491353 -0.028659051740578617 0 -0.0045140725223087727 -0.028542375687017521 0 -0.004102048950390908 -0.028482950976507406 0 -0.0043001901658626506 -0.028175783720968139 0 -0.0039019314471609545 -0.028192751523243964 0 -0.004102048950390908 -0.028482950976507406 0 -0.0043001901658626506 -0.028175783720968139 0 -0.0045140725223087727 -0.028542375687017521 0 -0.004102048950390908 -0.028482950976507406 0 -0.0039598866632645936 -0.028871272174774785 0 -0.004102048950390908 -0.028482950976507406 0 -0.0039598866632645936 -0.028871272174774785 0 -0.0035963544086491353 -0.028659051740578617 0 -0.0039598866632645936 -0.028871272174774785 0 -0.0035963544086491353 -0.028659051740578617 0 -0.0036782701147858765 -0.029113579235329572 0 -0.0046967867065989743 -0.028160747351491499 0 -0.004059772021760639 -0.029695496562185689 0 -0.0038574245354144917 -0.029561498549961148 0 -0.0045233630000736363 -0.028363698552117643 0 -0.0039262398791652595 -0.029465312399074579 0 -0.0045140725223087727 -0.028542375687017521 0 -0.0039598866632645936 -0.028871272174774785 0 -0.0038574245354144917 -0.029561498549961148 0 -0.0039598866632645936 -0.028871272174774785 0 -0.0036782701147858765 -0.029113579235329572 0 -0.0038574245354144917 -0.029561498549961148 0 -0.0032140370302446942 -0.02928372164682989 0 -0.0035963544086491353 -0.028659051740578617 0 -0.0036782701147858765 -0.029113579235329572 0 -0.004059772021760639 -0.029695496562185689 0 -0.0038574245354144917 -0.029561498549961148 0 -0.0032560264757630964 -0.029883523113095341 0 -0.0032140370302446942 -0.02928372164682989 0 -0.0036782701147858765 -0.029113579235329572 0 -0.0038574245354144917 -0.029561498549961148 0 -0.0046967867065989743 -0.028160747351491499 0 -0.0052551549560183033 -0.028189978669176861 0 -0.004059772021760639 -0.029695496562185689 0 -0.0043019646571297067 -0.026575166684999395 0 -0.0041348430747777734 -0.026422907350647069 0 -0.0040808133316359713 -0.026213218990651731 0 -0.0036624422473060451 -0.026702235652668795 0 -0.0041193679104971036 -0.026734997063292187 0 -0.0043019646571297067 -0.026575166684999395 0 -0.0038882183066503533 -0.028289633690443641 0 -0.0036624422473060451 -0.026702235652668795 0 -0.0041193679104971036 -0.026734997063292187 0 -0.0039143151051946471 -0.02697523204201999 0 -0.0041193679104971036 -0.026734997063292187 0 -0.0039143151051946471 -0.02697523204201999 0 -0.0041637275463791588 -0.027290090194522613 0 -0.0041348430747777734 -0.026422907350647069 0 -0.004152736071897878 -0.02705622228202539 0 -0.0038882183066503533 -0.028289633690443641 0 -0.0030618168429613333 -0.028984419871331265 0 -0.0036624422473060451 -0.026702235652668795 0 -0.0039143151051946471 -0.02697523204201999 0 -0.0037142543444845062 -0.027175822335202306 0 -0.0036624422473060451 -0.026702235652668795 0 -0.0037142543444845062 -0.027175822335202306 0 -0.0031632659638975535 -0.027196253928400953 0 -0.0037142543444845062 -0.027175822335202306 0 -0.0037405016748678147 -0.027794501251907706 0 -0.0031632659638975535 -0.027196253928400953 0 -0.0037142543444845062 -0.027175822335202306 0 -0.0041637275463791588 -0.027290090194522613 0 -0.0037405016748678147 -0.027794501251907706 0 -0.0039143151051946471 -0.02697523204201999 0 -0.0037142543444845062 -0.027175822335202306 0 -0.0041637275463791588 -0.027290090194522613 0 -0.0041637275463791588 -0.027290090194522613 0 -0.0037405016748678147 -0.027794501251907706 0 -0.0041632609254167721 -0.027671975124343086 0 -0.0037405016748678147 -0.027794501251907706 0 -0.0039971846942977078 -0.028240499936369887 0 -0.003668369106986983 -0.028710653576408094 0 -0.0037405016748678147 -0.027794501251907706 0 -0.0031602889588876297 -0.028119225280390812 0 -0.003668369106986983 -0.028710653576408094 0 -0.0039971846942977078 -0.028240499936369887 0 -0.0041632609254167721 -0.027671975124343086 0 -0.0043418633761432299 -0.028263273457794568 0 -0.0037405016748678147 -0.027794501251907706 0 -0.0039971846942977078 -0.028240499936369887 0 -0.0041632609254167721 -0.027671975124343086 0 -0.0023775091507945629 -0.027954455590941573 0 -0.0014598005494681678 -0.029356312383193903 0 -0.0026027751141098 -0.029242664694810797 0 -0.0031602889588876297 -0.028119225280390812 0 -0.0023775091507945629 -0.027954455590941573 0 -0.0026027751141098 -0.029242664694810797 0 -0.0031602889588876297 -0.028119225280390812 0 -0.003668369106986983 -0.028710653576408094 0 -0.0026027751141098 -0.029242664694810797 0 -0.0031602889588876297 -0.028119225280390812 0 -0.0023775091507945629 -0.027954455590941573 0 -0.0031632659638975535 -0.027196253928400953 0 -0.0037405016748678147 -0.027794501251907706 0 -0.0031602889588876297 -0.028119225280390812 0 -0.0031632659638975535 -0.027196253928400953 0 -0.0021345259726765682 -0.029785142318502159 0 -0.0030618168429613333 -0.028984419871331265 0 -0.0018667345570357434 -0.031645386628382365 0 -0.0029751160463065149 -0.030820245174663325 0 -0.0015684909950055205 -0.030766493929962824 0 -0.0023873973927027326 -0.029700801376053326 0 -0.0029751160463065149 -0.030820245174663325 0 -0.0032560264757630964 -0.029883523113095341 0 -0.004059772021760639 -0.029695496562185689 0 -0.0029751160463065149 -0.030820245174663325 0 -0.0032560264757630964 -0.029883523113095341 0 -0.0023873973927027326 -0.029700801376053326 0 -0.0029751160463065149 -0.030820245174663325 0 -0.0015684909950055205 -0.030766493929962824 0 -0.0011993597916849824 -0.029819062409092427 0 -0.0023873973927027326 -0.029700801376053326 0 -0.0015684909950055205 -0.030766493929962824 0 -0.0011993597916849824 -0.029819062409092427 0 -0.0015684909950055205 -0.030766493929962824 0 -0.00036930346668367659 -0.031066418203702081 0 -0.0015684909950055205 -0.030766493929962824 0 -0.00036930346668367659 -0.031066418203702081 0 -0.00096865890508660566 -0.031560333602068877 0 -0.00036930346668367659 -0.031066418203702081 0 -0.0005370791577635804 -0.031601582927029304 0 -0.00096865890508660566 -0.031560333602068877 0 -0.00030910446232301379 -0.032045988953820076 0 -0.00036163123636685508 -0.031780085405161917 0 -0.00042176448681229662 -0.032262828093533084 0 -0.00030910446232301379 -0.032045988953820076 0 -0.00036930346668367659 -0.031066418203702081 0 -0.00036163123636685508 -0.031780085405161917 0 0.00049202790920754489 -0.031101214595633368 0 -0.00033412626601273643 -0.031127397761044555 0 2.3527295532358199e-05 -0.028873094940510591 0 0.0014619437816681387 -0.030107501999489996 0 -0.00036930346668367659 -0.031066418203702081 0 -0.00036930346668367659 -0.031066418203702081 0 -0.00036163123636685508 -0.031780085405161917 0 -0.0005370791577635804 -0.031601582927029304 0 -0.00036163123636685508 -0.031780085405161917 0 -0.0005370791577635804 -0.031601582927029304 0 -0.00037988359652316937 -0.03189955283485401 0 -0.00055404960717546543 -0.031616648845214985 0 -0.00056068028893124637 -0.031738569546988435 0 -0.0005370791577635804 -0.031601582927029304 0 -0.00085253128543410204 -0.031627153356443206 0 -0.00096865890508660566 -0.031560333602068877 0 -0.00085253128543410204 -0.031627153356443206 0 -0.00083178278702445514 -0.031652987044091772 0 -0.00077369835564882752 -0.031571653935272961 0 -0.0005370791577635804 -0.031601582927029304 0 -0.00085253128543410204 -0.031627153356443206 0 -0.00077369835564882752 -0.031571653935272961 0 -0.0018667345570357434 -0.031645386628382365 0 -0.0015684909950055205 -0.030766493929962824 0 -0.00096865890508660566 -0.031560333602068877 0 -0.00085253128543410204 -0.031627153356443206 0 -0.00096865890508660566 -0.031560333602068877 0 -0.0010456030361425529 -0.031750771906282518 0 -0.0018667345570357434 -0.031645386628382365 0 -0.00096865890508660566 -0.031560333602068877 0 -0.0010456030361425529 -0.031750771906282518 0 -0.0021345259726765682 -0.029785142318502159 0 -0.0013175835537416129 -0.030541852295047436 0 -0.0014598005494681678 -0.029356312383193903 0 -0.00099342454991629644 -0.031251742442263551 0 -0.0018614866949797433 -0.030809623175035588 0 -0.0014598005494681678 -0.029356312383193903 0 -0.0018614866949797433 -0.030809623175035588 0 -0.0026027751141098 -0.029242664694810797 0 -0.00085253128543410204 -0.031627153356443206 0 -0.0010456030361425529 -0.031750771906282518 0 -0.00099342454991629644 -0.031251742442263551 0 -0.0013175835537416129 -0.030541852295047436 0 -0.0010109907763387509 -0.031149737140940034 0 -0.00099342454991629644 -0.031251742442263551 0 -0.0018614866949797433 -0.030809623175035588 0 -0.0014779605593339467 -0.031706164051495518 0 -0.00085253128543410204 -0.031627153356443206 0 -0.00083178278702445514 -0.031652987044091772 0 -0.00091820758939986245 -0.031535732691934874 0 -0.00085253128543410204 -0.031627153356443206 0 -0.00099342454991629644 -0.031251742442263551 0 -0.00091820758939986245 -0.031535732691934874 0 -0.00099342454991629644 -0.031251742442263551 0 -0.00091820758939986245 -0.031535732691934874 0 -0.00092553300142093073 -0.031724084043254677 0 -0.00083178278702445514 -0.031652987044091772 0 -0.00091820758939986245 -0.031535732691934874 0 -0.00092553300142093073 -0.031724084043254677 0 -0.00083178278702445514 -0.031652987044091772 0 -0.00092553300142093073 -0.031724084043254677 0 -0.00074568895414596091 -0.032060511616100955 0 -0.00092553300142093073 -0.031724084043254677 0 -0.0011036015966448425 -0.031879010065663307 0 -0.0008984143528557425 -0.032143108432203298 0 -0.00092553300142093073 -0.031724084043254677 0 -0.0008984143528557425 -0.032143108432203298 0 -0.00074568895414596091 -0.032060511616100955 0 -0.00099342454991629644 -0.031251742442263551 0 -0.00092553300142093073 -0.031724084043254677 0 -0.0011036015966448425 -0.031879010065663307 0 -0.0011036015966448425 -0.031879010065663307 0 -0.0008984143528557425 -0.032143108432203298 0 -0.0010959427464368387 -0.032266778499756933 0 -0.0011036015966448425 -0.031879010065663307 0 -0.0014157648012393066 -0.032021313958400972 0 -0.0010959427464368387 -0.032266778499756933 0 -0.0008984143528557425 -0.032143108432203298 0 -0.00084301493100120647 -0.032574405758302484 0 -0.0010959427464368387 -0.032266778499756933 0 -0.0018614866949797433 -0.030809623175035588 0 -0.0014779605593339467 -0.031706164051495518 0 -0.0021310643238365724 -0.031646207928926397 0 -0.00099342454991629644 -0.031251742442263551 0 -0.0011036015966448425 -0.031879010065663307 0 -0.0014779605593339467 -0.031706164051495518 0 -0.0011036015966448425 -0.031879010065663307 0 -0.0014779605593339467 -0.031706164051495518 0 -0.0014157648012393066 -0.032021313958400972 0 -0.0014779605593339467 -0.031706164051495518 0 -0.0017633937504097025 -0.031694704868295065 0 -0.0014157648012393066 -0.032021313958400972 0 -0.0014779605593339467 -0.031706164051495518 0 -0.0021310643238365724 -0.031646207928926397 0 -0.0017633937504097025 -0.031694704868295065 0 -0.002370601458350744 -0.030726207876455344 0 -0.0018059056717897111 -0.031600284533768508 0 -0.0018614866949797433 -0.030809623175035588 0 -0.0021310643238365724 -0.031646207928926397 0 -0.003018469449811646 -0.030610005882993022 0 -0.002370601458350744 -0.030726207876455344 0 -0.0031388159969786555 -0.029753639011459443 0 -0.0025610876464520886 -0.02978556055471894 0 -0.0035621835240057008 -0.029816133331764538 0 -0.0033272099448465415 -0.028932039716079962 0 -0.0025610876464520886 -0.02978556055471894 0 -0.0035621835240057008 -0.029816133331764538 0 -0.0028652297278379526 -0.031305212772349551 0 -0.0035621835240057008 -0.029816133331764538 0 -0.0040279616969690025 -0.029584826174598094 0 -0.0042064659060999307 -0.03011055690573251 0 -0.0035621835240057008 -0.029816133331764538 0 -0.0040279616969690025 -0.029584826174598094 0 -0.0039366371065016328 -0.029100257232939981 0 -0.0040279616969690025 -0.029584826174598094 0 -0.0039366371065016328 -0.029100257232939981 0 -0.0043193516576169513 -0.029330519239883366 0 -0.0040279616969690025 -0.029584826174598094 0 -0.0042064659060999307 -0.03011055690573251 0 -0.0043193516576169513 -0.029330519239883366 0 -0.0039366371065016328 -0.029100257232939981 0 -0.0044209333486149053 -0.028748623589792643 0 -0.0043193516576169513 -0.029330519239883366 0 -0.0035621835240057008 -0.029816133331764538 0 -0.0039366371065016328 -0.029100257232939981 0 -0.0033272099448465415 -0.028932039716079962 0 -0.0039366371065016328 -0.029100257232939981 0 -0.0040588651415165034 -0.028657303373696784 0 -0.003668369106986983 -0.028710653576408094 0 -0.0039366371065016328 -0.029100257232939981 0 -0.003668369106986983 -0.028710653576408094 0 -0.0033272099448465415 -0.028932039716079962 0 -0.0039366371065016328 -0.029100257232939981 0 -0.0040588651415165034 -0.028657303373696784 0 -0.0044209333486149053 -0.028748623589792643 0 -0.0039971846942977078 -0.028240499936369887 0 -0.0040588651415165034 -0.028657303373696784 0 -0.003668369106986983 -0.028710653576408094 0 -0.0039971846942977078 -0.028240499936369887 0 -0.0040588651415165034 -0.028657303373696784 0 -0.0043418633761432299 -0.028263273457794568 0 -0.003668369106986983 -0.028710653576408094 0 -0.0026027751141098 -0.029242664694810797 0 -0.003018469449811646 -0.030610005882993022 0 -0.0036448536398950237 -0.02881919421782338 0 -0.0031388159969786555 -0.029753639011459443 0 -0.0018614866949797433 -0.030809623175035588 0 -0.0026027751141098 -0.029242664694810797 0 -0.003018469449811646 -0.030610005882993022 0 -6.8459614176752062e-05 -0.034957488005961497 0 4.7482017361594716e-08 -0.03499991066218941 0 -1.9696205165944507e-08 -0.035000050424987682 0 -6.8459614176752062e-05 -0.034957488005961497 0 -1.8887886602835433e-05 -0.03504077606127691 0 -1.9696205165944507e-08 -0.035000050424987682 0 -6.8459614176752062e-05 -0.034957488005961497 0 4.7482017361594716e-08 -0.03499991066218941 0 -7.9833205340505822e-05 -0.034736800308348921 0 4.7482017361594716e-08 -0.03499991066218941 0 -5.7607221223825745e-06 -0.034767567015948277 0 2.1921365936664341e-08 -0.034999174382853777 0 4.7482017361594716e-08 -0.03499991066218941 0 -5.7607221223825745e-06 -0.034767567015948277 0 -7.9833205340505822e-05 -0.034736800308348921 0 2.0782613189622351e-05 -0.034891126967562712 0 -5.7607221223825745e-06 -0.034767567015948277 0 2.1921365936664341e-08 -0.034999174382853777 0 -0.00023033341653423825 -0.033977741516532163 0 2.0782613189622351e-05 -0.034891126967562712 0 -5.7607221223825745e-06 -0.034767567015948277 0 -0.00023033341653423825 -0.033977741516532163 0 -5.7607221223825745e-06 -0.034767567015948277 0 -7.9833205340505822e-05 -0.034736800308348921 0 -6.8459614176752062e-05 -0.034957488005961497 0 -7.9833205340505822e-05 -0.034736800308348921 0 -0.00042199270845914302 -0.034461871795404359 0 -0.00023033341653423825 -0.033977741516532163 0 -0.00042199270845914302 -0.034461871795404359 0 -0.00087214855516971727 -0.03363108569577488 0 -0.00023033341653423825 -0.033977741516532163 0 -7.9833205340505822e-05 -0.034736800308348921 0 -0.00042199270845914302 -0.034461871795404359 0 -0.00042199270845914302 -0.034461871795404359 0 -0.00087214855516971727 -0.03363108569577488 0 -0.001007138604365006 -0.034570152135173587 0 -0.00093344918203066966 -0.033676185703307937 0 -0.00064248530406191067 -0.033795791453337713 0 8.585983204550871e-05 -0.03505577148543168 0 0.00013934285738124923 -0.035027910767697769 0 0.00010803629222284571 -0.035055503253148886 0 -8.3322681786339055e-05 -0.035230185199430414 0 -0.00064248530406191067 -0.033795791453337713 0 -0.00042199270845914302 -0.034461871795404359 0 -0.00040119452665954259 -0.035019867511516374 0 -0.001007138604365006 -0.034570152135173587 0 -6.8459614176752062e-05 -0.034957488005961497 0 -0.00042199270845914302 -0.034461871795404359 0 -0.00040119452665954259 -0.035019867511516374 0 -8.3322681786339055e-05 -0.035230185199430414 0 -8.9713122244077965e-05 -0.03495303015674759 0 -6.8459614176752062e-05 -0.034957488005961497 0 -0.00040119452665954259 -0.035019867511516374 0 -1.8887886602835433e-05 -0.03504077606127691 0 8.585983204550871e-05 -0.03505577148543168 0 0.00013934285738124923 -0.035027910767697769 0 0.00013279139070152931 -0.035001125134330527 0 -0.00074325698611640877 -0.031988610635007471 0 -0.00053316463520934046 -0.032017023966123111 0 -0.00070381285829310939 -0.031767281820424147 0 -0.0010162406274742534 -0.031890620742085957 0 -0.00074325698611640877 -0.031988610635007471 0 -0.00070381285829310939 -0.031767281820424147 0 -0.00074325698611640877 -0.031988610635007471 0 -0.00074470811032780111 -0.032294282546588289 0 -0.00053316463520934046 -0.032017023966123111 0 -0.0010162406274742534 -0.031890620742085957 0 -0.00074325698611640877 -0.031988610635007471 0 -0.00074470811032780111 -0.032294282546588289 0 -0.0010162406274742534 -0.031890620742085957 0 -0.00074470811032780111 -0.032294282546588289 0 -0.0012662919803708597 -0.032448669889270157 0 -0.00042751888289500948 -0.033512974666958545 0 -0.00064248530406191067 -0.033795791453337713 0 -0.00064248530406191067 -0.033795791453337713 0 -0.0011255104875133959 -0.032690660068551002 0 -0.00074470811032780111 -0.032294282546588289 0 -0.0012662919803708597 -0.032448669889270157 0 -0.00089437857786711541 -0.033031285460475533 0 -0.00087214855516971727 -0.03363108569577488 0 -0.00090966332498149528 -0.033182581256875877 0 -0.00089437857786711541 -0.033031285460475533 0 -0.00089162799057945557 -0.033242514991619856 0 -0.00087214855516971727 -0.03363108569577488 0 -0.00089437857786711541 -0.033031285460475533 0 -0.00083506983041250582 -0.033109987762356227 0 -0.00089162799057945557 -0.033242514991619856 0 -0.00089437857786711541 -0.033031285460475533 0 -0.00075036836738578093 -0.032946644073147686 0 -0.00089437857786711541 -0.033031285460475533 0 -0.0005995716868902062 -0.032524816246970817 0 -0.00083506983041250582 -0.033109987762356227 0 -0.00075036836738578093 -0.032946644073147686 0 -0.00089437857786711541 -0.033031285460475533 0 -0.00074470811032780111 -0.032294282546588289 0 -0.00089437857786711541 -0.033031285460475533 0 -0.0005995716868902062 -0.032524816246970817 0 -0.0005995716868902062 -0.032524816246970817 0 -0.00042176448681229662 -0.032262828093533084 0 -0.00040892647491060752 -0.032024824291229131 0 -0.00074470811032780111 -0.032294282546588289 0 -0.0005995716868902062 -0.032524816246970817 0 -0.00040892647491060752 -0.032024824291229131 0 -0.00049016630931072894 -0.03277071019793007 0 -0.00075036836738578093 -0.032946644073147686 0 -0.0005995716868902062 -0.032524816246970817 0 -0.00049016630931072894 -0.03277071019793007 0 -0.0005995716868902062 -0.032524816246970817 0 -0.00042176448681229662 -0.032262828093533084 0 -0.00049016630931072894 -0.03277071019793007 0 -0.00030910446232301379 -0.032045988953820076 0 -0.00042176448681229662 -0.032262828093533084 0 -0.00036163123636685508 -0.031780085405161917 0 -0.00042176448681229662 -0.032262828093533084 0 -0.00040892647491060752 -0.032024824291229131 0 -0.00036163123636685508 -0.031780085405161917 0 -0.00040892647491060752 -0.032024824291229131 0 -0.00037988359652316937 -0.03189955283485401 0 -0.00040892647491060752 -0.032024824291229131 0 -0.0004607590329373952 -0.031926885550809872 0 -0.00037988359652316937 -0.03189955283485401 0 -0.00074470811032780111 -0.032294282546588289 0 -0.00040892647491060752 -0.032024824291229131 0 -0.00053316463520934046 -0.032017023966123111 0 -0.00042860036429699536 -0.032016070209931406 0 -0.00046528018487825175 -0.032012685355636533 0 -0.0004607590329373952 -0.031926885550809872 0 -0.00046050292818060855 -0.031871599410191444 0 -0.00047301115861382353 -0.031881673354130134 0 -0.00046528018487825175 -0.032012685355636533 0 -0.00069119237704691147 -0.031610622899170826 0 -0.00056068028893124637 -0.031738569546988435 0 -0.00052153615526026641 -0.031686264252322328 0 -0.0004607590329373952 -0.031926885550809872 0 -0.00037988359652316937 -0.03189955283485401 0 -0.00046050292818060855 -0.031871599410191444 0 -0.00083178278702445514 -0.031652987044091772 0 -0.00077369835564882752 -0.031571653935272961 0 -0.00057610681522860625 -0.031640917456672357 0 -0.00083178278702445514 -0.031652987044091772 0 -0.00057610681522860625 -0.031640917456672357 0 -0.00066363949634984192 -0.031833550091768963 0 -0.00057610681522860625 -0.031640917456672357 0 -0.00053371350005072837 -0.031831835570183195 0 -0.00038850490024672023 -0.031938928664488213 0 -0.00057610681522860625 -0.031640917456672357 0 -0.00053371350005072837 -0.031831835570183195 0 -0.00066363949634984192 -0.031833550091768963 0 -0.00053371350005072837 -0.031831835570183195 0 -0.00049584870204878685 -0.032033395104944386 0 -0.00066363949634984192 -0.031833550091768963 0 -0.00053371350005072837 -0.031831835570183195 0 -0.00038850490024672023 -0.031938928664488213 0 -0.00049584870204878685 -0.032033395104944386 0 -0.00038850490024672023 -0.031938928664488213 0 -0.00049584870204878685 -0.032033395104944386 0 -0.0002982009154752596 -0.032198499055108271 0 -0.00049584870204878685 -0.032033395104944386 0 -0.0004361088262579427 -0.032287864017207631 0 -0.0002982009154752596 -0.032198499055108271 0 -0.00049584870204878685 -0.032033395104944386 0 -0.00066363949634984192 -0.031833550091768963 0 -0.00058665853637200052 -0.032133281657258761 0 -0.00066363949634984192 -0.031833550091768963 0 -0.00074568895414596091 -0.032060511616100955 0 -0.00058665853637200052 -0.032133281657258761 0 -0.00083178278702445514 -0.031652987044091772 0 -0.00066363949634984192 -0.031833550091768963 0 -0.00074568895414596091 -0.032060511616100955 0 -0.0008984143528557425 -0.032143108432203298 0 -0.00074568895414596091 -0.032060511616100955 0 -0.00069313540412762535 -0.032489161614207999 0 -0.00074568895414596091 -0.032060511616100955 0 -0.00069313540412762535 -0.032489161614207999 0 -0.00051474326299434322 -0.032471026590422676 0 -0.0008984143528557425 -0.032143108432203298 0 -0.00069313540412762535 -0.032489161614207999 0 -0.00084301493100120647 -0.032574405758302484 0 -0.00051474326299434322 -0.032471026590422676 0 -0.00031296075411428722 -0.03285321060675496 0 -0.00046707038284271731 -0.032894442854037344 0 -0.00069313540412762535 -0.032489161614207999 0 -0.00051474326299434322 -0.032471026590422676 0 -0.00046707038284271731 -0.032894442854037344 0 -0.00051474326299434322 -0.032471026590422676 0 -0.0004361088262579427 -0.032287864017207631 0 -0.00020457830920529217 -0.032604761358011665 0 -0.00074568895414596091 -0.032060511616100955 0 -0.00051474326299434322 -0.032471026590422676 0 -0.00058665853637200052 -0.032133281657258761 0 -0.00051474326299434322 -0.032471026590422676 0 -0.00058665853637200052 -0.032133281657258761 0 -0.0004361088262579427 -0.032287864017207631 0 -0.00049584870204878685 -0.032033395104944386 0 -0.00058665853637200052 -0.032133281657258761 0 -0.0004361088262579427 -0.032287864017207631 0 -0.0004361088262579427 -0.032287864017207631 0 -0.00020457830920529217 -0.032604761358011665 0 -0.0002982009154752596 -0.032198499055108271 0 -0.00051474326299434322 -0.032471026590422676 0 -0.00020457830920529217 -0.032604761358011665 0 -0.00031296075411428722 -0.03285321060675496 0 -0.00018070374998326825 -0.032519320978611134 0 -0.00030290610820844159 -0.032437832232482942 0 -0.00020457830920529217 -0.032604761358011665 0 -0.00013942830820459589 -0.032696360798386899 0 -0.0001677896618920498 -0.032616813847703541 0 -0.00020457830920529217 -0.032604761358011665 0 -1.5592010199943913e-05 -0.032031679670390542 0 -0.0002982009154752596 -0.032198499055108271 0 -0.00031296075411428722 -0.03285321060675496 0 -0.00013315929849658996 -0.033072785359859219 0 -0.00028622138924095465 -0.033196484101468748 0 -0.00020457830920529217 -0.032604761358011665 0 -0.00031296075411428722 -0.03285321060675496 0 -0.00013315929849658996 -0.033072785359859219 0 -0.00031296075411428722 -0.03285321060675496 0 -0.00028622138924095465 -0.033196484101468748 0 -0.00046707038284271731 -0.032894442854037344 0 -0.00013315929849658996 -0.033072785359859219 0 4.7889956475369666e-05 -0.032892716697955689 0 1.4218727762155881e-05 -0.033512363913130748 0 -0.00013315929849658996 -0.033072785359859219 0 1.4218727762155881e-05 -0.033512363913130748 0 -0.00012754532373243253 -0.033448968359411094 0 0.00017483873502605355 -0.034925452632529275 0 0.00012931881650746571 -0.034948241756942097 0 0.00016673488701596963 -0.034902560044466603 0 -0.00013315929849658996 -0.033072785359859219 0 -0.00011569718748198701 -0.032808146392349254 0 4.7889956475369666e-05 -0.032892716697955689 0 -0.00020457830920529217 -0.032604761358011665 0 -0.00011569718748198701 -0.032808146392349254 0 -0.00013942830820459589 -0.032696360798386899 0 -0.00020457830920529217 -0.032604761358011665 0 -0.00013315929849658996 -0.033072785359859219 0 -0.00011569718748198701 -0.032808146392349254 0 -0.00011569718748198701 -0.032808146392349254 0 -0.00013942830820459589 -0.032696360798386899 0 4.7889956475369666e-05 -0.032892716697955689 0 -0.00013942830820459589 -0.032696360798386899 0 -0.00010262508532223574 -0.0326523452190014 0 4.7889956475369666e-05 -0.032892716697955689 0 0.00015115958806488023 -0.033722569823455666 0 9.0114150381146661e-05 -0.03388583153947005 0 0.00017483873502605355 -0.034925452632529275 0 0.00014789757831837862 -0.034963832480134585 0 0.00012931881650746571 -0.034948241756942097 0 0.00014789757831837862 -0.034963832480134585 0 0.00018353903596200841 -0.034952674650960122 0 0.00013279139070152931 -0.035001125134330527 0 0.00017483873502605355 -0.034925452632529275 0 0.00014789757831837862 -0.034963832480134585 0 0.00018353903596200841 -0.034952674650960122 0 0.00015115958806488023 -0.033722569823455666 0 -0.00030290610820844159 -0.032437832232482942 0 0.00013103177388505672 -0.033495922848893855 0 -0.00048540090406096252 -0.032989783586736203 0 -0.00038560134604848784 -0.03265153494674846 0 0.00015115958806488023 -0.033722569823455666 0 -0.00041674732889664286 -0.032943723763233249 0 -0.00013942830820459589 -0.032696360798386899 0 -0.00010262508532223574 -0.0326523452190014 0 -0.0001677896618920498 -0.032616813847703541 0 -0.00057610681522860625 -0.031640917456672357 0 -0.00038850490024672023 -0.031938928664488213 0 -1.5592010199943913e-05 -0.032031679670390542 0 -0.00052153615526026641 -0.031686264252322328 0 -0.00030290610820844159 -0.032437832232482942 0 -0.00046050292818060855 -0.031871599410191444 0 -0.00047261675106044065 -0.031889183769736734 0 -0.00047259469330536414 -0.031887954795413405 0 -0.00038850490024672023 -0.031938928664488213 0 -1.5592010199943913e-05 -0.032031679670390542 0 -0.0002982009154752596 -0.032198499055108271 0 -0.00030290610820844159 -0.032437832232482942 0 -0.00041674732889664286 -0.032943723763233249 0 -0.00046050292818060855 -0.031871599410191444 0 -0.00047259469330536414 -0.031887954795413405 0 -0.00047301115861382353 -0.031881673354130134 0 -0.0010162406274742534 -0.031890620742085957 0 -0.00086737380028788799 -0.031528037196087877 0 -0.00070381285829310939 -0.031767281820424147 0 -0.00041674732889664286 -0.032943723763233249 0 -0.00069119237704691147 -0.031610622899170826 0 -0.00042751888289500948 -0.033512974666958545 0 -0.00041674732889664286 -0.032943723763233249 0 0.00013934285738124923 -0.035027910767697769 0 0.00018353903596200841 -0.034952674650960122 0 0.00013279139070152931 -0.035001125134330527 0 8.585983204550871e-05 -0.03505577148543168 0 0.00013279139070152931 -0.035001125134330527 0 0.00010180237068690951 -0.034995994462110797 0 0.00014789757831837862 -0.034963832480134585 0 0.00013279139070152931 -0.035001125134330527 0 0.00010180237068690951 -0.034995994462110797 0 8.585983204550871e-05 -0.03505577148543168 0 0.00010180237068690951 -0.034995994462110797 0 -1.8887886602835433e-05 -0.03504077606127691 0 0.00010180237068690951 -0.034995994462110797 0 9.3439564968704724e-05 -0.03494902033669197 0 -1.8887886602835433e-05 -0.03504077606127691 0 0.00010180237068690951 -0.034995994462110797 0 0.00012931881650746571 -0.034948241756942097 0 9.3439564968704724e-05 -0.03494902033669197 0 0.00014789757831837862 -0.034963832480134585 0 0.00010180237068690951 -0.034995994462110797 0 0.00012931881650746571 -0.034948241756942097 0 0.00012931881650746571 -0.034948241756942097 0 0.00016673488701596963 -0.034902560044466603 0 9.3439564968704724e-05 -0.03494902033669197 0 0.00016673488701596963 -0.034902560044466603 0 0.00018409627830381927 -0.034825755248355392 0 9.3439564968704724e-05 -0.03494902033669197 0 9.0114150381146661e-05 -0.03388583153947005 0 0.00015669739688846965 -0.034207175665495713 0 4.7889956475369666e-05 -0.032892716697955689 0 0.00020959208820739132 -0.033616794656441136 0 1.4218727762155881e-05 -0.033512363913130748 0 0.00018409627830381927 -0.034825755248355392 0 9.3439564968704724e-05 -0.03494902033669197 0 5.1937560641950163e-05 -0.034921740145959126 0 9.3439564968704724e-05 -0.03494902033669197 0 5.1937560641950163e-05 -0.034921740145959126 0 5.5338337254734733e-06 -0.03500039892982202 0 0.00018409627830381927 -0.034825755248355392 0 5.1937560641950163e-05 -0.034921740145959126 0 0.00015504945009713988 -0.034549438927450063 0 5.1937560641950163e-05 -0.034921740145959126 0 -6.8876615389206076e-08 -0.034999638279456319 0 0.00015504945009713988 -0.034549438927450063 0 5.1937560641950163e-05 -0.034921740145959126 0 1.4857364143407005e-08 -0.035000034671887635 0 5.5338337254734733e-06 -0.03500039892982202 0 5.1937560641950163e-05 -0.034921740145959126 0 -6.8876615389206076e-08 -0.034999638279456319 0 1.4857364143407005e-08 -0.035000034671887635 0 1.4857364143407005e-08 -0.035000034671887635 0 5.5338337254734733e-06 -0.03500039892982202 0 -1.9696205165944507e-08 -0.035000050424987682 0 9.3439564968704724e-05 -0.03494902033669197 0 5.5338337254734733e-06 -0.03500039892982202 0 -1.8887886602835433e-05 -0.03504077606127691 0 5.5338337254734733e-06 -0.03500039892982202 0 -1.8887886602835433e-05 -0.03504077606127691 0 -1.9696205165944507e-08 -0.035000050424987682 0 4.810952569176604e-08 -0.034999684454020574 0 7.8340372353416016e-05 -0.034697102293887311 0 5.9967692348962738e-05 -0.034760840856626354 0 7.8340372353416016e-05 -0.034697102293887311 0 1.5285628025577397e-07 -0.034999448029859451 0 0.00010769356888357206 -0.034555097095057517 0 4.810952569176604e-08 -0.034999684454020574 0 7.8340372353416016e-05 -0.034697102293887311 0 1.5285628025577397e-07 -0.034999448029859451 0 -6.8876615389206076e-08 -0.034999638279456319 0 1.5285628025577397e-07 -0.034999448029859451 0 0.00015504945009713988 -0.034549438927450063 0 1.5285628025577397e-07 -0.034999448029859451 0 0.00015504945009713988 -0.034549438927450063 0 0.00010769356888357206 -0.034555097095057517 0 0.00015504945009713988 -0.034549438927450063 0 0.00010769356888357206 -0.034555097095057517 0 8.5851909876284724e-05 -0.034111876376383563 0 0.00010769356888357206 -0.034555097095057517 0 8.5851909876284724e-05 -0.034111876376383563 0 6.0022717539771038e-05 -0.034420650478066667 0 0.00020959208820739132 -0.033616794656441136 0 0.00015504945009713988 -0.034549438927450063 0 8.5851909876284724e-05 -0.034111876376383563 0 0.00015669739688846965 -0.034207175665495713 0 0.00014393387861016469 -0.03446156107242767 0 0.00020959208820739132 -0.033616794656441136 0 1.4218727762155881e-05 -0.033512363913130748 0 8.5851909876284724e-05 -0.034111876376383563 0 1.4218727762155881e-05 -0.033512363913130748 0 8.5851909876284724e-05 -0.034111876376383563 0 -6.4546861878585497e-05 -0.033730188542724866 0 8.5851909876284724e-05 -0.034111876376383563 0 -9.3687441275798331e-05 -0.03390947371563454 0 -6.4546861878585497e-05 -0.033730188542724866 0 8.5851909876284724e-05 -0.034111876376383563 0 -3.769478149075186e-05 -0.03419373643696981 0 -9.3687441275798331e-05 -0.03390947371563454 0 8.5851909876284724e-05 -0.034111876376383563 0 -3.769478149075186e-05 -0.03419373643696981 0 6.0022717539771038e-05 -0.034420650478066667 0 7.8340372353416016e-05 -0.034697102293887311 0 0.00010769356888357206 -0.034555097095057517 0 6.0022717539771038e-05 -0.034420650478066667 0 7.8340372353416016e-05 -0.034697102293887311 0 5.4274547110060553e-06 -0.0345055777774659 0 5.9967692348962738e-05 -0.034760840856626354 0 7.8340372353416016e-05 -0.034697102293887311 0 6.0022717539771038e-05 -0.034420650478066667 0 5.4274547110060553e-06 -0.0345055777774659 0 -3.769478149075186e-05 -0.03419373643696981 0 6.0022717539771038e-05 -0.034420650478066667 0 5.4274547110060553e-06 -0.0345055777774659 0 -3.769478149075186e-05 -0.03419373643696981 0 -0.00012952997337478995 -0.034245195681920061 0 5.4274547110060553e-06 -0.0345055777774659 0 -0.00029104438147883145 -0.034089653127335924 0 -0.00027306255791212451 -0.033820771757716819 0 -0.00047979279948657453 -0.033946787442347359 0 -0.00012952997337478995 -0.034245195681920061 0 -0.00029104438147883145 -0.034089653127335924 0 -0.00027306255791212451 -0.033820771757716819 0 -3.769478149075186e-05 -0.03419373643696981 0 -0.00027306255791212451 -0.033820771757716819 0 -9.3687441275798331e-05 -0.03390947371563454 0 -3.769478149075186e-05 -0.03419373643696981 0 -0.00012952997337478995 -0.034245195681920061 0 -0.00027306255791212451 -0.033820771757716819 0 -0.00027306255791212451 -0.033820771757716819 0 -9.3687441275798331e-05 -0.03390947371563454 0 -0.00019967654919777382 -0.033613135340844348 0 -9.3687441275798331e-05 -0.03390947371563454 0 -6.4546861878585497e-05 -0.033730188542724866 0 -0.00019967654919777382 -0.033613135340844348 0 -0.00013315929849658996 -0.033072785359859219 0 -0.00012754532373243253 -0.033448968359411094 0 -0.00028622138924095465 -0.033196484101468748 0 -6.4546861878585497e-05 -0.033730188542724866 0 -0.00012754532373243253 -0.033448968359411094 0 -0.00019967654919777382 -0.033613135340844348 0 1.4218727762155881e-05 -0.033512363913130748 0 -6.4546861878585497e-05 -0.033730188542724866 0 -0.00012754532373243253 -0.033448968359411094 0 -0.00028622138924095465 -0.033196484101468748 0 -0.00036678540336960183 -0.033349117449893502 0 -0.00046707038284271731 -0.032894442854037344 0 -0.00012754532373243253 -0.033448968359411094 0 -0.00028622138924095465 -0.033196484101468748 0 -0.00019967654919777382 -0.033613135340844348 0 -0.00028622138924095465 -0.033196484101468748 0 -0.00036678540336960183 -0.033349117449893502 0 -0.00019967654919777382 -0.033613135340844348 0 -0.00027306255791212451 -0.033820771757716819 0 -0.00036678540336960183 -0.033349117449893502 0 -0.00019967654919777382 -0.033613135340844348 0 -0.00027306255791212451 -0.033820771757716819 0 -0.00036678540336960183 -0.033349117449893502 0 -0.0005773336037966382 -0.033266216035228946 0 -0.00036678540336960183 -0.033349117449893502 0 -0.0005773336037966382 -0.033266216035228946 0 -0.00062349001503724313 -0.032917752463448004 0 -0.00069313540412762535 -0.032489161614207999 0 -0.00046707038284271731 -0.032894442854037344 0 -0.00062349001503724313 -0.032917752463448004 0 -0.00036678540336960183 -0.033349117449893502 0 -0.00046707038284271731 -0.032894442854037344 0 -0.00062349001503724313 -0.032917752463448004 0 -0.00062349001503724313 -0.032917752463448004 0 -0.00077229042042109379 -0.032987699132002474 0 -0.00084301493100120647 -0.032574405758302484 0 -0.00069313540412762535 -0.032489161614207999 0 -0.00062349001503724313 -0.032917752463448004 0 -0.00084301493100120647 -0.032574405758302484 0 -0.0005773336037966382 -0.033266216035228946 0 -0.00062349001503724313 -0.032917752463448004 0 -0.00077229042042109379 -0.032987699132002474 0 -0.0005773336037966382 -0.033266216035228946 0 -0.00077229042042109379 -0.032987699132002474 0 -0.0007105897329268792 -0.03332997566284663 0 -0.00077229042042109379 -0.032987699132002474 0 -0.0007105897329268792 -0.03332997566284663 0 -0.00089495026899864708 -0.033198424547712199 0 -0.0007105897329268792 -0.03332997566284663 0 -0.00075322511209765868 -0.033593028547583968 0 -0.00051636181680045465 -0.033635465319451482 0 -0.0007105897329268792 -0.03332997566284663 0 -0.00075322511209765868 -0.033593028547583968 0 -0.00089495026899864708 -0.033198424547712199 0 -0.0005773336037966382 -0.033266216035228946 0 -0.0007105897329268792 -0.03332997566284663 0 -0.00051636181680045465 -0.033635465319451482 0 -0.00027306255791212451 -0.033820771757716819 0 -0.0005773336037966382 -0.033266216035228946 0 -0.00051636181680045465 -0.033635465319451482 0 -0.00027306255791212451 -0.033820771757716819 0 -0.00051636181680045465 -0.033635465319451482 0 -0.00047979279948657453 -0.033946787442347359 0 -0.00075322511209765868 -0.033593028547583968 0 -0.00051636181680045465 -0.033635465319451482 0 -0.00047979279948657453 -0.033946787442347359 0 -0.00075322511209765868 -0.033593028547583968 0 -0.00047979279948657453 -0.033946787442347359 0 -0.00080799081586136183 -0.034007977066161321 0 -0.00047979279948657453 -0.033946787442347359 0 -0.00080799081586136183 -0.034007977066161321 0 -0.00056919816697852685 -0.034193660426883911 0 -0.00047979279948657453 -0.033946787442347359 0 -0.00056919816697852685 -0.034193660426883911 0 -0.00028871627386389907 -0.034326671722821091 0 -0.00056919816697852685 -0.034193660426883911 0 -0.00045031991164503406 -0.034423228235734689 0 -0.000812124088487231 -0.034348788584082565 0 -0.00056919816697852685 -0.034193660426883911 0 -0.00045031991164503406 -0.034423228235734689 0 -0.00028871627386389907 -0.034326671722821091 0 -0.00080799081586136183 -0.034007977066161321 0 -0.00056919816697852685 -0.034193660426883911 0 -0.000812124088487231 -0.034348788584082565 0 -0.000812124088487231 -0.034348788584082565 0 -0.00092512951483883575 -0.034315842115233648 0 -0.00096002978892513447 -0.034316033026495274 0 -0.00086093764477332803 -0.034397377193672161 0 -0.00064915598753395836 -0.034444774573710812 0 -0.000812124088487231 -0.034348788584082565 0 -0.0007903000229629876 -0.034798207637247454 0 -0.00054550434256328377 -0.034608221869506114 0 -0.00089202092367271317 -0.034304283961299351 0 -0.00091715778548377507 -0.034232134410510824 0 -0.00094551083499103572 -0.034246733460433998 0 -0.00016654315181550218 -0.034513078451713287 0 -0.00017063581116659495 -0.034528695665184149 0 -0.00018441443290052956 -0.034527158547056368 0 -0.00064915598753395836 -0.034444774573710812 0 -0.00028000208027901695 -0.03471613367281709 0 -0.0007903000229629876 -0.034798207637247454 0 -0.00041597403656351589 -0.034869060031799265 0 -0.00054550434256328377 -0.034608221869506114 0 -0.00045031991164503406 -0.034423228235734689 0 -0.00054550434256328377 -0.034608221869506114 0 -0.00029353794733384832 -0.034608651434769259 0 -0.00041597403656351589 -0.034869060031799265 0 -0.00054550434256328377 -0.034608221869506114 0 -0.00029353794733384832 -0.034608651434769259 0 -0.00045031991164503406 -0.034423228235734689 0 -0.000812124088487231 -0.034348788584082565 0 -0.00054550434256328377 -0.034608221869506114 0 -0.00010924090783008722 -0.034795591525192675 0 -0.00028000208027901695 -0.03471613367281709 0 -0.00041597403656351589 -0.034869060031799265 0 -0.00029353794733384832 -0.034608651434769259 0 -0.00022020973806251718 -0.034769994747986706 0 -0.00015132496945015187 -0.034918887100006527 0 -0.00041597403656351589 -0.034869060031799265 0 -0.00022020973806251718 -0.034769994747986706 0 -0.00015132496945015187 -0.034918887100006527 0 -0.00022020973806251718 -0.034769994747986706 0 -8.5044743926040555e-05 -0.034728900691575311 0 -0.00010924090783008722 -0.034795591525192675 0 -7.0859074239595557e-05 -0.034821919036439761 0 -2.1142986695875577e-05 -0.034941711400118584 0 2.2084746364924018e-05 -0.034950783505517148 0 -5.4810871036806646e-05 -0.034878389712929586 0 -0.00022020973806251718 -0.034769994747986706 0 -8.5044743926040555e-05 -0.034728900691575311 0 -0.00013993088786991311 -0.034603707810579136 0 -0.00029353794733384832 -0.034608651434769259 0 -0.00022020973806251718 -0.034769994747986706 0 -0.00013993088786991311 -0.034603707810579136 0 -0.00013993088786991311 -0.034603707810579136 0 -0.00011981474918165522 -0.034469351936490415 0 -3.5505835741065633e-05 -0.034679534067232259 0 -0.00013993088786991311 -0.034603707810579136 0 -0.00028871627386389907 -0.034326671722821091 0 -0.00011981474918165522 -0.034469351936490415 0 -0.00045031991164503406 -0.034423228235734689 0 -0.00029353794733384832 -0.034608651434769259 0 -0.00028871627386389907 -0.034326671722821091 0 -0.00029353794733384832 -0.034608651434769259 0 -0.00013993088786991311 -0.034603707810579136 0 -0.00028871627386389907 -0.034326671722821091 0 -0.00029104438147883145 -0.034089653127335924 0 -0.00047979279948657453 -0.033946787442347359 0 -0.00028871627386389907 -0.034326671722821091 0 -0.00012952997337478995 -0.034245195681920061 0 -0.00029104438147883145 -0.034089653127335924 0 -0.00028871627386389907 -0.034326671722821091 0 -0.00012952997337478995 -0.034245195681920061 0 -0.00028871627386389907 -0.034326671722821091 0 -0.00011981474918165522 -0.034469351936490415 0 -0.00012952997337478995 -0.034245195681920061 0 -0.00011981474918165522 -0.034469351936490415 0 5.4274547110060553e-06 -0.0345055777774659 0 -0.00011981474918165522 -0.034469351936490415 0 5.4274547110060553e-06 -0.0345055777774659 0 -3.5505835741065633e-05 -0.034679534067232259 0 5.4274547110060553e-06 -0.0345055777774659 0 -3.5505835741065633e-05 -0.034679534067232259 0 5.9967692348962738e-05 -0.034760840856626354 0 -3.5505835741065633e-05 -0.034679534067232259 0 3.7652770138579867e-05 -0.034847033518678343 0 5.9967692348962738e-05 -0.034760840856626354 0 -5.4810871036806646e-05 -0.034878389712929586 0 -3.5505835741065633e-05 -0.034679534067232259 0 4.5226798434210124e-06 -0.034858951417447555 0 -8.5044743926040555e-05 -0.034728900691575311 0 -0.00013993088786991311 -0.034603707810579136 0 -3.5505835741065633e-05 -0.034679534067232259 0 -7.0859074239595557e-05 -0.034821919036439761 0 -3.0301225491086696e-05 -0.034677616993994485 0 -5.4810871036806646e-05 -0.034878389712929586 0 4.2315068827175372e-07 -0.034918936158240682 0 4.5226798434210124e-06 -0.034858951417447555 0 2.2084746364924018e-05 -0.034950783505517148 0 -5.4810871036806646e-05 -0.034878389712929586 0 4.2315068827175372e-07 -0.034918936158240682 0 6.8901441951608276e-06 -0.034930323871139625 0 4.2315068827175372e-07 -0.034918936158240682 0 1.0195242216135908e-05 -0.034930481661611577 0 4.2315068827175372e-07 -0.034918936158240682 0 1.0195242216135908e-05 -0.034930481661611577 0 4.5226798434210124e-06 -0.034858951417447555 0 1.0195242216135908e-05 -0.034930481661611577 0 3.7652770138579867e-05 -0.034847033518678343 0 4.5226798434210124e-06 -0.034858951417447555 0 -3.5505835741065633e-05 -0.034679534067232259 0 3.7652770138579867e-05 -0.034847033518678343 0 4.5226798434210124e-06 -0.034858951417447555 0 1.0195242216135908e-05 -0.034930481661611577 0 3.7652770138579867e-05 -0.034847033518678343 0 1.9633683742139119e-05 -0.034941406537889054 0 3.7652770138579867e-05 -0.034847033518678343 0 1.9633683742139119e-05 -0.034941406537889054 0 6.7968014698937139e-08 -0.034999809652710448 0 -6.0762134568660209e-06 -0.034955964598596956 0 1.0195242216135908e-05 -0.034930481661611577 0 1.9633683742139119e-05 -0.034941406537889054 0 -6.0762134568660209e-06 -0.034955964598596956 0 1.9633683742139119e-05 -0.034941406537889054 0 2.5120980120332912e-08 -0.034999947034233488 0 1.9633683742139119e-05 -0.034941406537889054 0 2.5120980120332912e-08 -0.034999947034233488 0 6.7968014698937139e-08 -0.034999809652710448 0 3.7652770138579867e-05 -0.034847033518678343 0 6.7968014698937139e-08 -0.034999809652710448 0 5.9967692348962738e-05 -0.034760840856626354 0 4.810952569176604e-08 -0.034999684454020574 0 6.7968014698937139e-08 -0.034999809652710448 0 5.9967692348962738e-05 -0.034760840856626354 0 -0.0034876272269853733 -0.033025032624924004 0 -0.0028678927726322845 -0.032691307618307658 0 -0.0028027961830014701 -0.033458275323801676 0 -0.0034876272269853733 -0.033025032624924004 0 -0.0028678927726322845 -0.032691307618307658 0 -0.0035659399595420189 -0.032308645522146469 0 -0.0028678927726322845 -0.032691307618307658 0 -0.0028027961830014701 -0.033458275323801676 0 -0.0022411468181179851 -0.03317770831916577 0 -0.0028678927726322845 -0.032691307618307658 0 -0.0022441976620695601 -0.032355931942067012 0 -0.0022411468181179851 -0.03317770831916577 0 -0.0028027961830014701 -0.033458275323801676 0 -0.0022411468181179851 -0.03317770831916577 0 -0.002315511708900991 -0.033792854458344554 0 -0.0034876272269853733 -0.033025032624924004 0 -0.0028027961830014701 -0.033458275323801676 0 -0.0034595660168139585 -0.033609145372125726 0 -0.0024078278533736252 -0.032930728008519324 0 -0.0032879312098155165 -0.031635065179864974 0 -0.002861221786474548 -0.032889474037505896 0 -0.0027679004606311103 -0.032791423069719092 0 -0.0035124540892991166 -0.032134790783171698 0 -0.0034876272269853733 -0.033025032624924004 0 -0.0034595660168139585 -0.033609145372125726 0 -0.0041673466495764809 -0.033045642666147124 0 -0.0030919555736857425 -0.0332591313378875 0 -0.0038785504074741912 -0.032265152920344958 0 -0.0021695478167318024 -0.032788862619635852 0 -0.0025064691211090242 -0.032554370555506106 0 -0.002564838441721699 -0.032885127290430916 0 -0.002861221786474548 -0.032889474037505896 0 -0.0037014820513447313 -0.032332896518603126 0 -0.0035124540892991166 -0.032134790783171698 0 -0.0027412444856644118 -0.032795624488857547 0 -0.0025064691211090242 -0.032554370555506106 0 -0.002564838441721699 -0.032885127290430916 0 -0.003382052072849486 -0.031649493259119268 0 -0.0032879312098155165 -0.031635065179864974 0 -0.0038186504386096211 -0.03028605413675943 0 -0.003856358322815182 -0.030437533087255605 0 -0.0037600449004196335 -0.030395658473936143 0 -0.0038186504386096211 -0.03028605413675943 0 -0.0039990991705081934 -0.030485748544689131 0 -0.003856358322815182 -0.030437533087255605 0 -0.0032879312098155165 -0.031635065179864974 0 -0.0038785504074741912 -0.032265152920344958 0 -0.0042631362651852486 -0.030056849083801847 0 -0.0041334369146946949 -0.029062970388928286 0 -0.0039990991705081934 -0.030485748544689131 0 -0.003856358322815182 -0.030437533087255605 0 -0.003840118628281351 -0.030583482310735301 0 -0.003856358322815182 -0.030437533087255605 0 -0.003840118628281351 -0.030583482310735301 0 -0.0037600449004196335 -0.030395658473936143 0 -0.0042631362651852486 -0.030056849083801847 0 -0.0045117860224229769 -0.030274640200971068 0 -0.0037220498509968735 -0.031522117139472422 0 -0.0044945700251516037 -0.031022143214134261 0 -0.0034329179588746244 -0.031219315284058285 0 -0.0032879312098155165 -0.031635065179864974 0 -0.0042631362651852486 -0.030056849083801847 0 -0.0044945700251516037 -0.031022143214134261 0 -0.0042718899178948219 -0.030485330878717191 0 -0.0034329179588746244 -0.031219315284058285 0 -0.0045117860224229769 -0.030274640200971068 0 -0.0038785504074741912 -0.032265152920344958 0 -0.0049881921049041659 -0.031801863760285203 0 -0.0042864294611345416 -0.032352012599492504 0 -0.0041760069990756689 -0.031578986748000901 0 -0.0048633803893032308 -0.028620535062449552 0 -0.0049939085480362562 -0.028928271617020395 0 -0.0044773450227452031 -0.028785476825364486 0 -0.0038785504074741912 -0.032265152920344958 0 -0.0035644817480004229 -0.031976136799665218 0 -0.0042864294611345416 -0.032352012599492504 0 -0.0041760069990756689 -0.031578986748000901 0 -0.0034479008796986588 -0.031477516495859836 0 -0.0034876272269853733 -0.033025032624924004 0 -0.0041673466495764809 -0.033045642666147124 0 -0.0035659399595420189 -0.032308645522146469 0 -0.0041760069990756689 -0.031578986748000901 0 -0.0042064659060999307 -0.03011055690573251 0 -0.0034479008796986588 -0.031477516495859836 0 -0.0049881921049041659 -0.031801863760285203 0 -0.0041760069990756689 -0.031578986748000901 0 -0.0042064659060999307 -0.03011055690573251 0 -0.0044360656129873652 -0.029421574437089246 0 -0.0043243181354296195 -0.029684876712695919 0 -0.0042064659060999307 -0.03011055690573251 0 -0.0045117860224229769 -0.030274640200971068 0 -0.0043245399136708686 -0.030248056322382453 0 -0.0043243181354296195 -0.029684876712695919 0 -0.0042064659060999307 -0.03011055690573251 0 -0.0043193516576169513 -0.029330519239883366 0 -0.0042064659060999307 -0.03011055690573251 0 -0.0034479008796986588 -0.031477516495859836 0 -0.0028652297278379526 -0.031305212772349551 0 -0.0035621835240057008 -0.029816133331764538 0 -0.0042064659060999307 -0.03011055690573251 0 -0.0028652297278379526 -0.031305212772349551 0 -0.0035644817480004229 -0.031976136799665218 0 -0.0028635971516234662 -0.031280691069728146 0 -0.0028678927726322845 -0.032691307618307658 0 -0.0035659399595420189 -0.032308645522146469 0 -0.0028652297278379526 -0.031305212772349551 0 -0.0028678927726322845 -0.032691307618307658 0 -0.0022441976620695601 -0.032355931942067012 0 -0.0028652297278379526 -0.031305212772349551 0 -0.0022441976620695601 -0.032355931942067012 0 -0.0028652297278379526 -0.031305212772349551 0 -0.0017633937504097025 -0.031694704868295065 0 -0.0025610876464520886 -0.02978556055471894 0 -0.0028652297278379526 -0.031305212772349551 0 -0.0017633937504097025 -0.031694704868295065 0 -0.0017633937504097025 -0.031694704868295065 0 -0.0014157648012393066 -0.032021313958400972 0 -0.0016676956585262408 -0.032660283534966743 0 -0.0014157648012393066 -0.032021313958400972 0 -0.0016676956585262408 -0.032660283534966743 0 -0.0012577893743541068 -0.032556441216961989 0 -0.0016676956585262408 -0.032660283534966743 0 -0.0012577893743541068 -0.032556441216961989 0 -0.0011613075618706757 -0.033036059644132088 0 -0.0022441976620695601 -0.032355931942067012 0 -0.0017633937504097025 -0.031694704868295065 0 -0.0016676956585262408 -0.032660283534966743 0 -0.00084301493100120647 -0.032574405758302484 0 -0.0010959427464368387 -0.032266778499756933 0 -0.00099739952982894867 -0.032731757766296908 0 -0.00077229042042109379 -0.032987699132002474 0 -0.00084301493100120647 -0.032574405758302484 0 -0.00099739952982894867 -0.032731757766296908 0 -0.0010959427464368387 -0.032266778499756933 0 -0.0012577893743541068 -0.032556441216961989 0 -0.00099739952982894867 -0.032731757766296908 0 -0.0014157648012393066 -0.032021313958400972 0 -0.0010959427464368387 -0.032266778499756933 0 -0.0012577893743541068 -0.032556441216961989 0 -0.0012577893743541068 -0.032556441216961989 0 -0.00099739952982894867 -0.032731757766296908 0 -0.0011613075618706757 -0.033036059644132088 0 -0.00099739952982894867 -0.032731757766296908 0 -0.00089495026899864708 -0.033198424547712199 0 -0.0011613075618706757 -0.033036059644132088 0 -0.00077229042042109379 -0.032987699132002474 0 -0.00099739952982894867 -0.032731757766296908 0 -0.00089495026899864708 -0.033198424547712199 0 -0.00075322511209765868 -0.033593028547583968 0 -0.00089495026899864708 -0.033198424547712199 0 -0.0010313327721621019 -0.033599292514745735 0 -0.00089495026899864708 -0.033198424547712199 0 -0.0011613075618706757 -0.033036059644132088 0 -0.0010313327721621019 -0.033599292514745735 0 -0.0011613075618706757 -0.033036059644132088 0 -0.0010313327721621019 -0.033599292514745735 0 -0.0013629588005678731 -0.033316034319830608 0 -0.0010313327721621019 -0.033599292514745735 0 -0.0013629588005678731 -0.033316034319830608 0 -0.0013830743207090019 -0.033697842783231527 0 -0.00075322511209765868 -0.033593028547583968 0 -0.00080799081586136183 -0.034007977066161321 0 -0.0010313327721621019 -0.033599292514745735 0 -0.0022441976620695601 -0.032355931942067012 0 -0.0016676956585262408 -0.032660283534966743 0 -0.0022411468181179851 -0.03317770831916577 0 -0.0016676956585262408 -0.032660283534966743 0 -0.0017365698323744518 -0.03332143740709255 0 -0.0022411468181179851 -0.03317770831916577 0 -0.0016676956585262408 -0.032660283534966743 0 -0.0011613075618706757 -0.033036059644132088 0 -0.0013629588005678731 -0.033316034319830608 0 -0.0016676956585262408 -0.032660283534966743 0 -0.0017365698323744518 -0.03332143740709255 0 -0.0013629588005678731 -0.033316034319830608 0 -0.0017365698323744518 -0.03332143740709255 0 -0.0013830743207090019 -0.033697842783231527 0 -0.0018693311759965701 -0.033744940742262607 0 -0.0017365698323744518 -0.03332143740709255 0 -0.0013629588005678731 -0.033316034319830608 0 -0.0013830743207090019 -0.033697842783231527 0 -0.0022411468181179851 -0.03317770831916577 0 -0.0018693311759965701 -0.033744940742262607 0 -0.002315511708900991 -0.033792854458344554 0 -0.0017365698323744518 -0.03332143740709255 0 -0.0022411468181179851 -0.03317770831916577 0 -0.0018693311759965701 -0.033744940742262607 0 -0.0018693311759965701 -0.033744940742262607 0 -0.0019634080936851888 -0.03439149618768883 0 -0.002315511708900991 -0.033792854458344554 0 -0.0018693311759965701 -0.033744940742262607 0 -0.0015449996018213274 -0.034011394351296041 0 -0.0019634080936851888 -0.03439149618768883 0 -0.0013830743207090019 -0.033697842783231527 0 -0.0015449996018213274 -0.034011394351296041 0 -0.0011544548630256894 -0.034005812628902579 0 -0.0013830743207090019 -0.033697842783231527 0 -0.0018693311759965701 -0.033744940742262607 0 -0.0015449996018213274 -0.034011394351296041 0 -0.0015449996018213274 -0.034011394351296041 0 -0.0014234444927785114 -0.034204993478341141 0 -0.0011544548630256894 -0.034005812628902579 0 -0.0011872346874543189 -0.034387133824587662 0 -0.0014474070697299919 -0.033869491435538107 0 -0.0014234444927785114 -0.034204993478341141 0 -0.00146785029681177 -0.034425963638952728 0 -0.0019634080936851888 -0.03439149618768883 0 -0.00093289712904897942 -0.034346931232718966 0 -0.00092210428801681307 -0.034353118177822009 0 -0.00093274766417768501 -0.034330343063722193 0 -0.0014474070697299919 -0.033869491435538107 0 -0.00098216648901487506 -0.034105951661984844 0 -0.0015449996018213274 -0.034011394351296041 0 -0.0014234444927785114 -0.034204993478341141 0 -0.0019634080936851888 -0.03439149618768883 0 -0.0014234444927785114 -0.034204993478341141 0 -0.00146785029681177 -0.034425963638952728 0 -0.001175798224674774 -0.034243115951019046 0 -0.00080799081586136183 -0.034007977066161321 0 -0.0011544548630256894 -0.034005812628902579 0 -0.00096520250993262008 -0.034247728534600931 0 -0.00080799081586136183 -0.034007977066161321 0 -0.0010313327721621019 -0.033599292514745735 0 -0.0011544548630256894 -0.034005812628902579 0 -0.0010313327721621019 -0.033599292514745735 0 -0.0013830743207090019 -0.033697842783231527 0 -0.0011544548630256894 -0.034005812628902579 0 -0.00146785029681177 -0.034425963638952728 0 -0.001175798224674774 -0.034243115951019046 0 -0.0010338072053123662 -0.034336822828332933 0 -0.0014234444927785114 -0.034204993478341141 0 -0.0011544548630256894 -0.034005812628902579 0 -0.001175798224674774 -0.034243115951019046 0 -0.001175798224674774 -0.034243115951019046 0 -0.00096520250993262008 -0.034247728534600931 0 -0.0010338072053123662 -0.034336822828332933 0 -0.0011544548630256894 -0.034005812628902579 0 -0.001175798224674774 -0.034243115951019046 0 -0.00096520250993262008 -0.034247728534600931 0 -0.00080799081586136183 -0.034007977066161321 0 -0.000812124088487231 -0.034348788584082565 0 -0.00096520250993262008 -0.034247728534600931 0 -0.000812124088487231 -0.034348788584082565 0 -0.00096520250993262008 -0.034247728534600931 0 -0.00096002978892513447 -0.034316033026495274 0 -0.00092512951483883575 -0.034315842115233648 0 -0.00096002978892513447 -0.034316033026495274 0 -0.00096175256324776805 -0.034254494952968791 0 -0.00096520250993262008 -0.034247728534600931 0 -0.00096002978892513447 -0.034316033026495274 0 -0.0010338072053123662 -0.034336822828332933 0 -0.00096002978892513447 -0.034316033026495274 0 -0.00099060053581890607 -0.034201545859109818 0 -0.00096175256324776805 -0.034254494952968791 0 -0.00099060053581890607 -0.034201545859109818 0 -0.001106915723521097 -0.033837382994392873 0 -0.0011120592853236903 -0.034095905501497825 0 -0.0011872346874543189 -0.034387133824587662 0 -0.0010850355446521242 -0.034354107826870608 0 -0.0010338072053123662 -0.034336822828332933 0 -0.00099060053581890607 -0.034201545859109818 0 -0.00093274766417768501 -0.034330343063722193 0 -0.0010209597863600241 -0.034156818015410102 0 -0.00098216648901487506 -0.034105951661984844 0 -0.00096002978892513447 -0.034316033026495274 0 -0.0010338072053123662 -0.034336822828332933 0 -0.00099060053581890607 -0.034201545859109818 0 -0.001027386131063971 -0.034215620398905543 0 -0.00099060053581890607 -0.034201545859109818 0 -0.0011120592853236903 -0.034095905501497825 0 -0.00097503150389516573 -0.034255133385455626 0 -0.001027386131063971 -0.034215620398905543 0 -0.00097440033470677558 -0.034231759300042505 0 -0.001027386131063971 -0.034215620398905543 0 -0.00099060053581890607 -0.034201545859109818 0 -0.00097440033470677558 -0.034231759300042505 0 -0.00064915598753395836 -0.034444774573710812 0 -0.0010473372163271209 -0.034235097006166428 0 -0.00091715778548377507 -0.034232134410510824 0 -0.00096175256324776805 -0.034254494952968791 0 -0.00094551083499103572 -0.034246733460433998 0 -0.00099060053581890607 -0.034201545859109818 0 -0.00096175256324776805 -0.034254494952968791 0 -0.00097440033470677558 -0.034231759300042505 0 -0.00096175256324776805 -0.034254494952968791 0 -0.00097440033470677558 -0.034231759300042505 0 -0.00094551083499103572 -0.034246733460433998 0 -0.00097503150389516573 -0.034255133385455626 0 -0.00097440033470677558 -0.034231759300042505 0 -0.00094551083499103572 -0.034246733460433998 0 -0.0013535901783163344 -0.033523166525242287 0 -0.0013859356839054906 -0.033837223002249707 0 -0.0015747001119973216 -0.033597369500293364 0 -0.0013535901783163344 -0.033523166525242287 0 -0.0013859356839054906 -0.033837223002249707 0 -0.0012650567998570633 -0.033785152032255336 0 -0.0013859356839054906 -0.033837223002249707 0 -0.0012204648234364741 -0.03393588000242239 0 -0.0012850538863784793 -0.034052053598735824 0 -0.0013859356839054906 -0.033837223002249707 0 -0.0012650567998570633 -0.033785152032255336 0 -0.0012204648234364741 -0.03393588000242239 0 -0.00093289712904897942 -0.034346931232718966 0 -0.0010338072053123662 -0.034336822828332933 0 -0.00093274766417768501 -0.034330343063722193 0 -0.0012650567998570633 -0.033785152032255336 0 -0.001106915723521097 -0.033837382994392873 0 -0.0012204648234364741 -0.03393588000242239 0 -0.0013535901783163344 -0.033523166525242287 0 -0.0012650567998570633 -0.033785152032255336 0 -0.001106915723521097 -0.033837382994392873 0 -0.001106915723521097 -0.033837382994392873 0 -0.0012204648234364741 -0.03393588000242239 0 -0.0011120592853236903 -0.034095905501497825 0 -0.0012204648234364741 -0.03393588000242239 0 -0.0011120592853236903 -0.034095905501497825 0 -0.0012850538863784793 -0.034052053598735824 0 -0.0011889056811866087 -0.034225366433700194 0 -0.001027386131063971 -0.034215620398905543 0 -0.0011120592853236903 -0.034095905501497825 0 -0.0011889056811866087 -0.034225366433700194 0 -0.0011120592853236903 -0.034095905501497825 0 -0.0012850538863784793 -0.034052053598735824 0 -0.0013859356839054906 -0.033837223002249707 0 -0.0012850538863784793 -0.034052053598735824 0 -0.001504196301336809 -0.034112116892702937 0 -0.0011889056811866087 -0.034225366433700194 0 -0.0012850538863784793 -0.034052053598735824 0 -0.001504196301336809 -0.034112116892702937 0 -0.0013859356839054906 -0.033837223002249707 0 -0.001504196301336809 -0.034112116892702937 0 -0.0016323439340347394 -0.033787739639876996 0 -0.0018655932987187336 -0.034121580038962519 0 -0.001504196301336809 -0.034112116892702937 0 -0.0017523494864677919 -0.033945440964050368 0 -0.001504196301336809 -0.034112116892702937 0 -0.0017523494864677919 -0.033945440964050368 0 -0.0016323439340347394 -0.033787739639876996 0 -0.0019925208494066633 -0.034054639246077573 0 -0.0019493244670790234 -0.034105266285807588 0 -0.0018655932987187336 -0.034121580038962519 0 -0.0017523494864677919 -0.033945440964050368 0 -0.0020499055561120283 -0.033804444790215014 0 -0.0018655932987187336 -0.034121580038962519 0 -0.0020499055561120283 -0.033804444790215014 0 -0.0022262582269984717 -0.034001118943543948 0 -0.0020499055561120283 -0.033804444790215014 0 -0.0018494314660504583 -0.033731294665857711 0 -0.0020182353189941845 -0.033570081003146165 0 -0.0017523494864677919 -0.033945440964050368 0 -0.0020499055561120283 -0.033804444790215014 0 -0.0018494314660504583 -0.033731294665857711 0 -0.0018494314660504583 -0.033731294665857711 0 -0.0020182353189941845 -0.033570081003146165 0 -0.0018180699715481029 -0.033520683781852925 0 -0.0020499055561120283 -0.033804444790215014 0 -0.0020182353189941845 -0.033570081003146165 0 -0.0021563299051967576 -0.033648536755332102 0 -0.0017523494864677919 -0.033945440964050368 0 -0.0018494314660504583 -0.033731294665857711 0 -0.0016323439340347394 -0.033787739639876996 0 -0.0018494314660504583 -0.033731294665857711 0 -0.0016323439340347394 -0.033787739639876996 0 -0.0018180699715481029 -0.033520683781852925 0 -0.0016323439340347394 -0.033787739639876996 0 -0.0015747001119973216 -0.033597369500293364 0 -0.0018180699715481029 -0.033520683781852925 0 -0.0013859356839054906 -0.033837223002249707 0 -0.0016323439340347394 -0.033787739639876996 0 -0.0015747001119973216 -0.033597369500293364 0 -0.0013881890742435139 -0.033328203348908819 0 -0.0017456316771026514 -0.03309946374525314 0 -0.0018370006903461816 -0.033015700746824667 0 -0.0014474070697299919 -0.033869491435538107 0 -0.0017629091665128578 -0.033204055957516333 0 -0.0014474070697299919 -0.033869491435538107 0 -0.0022123836296086313 -0.03339305911084673 0 -0.0013535901783163344 -0.033523166525242287 0 -0.0015747001119973216 -0.033597369500293364 0 -0.0017026444843787443 -0.033303003729086872 0 -0.0013881890742435139 -0.033328203348908819 0 -0.0018063165523618187 -0.033168741712806836 0 -0.0017456316771026514 -0.03309946374525314 0 -0.0015747001119973216 -0.033597369500293364 0 -0.0017026444843787443 -0.033303003729086872 0 -0.0018180699715481029 -0.033520683781852925 0 -0.0017026444843787443 -0.033303003729086872 0 -0.0019417596848803165 -0.033312857025360569 0 -0.0021068249347167248 -0.033078063304477517 0 -0.0020182353189941845 -0.033570081003146165 0 -0.0018180699715481029 -0.033520683781852925 0 -0.0020421485391111946 -0.033410618033124083 0 -0.0018180699715481029 -0.033520683781852925 0 -0.0020421485391111946 -0.033410618033124083 0 -0.0019417596848803165 -0.033312857025360569 0 -0.0019417596848803165 -0.033312857025360569 0 -0.0021068249347167248 -0.033078063304477517 0 -0.0020998046380939039 -0.033264590322831425 0 -0.0020421485391111946 -0.033410618033124083 0 -0.0019417596848803165 -0.033312857025360569 0 -0.0020998046380939039 -0.033264590322831425 0 -0.0017026444843787443 -0.033303003729086872 0 -0.0018180699715481029 -0.033520683781852925 0 -0.0019417596848803165 -0.033312857025360569 0 -0.002861221786474548 -0.032889474037505896 0 -0.0027679004606311103 -0.032791423069719092 0 -0.0020448300527211136 -0.033431483147755146 0 -0.0030919555736857425 -0.0332591313378875 0 -0.0022123836296086313 -0.03339305911084673 0 -0.0018063165523618187 -0.033168741712806836 0 -0.0018327617483474795 -0.033022748727000471 0 -0.0021887855932974714 -0.033021112289652016 0 -0.0028027961830014701 -0.033458275323801676 0 -0.0034595660168139585 -0.033609145372125726 0 -0.002751241657061716 -0.03406856710330354 0 -0.0021695478167318024 -0.032788862619635852 0 -0.0018327617483474795 -0.033022748727000471 0 -0.0021887855932974714 -0.033021112289652016 0 -0.0024078278533736252 -0.032930728008519324 0 -0.0022123836296086313 -0.03339305911084673 0 -0.0017629091665128578 -0.033204055957516333 0 -0.0021566601623483105 -0.033051810461760152 0 -0.0019634080936851888 -0.03439149618768883 0 -0.002315511708900991 -0.033792854458344554 0 -0.002751241657061716 -0.03406856710330354 0 -0.0028027961830014701 -0.033458275323801676 0 -0.002315511708900991 -0.033792854458344554 0 -0.002751241657061716 -0.03406856710330354 0 -0.0018063165523618187 -0.033168741712806836 0 -0.0017456316771026514 -0.03309946374525314 0 -0.0018327617483474795 -0.033022748727000471 0 -0.0020524465471000899 -0.033339148136778116 0 -0.0022123836296086313 -0.03339305911084673 0 -0.0025897335176839047 -0.033071509293807644 0 -0.002400615607230957 -0.033112246311006677 0 -0.0025500192571670192 -0.033230635779746567 0 -0.0025897335176839047 -0.033071509293807644 0 -0.002564838441721699 -0.032885127290430916 0 -0.002400615607230957 -0.033112246311006677 0 -0.0025897335176839047 -0.033071509293807644 0 -0.0027233643824629951 -0.032984535396729617 0 -0.002564838441721699 -0.032885127290430916 0 -0.0025897335176839047 -0.033071509293807644 0 -0.0027233643824629951 -0.032984535396729617 0 -0.0027035905093291818 -0.033143209621329169 0 -0.0027412444856644118 -0.032795624488857547 0 -0.0027233643824629951 -0.032984535396729617 0 -0.002564838441721699 -0.032885127290430916 0 -0.0021695478167318024 -0.032788862619635852 0 -0.002564838441721699 -0.032885127290430916 0 -0.0021887855932974714 -0.033021112289652016 0 -0.0025331970929197306 -0.032901039263624324 0 -0.0021566601623483105 -0.033051810461760152 0 -0.002564838441721699 -0.032885127290430916 0 -0.0021068249347167248 -0.033078063304477517 0 -0.002400615607230957 -0.033112246311006677 0 -0.0021068249347167248 -0.033078063304477517 0 -0.002400615607230957 -0.033112246311006677 0 -0.0022335689265718631 -0.033208330163409336 0 -0.002400615607230957 -0.033112246311006677 0 -0.0023581844951307096 -0.03325981187360294 0 -0.0022335689265718631 -0.033208330163409336 0 -0.0023581844951307096 -0.03325981187360294 0 -0.0022025622869364099 -0.033322361352453499 0 -0.0023298375752572936 -0.033384516082822266 0 -0.0023581844951307096 -0.03325981187360294 0 -0.0022335689265718631 -0.033208330163409336 0 -0.0022025622869364099 -0.033322361352453499 0 -0.0023581844951307096 -0.03325981187360294 0 -0.0023298375752572936 -0.033384516082822266 0 -0.0024532809667072073 -0.03334085954676845 0 -0.0021068249347167248 -0.033078063304477517 0 -0.0020998046380939039 -0.033264590322831425 0 -0.0022335689265718631 -0.033208330163409336 0 -0.0020998046380939039 -0.033264590322831425 0 -0.0022335689265718631 -0.033208330163409336 0 -0.0022025622869364099 -0.033322361352453499 0 -0.0020421485391111946 -0.033410618033124083 0 -0.0020998046380939039 -0.033264590322831425 0 -0.0022025622869364099 -0.033322361352453499 0 -0.0020182353189941845 -0.033570081003146165 0 -0.0020421485391111946 -0.033410618033124083 0 -0.002207476128723981 -0.03348833140023684 0 -0.0020421485391111946 -0.033410618033124083 0 -0.0022025622869364099 -0.033322361352453499 0 -0.002207476128723981 -0.03348833140023684 0 -0.0022025622869364099 -0.033322361352453499 0 -0.002207476128723981 -0.03348833140023684 0 -0.0023298375752572936 -0.033384516082822266 0 -0.0023298375752572936 -0.033384516082822266 0 -0.0024532809667072073 -0.03334085954676845 0 -0.0024282941177492575 -0.033510550984923886 0 -0.002207476128723981 -0.03348833140023684 0 -0.0023298375752572936 -0.033384516082822266 0 -0.0024282941177492575 -0.033510550984923886 0 -0.0025558948328068326 -0.03339623468827544 0 -0.0024532809667072073 -0.03334085954676845 0 -0.0024282941177492575 -0.033510550984923886 0 -0.0025558948328068326 -0.03339623468827544 0 -0.002602546256455097 -0.033506634114262052 0 -0.0024282941177492575 -0.033510550984923886 0 -0.0025558948328068326 -0.03339623468827544 0 -0.0024532809667072073 -0.03334085954676845 0 -0.0025500192571670192 -0.033230635779746567 0 -0.0025558948328068326 -0.03339623468827544 0 -0.0025500192571670192 -0.033230635779746567 0 -0.0026661574926433217 -0.033312295632542538 0 -0.002400615607230957 -0.033112246311006677 0 -0.0023581844951307096 -0.03325981187360294 0 -0.0025500192571670192 -0.033230635779746567 0 -0.0023581844951307096 -0.03325981187360294 0 -0.0024532809667072073 -0.03334085954676845 0 -0.0025500192571670192 -0.033230635779746567 0 -0.0025897335176839047 -0.033071509293807644 0 -0.0025500192571670192 -0.033230635779746567 0 -0.0027035905093291818 -0.033143209621329169 0 -0.0025500192571670192 -0.033230635779746567 0 -0.0027035905093291818 -0.033143209621329169 0 -0.0026661574926433217 -0.033312295632542538 0 -0.0027035905093291818 -0.033143209621329169 0 -0.0026661574926433217 -0.033312295632542538 0 -0.0028229973104735265 -0.03326846776458714 0 -0.0027361598976358803 -0.033378753734262731 0 -0.0026661574926433217 -0.033312295632542538 0 -0.0028229973104735265 -0.03326846776458714 0 -0.0027361598976358803 -0.033378753734262731 0 -0.0026661574926433217 -0.033312295632542538 0 -0.0026530878595858913 -0.033417472790750892 0 -0.0025558948328068326 -0.03339623468827544 0 -0.0026661574926433217 -0.033312295632542538 0 -0.0026530878595858913 -0.033417472790750892 0 -0.0025558948328068326 -0.03339623468827544 0 -0.0026530878595858913 -0.033417472790750892 0 -0.002602546256455097 -0.033506634114262052 0 -0.0026530878595858913 -0.033417472790750892 0 -0.0027290653847100634 -0.033482979017074227 0 -0.002602546256455097 -0.033506634114262052 0 -0.0027361598976358803 -0.033378753734262731 0 -0.0027290653847100634 -0.033482979017074227 0 -0.0028211576498638783 -0.033407592639770965 0 -0.0027361598976358803 -0.033378753734262731 0 -0.0026530878595858913 -0.033417472790750892 0 -0.0027290653847100634 -0.033482979017074227 0 -0.0027290653847100634 -0.033482979017074227 0 -0.0027088683931350875 -0.033564154526138069 0 -0.0027714282369400672 -0.033537246280308859 0 -0.0027088683931350875 -0.033564154526138069 0 -0.0027714282369400672 -0.033537246280308859 0 -0.0027740763696941458 -0.033599812169862756 0 -0.0027088683931350875 -0.033564154526138069 0 -0.0027106425836405353 -0.033633591078711805 0 -0.0027740763696941458 -0.033599812169862756 0 -0.0027106425836405353 -0.033633591078711805 0 -0.0027573647909740688 -0.033640491446124701 0 -0.0027740763696941458 -0.033599812169862756 0 -0.0027088683931350875 -0.033564154526138069 0 -0.002636319950187916 -0.033607423034544968 0 -0.002602546256455097 -0.033506634114262052 0 -0.0027088683931350875 -0.033564154526138069 0 -0.0027106425836405353 -0.033633591078711805 0 -0.002636319950187916 -0.033607423034544968 0 -0.0027290653847100634 -0.033482979017074227 0 -0.0027088683931350875 -0.033564154526138069 0 -0.002602546256455097 -0.033506634114262052 0 -0.002602546256455097 -0.033506634114262052 0 -0.0024282941177492575 -0.033510550984923886 0 -0.0025247853227861917 -0.033598840533414151 0 -0.0025247853227861917 -0.033598840533414151 0 -0.0024952120839950996 -0.033683823240179496 0 -0.0024211459612719513 -0.033627331831784256 0 -0.0024282941177492575 -0.033510550984923886 0 -0.0025247853227861917 -0.033598840533414151 0 -0.0024211459612719513 -0.033627331831784256 0 -0.002636319950187916 -0.033607423034544968 0 -0.002602546256455097 -0.033506634114262052 0 -0.0025247853227861917 -0.033598840533414151 0 -0.002636319950187916 -0.033607423034544968 0 -0.0025247853227861917 -0.033598840533414151 0 -0.002579182887325197 -0.033676197560199052 0 -0.0025434063834245198 -0.033739623410179886 0 -0.0026133894322238407 -0.033820636673145492 0 -0.0024142295314934789 -0.033782916717678226 0 -0.0025247853227861917 -0.033598840533414151 0 -0.002579182887325197 -0.033676197560199052 0 -0.0024952120839950996 -0.033683823240179496 0 -0.002579182887325197 -0.033676197560199052 0 -0.0024952120839950996 -0.033683823240179496 0 -0.0025434063834245198 -0.033739623410179886 0 -0.002579182887325197 -0.033676197560199052 0 -0.0025434063834245198 -0.033739623410179886 0 -0.00261819249551818 -0.033738332805231093 0 -0.0024952120839950996 -0.033683823240179496 0 -0.0025434063834245198 -0.033739623410179886 0 -0.0024142295314934789 -0.033782916717678226 0 -0.0024952120839950996 -0.033683823240179496 0 -0.0024211459612719513 -0.033627331831784256 0 -0.0024142295314934789 -0.033782916717678226 0 -0.0025434063834245198 -0.033739623410179886 0 -0.0026133894322238407 -0.033820636673145492 0 -0.00261819249551818 -0.033738332805231093 0 -0.0026182182480094032 -0.033807733077965502 0 -0.0026748876289863499 -0.033729869296821674 0 -0.0028270335498057596 -0.033636564642495363 0 -0.0030693263724504215 -0.031470279126455634 0 -0.0030049630352740244 -0.032251870331477188 0 -0.0026182182480094032 -0.033807733077965502 0 -0.00261819249551818 -0.033738332805231093 0 -0.0026748876289863499 -0.033729869296821674 0 -0.0026748876289863499 -0.033729869296821674 0 -0.0027175336052486449 -0.033691863184134016 0 -0.0028270335498057596 -0.033636564642495363 0 -0.0027175336052486449 -0.033691863184134016 0 -0.0027573647909740688 -0.033640491446124701 0 -0.0028270335498057596 -0.033636564642495363 0 -0.0027106425836405353 -0.033633591078711805 0 -0.0027175336052486449 -0.033691863184134016 0 -0.0026560251163253341 -0.033678822753078055 0 -0.0027106425836405353 -0.033633591078711805 0 -0.0027175336052486449 -0.033691863184134016 0 -0.0027573647909740688 -0.033640491446124701 0 -0.0027106425836405353 -0.033633591078711805 0 -0.002636319950187916 -0.033607423034544968 0 -0.0026560251163253341 -0.033678822753078055 0 -0.002636319950187916 -0.033607423034544968 0 -0.002579182887325197 -0.033676197560199052 0 -0.0026560251163253341 -0.033678822753078055 0 -0.002579182887325197 -0.033676197560199052 0 -0.00261819249551818 -0.033738332805231093 0 -0.0026560251163253341 -0.033678822753078055 0 -0.00261819249551818 -0.033738332805231093 0 -0.0026748876289863499 -0.033729869296821674 0 -0.0026560251163253341 -0.033678822753078055 0 -0.0026748876289863499 -0.033729869296821674 0 -0.0027175336052486449 -0.033691863184134016 0 -0.0026560251163253341 -0.033678822753078055 0 -0.0020182353189941845 -0.033570081003146165 0 -0.002207476128723981 -0.03348833140023684 0 -0.0021563299051967576 -0.033648536755332102 0 -0.002207476128723981 -0.03348833140023684 0 -0.0021563299051967576 -0.033648536755332102 0 -0.0023042903143345706 -0.033640692176595773 0 -0.002207476128723981 -0.03348833140023684 0 -0.0024282941177492575 -0.033510550984923886 0 -0.0023042903143345706 -0.033640692176595773 0 -0.0024282941177492575 -0.033510550984923886 0 -0.0023042903143345706 -0.033640692176595773 0 -0.0024211459612719513 -0.033627331831784256 0 -0.0023042903143345706 -0.033640692176595773 0 -0.0024142295314934789 -0.033782916717678226 0 -0.0022293442625212542 -0.033775607664155119 0 -0.0023042903143345706 -0.033640692176595773 0 -0.0024211459612719513 -0.033627331831784256 0 -0.0024142295314934789 -0.033782916717678226 0 -0.0020499055561120283 -0.033804444790215014 0 -0.0021563299051967576 -0.033648536755332102 0 -0.0022293442625212542 -0.033775607664155119 0 -0.0021563299051967576 -0.033648536755332102 0 -0.0023042903143345706 -0.033640692176595773 0 -0.0022293442625212542 -0.033775607664155119 0 -0.0020499055561120283 -0.033804444790215014 0 -0.0022293442625212542 -0.033775607664155119 0 -0.0022262582269984717 -0.034001118943543948 0 -0.0024142295314934789 -0.033782916717678226 0 -0.0022293442625212542 -0.033775607664155119 0 -0.0022262582269984717 -0.034001118943543948 0 -0.0030693263724504215 -0.031470279126455634 0 -0.0019493244670790234 -0.034105266285807588 0 -0.0026133894322238407 -0.033820636673145492 0 -0.0024142295314934789 -0.033782916717678226 0 -0.0022262582269984717 -0.034001118943543948 0 -0.0024587324180109374 -0.033712918956900831 0 -0.0021393062881836064 -0.033909161929791341 0 -0.0024385093901214583 -0.0340167552511801 0 -0.0030693263724504215 -0.031470279126455634 0 -0.0027833939539602926 -0.030351119740161747 0 -0.0033275586797420998 -0.026620913158956119 0 -0.0033135996934365963 -0.026551183035266632 0 -0.0032922891281665003 -0.026572305276100119 0 -0.0033275586797420998 -0.026620913158956119 0 -0.0032922891281665003 -0.026572305276100119 0 -0.0032902419703783148 -0.02662449086600634 0 -0.0032389519084090766 -0.026473910805252864 0 -0.0032922891281665003 -0.026572305276100119 0 -0.003257380181947231 -0.026565227501878244 0 -0.0032389519084090766 -0.026473910805252864 0 -0.0033135996934365963 -0.026551183035266632 0 -0.0032922891281665003 -0.026572305276100119 0 -0.0032922891281665003 -0.026572305276100119 0 -0.0032776462705181495 -0.026591931011674327 0 -0.003257380181947231 -0.026565227501878244 0 -0.0032922891281665003 -0.026572305276100119 0 -0.0032776462705181495 -0.026591931011674327 0 -0.0032902419703783148 -0.02662449086600634 0 -0.0032776462705181495 -0.026591931011674327 0 -0.0032687536569963498 -0.02660483140202104 0 -0.0032902419703783148 -0.02662449086600634 0 -0.0032776462705181495 -0.026591931011674327 0 -0.0032687536569963498 -0.02660483140202104 0 -0.003257380181947231 -0.026565227501878244 0 -0.0032687536569963498 -0.02660483140202104 0 -0.003257380181947231 -0.026565227501878244 0 -0.003247976910950304 -0.026604243687509091 0 -0.0032389519084090766 -0.026473910805252864 0 -0.003257380181947231 -0.026565227501878244 0 -0.0031984387689338728 -0.026543224215175326 0 -0.0032389519084090766 -0.026473910805252864 0 -0.0031984387689338728 -0.026543224215175326 0 -0.0030898605191993569 -0.026408008682948497 0 -0.0031984387689338728 -0.026543224215175326 0 -0.0032274836728101346 -0.026620731821060423 0 -0.003247976910950304 -0.026604243687509091 0 -0.003257380181947231 -0.026565227501878244 0 -0.0031984387689338728 -0.026543224215175326 0 -0.003247976910950304 -0.026604243687509091 0 -0.0032274836728101346 -0.026620731821060423 0 -0.0031771905893241805 -0.026672920002756288 0 -0.0032408678400296723 -0.026683669475668009 0 -0.0031984387689338728 -0.026543224215175326 0 -0.0031771905893241805 -0.026672920002756288 0 -0.0030231490133559918 -0.026594377487090998 0 -0.0032274836728101346 -0.026620731821060423 0 -0.003245110675968492 -0.02665088942635685 0 -0.003247976910950304 -0.026604243687509091 0 -0.0032274836728101346 -0.026620731821060423 0 -0.003245110675968492 -0.02665088942635685 0 -0.0032408678400296723 -0.026683669475668009 0 -0.0031984387689338728 -0.026543224215175326 0 -0.0032274836728101346 -0.026620731821060423 0 -0.0031771905893241805 -0.026672920002756288 0 -0.003245110675968492 -0.02665088942635685 0 -0.0032399710403732333 -0.026689830926384016 0 -0.0032603308274724778 -0.02663864904474899 0 -0.0031771905893241805 -0.026672920002756288 0 -0.0032408678400296723 -0.026683669475668009 0 -0.0032581926447145123 -0.026709687998180621 0 -0.003245110675968492 -0.02665088942635685 0 -0.0032408678400296723 -0.026683669475668009 0 -0.0032399710403732333 -0.026689830926384016 0 -0.0031642256888759074 -0.028658860824338044 0 -0.0033173616843061079 -0.029177906527887203 0 -0.0031890247528880639 -0.033482209616479831 0 -0.0030794033221275764 -0.033512998888205449 0 -0.0028897546530315564 -0.033609799223447333 0 -0.0031890247528880639 -0.033482209616479831 0 -0.0030794033221275764 -0.033512998888205449 0 -0.0030508978490428398 -0.033427719625095512 0 -0.0030794033221275764 -0.033512998888205449 0 -0.0030261513730442469 -0.03347886487551948 0 -0.0030508978490428398 -0.033427719625095512 0 -0.0033275586797420998 -0.026620913158956119 0 -0.0032399710403732333 -0.026689830926384016 0 -0.0032902419703783148 -0.02662449086600634 0 -0.0030794033221275764 -0.033512998888205449 0 -0.0029798182153897342 -0.033522465622808285 0 -0.0028897546530315564 -0.033609799223447333 0 -0.0030794033221275764 -0.033512998888205449 0 -0.0030261513730442469 -0.03347886487551948 0 -0.0029798182153897342 -0.033522465622808285 0 -0.0032399710403732333 -0.026689830926384016 0 -0.0032902419703783148 -0.02662449086600634 0 -0.0032603308274724778 -0.02663864904474899 0 -0.0030693263724504215 -0.031470279126455634 0 -0.0033173616843061079 -0.029177906527887203 0 -0.0026182182480094032 -0.033807733077965502 0 -0.0031890247528880639 -0.033482209616479831 0 -0.0028897546530315564 -0.033609799223447333 0 -0.0029798182153897342 -0.033522465622808285 0 -0.0029944563561861439 -0.033452312975720579 0 -0.0029262250941423148 -0.033442502969527443 0 -0.0030261513730442469 -0.03347886487551948 0 -0.0029944563561861439 -0.033452312975720579 0 -0.0030508978490428398 -0.033427719625095512 0 -0.0030261513730442469 -0.03347886487551948 0 -0.0029798182153897342 -0.033522465622808285 0 -0.0029944563561861439 -0.033452312975720579 0 -0.0029798182153897342 -0.033522465622808285 0 -0.0029050507538369132 -0.033524053158379932 0 -0.0029262250941423148 -0.033442502969527443 0 -0.0029050507538369132 -0.033524053158379932 0 -0.0028307805672368328 -0.033493841879862429 0 -0.0029262250941423148 -0.033442502969527443 0 -0.0027290653847100634 -0.033482979017074227 0 -0.0028307805672368328 -0.033493841879862429 0 -0.0027714282369400672 -0.033537246280308859 0 -0.0027290653847100634 -0.033482979017074227 0 -0.0028307805672368328 -0.033493841879862429 0 -0.0028211576498638783 -0.033407592639770965 0 -0.0029050507538369132 -0.033524053158379932 0 -0.0028307805672368328 -0.033493841879862429 0 -0.0028321636028648223 -0.033564964836098672 0 -0.0028307805672368328 -0.033493841879862429 0 -0.0027714282369400672 -0.033537246280308859 0 -0.0028321636028648223 -0.033564964836098672 0 -0.0027714282369400672 -0.033537246280308859 0 -0.0028321636028648223 -0.033564964836098672 0 -0.0027740763696941458 -0.033599812169862756 0 -0.0028321636028648223 -0.033564964836098672 0 -0.0028897546530315564 -0.033609799223447333 0 -0.0028270335498057596 -0.033636564642495363 0 -0.0027573647909740688 -0.033640491446124701 0 -0.0027740763696941458 -0.033599812169862756 0 -0.0028270335498057596 -0.033636564642495363 0 -0.0028321636028648223 -0.033564964836098672 0 -0.0027740763696941458 -0.033599812169862756 0 -0.0028270335498057596 -0.033636564642495363 0 -0.0029798182153897342 -0.033522465622808285 0 -0.0029050507538369132 -0.033524053158379932 0 -0.0028897546530315564 -0.033609799223447333 0 -0.0029050507538369132 -0.033524053158379932 0 -0.0028321636028648223 -0.033564964836098672 0 -0.0028897546530315564 -0.033609799223447333 0 -0.0026182182480094032 -0.033807733077965502 0 -0.0028897546530315564 -0.033609799223447333 0 -0.0028270335498057596 -0.033636564642495363 0 -0.0032687536569963498 -0.02660483140202104 0 -0.0032902419703783148 -0.02662449086600634 0 -0.0032603308274724778 -0.02663864904474899 0 -0.0032687536569963498 -0.02660483140202104 0 -0.003247976910950304 -0.026604243687509091 0 -0.0032603308274724778 -0.02663864904474899 0 -0.003245110675968492 -0.02665088942635685 0 -0.003247976910950304 -0.026604243687509091 0 -0.0032603308274724778 -0.02663864904474899 0 -0.00044527206615304704 -0.019684762809425733 0 -0.00082613814131393063 -0.019579228660086819 0 -0.00092879552466869418 -0.019325708801717151 0 -0.0010623708650357171 -0.01950456932582556 0 -0.00082613814131393063 -0.019579228660086819 0 -0.00092879552466869418 -0.019325708801717151 0 -0.0031984387689338728 -0.026543224215175326 0 -0.0030898605191993569 -0.026408008682948497 0 -0.0030231490133559918 -0.026594377487090998 0 -0.001262998392421636 -0.02348610875318519 0 -0.0017868466013107108 -0.022965705737171941 0 -0.0027306890285247912 -0.026366085929802711 0 -0.0030898605191993569 -0.026408008682948497 0 -0.0030231490133559918 -0.026594377487090998 0 -0.00044527206615304704 -0.019684762809425733 0 -0.00092879552466869418 -0.019325708801717151 0 -0.00034589469532979707 -0.019577397720373292 0 -0.0031771905893241805 -0.026672920002756288 0 -0.0030231490133559918 -0.026594377487090998 0 -0.0030601119580609942 -0.026986284973446836 0 -0.0030231490133559918 -0.026594377487090998 0 -0.0026069646773873227 -0.026755762859946991 0 -0.0030601119580609942 -0.026986284973446836 0 -0.0027306890285247912 -0.026366085929802711 0 -0.0030231490133559918 -0.026594377487090998 0 -0.0026069646773873227 -0.026755762859946991 0 -0.0025896029414177804 -0.027109841436059618 0 -0.0030601119580609942 -0.026986284973446836 0 -0.0027628052396972769 -0.027441854821672048 0 -0.0026069646773873227 -0.026755762859946991 0 -0.0025896029414177804 -0.027109841436059618 0 -0.0030601119580609942 -0.026986284973446836 0 -0.0033173616843061079 -0.029177906527887203 0 -0.0033862844834595227 -0.026231194385366422 0 -0.0030601119580609942 -0.026986284973446836 0 -0.0037694762372888226 -0.026750418111979694 0 -0.0036573804718258419 -0.027424034681377853 0 -0.0031639988098572896 -0.02752395698873621 0 -0.0036573804718258419 -0.027424034681377853 0 -0.0034767516610903124 -0.02807401621807127 0 -0.0030601119580609942 -0.026986284973446836 0 -0.0031639988098572896 -0.02752395698873621 0 -0.0036573804718258419 -0.027424034681377853 0 -0.0030601119580609942 -0.026986284973446836 0 -0.0031639988098572896 -0.02752395698873621 0 -0.0027628052396972769 -0.027441854821672048 0 -0.0027628052396972769 -0.027441854821672048 0 -0.0026487398870831155 -0.027753829012462629 0 -0.0029622064083182826 -0.027842927611952201 0 -0.0031639988098572896 -0.02752395698873621 0 -0.0027628052396972769 -0.027441854821672048 0 -0.0029622064083182826 -0.027842927611952201 0 -0.0027628052396972769 -0.027441854821672048 0 -0.0026487398870831155 -0.027753829012462629 0 -0.0024279918285382124 -0.027562518511827349 0 -0.0025896029414177804 -0.027109841436059618 0 -0.0027628052396972769 -0.027441854821672048 0 -0.0024279918285382124 -0.027562518511827349 0 -0.0033173616843061079 -0.029177906527887203 0 -0.0039443742723340256 -0.029583058798016967 0 -0.0031890247528880639 -0.033482209616479831 0 -0.0029792147131668424 -0.033272680609397622 0 -0.0029946906899048298 -0.033043911336926031 0 -0.0029792147131668424 -0.033272680609397622 0 -0.0028229973104735265 -0.03326846776458714 0 -0.0029946906899048298 -0.033043911336926031 0 -0.0027035905093291818 -0.033143209621329169 0 -0.0028229973104735265 -0.03326846776458714 0 -0.0029946906899048298 -0.033043911336926031 0 -0.0029792147131668424 -0.033272680609397622 0 -0.0028229973104735265 -0.03326846776458714 0 -0.0029041791981413165 -0.033356449906153454 0 -0.0028229973104735265 -0.03326846776458714 0 -0.0029041791981413165 -0.033356449906153454 0 -0.0028211576498638783 -0.033407592639770965 0 -0.0027361598976358803 -0.033378753734262731 0 -0.0028229973104735265 -0.03326846776458714 0 -0.0028211576498638783 -0.033407592639770965 0 -0.0029041791981413165 -0.033356449906153454 0 -0.0029262250941423148 -0.033442502969527443 0 -0.0029708365024698098 -0.033391456578036015 0 -0.0028307805672368328 -0.033493841879862429 0 -0.0028211576498638783 -0.033407592639770965 0 -0.0029262250941423148 -0.033442502969527443 0 -0.0029041791981413165 -0.033356449906153454 0 -0.0028211576498638783 -0.033407592639770965 0 -0.0029262250941423148 -0.033442502969527443 0 -0.0031890247528880639 -0.033482209616479831 0 -0.0029792147131668424 -0.033272680609397622 0 -0.0030508978490428398 -0.033427719625095512 0 -0.0029944563561861439 -0.033452312975720579 0 -0.0029262250941423148 -0.033442502969527443 0 -0.0029708365024698098 -0.033391456578036015 0 -0.0029792147131668424 -0.033272680609397622 0 -0.0029708365024698098 -0.033391456578036015 0 -0.0030508978490428398 -0.033427719625095512 0 -0.0029944563561861439 -0.033452312975720579 0 -0.0029708365024698098 -0.033391456578036015 0 -0.0030508978490428398 -0.033427719625095512 0 -0.0029792147131668424 -0.033272680609397622 0 -0.0029041791981413165 -0.033356449906153454 0 -0.0029708365024698098 -0.033391456578036015 0 -0.004037983404451208 -0.026560793259652358 0 -0.0037694762372888226 -0.026750418111979694 0 -0.004423449378246019 -0.027504402883284026 0 -0.0036771683300488855 -0.026248711796745438 0 -0.0039443742723340256 -0.029583058798016967 0 -0.004037983404451208 -0.026560793259652358 0 -0.0030601119580609942 -0.026986284973446836 0 -0.0037694762372888226 -0.026750418111979694 0 -0.0037694762372888226 -0.026750418111979694 0 -0.0036573804718258419 -0.027424034681377853 0 -0.0043592641836842534 -0.027366900246493891 0 -0.0031771905893241805 -0.026672920002756288 0 -0.0032581926447145123 -0.026709687998180621 0 -0.0030601119580609942 -0.026986284973446836 0 -0.0036573804718258419 -0.027424034681377853 0 -0.0043592641836842534 -0.027366900246493891 0 -0.0040276176059103304 -0.027921569117060882 0 -0.0036573804718258419 -0.027424034681377853 0 -0.0040276176059103304 -0.027921569117060882 0 -0.0034767516610903124 -0.02807401621807127 0 -0.0043592641836842534 -0.027366900246493891 0 -0.004664219289015524 -0.028127724651517721 0 -0.0040276176059103304 -0.027921569117060882 0 -0.0039443742723340256 -0.029583058798016967 0 -0.0041334369146946949 -0.029062970388928286 0 -0.0038186504386096211 -0.03028605413675943 0 -0.0036302126830822009 -0.030082432162075186 0 -0.0037600449004196335 -0.030395658473936143 0 -0.0027233643824629951 -0.032984535396729617 0 -0.0027035905093291818 -0.033143209621329169 0 -0.0029946906899048298 -0.033043911336926031 0 -0.0027412444856644118 -0.032795624488857547 0 -0.0027233643824629951 -0.032984535396729617 0 -0.0029946906899048298 -0.033043911336926031 0 -0.003382052072849486 -0.031649493259119268 0 -0.0039443742723340256 -0.029583058798016967 0 -0.004664219289015524 -0.028127724651517721 0 -0.0040000655493948236 -0.02862660555611719 0 -0.0040276176059103304 -0.027921569117060882 0 -0.0044773450227452031 -0.028785476825364486 0 -0.0040000655493948236 -0.02862660555611719 0 -0.0043985209417898722 -0.029401887535473806 0 -0.0048633803893032308 -0.028620535062449552 0 -0.004664219289015524 -0.028127724651517721 0 -0.0044773450227452031 -0.028785476825364486 0 -0.004664219289015524 -0.028127724651517721 0 -0.0044773450227452031 -0.028785476825364486 0 -0.0040000655493948236 -0.02862660555611719 0 -0.0049939085480362562 -0.028928271617020395 0 -0.0044773450227452031 -0.028785476825364486 0 -0.0043985209417898722 -0.029401887535473806 0 -0.0040000655493948236 -0.02862660555611719 0 -0.003439854214586664 -0.028616734862830784 0 -0.0036946832878419484 -0.029289496303408498 0 -0.0040000655493948236 -0.02862660555611719 0 -0.0034767516610903124 -0.02807401621807127 0 -0.003439854214586664 -0.028616734862830784 0 -0.0040000655493948236 -0.02862660555611719 0 -0.0040276176059103304 -0.027921569117060882 0 -0.0034767516610903124 -0.02807401621807127 0 -0.0031639988098572896 -0.02752395698873621 0 -0.0034767516610903124 -0.02807401621807127 0 -0.0029622064083182826 -0.027842927611952201 0 -0.0034767516610903124 -0.02807401621807127 0 -0.0030373041635421505 -0.028316609760333563 0 -0.003439854214586664 -0.028616734862830784 0 -0.0034767516610903124 -0.02807401621807127 0 -0.0029622064083182826 -0.027842927611952201 0 -0.0030373041635421505 -0.028316609760333563 0 -0.0026487398870831155 -0.027753829012462629 0 -0.0026874082655754476 -0.028051757570008572 0 -0.0024610915753932572 -0.027964029394848773 0 -0.0026487398870831155 -0.027753829012462629 0 -0.0029622064083182826 -0.027842927611952201 0 -0.0026874082655754476 -0.028051757570008572 0 -0.0030373041635421505 -0.028316609760333563 0 -0.0026874082655754476 -0.028051757570008572 0 -0.0026958828189439189 -0.028379583397042073 0 -0.0029622064083182826 -0.027842927611952201 0 -0.0030373041635421505 -0.028316609760333563 0 -0.0026874082655754476 -0.028051757570008572 0 -0.0026874082655754476 -0.028051757570008572 0 -0.0026958828189439189 -0.028379583397042073 0 -0.0024820511570360021 -0.02816425452559795 0 -0.0026874082655754476 -0.028051757570008572 0 -0.0024610915753932572 -0.027964029394848773 0 -0.0024820511570360021 -0.02816425452559795 0 -0.0026958828189439189 -0.028379583397042073 0 -0.0029470890899526421 -0.028786313347506975 0 -0.0022761999962583861 -0.028236861126604194 0 -0.0050357325814669287 -0.029267884379482533 0 -0.0053532151815576011 -0.029185831386072756 0 -0.0053881194871573113 -0.029390194119775784 0 -0.0040645275949909221 -0.029603784147638389 0 -0.0054638096351463097 -0.022949943537183659 0 -0.0030373041635421505 -0.028316609760333563 0 -0.0026958828189439189 -0.028379583397042073 0 -0.0029470890899526421 -0.028786313347506975 0 -0.0029470890899526421 -0.028786313347506975 0 -0.003439854214586664 -0.028616734862830784 0 -0.0036946832878419484 -0.029289496303408498 0 -0.0030373041635421505 -0.028316609760333563 0 -0.0029470890899526421 -0.028786313347506975 0 -0.003439854214586664 -0.028616734862830784 0 -0.0050357325814669287 -0.029267884379482533 0 -0.0046843074540270438 -0.029227924305712936 0 -0.0051157773927461266 -0.029020554807616533 0 -0.0040645275949909221 -0.029603784147638389 0 -0.0041244027328666069 -0.029177433620604518 0 -0.0050357325814669287 -0.029267884379482533 0 -0.0051157773927461266 -0.029020554807616533 0 -0.0053532151815576011 -0.029185831386072756 0 -0.0051157773927461266 -0.029020554807616533 0 -0.0049062923835435672 -0.028652780457624722 0 -0.0054426728532136065 -0.028799853927259523 0 -0.0046843074540270438 -0.029227924305712936 0 -0.0049062923835435672 -0.028652780457624722 0 -0.0046576672861185229 -0.029049498237310852 0 -0.0046843074540270438 -0.029227924305712936 0 -0.0051157773927461266 -0.029020554807616533 0 -0.0049062923835435672 -0.028652780457624722 0 -0.0046843074540270438 -0.029227924305712936 0 -0.0046576672861185229 -0.029049498237310852 0 -0.0043600812203038854 -0.029471457790693351 0 -0.0046576672861185229 -0.029049498237310852 0 -0.0043600812203038854 -0.029471457790693351 0 -0.0044499525238543133 -0.029250392025323237 0 -0.0043243181354296195 -0.029684876712695919 0 -0.0043193516576169513 -0.029330519239883366 0 -0.0044499525238543133 -0.029250392025323237 0 -0.0043243181354296195 -0.029684876712695919 0 -0.0043600812203038854 -0.029471457790693351 0 -0.0044499525238543133 -0.029250392025323237 0 -0.0044360656129873652 -0.029421574437089246 0 -0.0043243181354296195 -0.029684876712695919 0 -0.0043985209417898722 -0.029401887535473806 0 -0.0043243181354296195 -0.029684876712695919 0 -0.0043600812203038854 -0.029471457790693351 0 -0.0043985209417898722 -0.029401887535473806 0 -0.0045117860224229769 -0.030274640200971068 0 -0.0046644721154491453 -0.029207876464555253 0 -0.0040000655493948236 -0.02862660555611719 0 -0.0036946832878419484 -0.029289496303408498 0 -0.0043985209417898722 -0.029401887535473806 0 -0.0036946832878419484 -0.029289496303408498 0 -0.0043600812203038854 -0.029471457790693351 0 -0.0043985209417898722 -0.029401887535473806 0 -0.0041244027328666069 -0.029177433620604518 0 -0.0043469678327610929 -0.029445229301931646 0 -0.0064149737853536962 -0.015071193143402026 0 -0.0064878125542892403 -0.016269489075496944 0 -0.0070444295612729158 -0.015072927622349932 0 -0.0064149737853536962 -0.015071193143402026 0 -0.0057589540215473552 -0.015247940577613943 0 -0.0064878125542892403 -0.016269489075496944 0 -0.0064149737853536962 -0.015071193143402026 0 -0.0057589540215473552 -0.015247940577613943 0 -0.006004533717025559 -0.014505945258091282 0 -0.0057589540215473552 -0.015247940577613943 0 -0.006004533717025559 -0.014505945258091282 0 -0.0054186404594958474 -0.014626660874033085 0 -0.0057589540215473552 -0.015247940577613943 0 -0.0054186404594958474 -0.014626660874033085 0 -0.0051028565063357782 -0.014983105502207161 0 -0.0057589540215473552 -0.015247940577613943 0 -0.0051028565063357782 -0.014983105502207161 0 -0.0051296463108805338 -0.015622650912890685 0 -0.0057589540215473552 -0.015247940577613943 0 -0.0055927154138115491 -0.016048280600608113 0 -0.0064878125542892403 -0.016269489075496944 0 -0.0055927154138115491 -0.016048280600608113 0 -0.0064878125542892403 -0.016269489075496944 0 -0.0055574918963792646 -0.016824871376105659 0 -0.0057589540215473552 -0.015247940577613943 0 -0.0055927154138115491 -0.016048280600608113 0 -0.0051296463108805338 -0.015622650912890685 0 -0.0063883704285354224 -0.022413653446456478 0 -0.0066524665197113106 -0.021784182874441112 0 -0.0063456066356730517 -0.028434921234491067 0 -0.0058245482311472573 -0.028518790938334274 0 -0.0058171296208219588 -0.029023670744823888 0 -0.0058245482311472573 -0.028518790938334274 0 -0.0054426728532136065 -0.028799853927259523 0 -0.0058171296208219588 -0.029023670744823888 0 -0.0049062923835435672 -0.028652780457624722 0 -0.0054426728532136065 -0.028799853927259523 0 -0.0054571789474176617 -0.028296941519183709 0 -0.0058245482311472573 -0.028518790938334274 0 -0.0054426728532136065 -0.028799853927259523 0 -0.0054571789474176617 -0.028296941519183709 0 -0.0051157773927461266 -0.029020554807616533 0 -0.0054426728532136065 -0.028799853927259523 0 -0.0053532151815576011 -0.029185831386072756 0 -0.0054426728532136065 -0.028799853927259523 0 -0.0058171296208219588 -0.029023670744823888 0 -0.0053532151815576011 -0.029185831386072756 0 -0.0064149737853536962 -0.015071193143402026 0 -0.0070444295612729158 -0.015072927622349932 0 -0.0067639617647420359 -0.014370781372066639 0 -0.0070444295612729158 -0.015072927622349932 0 -0.0067639617647420359 -0.014370781372066639 0 -0.0077710296171034591 -0.014107854445354109 0 -0.0058171296208219588 -0.029023670744823888 0 -0.0053532151815576011 -0.029185831386072756 0 -0.0053957484472509365 -0.02941660457656713 0 -0.0066524665197113106 -0.021784182874441112 0 -0.0054638096351463097 -0.022949943537183659 0 -0.0057616368375960009 -0.030940666962362893 0 -0.0054638096351463097 -0.022949943537183659 0 -0.0024610915753932572 -0.027964029394848773 0 -0.0023169482094826362 -0.028169381244791732 0 -0.0024279918285382124 -0.027562518511827349 0 -0.0078521485089579155 -0.014534143140240693 0 -0.0075488998469021391 -0.013880781257711703 0 -0.0076009383056644163 -0.012710699919953517 0 -0.0054638096351463097 -0.022949943537183659 0 -0.005023793550513014 -0.019802156597101262 0 -0.0078521485089579155 -0.014534143140240693 0 -0.0075488998469021391 -0.013880781257711703 0 -0.0069064414179470686 -0.013818358378008674 0 -0.0054638096351463097 -0.022949943537183659 0 -0.006669415280501122 -0.013168467433469213 0 -0.0026958828189439189 -0.028379583397042073 0 -0.0024820511570360021 -0.02816425452559795 0 -0.0022761999962583861 -0.028236861126604194 0 -0.0024610915753932572 -0.027964029394848773 0 -0.0024820511570360021 -0.02816425452559795 0 -0.0022761999962583861 -0.028236861126604194 0 -0.0024341441056858516 -0.027805841605617186 0 -0.0054638096351463097 -0.022949943537183659 0 -0.0026487398870831155 -0.027753829012462629 0 -0.0024610915753932572 -0.027964029394848773 0 -0.0024279918285382124 -0.027562518511827349 0 -0.0067639617647420359 -0.014370781372066639 0 -0.0077710296171034591 -0.014107854445354109 0 -0.0070334058099151848 -0.013560163008562429 0 -0.0075488998469021391 -0.013880781257711703 0 -0.0069064414179470686 -0.013818358378008674 0 -0.0071944392329860657 -0.01329887139999953 0 -0.0070334058099151848 -0.013560163008562429 0 -0.0060658010391321454 -0.013790884914466246 0 -0.0061972754680171107 -0.013075267503991702 0 -0.0067639617647420359 -0.014370781372066639 0 -0.0070334058099151848 -0.013560163008562429 0 -0.0060658010391321454 -0.013790884914466246 0 -0.0067639617647420359 -0.014370781372066639 0 -0.0060658010391321454 -0.013790884914466246 0 -0.006004533717025559 -0.014505945258091282 0 -0.0064149737853536962 -0.015071193143402026 0 -0.0067639617647420359 -0.014370781372066639 0 -0.006004533717025559 -0.014505945258091282 0 -0.0060658010391321454 -0.013790884914466246 0 -0.006004533717025559 -0.014505945258091282 0 -0.0054703390445971214 -0.014078628561036834 0 -0.0054186404594958474 -0.014626660874033085 0 -0.0054703390445971214 -0.014078628561036834 0 -0.004785251408835651 -0.014461267402599298 0 -0.006004533717025559 -0.014505945258091282 0 -0.0054186404594958474 -0.014626660874033085 0 -0.0054703390445971214 -0.014078628561036834 0 -0.0060658010391321454 -0.013790884914466246 0 -0.0054703390445971214 -0.014078628561036834 0 -0.0051361472683138249 -0.01334327823411173 0 -0.0060658010391321454 -0.013790884914466246 0 -0.0061972754680171107 -0.013075267503991702 0 -0.0051361472683138249 -0.01334327823411173 0 -0.0057025119460548668 -0.012663115815376678 0 -0.0053563158091775196 -0.012114086526054212 0 -0.0051361472683138249 -0.01334327823411173 0 -0.0045437715185776342 -0.010869496661582441 0 -0.0053409243622169755 -0.012833375178333059 0 -0.0057025119460548668 -0.012663115815376678 0 -0.0061972754680171107 -0.013075267503991702 0 -0.0051361472683138249 -0.01334327823411173 0 -0.0057025119460548668 -0.012663115815376678 0 -0.0061972754680171107 -0.013075267503991702 0 -0.0061450313906555301 -0.012106162655686798 0 -0.0061972754680171107 -0.013075267503991702 0 -0.0061450313906555301 -0.012106162655686798 0 -0.0067143791307444356 -0.012775903591246807 0 -0.0050853125178052508 -0.0116143643785484 0 -0.0033213142007108027 -0.011487571276416543 0 -0.0042376660432783628 -0.010763515616803934 0 -0.0056282307049232375 -0.011883694465756966 0 -0.0045437715185776342 -0.010869496661582441 0 -0.0057025119460548668 -0.012663115815376678 0 -0.0061450313906555301 -0.012106162655686798 0 -0.0053563158091775196 -0.012114086526054212 0 -0.0075488998469021391 -0.013880781257711703 0 -0.0076009383056644163 -0.012710699919953517 0 -0.0071944392329860657 -0.01329887139999953 0 -0.0023169482094826362 -0.028169381244791732 0 -0.0024279918285382124 -0.027562518511827349 0 -0.0022451293148576636 -0.027171398809509584 0 -0.0025896029414177804 -0.027109841436059618 0 -0.0024279918285382124 -0.027562518511827349 0 -0.0022451293148576636 -0.027171398809509584 0 -0.0069064414179470686 -0.013818358378008674 0 -0.0061972754680171107 -0.013075267503991702 0 -0.0067143791307444356 -0.012775903591246807 0 -0.0069064414179470686 -0.013818358378008674 0 -0.0071944392329860657 -0.01329887139999953 0 -0.0067143791307444356 -0.012775903591246807 0 -0.0076009383056644163 -0.012710699919953517 0 -0.0071944392329860657 -0.01329887139999953 0 -0.0067143791307444356 -0.012775903591246807 0 -0.006669415280501122 -0.013168467433469213 0 -0.0064369192270737497 -0.01327857634089021 0 -0.0061450313906555301 -0.012106162655686798 0 -0.0067143791307444356 -0.012775903591246807 0 -0.0069630836396415248 -0.01187351995663373 0 -0.0056282307049232375 -0.011883694465756966 0 -0.0068716694819118762 -0.011882488297611918 0 -0.0050853125178052508 -0.0116143643785484 0 -0.0069630836396415248 -0.01187351995663373 0 -0.0062245528246032064 -0.010306011950541746 0 -0.0076009383056644163 -0.012710699919953517 0 -0.0067143791307444356 -0.012775903591246807 0 -0.0069630836396415248 -0.01187351995663373 0 -0.0026069646773873227 -0.026755762859946991 0 -0.0022451293148576636 -0.027171398809509584 0 -0.0022267260512101815 -0.026412941528108615 0 -0.005023793550513014 -0.019802156597101262 0 -0.0034787367824796415 -0.017291313073306641 0 -0.0076009383056644163 -0.012710699919953517 0 -0.0069630836396415248 -0.01187351995663373 0 -0.0071296218685968577 -0.010092294278109211 0 -0.0026069646773873227 -0.026755762859946991 0 -0.0025896029414177804 -0.027109841436059618 0 -0.0022451293148576636 -0.027171398809509584 0 -0.0027306890285247912 -0.026366085929802711 0 -0.0026069646773873227 -0.026755762859946991 0 -0.0022267260512101815 -0.026412941528108615 0 -0.0069630836396415248 -0.01187351995663373 0 -0.0071296218685968577 -0.010092294278109211 0 -0.0062245528246032064 -0.010306011950541746 0 -0.0068253855326187328 -0.010017617931693153 0 -0.0062245528246032064 -0.010306011950541746 0 -0.0059450227519389559 -0.0092311943598444197 0 -0.0034787367824796415 -0.017291313073306641 0 -0.0075969525980029672 -0.012417622093976836 0 -0.0063139569758012895 -0.0083173615716289062 0 -0.0068253855326187328 -0.010017617931693153 0 -0.0059450227519389559 -0.0092311943598444197 0 -0.0037787251032987703 -0.013460968464772807 0 -0.0034787367824796415 -0.017291313073306641 0 -0.0050314583306533215 -0.0082166445393764241 0 -0.0063139569758012895 -0.0083173615716289062 0 -0.0059450227519389559 -0.0092311943598444197 0 -0.0062245528246032064 -0.010306011950541746 0 -0.0059450227519389559 -0.0092311943598444197 0 -0.005155772376157922 -0.0094786219335308477 0 -0.001262998392421636 -0.02348610875318519 0 -0.0034787367824796415 -0.017291313073306641 0 -0.001242492648080456 -0.019487773043029406 0 -0.0010623708650357171 -0.01950456932582556 0 -0.001243007775625106 -0.019194775670505416 0 -0.0010623708650357171 -0.01950456932582556 0 -0.00092879552466869418 -0.019325708801717151 0 -0.001243007775625106 -0.019194775670505416 0 -0.0033213142007108027 -0.011487571276416543 0 -0.0038313571785341433 -0.0096440946096792383 0 -0.0042376660432783628 -0.010763515616803934 0 -0.0045437715185776342 -0.010869496661582441 0 -0.003696046084378418 -0.0098113292582639247 0 -0.0035888540933922981 -0.010193631667749982 0 -0.0038313571785341433 -0.0096440946096792383 0 -0.0030646409930215773 -0.0095940810503847111 0 -0.0050853125178052508 -0.0116143643785484 0 -0.0042376660432783628 -0.010763515616803934 0 -0.0048883370535351195 -0.0103549327659081 0 -0.0038313571785341433 -0.0096440946096792383 0 -0.0048883370535351195 -0.0103549327659081 0 -0.005155772376157922 -0.0094786219335308477 0 -0.0050853125178052508 -0.0116143643785484 0 -0.0062245528246032064 -0.010306011950541746 0 -0.0048883370535351195 -0.0103549327659081 0 -0.0062245528246032064 -0.010306011950541746 0 -0.0048883370535351195 -0.0103549327659081 0 -0.005155772376157922 -0.0094786219335308477 0 -0.0038313571785341433 -0.0096440946096792383 0 -0.0042376660432783628 -0.010763515616803934 0 -0.0048883370535351195 -0.0103549327659081 0 -0.0050314583306533215 -0.0082166445393764241 0 -0.0038313571785341433 -0.0096440946096792383 0 -0.005155772376157922 -0.0094786219335308477 0 -0.0050314583306533215 -0.0082166445393764241 0 -0.0059450227519389559 -0.0092311943598444197 0 -0.005155772376157922 -0.0094786219335308477 0 -0.0050314583306533215 -0.0082166445393764241 0 -0.0038313571785341433 -0.0096440946096792383 0 -0.0033264072967840569 -0.008928698004387765 0 -0.0038313571785341433 -0.0096440946096792383 0 -0.0033264072967840569 -0.008928698004387765 0 -0.0030646409930215773 -0.0095940810503847111 0 -0.0049475151868923076 -0.0082316767543933536 0 -0.0035079978720096907 -0.0086874135345305897 0 -0.0033264072967840569 -0.008928698004387765 0 -0.0030646409930215773 -0.0095940810503847111 0 -0.0023742415516743516 -0.0091684262050921103 0 -0.0025955527717261167 -0.0076904789593821559 0 -0.0035943271751671677 -0.0084839768164160952 0 -0.002303892060969951 -0.0087663082506037205 0 -0.0035079978720096907 -0.0086874135345305897 0 -0.0023010490767475427 -0.008961352005159632 0 -0.0035888540933922981 -0.010193631667749982 0 -0.0030646409930215773 -0.0095940810503847111 0 -0.0025786260402912752 -0.010008253759129745 0 -0.0030646409930215773 -0.0095940810503847111 0 -0.0023742415516743516 -0.0091684262050921103 0 -0.0025786260402912752 -0.010008253759129745 0 -0.0023742415516743516 -0.0091684262050921103 0 -0.0020375528734243044 -0.0095775182476618131 0 -0.0025786260402912752 -0.010008253759129745 0 -0.0025955527717261167 -0.0076904789593821559 0 -0.002303892060969951 -0.0087663082506037205 0 -0.0014683135773818719 -0.0082049266811399808 0 -0.002303892060969951 -0.0087663082506037205 0 -0.0014683135773818719 -0.0082049266811399808 0 -0.0011134668924995188 -0.009116357810280298 0 -0.0014683135773818719 -0.0082049266811399808 0 -0.00040388420522875079 -0.0082961430218859572 0 -0.0011134668924995188 -0.009116357810280298 0 -0.00040388420522875079 -0.0082961430218859572 0 -0.0011134668924995188 -0.009116357810280298 0 0.00014722261122672629 -0.0090542881039292495 0 -0.0023742415516743516 -0.0091684262050921103 0 -0.0011134668924995188 -0.009116357810280298 0 -0.0020375528734243044 -0.0095775182476618131 0 -0.0023010490767475427 -0.008961352005159632 0 -0.001178184223341594 -0.0091512037923826076 0 -0.0011134668924995188 -0.009116357810280298 0 -0.0020375528734243044 -0.0095775182476618131 0 -0.001454484275011235 -0.0097460755776615175 0 -0.0023904736314330605 -0.010774929466626221 0 -0.001454484275011235 -0.0097460755776615175 0 -0.0036877193038210763 -0.0097636882245137734 0 -0.0020375528734243044 -0.0095775182476618131 0 -0.001454484275011235 -0.0097460755776615175 0 -0.0025786260402912752 -0.010008253759129745 0 -0.0023904736314330605 -0.010774929466626221 0 -0.001454484275011235 -0.0097460755776615175 0 -0.0008542407443203234 -0.010638247342950035 0 -0.0015635980757468507 -0.0097814340346824239 0 -0.0031518165058708699 -0.0097981044160517731 0 -0.0011134668924995188 -0.009116357810280298 0 -0.001454484275011235 -0.0097460755776615175 0 -0.0008542407443203234 -0.010638247342950035 0 -0.00090567987856068606 -0.01014797530295591 0 5.312809027896323e-05 -0.0091394885459134111 0 -0.0011134668924995188 -0.009116357810280298 0 -0.0008542407443203234 -0.010638247342950035 0 0.00014722261122672629 -0.0090542881039292495 0 -0.00091598645149024258 -0.0096177823317090821 0 -0.0010252057841968515 -0.010781767596507034 0 -0.0024861488779743418 -0.011007815162775644 0 -0.00091598645149024258 -0.0096177823317090821 0 -0.0010252057841968515 -0.010781767596507034 0 0.00023867569420523422 -0.0097426715765877546 0 -0.00090567987856068606 -0.01014797530295591 0 -0.0023564294675283998 -0.011665379146813998 0 -0.0023904736314330605 -0.010774929466626221 0 -0.0008542407443203234 -0.010638247342950035 0 -0.0022274708982423477 -0.012306091097778981 0 -0.0038512090439548432 -0.011426838902257729 0 -0.0037149231091965764 -0.012518019931161717 0 -0.0022274708982423477 -0.012306091097778981 0 -0.0023904736314330605 -0.010774929466626221 0 -0.0038512090439548432 -0.011426838902257729 0 -0.0022274708982423477 -0.012306091097778981 0 -0.0038512090439548432 -0.011426838902257729 0 -0.0052613232866523399 -0.0122842009107554 0 -0.0037149231091965764 -0.012518019931161717 0 -0.0038512090439548432 -0.011426838902257729 0 -0.0046577401184541133 -0.010843209987413267 0 -0.0052613232866523399 -0.0122842009107554 0 -0.0058257129470842472 -0.0098860788208496586 0 -0.0046577401184541133 -0.010843209987413267 0 -0.0052613232866523399 -0.0122842009107554 0 -0.0058257129470842472 -0.0098860788208496586 0 -0.0046577401184541133 -0.010843209987413267 0 -0.0036877193038210763 -0.0097636882245137734 0 -0.0045437715185776342 -0.010869496661582441 0 -0.0031518165058708699 -0.0097981044160517731 0 -0.0038512090439548432 -0.011426838902257729 0 -0.0046577401184541133 -0.010843209987413267 0 -0.0036877193038210763 -0.0097636882245137734 0 -0.0023904736314330605 -0.010774929466626221 0 -0.0038512090439548432 -0.011426838902257729 0 -0.0036877193038210763 -0.0097636882245137734 0 0.0038112851836720352 -0.0072977091283417611 0 0.002551847816960013 -0.0079875628537037276 0 0.0039041656205415706 -0.0086200555875995608 0 0.0012662055774140554 0.002619711568146632 0 0.0013062503206201009 0.0025844609265482854 0 0.0012761249985902611 0.0025862833524699204 0 0.0013062503206201009 0.0025844609265482854 0 0.0012858746653330198 0.0025208100209132053 0 0.0012761249985902611 0.0025862833524699204 0 0.0012858746653330198 0.0025208100209132053 0 0.0012761249985902611 0.0025862833524699204 0 0.0012933430857354131 0.0025896815783466105 0 0.0012803540600855048 0.0025772958250013583 0 0.0012761249985902611 0.0025862833524699204 0 0.0012933430857354131 0.0025896815783466105 0 0.0025508787854784118 -0.0024307830516810004 0 0.0016079634424251785 -0.0016558505122644398 0 0.0038112851836720352 -0.0072977091283417611 0 0.0021789411169178558 -0.0062797744769760204 0 0.002551847816960013 -0.0079875628537037276 0 0.0021789411169178558 -0.0062797744769760204 0 0.002551847816960013 -0.0079875628537037276 0 0.00090882558787346241 -0.0074299052574656171 0 0.00047075015392233888 -0.0077817823149620704 0 0.00078135596781189612 -0.0088635538883547731 0 0.00025372956052754691 -0.0085090538934339301 0 0.0012074924889913059 -0.0028013005369814767 0 0.0016079634424251785 -0.0016558505122644398 0 0.0012074924889913059 -0.0028013005369814767 0 0.00088708416851521232 -0.0089740475734742895 0 0.00039683158471421243 -0.0052433138859348015 0 0.0021789411169178558 -0.0062797744769760204 0 0.00090882558787346241 -0.0074299052574656171 0 0.00047075015392233888 -0.0077817823149620704 0 -0.00040388420522875079 -0.0082961430218859572 0 0.00025372956052754691 -0.0085090538934339301 0 -0.00040388420522875079 -0.0082961430218859572 0 0.00025372956052754691 -0.0085090538934339301 0 0.00014722261122672629 -0.0090542881039292495 0 0.00078135596781189612 -0.0088635538883547731 0 0.00025372956052754691 -0.0085090538934339301 0 0.00014722261122672629 -0.0090542881039292495 0 0.00078135596781189612 -0.0088635538883547731 0 0.00014722261122672629 -0.0090542881039292495 0 0.00065291446913768344 -0.0092922269305714036 0 0.00014722261122672629 -0.0090542881039292495 0 0.00023867569420523422 -0.0097426715765877546 0 0.00065291446913768344 -0.0092922269305714036 0 -0.00091598645149024258 -0.0096177823317090821 0 0.00014722261122672629 -0.0090542881039292495 0 0.00023867569420523422 -0.0097426715765877546 0 0.00023867569420523422 -0.0097426715765877546 0 0.0010166003002989503 -0.010661165645410366 0 -5.6877017754792622e-07 -0.011409865033264036 0 -0.0010252057841968515 -0.010781767596507034 0 0.00023867569420523422 -0.0097426715765877546 0 -5.6877017754792622e-07 -0.011409865033264036 0 0.00023867569420523422 -0.0097426715765877546 0 0.0014804710896407433 -0.0096062747275062078 0 0.0010166003002989503 -0.010661165645410366 0 0.0014804710896407433 -0.0096062747275062078 0 0.0021687805970092245 -0.010837143916808357 0 0.0010166003002989503 -0.010661165645410366 0 0.00088708416851521232 -0.0089740475734742895 0 0.0013693862126821271 -0.0092266243694611623 0 0.002551847816960013 -0.0079875628537037276 0 0.00090882558787346241 -0.0074299052574656171 0 0.0014804710896407433 -0.0096062747275062078 0 0.00023867569420523422 -0.0097426715765877546 0 0.0014804710896407433 -0.0096062747275062078 0 0.00065291446913768344 -0.0092922269305714036 0 0.00078135596781189612 -0.0088635538883547731 0 0.0014804710896407433 -0.0096062747275062078 0 0.00065291446913768344 -0.0092922269305714036 0 0.002551847816960013 -0.0079875628537037276 0 0.0014804710896407433 -0.0096062747275062078 0 0.003065826774300953 -0.0097553233110333846 0 0.0014804710896407433 -0.0096062747275062078 0 0.003065826774300953 -0.0097553233110333846 0 0.0021687805970092245 -0.010837143916808357 0 0.0042944747264573868 -0.0098396216002592136 0 0.003065826774300953 -0.0097553233110333846 0 0.0039041656205415706 -0.0086200555875995608 0 0.0042944747264573868 -0.0098396216002592136 0 0.003065826774300953 -0.0097553233110333846 0 0.0035580277865753201 -0.010976283598424071 0 0.002551847816960013 -0.0079875628537037276 0 0.003065826774300953 -0.0097553233110333846 0 0.0039041656205415706 -0.0086200555875995608 0 0.0047354289662261033 -0.0099898823513773806 0 0.0036943672721925346 -0.010542954408713927 0 0.003065826774300953 -0.0097553233110333846 0 0.0035580277865753201 -0.010976283598424071 0 0.0021687805970092245 -0.010837143916808357 0 0.0035580277865753201 -0.010976283598424071 0 0.0021687805970092245 -0.010837143916808357 0 0.0016334284078302365 -0.012402167405683019 0 0.0035580277865753201 -0.010976283598424071 0 0.0016334284078302365 -0.012402167405683019 0 0.0030054613656847534 -0.013565426847633875 0 0.0016334284078302365 -0.012402167405683019 0 0.0010166003002989503 -0.010661165645410366 0 -5.6877017754792622e-07 -0.011409865033264036 0 0.0021687805970092245 -0.010837143916808357 0 0.0016334284078302365 -0.012402167405683019 0 0.0010166003002989503 -0.010661165645410366 0 0.0016334284078302365 -0.012402167405683019 0 -5.6877017754792622e-07 -0.011409865033264036 0 -0.00013021031168979446 -0.013220249645113025 0 0.0016334284078302365 -0.012402167405683019 0 -0.00013021031168979446 -0.013220249645113025 0 0.00040726390568117729 -0.014943063934456678 0 -0.00013021031168979446 -0.013220249645113025 0 0.00040726390568117729 -0.014943063934456678 0 -0.0011863613641343483 -0.014673884221645174 0 0.00040726390568117729 -0.014943063934456678 0 -0.0010997728368294139 -0.016639110105040416 0 0.0010328381579302296 -0.017017067916871884 0 0.0019826770694054714 -0.015237018193302291 0 0.0031516835487159383 -0.016765747912808191 0 0.0010328381579302296 -0.017017067916871884 0 0.00040726390568117729 -0.014943063934456678 0 0.0019826770694054714 -0.015237018193302291 0 0.0010328381579302296 -0.017017067916871884 0 0.0016334284078302365 -0.012402167405683019 0 0.00040726390568117729 -0.014943063934456678 0 0.0019826770694054714 -0.015237018193302291 0 0.0057202836800945862 -0.012470406101765124 0 0.0047813784865156873 -0.015497901665328185 0 0.0030054613656847534 -0.013565426847633875 0 0.0017130070407271368 -0.012471667337075545 0 0.0032926395018370801 -0.014132295758741642 0 0.0016334284078302365 -0.012402167405683019 0 0.0019826770694054714 -0.015237018193302291 0 0.0036599566010038121 -0.014745972830979427 0 0.0019826770694054714 -0.015237018193302291 0 0.0036599566010038121 -0.014745972830979427 0 0.0031516835487159383 -0.016765747912808191 0 0.0050741353551312591 -0.016130875125701785 0 0.0032926395018370801 -0.014132295758741642 0 0.0052837752191193235 -0.016711192819829322 0 0.0036599566010038121 -0.014745972830979427 0 0.0031516835487159383 -0.016765747912808191 0 0.0057202836800945862 -0.012470406101765124 0 0.0035580277865753201 -0.010976283598424071 0 0.0030054613656847534 -0.013565426847633875 0 -0.0040084026359755737 -0.012857622624933158 0 -0.0024861488779743418 -0.011007815162775644 0 -0.002814704923762101 -0.013217984758938943 0 -0.0040084026359755737 -0.012857622624933158 0 -0.002814704923762101 -0.013217984758938943 0 -0.003536659024798878 -0.014818426439208512 0 -0.0047639740048163381 -0.014395407446259558 0 -0.0053409243622169755 -0.012833375178333059 0 -0.0038593598616717215 -0.01336789264007023 0 -0.0050114477693746296 -0.01483102517459111 0 -0.0037533745915054031 -0.013868055733901482 0 -0.004785251408835651 -0.014461267402599298 0 -0.0051028565063357782 -0.014983105502207161 0 -0.0037533745915054031 -0.013868055733901482 0 -0.004785251408835651 -0.014461267402599298 0 -0.0052613232866523399 -0.0122842009107554 0 -0.0054703390445971214 -0.014078628561036834 0 -0.004785251408835651 -0.014461267402599298 0 -0.0051361472683138249 -0.01334327823411173 0 -0.0037533745915054031 -0.013868055733901482 0 -0.0052613232866523399 -0.0122842009107554 0 -0.0037149231091965764 -0.012518019931161717 0 -0.0038593598616717215 -0.01336789264007023 0 -0.0023564294675283998 -0.011665379146813998 0 -0.0037533745915054031 -0.013868055733901482 0 -0.0037149231091965764 -0.012518019931161717 0 -0.0022274708982423477 -0.012306091097778981 0 -0.0010252057841968515 -0.010781767596507034 0 -0.0024861488779743418 -0.011007815162775644 0 -0.001513470086501348 -0.012848641892176165 0 -0.0010252057841968515 -0.010781767596507034 0 -5.6877017754792622e-07 -0.011409865033264036 0 -0.001513470086501348 -0.012848641892176165 0 -5.6877017754792622e-07 -0.011409865033264036 0 -0.00013021031168979446 -0.013220249645113025 0 -0.001513470086501348 -0.012848641892176165 0 -0.001513470086501348 -0.012848641892176165 0 -0.002814704923762101 -0.013217984758938943 0 -0.0024479511937061686 -0.014472891935341669 0 -0.0024861488779743418 -0.011007815162775644 0 -0.001513470086501348 -0.012848641892176165 0 -0.002814704923762101 -0.013217984758938943 0 -0.002814704923762101 -0.013217984758938943 0 -0.0024479511937061686 -0.014472891935341669 0 -0.003536659024798878 -0.014818426439208512 0 -0.0024479511937061686 -0.014472891935341669 0 -0.0011863613641343483 -0.014673884221645174 0 -0.0025397415468837491 -0.015813464050970158 0 -0.0024479511937061686 -0.014472891935341669 0 -0.0025397415468837491 -0.015813464050970158 0 -0.003536659024798878 -0.014818426439208512 0 -0.00013021031168979446 -0.013220249645113025 0 -0.001513470086501348 -0.012848641892176165 0 -0.0011863613641343483 -0.014673884221645174 0 -0.001513470086501348 -0.012848641892176165 0 -0.0024479511937061686 -0.014472891935341669 0 -0.0011863613641343483 -0.014673884221645174 0 0.00040726390568117729 -0.014943063934456678 0 -0.0011863613641343483 -0.014673884221645174 0 -0.0010997728368294139 -0.016639110105040416 0 -0.0011863613641343483 -0.014673884221645174 0 -0.0025397415468837491 -0.015813464050970158 0 -0.0010997728368294139 -0.016639110105040416 0 -0.0025397415468837491 -0.015813464050970158 0 -0.0022187748747260548 -0.01693023545351097 0 -0.0010997728368294139 -0.016639110105040416 0 -0.0025397415468837491 -0.015813464050970158 0 -0.0038540690219066604 -0.016184075090007095 0 -0.003536659024798878 -0.014818426439208512 0 -0.0038540690219066604 -0.016184075090007095 0 -0.003536659024798878 -0.014818426439208512 0 -0.0044532704597728193 -0.015544510808816947 0 -0.0025397415468837491 -0.015813464050970158 0 -0.0038540690219066604 -0.016184075090007095 0 -0.0032098973103416076 -0.017202223090934943 0 -0.0040084026359755737 -0.012857622624933158 0 -0.003536659024798878 -0.014818426439208512 0 -0.0042835486477186685 -0.014588399852863084 0 -0.003536659024798878 -0.014818426439208512 0 -0.0042835486477186685 -0.014588399852863084 0 -0.0044532704597728193 -0.015544510808816947 0 -0.0040084026359755737 -0.012857622624933158 0 -0.0042835486477186685 -0.014588399852863084 0 -0.0051028565063357782 -0.014983105502207161 0 -0.0054186404594958474 -0.014626660874033085 0 -0.004785251408835651 -0.014461267402599298 0 -0.0051028565063357782 -0.014983105502207161 0 -0.0042835486477186685 -0.014588399852863084 0 -0.0051028565063357782 -0.014983105502207161 0 -0.0044532704597728193 -0.015544510808816947 0 -0.0051028565063357782 -0.014983105502207161 0 -0.0051296463108805338 -0.015622650912890685 0 -0.0044532704597728193 -0.015544510808816947 0 -0.0051296463108805338 -0.015622650912890685 0 -0.0044532704597728193 -0.015544510808816947 0 -0.0048857845563487498 -0.016426985055182902 0 -0.0038540690219066604 -0.016184075090007095 0 -0.0044532704597728193 -0.015544510808816947 0 -0.0048857845563487498 -0.016426985055182902 0 -0.0055927154138115491 -0.016048280600608113 0 -0.0048857845563487498 -0.016426985055182902 0 -0.0055574918963792646 -0.016824871376105659 0 -0.0055927154138115491 -0.016048280600608113 0 -0.0051296463108805338 -0.015622650912890685 0 -0.0048857845563487498 -0.016426985055182902 0 -0.0048857845563487498 -0.016426985055182902 0 -0.0050200642774044825 -0.017469955176759078 0 -0.0055574918963792646 -0.016824871376105659 0 -0.0048857845563487498 -0.016426985055182902 0 -0.0050200642774044825 -0.017469955176759078 0 -0.0042253030942027963 -0.017433399076486722 0 -0.0050200642774044825 -0.017469955176759078 0 -0.0046523438575160145 -0.018401216905978821 0 -0.0042253030942027963 -0.017433399076486722 0 -0.0054440038052628783 -0.018453664873962272 0 -0.006110371404303384 -0.022807544388083436 0 -0.0050200642774044825 -0.017469955176759078 0 -0.0046523438575160145 -0.018401216905978821 0 -0.0057022592419073191 -0.017890596535199338 0 -0.004578388955725838 -0.025033837735191824 0 -0.0045053101513854114 -0.02624145469767087 0 -0.004425639431382836 -0.025511871376830558 0 -0.005739001809261215 -0.018616456827553019 0 -0.0059212740583355098 -0.020642844647134787 0 -0.0077937247758972468 -0.018107372799131941 0 -0.0051932368691011734 -0.022760531551031284 0 -0.006110371404303384 -0.022807544388083436 0 -0.005739001809261215 -0.018616456827553019 0 -0.0035421219299643807 -0.019100786492376291 0 -0.0059212740583355098 -0.020642844647134787 0 -0.0054440038052628783 -0.018453664873962272 0 -0.0035905056109053935 -0.019036175488657173 0 -0.0046523438575160145 -0.018401216905978821 0 -0.0035421219299643807 -0.019100786492376291 0 -0.0042253030942027963 -0.017433399076486722 0 -0.0035421219299643807 -0.019100786492376291 0 -0.0032098973103416076 -0.017202223090934943 0 -0.0042253030942027963 -0.017433399076486722 0 -0.0038540690219066604 -0.016184075090007095 0 -0.0048857845563487498 -0.016426985055182902 0 -0.0042253030942027963 -0.017433399076486722 0 -0.0038540690219066604 -0.016184075090007095 0 -0.0032098973103416076 -0.017202223090934943 0 -0.0042253030942027963 -0.017433399076486722 0 -0.0025397415468837491 -0.015813464050970158 0 -0.0032098973103416076 -0.017202223090934943 0 -0.0022187748747260548 -0.01693023545351097 0 -0.0032098973103416076 -0.017202223090934943 0 -0.0022187748747260548 -0.01693023545351097 0 -0.0020116478208367259 -0.018105150984739148 0 -0.0010997728368294139 -0.016639110105040416 0 -0.0020116478208367259 -0.018105150984739148 0 -0.00030336251451023146 -0.018195590892575695 0 -0.0022187748747260548 -0.01693023545351097 0 -0.0010997728368294139 -0.016639110105040416 0 -0.0020116478208367259 -0.018105150984739148 0 -0.001062098972271867 -0.019392300874738023 0 -0.00030336251451023146 -0.018195590892575695 0 0.00015867917855855681 -0.019929476265520156 0 -0.001062098972271867 -0.019392300874738023 0 -0.0020116478208367259 -0.018105150984739148 0 -0.00030336251451023146 -0.018195590892575695 0 -0.001062098972271867 -0.019392300874738023 0 -0.0020116478208367259 -0.018105150984739148 0 -0.0022420451578489078 -0.019748198675404317 0 -0.0035421219299643807 -0.019100786492376291 0 -0.0032098973103416076 -0.017202223090934943 0 -0.0020116478208367259 -0.018105150984739148 0 -0.0035421219299643807 -0.019100786492376291 0 -0.0020116478208367259 -0.018105150984739148 0 -0.0022420451578489078 -0.019748198675404317 0 -0.0035421219299643807 -0.019100786492376291 0 -0.0029519038628839146 -0.021310586280742352 0 -0.0022420451578489078 -0.019748198675404317 0 -0.0029519038628839146 -0.021310586280742352 0 -0.0022420451578489078 -0.019748198675404317 0 -0.001285117335654799 -0.02104979994307301 0 -0.001062098972271867 -0.019392300874738023 0 -0.001285117335654799 -0.02104979994307301 0 0.00015867917855855681 -0.019929476265520156 0 -0.001062098972271867 -0.019392300874738023 0 -0.0022420451578489078 -0.019748198675404317 0 -0.001285117335654799 -0.02104979994307301 0 -0.001285117335654799 -0.02104979994307301 0 -0.00047045296157953269 -0.022683783197960952 0 -0.0020178608456134896 -0.023216754210484549 0 -0.001285117335654799 -0.02104979994307301 0 0.00011790522489652927 -0.021315390991568709 0 -0.00047045296157953269 -0.022683783197960952 0 -0.0029519038628839146 -0.021310586280742352 0 -0.0037887546888017176 -0.023591295511450207 0 -0.0020178608456134896 -0.023216754210484549 0 -0.0029519038628839146 -0.021310586280742352 0 -0.001285117335654799 -0.02104979994307301 0 -0.0020178608456134896 -0.023216754210484549 0 -0.0038831926732524158 -0.023716492821368253 0 -0.0051932368691011734 -0.022760531551031284 0 -0.0029519038628839146 -0.021310586280742352 0 -0.0037887546888017176 -0.023591295511450207 0 -0.0059212740583355098 -0.020642844647134787 0 -0.0037887546888017176 -0.023591295511450207 0 -0.0041998840705373399 -0.024421277163937462 0 -0.004578388955725838 -0.025033837735191824 0 -0.0041998840705373399 -0.024421277163937462 0 -0.004578388955725838 -0.025033837735191824 0 -0.0043221205437808975 -0.024960753804818388 0 -0.004578388955725838 -0.025033837735191824 0 -0.004425639431382836 -0.025511871376830558 0 -0.0043221205437808975 -0.024960753804818388 0 -0.0035421219299643807 -0.019100786492376291 0 -0.0029519038628839146 -0.021310586280742352 0 -0.0059212740583355098 -0.020642844647134787 0 0.0054627133421835403 -0.01853722461939479 0 0.0040086317617289294 -0.018149129724566605 0 0.0042589366538478106 -0.019845867980103692 0 0.0054627133421835403 -0.01853722461939479 0 0.0052837752191193235 -0.016711192819829322 0 0.0040086317617289294 -0.018149129724566605 0 0.0052837752191193235 -0.016711192819829322 0 0.0040086317617289294 -0.018149129724566605 0 0.0031516835487159383 -0.016765747912808191 0 0.0040086317617289294 -0.018149129724566605 0 0.0031516835487159383 -0.016765747912808191 0 0.0022938600566139514 -0.018280007545871012 0 0.0040086317617289294 -0.018149129724566605 0 0.0022938600566139514 -0.018280007545871012 0 0.0030304482001143693 -0.019340979735316385 0 0.0040086317617289294 -0.018149129724566605 0 0.0030304482001143693 -0.019340979735316385 0 0.0042589366538478106 -0.019845867980103692 0 0.0022938600566139514 -0.018280007545871012 0 0.0016182005298503764 -0.019725341310899459 0 0.0030304482001143693 -0.019340979735316385 0 0.0022938600566139514 -0.018280007545871012 0 0.0010328381579302296 -0.017017067916871884 0 0.00096458387283429321 -0.018626177554002959 0 0.0022938600566139514 -0.018280007545871012 0 0.00096458387283429321 -0.018626177554002959 0 0.0016182005298503764 -0.019725341310899459 0 0.0031516835487159383 -0.016765747912808191 0 0.0022938600566139514 -0.018280007545871012 0 0.0010328381579302296 -0.017017067916871884 0 -0.0010997728368294139 -0.016639110105040416 0 0.0010328381579302296 -0.017017067916871884 0 -0.00030336251451023146 -0.018195590892575695 0 0.00096458387283429321 -0.018626177554002959 0 0.00015867917855855681 -0.019929476265520156 0 0.0016182005298503764 -0.019725341310899459 0 -0.00030336251451023146 -0.018195590892575695 0 0.00096458387283429321 -0.018626177554002959 0 0.00015867917855855681 -0.019929476265520156 0 0.0010328381579302296 -0.017017067916871884 0 -0.00030336251451023146 -0.018195590892575695 0 0.00096458387283429321 -0.018626177554002959 0 -0.001285117335654799 -0.02104979994307301 0 0.00015867917855855681 -0.019929476265520156 0 0.00011790522489652927 -0.021315390991568709 0 0.00015867917855855681 -0.019929476265520156 0 0.00011790522489652927 -0.021315390991568709 0 0.0012357374051092148 -0.02111382080876387 0 0.00011790522489652927 -0.021315390991568709 0 0.0008034712104136103 -0.022449716216800138 0 -0.00047045296157953269 -0.022683783197960952 0 0.00011790522489652927 -0.021315390991568709 0 0.0012357374051092148 -0.02111382080876387 0 0.0008034712104136103 -0.022449716216800138 0 0.0012357374051092148 -0.02111382080876387 0 0.0021210002479368417 -0.0221267164857477 0 0.0027996479499065056 -0.020723484091477049 0 0.0012357374051092148 -0.02111382080876387 0 0.0021210002479368417 -0.0221267164857477 0 0.0008034712104136103 -0.022449716216800138 0 0.0012357374051092148 -0.02111382080876387 0 0.0016182005298503764 -0.019725341310899459 0 0.0027996479499065056 -0.020723484091477049 0 0.00015867917855855681 -0.019929476265520156 0 0.0012357374051092148 -0.02111382080876387 0 0.0016182005298503764 -0.019725341310899459 0 0.0016182005298503764 -0.019725341310899459 0 0.0030304482001143693 -0.019340979735316385 0 0.0027996479499065056 -0.020723484091477049 0 0.0030304482001143693 -0.019340979735316385 0 0.0027996479499065056 -0.020723484091477049 0 0.0042589366538478106 -0.019845867980103692 0 0.0027996479499065056 -0.020723484091477049 0 0.0038533526756625146 -0.020981761328004857 0 0.0042589366538478106 -0.019845867980103692 0 0.0021210002479368417 -0.0221267164857477 0 0.0027996479499065056 -0.020723484091477049 0 0.0035598630626440756 -0.022069454004562155 0 0.0027996479499065056 -0.020723484091477049 0 0.0035598630626440756 -0.022069454004562155 0 0.0038533526756625146 -0.020981761328004857 0 0.0038533526756625146 -0.020981761328004857 0 0.004870591633433884 -0.021338418354801322 0 0.0042589366538478106 -0.019845867980103692 0 0.0035598630626440756 -0.022069454004562155 0 0.0038533526756625146 -0.020981761328004857 0 0.004870591633433884 -0.021338418354801322 0 0.0035598630626440756 -0.022069454004562155 0 0.004870591633433884 -0.021338418354801322 0 0.0047563451198129681 -0.02249338028130363 0 0.0055815915029799098 -0.020139957446371041 0 0.0054627133421835403 -0.01853722461939479 0 0.0042589366538478106 -0.019845867980103692 0 0.0055815915029799098 -0.020139957446371041 0 0.004870591633433884 -0.021338418354801322 0 0.0042589366538478106 -0.019845867980103692 0 0.0039168707221572232 -0.024264163592367074 0 0.0031097924618250345 -0.024895379063803104 0 0.0048658828997207781 -0.025515862946985702 0 0.0039168707221572232 -0.024264163592367074 0 0.0050562936947099726 -0.023755984625414214 0 0.0048658828997207781 -0.025515862946985702 0 0.0039168707221572232 -0.024264163592367074 0 0.0050562936947099726 -0.023755984625414214 0 0.0038188266380607574 -0.02324294971160042 0 0.0050562936947099726 -0.023755984625414214 0 0.0047563451198129681 -0.02249338028130363 0 0.0038188266380607574 -0.02324294971160042 0 0.0035598630626440756 -0.022069454004562155 0 0.0047563451198129681 -0.02249338028130363 0 0.0038188266380607574 -0.02324294971160042 0 0.0038188266380607574 -0.02324294971160042 0 0.0027558455873699676 -0.022923718858952471 0 0.0028341016589522325 -0.023997087565007083 0 0.0021210002479368417 -0.0221267164857477 0 0.0035598630626440756 -0.022069454004562155 0 0.0027558455873699676 -0.022923718858952471 0 0.0035598630626440756 -0.022069454004562155 0 0.0038188266380607574 -0.02324294971160042 0 0.0027558455873699676 -0.022923718858952471 0 0.0027558455873699676 -0.022923718858952471 0 0.0028341016589522325 -0.023997087565007083 0 0.0015452963087690954 -0.023547552346549348 0 0.0039168707221572232 -0.024264163592367074 0 0.0038188266380607574 -0.02324294971160042 0 0.0028341016589522325 -0.023997087565007083 0 0.0039168707221572232 -0.024264163592367074 0 0.0028341016589522325 -0.023997087565007083 0 0.0031097924618250345 -0.024895379063803104 0 0.0028341016589522325 -0.023997087565007083 0 0.0031097924618250345 -0.024895379063803104 0 0.0017636120592433842 -0.024821950573208709 0 0.0017636120592433842 -0.024821950573208709 0 0.0015452963087690954 -0.023547552346549348 0 0.00023346043144015149 -0.024842987038142642 0 0.0028341016589522325 -0.023997087565007083 0 0.0017636120592433842 -0.024821950573208709 0 0.0015452963087690954 -0.023547552346549348 0 0.0021210002479368417 -0.0221267164857477 0 0.0027558455873699676 -0.022923718858952471 0 0.0015452963087690954 -0.023547552346549348 0 0.0021210002479368417 -0.0221267164857477 0 0.0015452963087690954 -0.023547552346549348 0 0.0008034712104136103 -0.022449716216800138 0 0.0015452963087690954 -0.023547552346549348 0 0.00023761059797763629 -0.023632396017095523 0 0.0008034712104136103 -0.022449716216800138 0 0.00023761059797763629 -0.023632396017095523 0 0.0008034712104136103 -0.022449716216800138 0 -0.00047045296157953269 -0.022683783197960952 0 0.00023761059797763629 -0.023632396017095523 0 -0.00047045296157953269 -0.022683783197960952 0 -0.00091761544384794959 -0.024035284721094466 0 0.00023761059797763629 -0.023632396017095523 0 0.00023346043144015149 -0.024842987038142642 0 -0.00091761544384794959 -0.024035284721094466 0 0.0015452963087690954 -0.023547552346549348 0 0.00023761059797763629 -0.023632396017095523 0 0.00023346043144015149 -0.024842987038142642 0 0.00023346043144015149 -0.024842987038142642 0 -0.00033822875721986921 -0.025753240200787075 0 -0.0013116795685704607 -0.025588312778485185 0 0.00023346043144015149 -0.024842987038142642 0 -0.00033822875721986921 -0.025753240200787075 0 0.0008184946675615281 -0.025603661988307515 0 -0.00033822875721986921 -0.025753240200787075 0 0.00012852834888566798 -0.026576703180975166 0 0.0008184946675615281 -0.025603661988307515 0 -0.00039454003122536244 -0.012236383257744558 0 -9.3072311605162361e-05 -0.01209325638920076 0 -6.9243618504607842e-05 -0.011881074820117842 0 -9.3072311605162361e-05 -0.01209325638920076 0 -6.9243618504607842e-05 -0.011881074820117842 0 5.3585185006252623e-05 -0.011998115762005527 0 -6.9243618504607842e-05 -0.011881074820117842 0 5.3585185006252623e-05 -0.011998115762005527 0 0.00017565173364877013 -0.011989534462418136 0 2.4013958598724869e-05 -0.012092103391133391 0 -9.3072311605162361e-05 -0.01209325638920076 0 5.3585185006252623e-05 -0.011998115762005527 0 2.4013958598724869e-05 -0.012092103391133391 0 5.3585185006252623e-05 -0.011998115762005527 0 0.00015119464699791141 -0.012025207898403173 0 5.3585185006252623e-05 -0.011998115762005527 0 0.00015119464699791141 -0.012025207898403173 0 0.00017565173364877013 -0.011989534462418136 0 0.0017636120592433842 -0.024821950573208709 0 0.00023346043144015149 -0.024842987038142642 0 0.0008184946675615281 -0.025603661988307515 0 0.0017636120592433842 -0.024821950573208709 0 0.0008184946675615281 -0.025603661988307515 0 0.0023781954251604147 -0.026013019117155901 0 0.00012852834888566798 -0.026576703180975166 0 0.0008184946675615281 -0.025603661988307515 0 0.0023781954251604147 -0.026013019117155901 0 0.00010658829345362321 -0.019180624958875854 0 0.00089801812680780416 -0.019469784700309165 0 0.00017565173364877013 -0.011989534462418136 0 0.00020066408631427786 -0.012041970063668942 0 0.00030228001863530157 -0.012005541953823445 0 0.0031097924618250345 -0.024895379063803104 0 0.0023781954251604147 -0.026013019117155901 0 0.0048658828997207781 -0.025515862946985702 0 0.00089801812680780416 -0.019469784700309165 0 0.0039427962810405165 -0.015290199560338195 0 0.0031097924618250345 -0.024895379063803104 0 0.0017636120592433842 -0.024821950573208709 0 0.0023781954251604147 -0.026013019117155901 0 0.00015119464699791141 -0.012025207898403173 0 0.00017565173364877013 -0.011989534462418136 0 0.00020066408631427786 -0.012041970063668942 0 0.0028057850090415309 -0.0082973999196107994 0 0.0025383822331883029 -0.0098099338925332468 0 0.0010282081805371387 -0.0095689293366617387 0 0.00048844448645963461 -0.0096412446696406973 0 0.0039427962810405165 -0.015290199560338195 0 0.0028057850090415309 -0.0082973999196107994 0 0.0010282081805371387 -0.0095689293366617387 0 0.0024490247136652612 -0.0067059130447176245 0 -0.0039859065114178551 -0.02513949619927295 0 -0.0029103506292701303 -0.024834259375375107 0 -0.0031682810023353106 -0.026049122504634245 0 -0.0037887546888017176 -0.023591295511450207 0 -0.0041998840705373399 -0.024421277163937462 0 -0.0039859065114178551 -0.02513949619927295 0 -0.0041998840705373399 -0.024421277163937462 0 -0.0039859065114178551 -0.02513949619927295 0 -0.004215804886820689 -0.024965607285922661 0 -0.0037887546888017176 -0.023591295511450207 0 -0.0039859065114178551 -0.02513949619927295 0 -0.0029103506292701303 -0.024834259375375107 0 -0.0037887546888017176 -0.023591295511450207 0 -0.0020178608456134896 -0.023216754210484549 0 -0.0029103506292701303 -0.024834259375375107 0 -0.00047045296157953269 -0.022683783197960952 0 -0.0020178608456134896 -0.023216754210484549 0 -0.00091761544384794959 -0.024035284721094466 0 -0.0020178608456134896 -0.023216754210484549 0 -0.00091761544384794959 -0.024035284721094466 0 -0.0018238325043188918 -0.02479663578329697 0 0.00023346043144015149 -0.024842987038142642 0 -0.00091761544384794959 -0.024035284721094466 0 -0.0013116795685704607 -0.025588312778485185 0 -0.00091761544384794959 -0.024035284721094466 0 -0.0018238325043188918 -0.02479663578329697 0 -0.0013116795685704607 -0.025588312778485185 0 -0.0020178608456134896 -0.023216754210484549 0 -0.0018238325043188918 -0.02479663578329697 0 -0.0029103506292701303 -0.024834259375375107 0 -0.0018238325043188918 -0.02479663578329697 0 -0.0029103506292701303 -0.024834259375375107 0 -0.0022416796881566769 -0.02587441319676962 0 -0.0029103506292701303 -0.024834259375375107 0 -0.0022416796881566769 -0.02587441319676962 0 -0.0031682810023353106 -0.026049122504634245 0 -0.00033822875721986921 -0.025753240200787075 0 -0.0013116795685704607 -0.025588312778485185 0 -0.0018989759508210356 -0.026945214741083526 0 -0.0018238325043188918 -0.02479663578329697 0 -0.0022416796881566769 -0.02587441319676962 0 -0.0013116795685704607 -0.025588312778485185 0 -0.0022416796881566769 -0.02587441319676962 0 -0.0013116795685704607 -0.025588312778485185 0 -0.0018989759508210356 -0.026945214741083526 0 0.00010658829345362321 -0.019180624958875854 0 -0.001609910295698192 -0.019335346105306662 0 -0.00033822875721986921 -0.025753240200787075 0 0.00012852834888566798 -0.026576703180975166 0 -0.0018989759508210356 -0.026945214741083526 0 -0.00039454003122536244 -0.012236383257744558 0 -6.9243618504607842e-05 -0.011881074820117842 0 -0.0012890461165764974 -0.012077225721510992 0 -0.003032449537314923 -0.021601554053269877 0 -0.001609910295698192 -0.019335346105306662 0 -0.0036413183562661517 -0.027309153870446204 0 -0.0018989759508210356 -0.026945214741083526 0 -0.0031682810023353106 -0.026049122504634245 0 -0.0022416796881566769 -0.02587441319676962 0 -0.0018989759508210356 -0.026945214741083526 0 -0.0031682810023353106 -0.026049122504634245 0 -0.0034504730092669938 -0.026398173798085445 0 -0.0031682810023353106 -0.026049122504634245 0 -0.0039641391578969058 -0.026028317285276974 0 -0.003032449537314923 -0.021601554053269877 0 -0.0037616108345149375 -0.027902341921231939 0 -0.0039859065114178551 -0.02513949619927295 0 -0.0039641391578969058 -0.026028317285276974 0 -0.0042731343887561597 -0.025746462458093238 0 -0.0039859065114178551 -0.02513949619927295 0 -0.0031682810023353106 -0.026049122504634245 0 -0.0039641391578969058 -0.026028317285276974 0 -0.0034504730092669938 -0.026398173798085445 0 -0.0041021260125235154 -0.02643262429128479 0 -0.0039641391578969058 -0.026028317285276974 0 -0.0041021260125235154 -0.02643262429128479 0 -0.0039641391578969058 -0.026028317285276974 0 -0.0044484544624781679 -0.026085971048860113 0 -0.0039641391578969058 -0.026028317285276974 0 -0.0044484544624781679 -0.026085971048860113 0 -0.0042731343887561597 -0.025746462458093238 0 -0.0044484544624781679 -0.026085971048860113 0 -0.00446844756664567 -0.025781026454177871 0 -0.0042731343887561597 -0.025746462458093238 0 -0.0039859065114178551 -0.02513949619927295 0 -0.0042731343887561597 -0.025746462458093238 0 -0.0043108194339977852 -0.025347617813416434 0 -0.0039859065114178551 -0.02513949619927295 0 -0.0043108194339977852 -0.025347617813416434 0 -0.004215804886820689 -0.024965607285922661 0 -0.00446844756664567 -0.025781026454177871 0 -0.0042731343887561597 -0.025746462458093238 0 -0.0043108194339977852 -0.025347617813416434 0 -0.00446844756664567 -0.025781026454177871 0 -0.0043108194339977852 -0.025347617813416434 0 -0.004543725007314185 -0.025729549211717152 0 -0.0043108194339977852 -0.025347617813416434 0 -0.0042710805913290248 -0.024960434075366744 0 -0.0042767233757553648 -0.025203478188937305 0 -0.0043108194339977852 -0.025347617813416434 0 -0.004543725007314185 -0.025729549211717152 0 -0.0042767233757553648 -0.025203478188937305 0 -0.0043108194339977852 -0.025347617813416434 0 -0.004215804886820689 -0.024965607285922661 0 -0.0042710805913290248 -0.024960434075366744 0 -0.0041998840705373399 -0.024421277163937462 0 -0.004215804886820689 -0.024965607285922661 0 -0.0042710805913290248 -0.024960434075366744 0 -0.004543725007314185 -0.025729549211717152 0 -0.004916303770530199 -0.025846393470882145 0 -0.0045771891453377286 -0.025319214271516958 0 -0.0049820811588210129 -0.026634299909244361 0 -0.0047007215405862604 -0.026407545599829451 0 -0.004543725007314185 -0.025729549211717152 0 -0.0042767233757553648 -0.025203478188937305 0 -0.0045771891453377286 -0.025319214271516958 0 -0.004543725007314185 -0.025729549211717152 0 -0.0048604966952210185 -0.026218443506701383 0 -0.004916303770530199 -0.025846393470882145 0 -0.004543725007314185 -0.025729549211717152 0 -0.0047305454797793578 -0.026135914741502383 0 -0.0048604966952210185 -0.026218443506701383 0 -0.0044484544624781679 -0.026085971048860113 0 -0.00446844756664567 -0.025781026454177871 0 -0.0047305454797793578 -0.026135914741502383 0 -0.00446844756664567 -0.025781026454177871 0 -0.004543725007314185 -0.025729549211717152 0 -0.0047305454797793578 -0.026135914741502383 0 -0.0046780500588932449 -0.026291185395737111 0 -0.0044484544624781679 -0.026085971048860113 0 -0.0047305454797793578 -0.026135914741502383 0 -0.0048171136032952493 -0.026301148357183654 0 -0.0046780500588932449 -0.026291185395737111 0 -0.0047305454797793578 -0.026135914741502383 0 -0.0048171136032952493 -0.026301148357183654 0 -0.0047305454797793578 -0.026135914741502383 0 -0.0049104238113614387 -0.026351040321870051 0 -0.0047017877303770841 -0.026217086488203634 0 -0.0049104238113614387 -0.026351040321870051 0 -0.0046801688933655267 -0.026527828189814247 0 -0.0049104238113614387 -0.026351040321870051 0 -0.0046801688933655267 -0.026527828189814247 0 -0.0049596611535394491 -0.026734956887039814 0 -0.0049104238113614387 -0.026351040321870051 0 -0.0048604966952210185 -0.026218443506701383 0 -0.0049596611535394491 -0.026734956887039814 0 -0.0047305454797793578 -0.026135914741502383 0 -0.0049104238113614387 -0.026351040321870051 0 -0.0048604966952210185 -0.026218443506701383 0 -0.0041918353603577442 -0.026311694459356411 0 -0.0041321803257315173 -0.026738584602089863 0 -0.0044871676330834583 -0.026331934556036492 0 -0.0041321803257315173 -0.026738584602089863 0 -0.0044871676330834583 -0.026331934556036492 0 -0.0046801688933655267 -0.026527828189814247 0 -0.0047017877303770841 -0.026217086488203634 0 -0.0044871676330834583 -0.026331934556036492 0 -0.0046801688933655267 -0.026527828189814247 0 -0.0046801688933655267 -0.026527828189814247 0 -0.0045727085703092659 -0.027027563636898653 0 -0.0049596611535394491 -0.026734956887039814 0 -0.0041321803257315173 -0.026738584602089863 0 -0.0046801688933655267 -0.026527828189814247 0 -0.0045727085703092659 -0.027027563636898653 0 -0.0041321803257315173 -0.026738584602089863 0 -0.0041632609254167721 -0.027671975124343086 0 -0.0045727085703092659 -0.027027563636898653 0 -0.004152736071897878 -0.02705622228202539 0 -0.0041660568651098037 -0.027610294674908088 0 -0.0041632609254167721 -0.027671975124343086 0 -0.0045727085703092659 -0.027027563636898653 0 -0.0047906256019053257 -0.027615926993541953 0 -0.0045727085703092659 -0.027027563636898653 0 -0.0047906256019053257 -0.027615926993541953 0 -0.0049596611535394491 -0.026734956887039814 0 -0.0041632609254167721 -0.027671975124343086 0 -0.0047906256019053257 -0.027615926993541953 0 -0.0043418633761432299 -0.028263273457794568 0 -0.0048604966952210185 -0.026218443506701383 0 -0.0049596611535394491 -0.026734956887039814 0 -0.004916303770530199 -0.025846393470882145 0 -0.0049351695947247934 -0.02668228976570507 0 -0.0049820811588210129 -0.026634299909244361 0 -0.0047906256019053257 -0.027615926993541953 0 -0.0049596611535394491 -0.026734956887039814 0 -0.0051390711348017351 -0.027469500193480191 0 -0.004782432351378472 -0.027617618645944052 0 -0.0049899362326688455 -0.027876392125459729 0 -0.0047906256019053257 -0.027615926993541953 0 -0.0051390711348017351 -0.027469500193480191 0 -0.0050502952019340795 -0.027523660500084018 0 -0.0050502952019340795 -0.027523660500084018 0 -0.0048450342640460721 -0.027482553722574903 0 -0.0048599317300271911 -0.027294910338759273 0 -0.0051390711348017351 -0.027469500193480191 0 -0.0050502952019340795 -0.027523660500084018 0 -0.0048450342640460721 -0.027482553722574903 0 -0.0049833317102844074 -0.028282387519586536 0 -0.0048346015038033315 -0.028494853335744117 0 -0.004711139375772621 -0.028290054202529724 0 -0.0047906256019053257 -0.027615926993541953 0 -0.0049833317102844074 -0.028282387519586536 0 -0.004711139375772621 -0.028290054202529724 0 -0.0049899362326688455 -0.027876392125459729 0 -0.00490332704360027 -0.027822011446623322 0 -0.0049833317102844074 -0.028282387519586536 0 -0.0048346015038033315 -0.028494853335744117 0 -0.0049203110613754569 -0.028360242709926015 0 -0.0043418633761432299 -0.028263273457794568 0 -0.004711139375772621 -0.028290054202529724 0 -0.0044209333486149053 -0.028748623589792643 0 -0.0047906256019053257 -0.027615926993541953 0 -0.0043418633761432299 -0.028263273457794568 0 -0.004711139375772621 -0.028290054202529724 0 -0.0048346015038033315 -0.028494853335744117 0 -0.004711139375772621 -0.028290054202529724 0 -0.0044209333486149053 -0.028748623589792643 0 -0.0040588651415165034 -0.028657303373696784 0 -0.0043418633761432299 -0.028263273457794568 0 -0.0044209333486149053 -0.028748623589792643 0 -0.0044209333486149053 -0.028748623589792643 0 -0.0046448002201209641 -0.02886962292557612 0 -0.0043193516576169513 -0.029330519239883366 0 -0.0048346015038033315 -0.028494853335744117 0 -0.0044209333486149053 -0.028748623589792643 0 -0.0046448002201209641 -0.02886962292557612 0 -0.0046576672861185229 -0.029049498237310852 0 -0.0046448002201209641 -0.02886962292557612 0 -0.0044499525238543133 -0.029250392025323237 0 -0.0046448002201209641 -0.02886962292557612 0 -0.0043193516576169513 -0.029330519239883366 0 -0.0044499525238543133 -0.029250392025323237 0 -0.0048908888117372255 -0.028236948365769985 0 -0.0048623246779640871 -0.028505601264944429 0 -0.0049203110613754569 -0.028360242709926015 0 -0.0048908888117372255 -0.028236948365769985 0 -0.0048090503688267032 -0.027926822159713368 0 -0.0049203110613754569 -0.028360242709926015 0 -0.0048346015038033315 -0.028494853335744117 0 -0.0048623246779640871 -0.028505601264944429 0 -0.0049203110613754569 -0.028360242709926015 0 -0.0048346015038033315 -0.028494853335744117 0 -0.0046448002201209641 -0.02886962292557612 0 -0.0048623246779640871 -0.028505601264944429 0 -0.0049062923835435672 -0.028652780457624722 0 -0.0046448002201209641 -0.02886962292557612 0 -0.0048623246779640871 -0.028505601264944429 0 -0.0049062923835435672 -0.028652780457624722 0 -0.0046576672861185229 -0.029049498237310852 0 -0.0046448002201209641 -0.02886962292557612 0 -0.0049062923835435672 -0.028652780457624722 0 -0.0048908888117372255 -0.028236948365769985 0 -0.0048623246779640871 -0.028505601264944429 0 -0.0049062923835435672 -0.028652780457624722 0 -0.0048908888117372255 -0.028236948365769985 0 -0.0047879809168501434 -0.027842018728458501 0 -0.0048491196979301484 -0.028577360936619854 0 -0.0051423849107788749 -0.028021599733628576 0 -0.0047879809168501434 -0.027842018728458501 0 -0.0048090503688267032 -0.027926822159713368 0 -0.0046417925694245627 -0.027453686717038728 0 -0.0048908888117372255 -0.028236948365769985 0 -0.0047879809168501434 -0.027842018728458501 0 -0.0048090503688267032 -0.027926822159713368 0 -0.0046773289710343108 -0.027516388988826367 0 -0.00490332704360027 -0.027822011446623322 0 -0.0048090503688267032 -0.027926822159713368 0 -0.0046417925694245627 -0.027453686717038728 0 -0.0049203110613754569 -0.028360242709926015 0 -0.0045899052306231994 -0.027059449348111986 0 -0.0046417925694245627 -0.027453686717038728 0 -0.0048599317300271911 -0.027294910338759273 0 -0.0045899052306231994 -0.027059449348111986 0 -0.0046417925694245627 -0.027453686717038728 0 -0.0044712619617691841 -0.026967386273332911 0 -0.0047879809168501434 -0.027842018728458501 0 -0.0046417925694245627 -0.027453686717038728 0 -0.0044712619617691841 -0.026967386273332911 0 -0.0058245482311472573 -0.028518790938334274 0 -0.0054571789474176617 -0.028296941519183709 0 -0.0061118990531937008 -0.027958943016041161 0 -0.0051423849107788749 -0.028021599733628576 0 -0.0050648300258203166 -0.027977755101766623 0 -0.0063456066356730517 -0.028434921234491067 0 -0.0061118990531937008 -0.027958943016041161 0 -0.0069070770604788036 -0.027656661694783327 0 -0.0063456066356730517 -0.028434921234491067 0 -0.0058245482311472573 -0.028518790938334274 0 -0.0061118990531937008 -0.027958943016041161 0 -0.0063883704285354224 -0.022413653446456478 0 -0.006110371404303384 -0.022807544388083436 0 -0.0064878125542892403 -0.016269489075496944 0 -0.0055574918963792646 -0.016824871376105659 0 -0.0057022592419073191 -0.017890596535199338 0 -0.0050200642774044825 -0.017469955176759078 0 -0.0055574918963792646 -0.016824871376105659 0 -0.0057022592419073191 -0.017890596535199338 0 -0.0043398381159149395 -0.026331331824827432 0 -0.0045053101513854114 -0.02624145469767087 0 -0.004425639431382836 -0.025511871376830558 0 -0.0050648300258203166 -0.027977755101766623 0 -0.006110371404303384 -0.022807544388083436 0 -0.0044712619617691841 -0.026967386273332911 0 -0.0043398381159149395 -0.026331331824827432 0 -0.0045053101513854114 -0.02624145469767087 0 -0.0045899052306231994 -0.027059449348111986 0 -0.0044712619617691841 -0.026967386273332911 0 -0.0043398381159149395 -0.026331331824827432 0 -0.0045899052306231994 -0.027059449348111986 0 -0.0043398381159149395 -0.026331331824827432 0 -0.0045955826811096079 -0.027304922761490359 0 -0.0043907371381731669 -0.02636795666572769 0 -0.004392969500865253 -0.026300467355230121 0 -0.0043398381159149395 -0.026331331824827432 0 -0.0042560037106463069 -0.025256235725718543 0 -0.0041047708681632763 -0.025245999028228817 0 -0.0043398381159149395 -0.026331331824827432 0 -0.0042560037106463069 -0.025256235725718543 0 -0.004425639431382836 -0.025511871376830558 0 -0.0042560037106463069 -0.025256235725718543 0 -0.004425639431382836 -0.025511871376830558 0 -0.0043221205437808975 -0.024960753804818388 0 -0.0041998840705373399 -0.024421277163937462 0 -0.0043221205437808975 -0.024960753804818388 0 -0.0042710805913290248 -0.024960434075366744 0 -0.0042560037106463069 -0.025256235725718543 0 -0.0043221205437808975 -0.024960753804818388 0 -0.0042710805913290248 -0.024960434075366744 0 -0.0042560037106463069 -0.025256235725718543 0 -0.0042710805913290248 -0.024960434075366744 0 -0.0042767233757553648 -0.025203478188937305 0 -0.0042560037106463069 -0.025256235725718543 0 -0.0042767233757553648 -0.025203478188937305 0 -0.0041047708681632763 -0.025245999028228817 0 -0.0047007215405862604 -0.026407545599829451 0 -0.004392969500865253 -0.026300467355230121 0 -0.0042767233757553648 -0.025203478188937305 0 -0.0045771891453377286 -0.025319214271516958 0 -0.0041047708681632763 -0.025245999028228817 0 -0.0048450342640460721 -0.027482553722574903 0 -0.0048599317300271911 -0.027294910338759273 0 -0.0045955826811096079 -0.027304922761490359 0 -0.0045899052306231994 -0.027059449348111986 0 -0.0048599317300271911 -0.027294910338759273 0 -0.0045955826811096079 -0.027304922761490359 0 
</DataArray>
</PointData>
<CellData Scalars="region_id,cross_section_updated," Vectors="" Tensors="stress,">
<DataArray type="Float64" Name="region_id" format="ascii">
5 5 5 5 6 5 5 5 6 5 6 5 6 5 5 5 6 6 5 5 5 5 5 5 5 5 5 5 5 5 5 5 6 5 5 5 5 5 5 5 6 5 5 5 5 5 5 5 5 6 5 5 6 5 5 5 5 5 5 5 5 5 5 5 5 5 5 6 5 5 5 5 5 6 5 5 5 6 5 5 5 6 6 5 5 6 6 6 6 5 6 5 6 5 5 5 6 5 5 5 6 6 5 5 5 6 5 5 5 5 6 5 5 5 6 5 5 5 5 5 5 5 5 5 5 5 5 5 5 5 6 5 5 5 5 5 5 5 6 5 5 5 5 5 5 5 5 5 5 5 5 5 5 5 5 6 5 6 5 5 5 5 5 5 5 5 5 5 6 6 5 5 5 5 5 5 5 5 5 5 5 5 6 5 5 6 5 6 5 5 5 6 5 6 5 5 5 5 6 5 5 5 5 5 5 5 5 6 5 5 5 5 5 5 5 5 5 5 5 5 5 5 6 5 5 5 5 5 5 5 5 5 6 5 5 5 5 5 5 5 5 5 5 5 5 6 5 5 5 5 5 6 5 5 5 5 5 5 5 5 5 5 5 5 6 5 6 5 5 5 6 5 5 5 6 5 5 5 5 5 5 5 5 5 5 5 5 5 5 5 6 5 6 5 5 5 6 5 5 6 5 5 5 5 6 5 5 6 5 6 5 5 5 5 5 5 5 5 5 5 5 5 5 5 5 6 5 5 5 5 6 5 5 5 5 5 5 5 5 6 5 5 5 5 5 5 5 5 6 5 5 6 5 5 5 6 5 5 6 5 5 6 5 5 5 5 5 5 5 5 5 6 5 5 5 5 5 5 5 5 5 5 5 5 5 5 5 5 5 5 6 5 5 5 5 5 5 5 5 5 6 5 5 5 5 5 5 5 5 5 5 5 5 5 5 5 5 5 5 5 5 5 5 5 5 6 5 5 6 5 5 5 5 5 5 5 5 5 5 5 5 6 5 5 5 6 5 5 5 5 5 6 5 5 5 5 5 5 5 5 5 5 5 5 5 5 5 5 5 5 5 5 5 5 5 5 5 5 5 5 5 5 5 5 6 5 6 5 5 5 5 5 5 5 5 5 5 5 5 5 5 5 5 5 5 5 5 5 5 6 5 5 6 5 5 5 5 5 5 6 5 5 5 5 6 5 5 5 5 5 5 5 5 5 5 5 5 5 5 5 5 5 5 5 5 5 6 5 5 5 5 5 6 5 5 5 5 5 5 6 5 6 5 5 5 5 5 5 5 5 5 5 5 5 5 5 5 5 5 5 5 5 5 5 5 5 5 5 5 5 5 5 5 5 5 5 5 5 5 5 5 5 5 5 5 5 5 5 5 5 5 5 5 5 5 5 5 5 5 5 5 5 5 5 5 5 5 5 5 5 5 5 5 5 5 5 5 5 6 6 5 5 5 5 5 5 5 5 5 5 5 5 5 5 5 5 5 5 6 5 6 5 5 5 5 5 5 5 6 5 5 5 5 5 5 5 5 6 5 5 5 5 5 5 6 5 5 5 5 5 5 5 5 6 5 5 6 5 5 5 5 6 5 5 5 5 5 6 5 5 5 5 5 5 5 5 5 5 6 5 5 5 5 6 5 5 5 5 5 5 5 5 5 5 5 5 5 5 5 5 5 5 5 5 5 5 5 5 5 5 5 5 5 5 5 5 5 5 5 5 5 6 5 5 5 5 5 5 5 5 5 5 5 5 5 5 5 5 5 5 5 5 5 5 5 5 5 5 5 5 6 5 5 5 5 5 5 5 5 5 5 5 5 5 5 5 5 5 5 5 5 6 5 5 5 5 6 5 5 5 5 5 6 5 5 5 5 5 6 5 5 5 5 5 5 5 5 5 5 5 5 5 5 5 5 5 6 5 5 5 5 5 6 5 5 5 6 5 5 5 5 5 5 5 5 5 5 5 5 5 5 5 5 5 5 5 5 5 5 5 5 5 5 5 6 5 5 5 5 5 5 5 5 5 5 5 5 5 5 5 5 5 5 5 5 5 5 5 5 5 5 5 5 6 6 5 5 6 5 5 5 5 5 6 5 6 5 5 6 6 5 5 5 5 5 5 6 5 5 5 5 5 5 5 5 5 5 5 5 5 5 5 5 5 5 5 5 5 5 5 5 5 5 5 5 5 5 5 5 5 5 5 5 6 5 5 5 5 5 5 5 5 5 5 5 5 5 5 5 5 5 5 5 6 5 5 5 5 5 5 5 5 5 5 5 5 5 5 5 5 5 6 5 5 6 5 5 5 6 6 5 5 6 5 5 6 5 5 5 5 5 5 5 6 5 6 5 5 6 5 5 5 5 5 5 5 6 5 5 5 5 5 5 5 5 5 5 5 5 5 5 5 5 5 5 5 6 5 5 5 5 5 6 5 5 5 5 5 5 5 5 5 5 5 6 5 5 5 5 6 5 5 5 6 5 5 5 5 5 5 5 6 5 5 5 6 5 5 5 5 6 5 5 5 5 5 5 5 5 6 6 6 6 6 6 5 5 5 5 5 6 5 5 5 5 5 5 6 5 5 5 5 5 5 5 5 6 5 5 5 6 5 6 6 5 5 5 5 5 5 5 5 5 6 5 6 5 5 5 5 6 5 5 6 5 5 5 5 5 5 5 5 5 5 5 5 5 5 5 5 5 5 5 6 5 5 6 5 5 5 5 5 6 5 5 6 5 5 5 6 5 5 5 5 5 6 5 6 5 5 5 5 5 5 5 6 5 5 5 6 5 5 6 5 5 6 5 5 6 5 6 5 5 5 5 5 6 5 6 5 5 5 5 5 6 6 6 5 5 5 5 5 6 5 5 5 5 5 5 5 5 6 5 6 5 5 5 5 5 5 5 5 5 5 5 6 5 5 5 5 5 5 5 6 5 6 5 5 5 5 5 5 5 5 5 5 5 5 5 5 5 5 6 5 5 5 6 5 5 5 5 5 5 5 5 5 5 5 5 5 5 5 5 5 5 5 6 5 5 5 5 5 5 5 5 5 5 5 5 6 5 5 5 5 5 5 5 5 5 5 5 5 5 5 6 5 5 5 6 5 5 5 6 5 5 6 5 5 5 6 5 5 5 5 5 5 5 5 5 5 6 5 5 5 5 5 5 5 6 5 5 5 5 5 5 5 5 5 6 5 5 5 5 5 5 5 6 5 5 5 5 5 5 5 5 5 5 5 5 5 5 5 5 5 5 5 5 5 5 5 5 5 5 6 5 5 5 5 5 5 6 5 5 5 5 5 5 5 5 5 5 6 5 6 5 5 5 5 5 6 5 5 5 5 6 5 5 5 5 5 6 5 5 5 5 5 5 6 5 5 5 5 5 5 5 5 5 5 5 5 5 6 5 5 5 5 5 6 5 5 5 6 6 5 5 5 5 5 5 6 5 6 5 6 6 5 5 5 6 5 5 6 5 5 6 5 5 5 6 5 5 5 6 5 5 5 6 5 5 5 5 5 5 5 5 5 5 5 5 5 5 5 5 5 5 5 5 5 5 6 5 5 5 5 5 6 5 5 5 5 6 5 5 5 5 5 5 5 5 5 5 6 5 5 5 5 6 5 5 5 6 5 5 5 6 6 5 5 5 5 5 5 5 6 5 5 5 5 5 5 6 5 5 5 6 5 5 5 6 5 5 5 5 6 5 5 5 5 5 5 5 5 5 5 5 5 5 5 6 5 5 5 5 6 5 5 5 5 5 5 5 5 5 5 5 5 5 5 5 5 6 5 5 6 5 5 5 5 6 5 5 5 5 5 5 5 5 5 6 5 5 5 5 5 5 5 5 5 5 5 6 5 5 5 5 5 5 6 5 5 5 6 5 6 5 5 6 5 5 5 5 5 5 5 5 5 5 5 5 5 5 5 5 5 5 5 5 5 6 6 5 5 5 5 6 5 5 5 5 5 6 5 5 5 5 5 6 5 5 5 5 5 6 5 5 5 6 5 5 5 5 5 5 6 5 6 5 5 5 5 5 5 6 5 5 5 5 5 6 5 5 5 5 5 5 5 6 5 5 6 5 5 5 5 5 6 5 5 5 6 5 5 5 5 5 5 5 5 5 6 5 5 5 5 5 5 5 5 5 5 5 5 5 5 5 5 5 5 5 5 5 5 5 5 5 5 5 5 5 5 5 5 5 5 5 5 5 5 6 5 5 5 6 5 6 5 5 5 5 6 5 5 6 5 5 6 5 5 5 5 5 5 5 5 6 5 5 5 5 5 5 5 5 5 6 5 5 5 6 5 5 6 5 5 5 5 5 5 6 5 5 5 6 5 5 6 5 6 5 5 5 5 5 6 5 5 5 5 5 6 6 5 5 5 5 5 5 5 5 5 6 5 5 6 5 5 6 5 5 5 5 5 5 5 5 6 5 5 5 5 5 5 5 5 5 5 5 5 5 6 5 5 5 5 6 6 5 5 5 5 6 5 5 6 5 5 5 5 5 5 5 5 5 5 5 5 5 5 5 5 5 5 5 5 6 5 5 5 5 5 5 5 5 5 5 5 5 5 5 5 5 5 6 5 5 5 5 5 5 5 5 5 5 5 5 5 5 5 5 5 5 5 5 5 5 5 5 5 5 5 5 5 5 5 6 5 5 5 6 5 5 5 5 5 5 5 5 5 5 5 5 5 5 5 5 5 5 5 5 5 5 5 5 5 5 5 5 5 5 5 5 5 5 5 5 5 5 5 5 5 6 5 5 5 5 5 5 5 5 5 5 6 5 6 6 5 5 5 5 5 5 5 6 5 5 5 5 5 5 5 5 6 5 5 5 5 5 5 5 5 5 5 5 5 5 5 5 5 5 5 5 5 5 5 5 5 5 5 5 5 5 5 6 5 5 5 5 5 5 5 6 5 6 5 5 5 5 5 6 5 6 5 5 5 5 5 6 5 5 5 5 5 5 5 6 5 5 5 5 5 5 5 5 5 6 5 5 5 5 5 5 5 5 5 5 5 5 6 5 5 5 5 5 5 5 5 5 5 5 5 5 5 5 6 5 5 5 5 5 5 5 5 5 5 5 5 6 5 5 5 5 5 5 5 5 5 5 5 5 5 5 5 6 6 5 6 5 5 6 5 6 6 5 5 5 5 5 5 5 5 5 5 5 5 5 5 5 5 5 5 5 6 5 5 5 5 6 5 5 5 5 5 6 5 6 5 5 5 5 5 5 5 5 5 5 5 5 6 5 5 5 5 6 6 5 5 5 6 5 6 5 5 6 6 5 5 5 5 6 5 5 5 5 5 5 6 5 5 5 5 5 5 5 5 5 5 5 6 5 5 5 5 6 5 6 5 5 5 5 5 5 5 5 5 5 5 5 5 5 5 5 5 5 5 6 5 6 5 5 5 6 5 5 5 5 5 5 5 5 5 5 5 5 5 5 5 5 5 6 5 5 5 5 5 5 5 5 5 5 5 5 5 5 5 5 5 5 5 5 5 5 5 6 5 5 5 6 6 5 5 5 6 6 5 5 5 5 6 5 5 5 5 5 5 6 5 5 5 5 5 5 5 5 5 5 5 5 6 5 5 5 5 5 5 5 5 5 6 5 5 5 5 5 5 5 5 5 6 6 5 5 5 5 5 5 5 5 5 5 5 5 5 5 5 6 5 5 5 5 5 5 5 5 5 5 5 5 5 5 5 5 5 5 5 5 5 5 5 5 5 5 5 5 5 5 5 6 5 5 5 5 5 5 5 5 5 5 5 5 5 5 5 5 5 6 5 5 5 5 5 5 5 5 5 5 5 5 5 5 5 5 5 5 5 6 5 5 5 5 5 5 5 5 5 5 5 5 5 5 5 5 5 5 5 6 5 5 5 5 5 5 5 5 5 5 5 5 5 5 5 5 5 5 5 5 5 5 5 5 5 5 5 5 5 5 5 5 5 5 5 5 5 6 5 5 6 5 6 5 6 5 5 5 5 6 5 5 5 5 5 5 6 5 5 5 6 5 5 5 6 5 6 5 6 5 5 6 5 5 5 5 6 5 5 6 5 5 5 6 5 5 5 5 5 5 5 5 5 5 5 5 5 5 5 6 5 5 5 6 5 5 5 6 5 5 6 5 5 6 6 5 5 6 5 5 5 5 5 6 5 5 5 5 5 5 6 5 5 5 6 5 6 5 5 5 5 5 6 5 6 5 5 5 5 6 5 5 6 5 5 5 5 5 5 5 5 5 5 5 5 5 5 5 5 5 5 6 5 5 5 5 6 5 5 5 5 5 5 5 5 5 5 5 5 5 5 5 5 6 5 6 5 5 5 5 5 5 5 5 5 6 5 5 5 5 5 5 5 6 5 5 5 5 5 5 5 5 5 5 5 5 5 5 5 5 5 5 5 5 5 5 5 5 5 5 5 5 6 6 5 5 5 5 5 6 5 5 5 5 5 5 5 5 5 5 5 5 6 5 5 5 5 5 6 5 5 5 5 5 5 5 5 5 5 5 6 5 5 5 5 6 5 5 5 6 5 5 5 5 6 5 5 5 5 5 5 5 5 5 5 6 5 5 5 5 5 6 5 5 5 5 5 5 5 6 5 6 5 5 5 5 5 5 5 5 5 5 5 5 5 6 5 5 5 5 5 5 6 5 5 5 5 5 5 5 5 5 5 5 5 5 5 5 5 5 5 5 5 5 5 5 5 5 5 5 5 5 5 5 5 5 5 5 5 5 5 5 5 5 5 5 5 5 5 5 5 5 5 5 5 6 5 5 5 5 5 5 6 5 5 5 5 5 6 5 5 5 5 5 5 5 5 5 5 6 6 5 5 5 5 5 5 5 5 5 6 5 5 5 5 6 5 5 5 5 5 5 5 5 5 5 5 5 6 5 5 5 5 6 5 5 6 6 5 5 5 5 5 5 5 5 5 6 6 5 5 6 6 5 5 5 5 5 5 5 5 5 6 5 5 5 5 6 5 5 6 5 5 5 5 5 6 5 5 5 5 6 5 5 5 6 6 5 5 6 5 6 5 5 5 5 5 6 5 5 5 5 6 6 5 5 5 5 5 5 5 6 5 5 5 5 5 5 6 6 5 5 5 6 5 5 6 5 5 5 5 6 5 6 5 5 5 6 5 5 5 5 6 6 6 5 5 6 5 5 5 5 6 5 5 5 6 5 5 5 5 5 5 5 5 5 5 5 5 5 5 5 5 5 5 5 5 5 5 6 5 5 5 5 5 5 5 6 5 5 5 5 5 5 6 5 5 5 6 6 5 5 6 5 5 6 5 5 5 6 5 5 5 6 5 6 5 5 6 5 6 5 5 5 6 5 5 5 5 5 5 5 5 6 5 5 6 5 5 6 5 5 6 5 5 6 5 5 5 5 6 5 5 5 5 5 5 5 5 5 5 5 5 5 5 5 5 5 5 5 5 5 5 6 5 5 5 6 5 5 5 6 5 5 6 5 5 5 5 6 5 5 5 5 5 5 5 5 6 5 5 5 6 5 5 5 5 5 5 5 6 5 5 5 5 6 5 5 5 5 5 5 5 5 5 5 5 6 5 5 5 5 5 5 5 5 5 5 5 5 5 5 5 5 5 6 5 5 5 5 5 5 5 5 5 5 5 5 5 5 5 5 5 5 5 5 5 5 5 5 5 5 5 5 5 5 5 5 5 5 5 5 5 5 5 5 5 5 5 5 5 5 5 5 5 5 5 5 5 5 5 5 5 5 5 6 5 5 5 5 5 5 5 5 5 5 5 5 5 5 5 5 5 5 5 5 5 5 5 5 5 5 5 5 5 5 5 5 5 5 5 6 5 6 5 5 5 5 5 6 5 5 5 6 5 5 5 5 5 5 5 5 5 5 5 5 5 5 5 5 5 5 5 5 6 5 5 5 5 5 5 5 5 5 5 5 5 5 5 5 5 5 5 5 5 5 5 5 6 6 5 5 6 5 5 5 5 5 5 5 5 5 5 5 5 5 5 5 5 5 5 5 5 5 5 5 5 5 5 5 5 5 5 5 5 5 5 5 5 5 5 5 6 5 5 5 6 5 5 6 5 5 6 5 6 6 5 5 5 6 5 5 5 5 5 6 5 5 6 5 5 5 5 5 5 6 5 5 5 5 5 5 5 5 5 6 5 5 5 5 5 5 5 6 5 6 5 5 6 5 6 5 5 5 6 5 5 6 5 5 5 5 6 5 5 5 5 5 5 5 5 6 5 5 5 5 5 6 5 6 5 6 5 6 5 5 6 6 5 5 5 6 5 5 5 5 5 5 5 6 5 5 5 5 5 5 6 5 5 5 5 5 5 5 5 5 5 5 5 5 5 6 5 5 5 5 5 5 6 5 5 6 5 5 5 6 5 5 5 5 6 5 5 5 5 5 5 6 5 5 5 6 5 5 5 5 5 5 5 5 5 5 5 5 5 6 6 5 5 5 6 5 6 5 5 5 5 5 5 5 5 5 5 5 5 6 5 5 5 5 6 5 5 6 5 5 5 5 5 6 5 5 5 5 5 5 5 5 5 5 5 5 5 5 5 5 5 5 5 6 5 5 5 6 5 5 6 6 5 5 5 5 5 6 5 5 5 5 5 6 5 5 5 5 6 5 5 5 5 5 5 6 5 5 6 5 5 5 5 6 5 5 6 5 5 6 5 5 5 6 6 5 5 5 6 5 5 5 5 5 5 5 5 5 5 5 5 5 5 5 5 5 5 5 5 5 6 5 5 5 5 5 5 6 5 5 5 5 5 6 5 5 5 5 5 5 5 5 6 5 5 5 5 5 5 5 5 5 5 5 5 6 5 5 5 6 5 5 5 5 5 5 5 6 5 5 5 5 6 5 6 5 5 5 5 5 5 6 5 6 5 5 5 5 5 5 5 5 5 5 5 6 5 5 6 5 5 6 5 6 6 5 5 5 5 5 5 6 5 6 5 5 5 6 5 5 5 5 5 5 5 5 5 5 5 5 5 5 5 5 5 5 5 5 6 5 6 5 5 5 5 5 6 5 5 5 5 5 5 5 5 5 5 5 5 5 5 5 5 5 5 5 5 5 5 5 5 5 5 5 5 5 5 6 5 5 5 5 5 5 5 5 5 5 5 5 5 5 5 5 5 5 6 5 5 5 5 6 5 5 5 5 5 5 5 5 5 5 5 5 5 5 5 5 5 5 5 5 5 5 5 5 5 5 5 5 5 5 5 5 5 5 5 5 5 5 5 5 5 5 5 5 5 5 5 5 5 5 5 5 5 5 5 5 5 5 5 5 5 5 5 5 5 5 5 5 5 5 5 5 5 5 5 5 5 5 5 6 5 5 5 5 5 6 5 5 5 5 5 5 5 5 5 5 5 5 5 5 5 5 5 5 5 6 5 5 5 5 5 5 5 6 5 5 6 5 5 6 5 5 5 6 5 5 6 5 6 5 5 5 5 5 5 5 5 5 5 5 5 5 5 5 5 6 5 5 5 5 5 5 5 5 5 5 6 5 5 5 5 5 6 5 5 5 5 5 5 5 5 5 5 5 6 5 5 5 5 6 5 5 5 6 5 5 5 6 5 6 5 5 5 5 5 5 5 5 5 6 6 5 5 5 5 5 5 5 5 5 5 5 5 5 5 5 5 5 5 5 5 5 5 5 5 5 5 5 5 5 5 5 5 5 5 5 5 5 5 5 5 5 5 5 5 5 5 6 5 5 5 6 5 5 5 6 5 5 5 5 6 5 6 5 5 6 5 5 5 6 6 6 6 5 5 5 5 5 5 5 5 5 5 5 5 5 6 5 5 5 5 5 5 6 5 5 5 5 5 5 5 5 5 5 6 5 5 5 5 5 5 6 5 5 5 5 5 5 5 5 5 5 5 5 5 5 5 5 5 5 6 5 5 5 5 6 5 5 5 5 5 6 5 5 5 5 5 5 5 5 5 5 5 5 5 5 5 5 5 5 6 5 5 5 5 5 5 5 5 5 5 5 5 6 5 6 5 5 5 5 5 5 5 5 5 5 5 5 5 6 5 5 5 5 5 5 5 6 5 5 5 5 5 5 5 5 5 5 6 5 5 5 5 5 5 5 5 5 5 5 5 5 5 5 5 5 5 5 5 5 5 5 5 5 5 5 5 5 5 5 5 5 5 5 5 5 5 5 5 5 5 5 5 5 5 5 5 5 5 5 5 5 6 5 5 6 5 5 5 5 5 5 5 5 5 5 5 5 5 5 6 5 5 6 5 5 5 5 5 6 5 5 5 5 5 5 5 5 5 5 5 6 5 5 6 5 5 5 5 6 6 5 5 6 5 5 5 5 6 5 5 6 5 5 5 5 5 5 5 5 5 5 5 5 5 5 6 5 5 5 5 5 5 5 5 5 5 5 5 5 5 6 5 5 5 5 5 5 5 5 5 5 5 5 5 5 5 5 5 5 5 5 5 5 5 5 5 6 5 5 5 5 5 5 6 5 5 5 5 5 5 5 5 5 5 5 5 5 5 5 5 5 5 5 5 5 5 5 5 5 5 5 5 5 5 5 5 5 6 5 5 6 5 5 5 5 5 5 5 5 5 5 5 5 5 5 5 5 5 5 6 5 5 5 5 5 6 5 5 5 5 5 5 5 5 5 5 6 5 5 5 5 5 5 5 5 5 5 5 6 5 5 5 5 5 5 5 5 5 5 5 5 5 5 5 5 6 5 5 5 5 5 5 5 5 5 6 5 5 5 5 5 5 5 5 5 5 5 5 5 5 5 6 5 5 5 5 6 5 5 5 5 5 5 5 5 5 6 5 5 5 6 5 5 5 5 5 5 5 5 5 5 5 5 5 5 6 5 5 6 5 5 6 5 5 5 5 5 5 5 5 5 5 5 5 5 5 5 5 5 5 6 5 6 5 5 5 5 6 5 5 5 5 5 5 5 5 5 5 5 5 5 5 5 5 5 5 5 5 5 5 5 5 5 5 5 5 5 5 5 5 6 5 5 5 5 6 5 5 5 5 5 5 6 5 5 5 5 5 5 5 6 5 6 5 5 5 5 5 5 5 6 5 5 5 5 5 6 5 5 5 5 5 5 5 6 5 5 5 5 5 5 5 5 5 5 5 5 5 5 5 5 6 5 6 5 5 5 6 5 5 6 5 5 5 5 5 5 5 6 5 5 5 5 5 5 5 6 5 5 6 5 5 5 5 5 5 5 5 5 5 5 5 5 5 6 5 5 6 5 6 5 5 6 5 5 5 5 5 5 5 5 5 5 5 5 5 5 5 5 5 5 6 5 5 6 5 5 5 5 5 5 5 5 5 5 5 5 5 5 6 5 6 6 5 5 5 5 5 6 5 5 5 6 5 5 5 5 5 5 5 5 5 5 5 5 5 5 5 5 5 6 6 5 5 5 6 5 5 5 5 6 5 5 5 5 5 5 5 5 5 5 5 5 5 5 5 5 5 5 5 5 5 5 5 5 5 5 5 5 5 5 5 5 5 5 5 5 5 5 5 5 5 5 5 5 5 5 5 5 5 5 5 5 5 5 5 5 5 5 5 6 5 5 5 5 5 5 5 5 5 5 5 6 5 5 5 5 5 5 5 6 5 5 6 5 6 5 6 5 5 5 5 5 5 5 5 5 5 6 5 6 5 5 5 5 5 5 5 5 5 5 5 5 5 5 5 5 5 5 5 5 5 5 6 6 5 5 5 5 6 5 5 6 5 5 5 5 5 6 5 5 5 5 5 5 5 5 5 5 5 5 5 5 5 5 5 5 5 5 5 5 5 5 5 5 5 5 5 5 5 5 5 6 5 5 5 5 6 5 5 5 5 5 5 6 5 5 5 6 5 5 5 5 5 5 5 5 5 5 5 5 6 5 5 6 5 5 5 5 5 5 5 5 6 5 5 5 5 5 6 5 5 5 5 5 5 6 5 5 6 5 6 5 5 5 5 5 6 5 6 5 5 5 5 5 5 6 5 6 5 5 5 5 5 5 6 5 5 5 5 6 5 6 5 5 5 5 5 6 5 6 5 5 6 6 5 5 6 5 5 5 5 5 5 5 5 5 5 6 5 5 5 5 6 5 5 5 5 5 5 5 5 5 5 6 5 5 5 5 6 5 5 5 5 5 6 5 5 5 5 6 5 5 6 5 5 5 5 5 5 5 5 5 6 5 5 5 5 5 5 5 5 5 5 5 6 5 5 5 5 5 5 5 5 5 5 5 5 5 5 5 5 5 5 5 5 5 5 5 5 5 5 5 5 5 5 5 5 5 5 5 5 5 6 5 6 5 5 5 5 5 5 5 5 5 5 5 6 5 5 5 5 6 5 5 5 5 5 5 5 5 5 5 6 5 5 5 5 5 5 5 5 5 5 5 5 6 5 5 5 5 6 5 5 6 5 5 5 5 5 6 5 6 5 5 5 5 5 5 5 6 5 5 5 5 5 6 5 5 6 5 6 6 5 5 5 5 5 5 5 5 5 5 5 5 5 5 5 5 5 6 5 5 5 5 5 5 5 5 5 5 5 5 5 5 5 5 5 5 5 5 6 5 6 5 5 5 6 5 5 6 5 6 5 5 6 6 5 6 6 5 5 6 6 6 5 5 6 5 5 5 6 5 5 5 5 5 5 6 5 5 5 5 6 5 5 5 5 6 5 5 5 5 5 5 5 5 5 5 5 5 5 5 5 5 6 5 6 5 5 5 5 5 5 5 5 5 5 6 6 5 5 5 5 5 5 6 5 6 6 5 5 6 6 5 5 5 5 5 6 5 5 6 6 5 6 6 5 5 6 5 5 6 5 5 6 5 5 5 5 5 5 6 5 5 5 5 5 5 5 6 5 5 5 5 5 5 6 5 5 5 5 5 5 5 5 5 5 5 5 5 5 5 5 5 5 5 5 5 5 5 5 5 5 5 5 5 5 5 5 5 5 6 5 5 5 5 5 5 5 5 5 5 5 5 5 5 5 5 5 5 5 6 5 5 5 5 5 6 5 5 5 5 5 5 5 5 5 6 5 5 5 5 5 5 5 6 5 5 5 6 5 5 5 6 5 5 6 5 5 5 5 5 5 5 5 5 5 5 5 5 5 5 5 5 5 5 6 5 6 5 5 6 5 5 6 5 5 5 5 5 5 5 5 5 5 5 5 5 5 5 5 5 5 5 5 5 5 5 5 5 5 5 5 5 5 5 5 5 5 5 5 5 5 5 5 5 5 5 5 5 5 5 5 5 5 6 5 6 5 6 6 5 5 5 5 5 5 5 6 5 5 5 5 5 5 5 5 5 6 6 5 5 5 5 5 5 5 5 5 5 5 5 5 5 5 5 5 5 5 5 6 5 5 6 5 5 5 5 5 5 5 5 5 6 5 5 5 5 6 5 5 5 5 5 5 5 5 6 6 5 5 6 5 5 5 6 5 5 5 5 6 6 5 5 6 5 5 5 6 6 5 5 5 5 5 5 5 5 5 5 6 5 5 5 5 6 5 5 5 5 5 5 5 6 5 5 5 5 6 6 5 5 5 5 6 5 5 6 5 6 5 6 5 6 6 5 6 5 5 5 6 5 5 5 5 5 5 5 5 6 5 5 5 5 5 6 5 5 5 5 5 5 5 5 6 5 5 5 5 5 5 5 6 5 5 5 5 5 5 5 5 5 5 5 5 6 5 6 5 5 5 5 5 5 5 5 5 5 5 5 6 5 5 6 5 5 6 5 6 5 5 5 5 5 5 5 5 5 5 5 5 5 5 5 5 5 6 6 5 5 5 5 5 5 5 5 5 5 5 5 5 5 5 5 6 5 5 5 5 5 5 5 5 5 5 6 5 5 5 5 6 5 5 5 5 6 5 5 5 5 5 6 5 5 6 5 5 5 5 5 5 5 5 5 5 5 5 5 5 5 5 5 5 5 5 5 5 5 5 5 5 5 5 6 5 5 5 5 5 5 6 5 5 5 6 5 5 5 5 5 5 6 5 5 5 5 6 5 6 5 6 5 6 6 5 5 6 5 5 5 5 5 5 5 5 5 5 5 6 5 5 5 5 5 5 5 5 5 5 5 5 5 6 5 5 5 5 5 5 5 5 5 5 5 5 5 5 5 5 5 5 5 5 6 5 5 5 5 5 5 5 5 5 5 5 5 6 5 5 5 5 5 5 5 5 5 5 5 5 5 5 5 5 5 5 5 6 5 5 6 5 5 5 5 5 6 5 5 5 5 5 5 5 5 6 5 5 5 5 5 5 5 5 5 5 5 5 5 5 5 5 5 5 5 5 5 5 5 5 5 5 5 5 5 5 6 6 5 6 5 5 5 5 5 6 5 6 5 5 5 5 5 5 5 6 5 5 6 6 5 5 5 5 5 5 5 5 6 5 5 5 5 6 5 5 5 5 6 6 5 5 5 5 5 6 5 6 5 5 5 6 5 6 5 6 5 5 6 5 5 5 5 5 5 6 5 5 5 5 5 5 5 5 5 5 5 5 5 5 5 5 6 5 6 6 5 5 5 5 5 5 5 5 5 6 5 5 5 5 5 5 5 5 5 6 5 5 5 5 6 6 5 5 5 5 5 5 5 5 5 5 5 5 5 5 5 5 5 5 6 5 5 5 5 6 5 5 5 5 5 5 6 5 5 5 5 5 6 5 6 5 6 5 5 5 6 5 5 6 5 6 5 6 5 5 5 5 5 5 6 5 5 5 5 6 6 5 5 5 6 5 6 6 5 6 5 5 5 5 5 5 5 6 5 5 6 5 6 5 5 5 5 5 6 5 5 5 5 6 5 5 5 5 5 5 5 5 5 5 5 5 5 5 5 5 5 5 5 5 5 5 5 5 5 5 6 5 5 5 6 5 5 6 6 5 5 5 5 5 5 5 5 5 6 5 5 6 5 6 5 5 5 5 5 5 6 5 5 5 5 5 6 5 5 5 5 5 5 6 6 6 5 5 5 5 5 6 5 5 5 6 5 5 5 5 5 5 5 5 5 5 5 5 5 6 5 5 5 5 5 5 5 5 5 5 5 5 5 6 6 5 5 5 5 5 5 5 5 5 5 5 5 5 5 5 5 5 5 5 5 5 5 6 5 5 5 6 5 5 5 5 5 5 5 5 5 5 5 5 5 5 5 6 6 5 5 5 6 5 5 5 6 5 5 6 5 5 5 5 6 5 5 5 5 5 5 5 5 5 5 5 5 5 5 5 5 5 5 5 5 5 6 5 6 5 5 6 5 5 5 6 5 5 6 5 6 5 5 5 5 5 5 5 6 6 5 5 5 5 5 6 5 5 5 5 6 5 5 5 6 5 5 6 5 5 5 5 5 5 6 5 5 5 5 5 5 5 6 5 5 5 5 5 5 5 5 5 5 5 5 5 5 6 5 5 5 5 6 5 5 5 6 6 5 5 5 5 5 5 6 5 5 5 5 5 5 5 6 5 5 6 5 5 5 5 6 6 5 5 6 5 5 6 5 5 5 5 5 5 5 5 6 5 5 5 6 5 5 5 5 5 5 5 5 5 5 5 5 5 5 5 5 5 5 5 5 5 6 5 5 6 5 5 5 5 5 6 5 5 5 6 5 5 5 6 5 5 5 5 5 5 5 5 5 5 5 6 5 5 5 5 5 5 5 6 5 6 5 5 5 5 6 5 5 5 5 5 5 5 5 5 5 5 5 5 6 5 5 5 5 5 5 5 5 5 5 5 6 5 6 5 5 5 5 6 5 5 5 6 5 5 5 6 5 5 5 6 5 5 5 5 6 5 6 5 5 5 6 5 5 5 5 6 5 5 5 5 6 5 5 5 5 5 5 5 5 5 5 5 6 5 5 5 5 5 5 5 5 5 5 5 5 5 5 5 6 5 5 5 5 6 5 6 5 6 5 5 5 5 5 5 5 5 5 5 6 5 6 6 6 6 5 5 6 5 5 5 6 5 5 6 5 6 5 5 5 5 5 6 5 5 5 5 5 5 5 5 5 5 6 5 5 6 5 5 5 6 5 5 5 5 5 5 5 5 5 5 5 5 5 5 5 5 5 5 6 5 6 6 5 5 6 5 5 5 6 5 5 6 5 6 6 5 6 6 5 5 5 5 6 6 6 5 6 5 5 5 5 5 5 5 5 5 5 5 5 5 5 5 5 6 5 5 5 5 6 5 6 5 5 5 5 5 5 6 5 6 5 6 5 6 5 5 5 5 5 5 6 5 5 5 6 5 6 6 5 5 5 5 5 6 5 5 6 5 5 5 5 5 5 5 6 5 5 5 5 5 5 5 5 5 5 5 5 5 5 5 5 5 5 6 5 5 5 5 5 5 6 5 5 5 6 5 5 5 5 6 5 5 6 5 6 5 5 6 5 5 5 5 5 5 5 5 5 5 5 6 5 5 5 5 6 5 6 5 5 5 5 5 5 5 5 5 5 5 5 5 5 5 5 5 5 5 6 5 6 5 6 5 5 5 5 5 5 6 5 5 6 5 5 5 5 5 6 5 5 5 5 5 5 5 5 5 5 5 5 5 5 5 5 5 5 5 5 5 5 5 6 5 5 6 5 5 5 5 5 5 5 5 5 5 5 5 5 5 5 5 5 5 5 5 5 5 5 5 5 5 5 5 5 5 5 5 5 5 5 5 5 5 5 5 5 5 6 5 5 5 5 5 6 5 5 5 6 5 5 5 5 5 5 5 5 5 5 6 5 6 5 6 6 5 5 5 5 5 5 5 5 5 5 5 5 5 5 5 5 6 5 5 5 6 5 5 5 5 6 5 5 5 5 5 5 5 5 5 5 5 5 5 5 5 5 5 5 5 5 5 5 5 5 5 5 5 5 6 5 5 5 5 5 5 5 5 5 6 5 5 5 6 5 5 5 5 6 5 6 5 5 5 5 6 5 6 5 5 5 5 6 5 6 5 5 5 6 5 6 5 5 5 5 6 5 5 5 5 5 5 5 5 5 5 5 6 5 5 6 5 5 6 5 5 5 5 5 5 6 5 5 5 6 5 5 5 5 5 5 5 5 5 6 5 6 5 5 6 6 5 5 5 6 5 5 5 5 5 5 5 5 6 5 5 5 5 5 5 5 5 5 5 5 5 5 6 5 5 5 5 5 5 5 5 5 5 5 5 5 5 5 6 5 5 6 5 5 5 6 5 5 5 5 5 5 5 5 5 5 5 6 5 6 5 5 5 6 5 5 5 5 5 6 5 5 5 6 5 5 6 5 5 5 5 5 5 5 5 5 5 6 5 5 5 5 5 5 5 5 5 5 5 5 5 6 5 5 5 5 5 6 5 5 5 5 6 5 5 5 5 5 5 5 5 5 5 6 5 6 5 5 5 6 6 5 5 6 5 5 5 5 6 5 6 5 6 5 5 5 5 5 6 5 5 5 5 5 5 5 6 5 5 6 5 5 5 5 5 5 5 5 5 5 5 5 6 6 5 5 5 5 5 5 5 5 6 5 5 5 6 6 5 5 5 5 6 5 5 5 6 6 5 5 5 5 5 5 5 5 5 5 5 5 5 6 5 5 5 5 5 5 5 5 5 5 6 5 5 5 6 5 6 5 5 5 5 5 5 6 6 6 5 5 5 5 6 5 5 5 5 6 5 5 5 5 5 5 5 5 5 5 5 5 5 6 5 5 5 6 5 5 5 6 5 5 6 5 5 5 6 5 5 5 5 5 5 5 5 6 5 6 5 5 5 6 5 5 5 5 5 5 5 5 5 5 5 5 5 5 5 5 5 5 5 5 5 5 6 5 5 5 5 5 5 5 5 5 5 6 5 5 5 6 5 5 5 5 5 5 5 5 5 6 5 5 5 5 5 5 5 5 5 5 5 5 5 5 5 5 5 5 5 5 5 5 5 5 5 5 5 5 5 5 6 5 5 5 6 5 5 5 5 5 5 6 6 5 5 6 5 6 5 5 6 5 5 5 6 5 5 5 5 5 5 5 5 5 5 6 5 5 5 5 5 5 6 5 5 5 6 5 5 5 5 5 5 5 6 5 5 6 5 5 5 5 5 5 6 5 5 5 5 5 5 6 6 5 5 5 5 6 5 5 5 6 5 5 5 6 5 5 5 5 5 5 5 5 5 5 5 5 5 5 5 5 5 5 5 6 5 5 5 5 6 5 5 5 5 6 5 5 5 5 5 5 6 5 5 5 5 5 6 5 5 6 5 5 5 5 5 5 6 5 5 5 5 6 5 5 5 5 5 5 5 5 5 5 5 5 5 5 5 5 5 5 5 5 6 5 5 5 5 6 5 5 5 6 5 6 5 5 5 6 5 5 5 5 5 6 5 5 5 5 5 5 5 5 5 5 5 5 5 5 5 5 5 5 5 5 5 5 5 5 5 5 6 5 5 6 6 5 6 5 5 6 5 5 5 5 5 5 6 5 6 5 5 6 6 5 5 5 5 6 5 6 6 5 5 5 5 5 5 5 5 5 5 5 5 5 5 5 6 5 6 5 5 5 5 5 5 5 5 5 5 5 6 5 5 5 5 5 6 5 5 5 5 5 6 5 5 5 5 5 5 6 5 5 6 5 5 5 6 5 5 5 5 5 5 5 5 5 5 6 5 5 5 5 5 5 5 5 5 5 5 6 5 5 6 5 6 5 5 5 5 6 5 6 5 5 5 6 5 6 5 5 6 5 5 6 6 5 5 5 5 5 5 5 5 5 6 5 6 5 5 5 5 5 6 5 5 5 5 5 6 5 5 5 6 5 5 5 5 5 5 5 5 5 5 5 5 5 5 6 5 5 5 5 5 5 6 5 5 5 6 5 5 5 5 5 5 6 5 5 5 5 5 5 6 5 5 5 6 5 6 5 5 6 5 5 5 6 5 5 6 5 5 5 5 5 5 5 6 5 5 5 5 5 5 5 5 5 6 5 5 6 5 5 5 5 5 5 5 5 5 5 5 5 5 5 6 5 5 5 5 5 5 5 5 6 5 5 6 5 5 5 5 5 5 5 5 5 5 5 5 5 5 5 5 5 5 5 5 5 5 5 5 5 5 5 5 5 5 5 5 5 5 5 5 5 5 5 5 5 5 6 5 5 5 5 6 5 5 6 5 5 5 6 5 6 5 5 6 5 6 5 5 5 5 6 5 5 5 6 5 5 5 5 5 5 5 6 5 6 5 5 5 6 5 5 5 6 5 6 5 5 5 5 5 5 5 5 5 5 6 5 5 5 5 5 5 6 5 6 5 5 6 6 5 5 5 5 5 5 5 5 5 5 5 5 5 5 5 6 5 5 5 5 5 5 5 5 5 5 6 5 5 5 6 5 5 5 5 5 5 6 5 5 5 6 5 5 5 5 5 5 5 5 5 5 5 5 5 5 5 5 5 6 5 6 5 5 5 5 5 5 5 5 5 5 5 5 5 5 6 5 5 5 5 5 5 5 5 5 5 5 5 5 6 5 6 5 5 6 5 5 5 5 5 5 5 6 6 5 5 5 5 5 5 5 5 5 5 5 5 5 5 5 5 6 5 6 6 5 5 5 5 5 5 5 5 5 5 5 5 5 5 5 5 5 5 5 5 5 5 5 6 5 5 5 5 5 5 5 5 5 5 5 5 5 6 5 5 5 6 5 6 5 5 6 5 5 6 5 5 6 6 5 5 5 5 5 5 5 5 5 6 5 5 5 5 5 5 5 5 5 5 5 5 5 5 5 5 5 5 6 5 5 5 5 5 5 5 5 5 5 5 5 5 5 5 5 5 5 5 5 5 5 5 5 5 5 5 5 5 5 5 5 5 5 5 5 5 5 5 5 5 5 5 5 5 6 5 5 5 6 5 5 5 5 6 5 5 5 6 5 5 5 5 5 5 5 5 5 5 5 5 5 5 5 5 6 5 5 5 5 5 5 5 5 5 5 5 5 5 5 5 5 5 5 5 6 5 5 6 5 5 5 6 5 5 6 6 5 5 6 5 6 5 6 5 5 6 5 5 5 5 5 6 5 5 5 6 5 5 5 5 5 5 5 5 5 5 5 5 5 5 5 5 5 5 5 5 5 5 5 5 5 5 5 5 5 5 5 5 5 6 5 5 6 5 5 5 5 5 5 5 5 5 5 5 5 5 5 5 6 5 6 5 5 5 5 6 5 5 5 5 5 5 5 5 5 5 5 5 5 5 5 5 5 5 5 5 6 5 5 5 5 5 5 5 5 5 5 5 6 6 5 5 5 5 5 5 5 5 5 5 6 5 5 5 6 6 5 5 5 6 5 5 5 5 5 5 6 5 5 5 5 5 5 5 5 5 5 5 5 5 5 5 5 5 5 5 5 5 5 5 5 5 5 5 5 5 5 5 5 5 5 5 5 5 5 5 5 5 5 5 5 5 5 5 5 5 5 6 5 5 5 5 5 5 5 5 5 5 5 5 5 5 5 5 5 5 5 5 6 5 5 6 5 5 5 5 5 5 5 5 5 5 5 5 5 5 5 5 5 5 5 5 5 6 5 5 5 5 5 5 5 6 5 5 5 5 5 5 5 5 5 5 5 5 5 5 5 5 5 5 5 5 5 5 5 6 5 5 5 5 5 5 5 6 5 5 5 5 5 5 5 5 6 5 5 5 5 5 5 5 5 5 5 5 5 5 5 5 6 5 5 5 5 5 5 6 5 5 5 6 5 5 5 5 5 5 5 5 5 5 5 5 5 5 5 5 5 5 5 6 5 5 5 5 6 5 5 5 5 5 5 5 5 5 5 6 5 5 6 5 5 5 5 5 5 5 5 5 6 5 5 5 5 5 5 5 5 5 6 6 5 5 6 5 6 5 5 6 5 5 5 5 5 5 5 5 5 5 5 5 5 6 5 5 5 5 6 5 5 5 5 5 5 5 6 5 6 5 5 5 6 5 5 5 5 5 6 5 6 5 5 6 5 5 5 6 5 5 5 5 5 5 5 5 5 5 6 5 5 6 5 5 5 5 5 5 5 5 6 5 5 5 5 6 5 6 5 5 5 6 5 5 5 5 5 5 5 6 5 5 5 5 5 5 5 6 5 5 5 6 6 5 5 5 5 5 5 5 5 5 5 5 6 5 5 5 5 5 5 5 5 6 5 5 5 5 5 5 5 5 5 5 5 5 5 6 5 5 6 5 5 5 5 6 6 5 5 5 5 6 5 5 5 5 5 5 5 5 5 5 5 5 5 5 5 5 5 5 5 5 5 5 5 5 5 5 5 5 5 5 6 5 5 5 6 5 6 5 5 5 5 5 5 5 5 5 5 5 5 5 5 5 5 5 5 5 5 5 6 5 5 5 5 5 5 5 5 5 5 5 5 5 5 5 5 5 5 5 5 5 5 5 5 5 5 5 5 5 5 5 5 5 5 5 5 5 5 5 5 5 5 5 5 5 5 5 5 5 5 5 5 5 5 5 5 5 5 5 5 5 5 5 5 5 5 5 5 5 5 6 5 5 6 5 5 5 6 5 5 5 5 5 5 5 5 5 5 5 5 5 5 5 5 6 5 5 6 5 5 5 6 5 5 5 5 5 5 5 5 5 5 5 5 5 5 5 6 5 5 5 5 5 5 5 5 5 5 5 5 5 5 5 5 5 5 6 5 5 5 5 6 5 6 5 5 5 5 5 6 5 5 5 5 5 5 5 5 5 5 5 5 5 5 5 5 5 6 5 5 6 5 5 5 5 5 6 5 5 6 5 5 5 6 5 5 5 6 5 5 5 5 5 5 5 6 5 5 5 
</DataArray>
<DataArray type="Float64" Name="stress" NumberOfComponents="9" format="ascii">
-384.60778990972358 -229.35023297542466 0 -229.35023297542466 3498.6765690256652 0 0 0 0 0.13739271648621154 -269.41995955138555 0 -269.41995955138555 2846.4614602847141 0 0 0 0 -292.62164148518457 171.8794397196034 0 171.8794397196034 2588.9927840176824 0 0 0 0 0.012237175354417316 -18.130210724855715 0 -18.130210724855715 11.327130914549343 0 0 0 0 0.020186055442555584 -2.2769392114568916 0 -2.2769392114568916 6.7974068126679867 0 0 0 0 9.3431476614510984 422.89569517110067 0 422.89569517110067 3666.155627579632 0 0 0 0 7.1421713343923443 278.05658622656119 0 278.05658622656119 1722.8687002468505 0 0 0 0 -67.044120716738007 18.656248523941031 0 18.656248523941031 1544.4927407561045 0 0 0 0 1.9799273149950574 -6.8503374617624786 0 -6.8503374617624786 9.3269128944039608 0 0 0 0 3.5548859761025611 -0.083222491753986105 0 -0.083222491753986105 28.535155256160351 0 0 0 0 0.10899327466398195 -0.26819338247105406 0 -0.26819338247105406 2.7470034019852188 0 0 0 0 -7.1548927965061955 -3.1190403211294324 0 -3.1190403211294324 35.754674106137827 0 0 0 0 1.3765996119018156 -0.23402744268485121 0 -0.23402744268485121 0.086054416737169959 0 0 0 0 186.19022965378213 -58.239386383022065 0 -58.239386383022065 640.38392704786474 0 0 0 0 2.9313462791840506 -1.3130528854308068 0 -1.3130528854308068 27.039889244682854 0 0 0 0 1.0713720337232826 -0.59582530315674376 0 -0.59582530315674376 18.134706494181501 0 0 0 0 2.7800122549924908 -2.9951363981843997 0 -2.9951363981843997 5.2006409407100378 0 0 0 0 0.61026988708381114 -5.466524737371742 0 -5.466524737371742 7.0949170325054922 0 0 0 0 -97.811878772672571 291.30555825911142 0 291.30555825911142 1341.3145773317083 0 0 0 0 -196.55549243456574 -177.6085613668547 0 -177.6085613668547 1588.3880024550344 0 0 0 0 -253.39529951107306 -193.89858561481378 0 -193.89858561481378 2064.0446018731745 0 0 0 0 -128.74166913475256 -340.27263262993074 0 -340.27263262993074 1122.6857578385097 0 0 0 0 -68.906952538249016 -433.59650069598865 0 -433.59650069598865 1129.9089597575021 0 0 0 0 -527.38456530091503 124.40620786242971 0 124.40620786242971 675.54062187499949 0 0 0 0 -210.25359273537075 -361.75008378081111 0 -361.75008378081111 1403.3836357236141 0 0 0 0 -405.86540160682739 -673.12327876457857 0 -673.12327876457857 2383.1129072580661 0 0 0 0 -9.7311182596474168 -843.67520227392379 0 -843.67520227392379 1681.0497699113039 0 0 0 0 -514.07486667156547 -669.63093430972367 0 -669.63093430972367 2911.6145252193601 0 0 0 0 -401.65383046147008 -691.63720583948452 0 -691.63720583948452 2248.3528238105846 0 0 0 0 -396.5050411508202 -1020.810432975517 0 -1020.810432975517 3465.8643921863113 0 0 0 0 728.74178972298591 -1209.293599524397 0 -1209.293599524397 3497.4239689257811 0 0 0 0 1838.5652929505338 -1811.3441479375688 0 -1811.3441479375688 863.46193999669049 0 0 0 0 1.1298436957110343 -5.0924576261226644 0 -5.0924576261226644 12.146410948147945 0 0 0 0 2343.8692418615738 -1216.393182282975 0 -1216.393182282975 352.89499992405763 0 0 0 0 139.95404628450751 -471.43872429286421 0 -471.43872429286421 1252.4907864434717 0 0 0 0 449.01469072526743 -1744.6361117424676 0 -1744.6361117424676 2615.3970377399673 0 0 0 0 -75.966562615675741 -626.79045674858207 0 -626.79045674858207 1296.7319323928823 0 0 0 0 18.243706566565493 1751.7049071895563 0 1751.7049071895563 2296.1274099940347 0 0 0 0 323.07175136410319 1471.637440189661 0 1471.637440189661 342.9204509016563 0 0 0 0 237.54813611905792 -1121.8724964179273 0 -1121.8724964179273 3593.2426825455514 0 0 0 0 2.0535242166318373 6.0120566650014382 0 6.0120566650014382 16.532246607556914 0 0 0 0 189.1177457947955 130.1937179963852 0 130.1937179963852 95.563836709363386 0 0 0 0 -1467.4600667361296 -1017.3109935839384 0 -1017.3109935839384 618.35887176134565 0 0 0 0 1099.2729997255733 278.95439390567481 0 278.95439390567481 -486.56959101606481 0 0 0 0 157.49621649537141 283.51444403891946 0 283.51444403891946 291.35239362670109 0 0 0 0 66.382870004360257 642.30955993484895 0 642.30955993484895 925.92554765296518 0 0 0 0 -316.26650348453131 -121.79607364843832 0 -121.79607364843832 557.85018522615792 0 0 0 0 -307.02150336475978 183.57483178394068 0 183.57483178394068 809.5430504377 0 0 0 0 294.31226701870082 23.238838055738597 0 23.238838055738597 -43.049007361973054 0 0 0 0 2.3461808445682157 -4.0739956041952681 0 -4.0739956041952681 6.7138729967503821 0 0 0 0 -271.24776887805092 -135.411112815862 0 -135.411112815862 45.214259211039462 0 0 0 0 0.016690152914861756 -2.8706937625247519 0 -2.8706937625247519 33.01896691300135 0 0 0 0 -0.27235591784043134 3.7595986362027674 0 3.7595986362027674 35.630407193998906 0 0 0 0 -1428.4757974209163 167.13828330942067 0 167.13828330942067 466.42738826732966 0 0 0 0 -126.80957369169698 -603.4412805290558 0 -603.4412805290558 146.23650926418486 0 0 0 0 -917.04695673011338 208.71641104909213 0 208.71641104909213 40.266115115780849 0 0 0 0 -384.81639194683635 14.592235461332166 0 14.592235461332166 -141.75789570974302 0 0 0 0 -513.74125705834604 -50.451591683988227 0 -50.451591683988227 -94.590521541555063 0 0 0 0 -381.28061171627877 8.6196217447286472 0 8.6196217447286472 -70.117119267742964 0 0 0 0 -361.94029981337422 -83.269455721776467 0 -83.269455721776467 18.545845846674638 0 0 0 0 -426.66457315530431 -7.0976593242048693 0 -7.0976593242048693 54.476904681767337 0 0 0 0 -305.02184719200693 -15.287469192000572 0 -15.287469192000572 38.460237911669537 0 0 0 0 -173.31829543097956 -94.99542648318311 0 -94.99542648318311 -10.155739675072255 0 0 0 0 -349.39880118475537 -77.724698531992544 0 -77.724698531992544 36.139789082022617 0 0 0 0 -395.47061076200646 30.310823409723525 0 30.310823409723525 -43.320389170970884 0 0 0 0 88.881167594676299 -18.608923446328845 0 -18.608923446328845 -48.892726790967572 0 0 0 0 -169.26158452453072 -41.512839225524885 0 -41.512839225524885 29.066351510671666 0 0 0 0 7.34032777922011 -11.628672451811667 0 -11.628672451811667 18.12973875900019 0 0 0 0 402.67929813693218 -402.81401306352927 0 -402.81401306352927 191.92632695044449 0 0 0 0 119.29369569631388 -354.7440304155607 0 -354.7440304155607 790.08355513228526 0 0 0 0 -56.164543425371846 -117.49455683560518 0 -117.49455683560518 659.71221739272005 0 0 0 0 340.40584766389554 -587.00666987122531 0 -587.00666987122531 1038.3890771594015 0 0 0 0 186.13013046797141 -323.66983333373355 0 -323.66983333373355 884.5774010134628 0 0 0 0 -1.8296351461519902 1.8144132983492192 0 1.8144132983492192 0.72069223988290787 0 0 0 0 -96.703936801204691 310.97721653697226 0 310.97721653697226 228.70889261308139 0 0 0 0 242.92194675327244 -470.4413885126196 0 -470.4413885126196 682.68732793716481 0 0 0 0 88.432050382667967 37.257078601469402 0 37.257078601469402 -22.129843060625717 0 0 0 0 -1.0206271085183127 0.024638166973629083 0 0.024638166973629083 29.577434205758323 0 0 0 0 318.75275286134206 -468.78621315032069 0 -468.78621315032069 398.47954078621115 0 0 0 0 -247.83668707012839 136.01800177642144 0 136.01800177642144 -229.5292138652876 0 0 0 0 -253.61305217758354 -211.41856239709887 0 -211.41856239709887 -90.433500721439486 0 0 0 0 -8.2502934233848837 -1.2824175053873024 0 -1.2824175053873024 38.914973255166444 0 0 0 0 -4.0943542207346724 -10.750223460405152 0 -10.750223460405152 42.443554737087481 0 0 0 0 -25.739467547523418 4.6513751339080045 0 4.6513751339080045 19.926921600534115 0 0 0 0 -21.678762007425576 4.2750768922342104 0 4.2750768922342104 18.450377290137112 0 0 0 0 -13.298991080594947 18.630447843150645 0 18.630447843150645 33.691801935886588 0 0 0 0 -8.0446708621185294 -1.1828016048010568 0 -1.1828016048010568 67.196184210528159 0 0 0 0 -0.43352269317185499 -0.97528078126600803 0 -0.97528078126600803 12.55853251509015 0 0 0 0 -4.3448073133227485 6.6025695136329574 0 6.6025695136329574 6.2828599561678402 0 0 0 0 -301.2200127087749 127.05900708920672 0 127.05900708920672 2.7032518697965315 0 0 0 0 -3.0025968713881235 1.331065539161429 0 1.331065539161429 26.084660667252763 0 0 0 0 -18.554829194001741 2.6877715003865887 0 2.6877715003865887 10.924137348115437 0 0 0 0 -5.6277533318470967 1.8714982904984083 0 1.8714982904984083 20.595267646390681 0 0 0 0 -23.211841381668819 25.639298847781902 0 25.639298847781902 25.177273575245636 0 0 0 0 -2.0425344081551202 -2.7891785774700111 0 -2.7891785774700111 33.779058036117021 0 0 0 0 -0.44457358779720835 -6.2684049093804788 0 -6.2684049093804788 29.166405999727431 0 0 0 0 -2.0007907179229356 5.5897996419552669 0 5.5897996419552669 8.6155877896771997 0 0 0 0 288.34873444770687 -38.825952156854328 0 -38.825952156854328 -82.933938879410562 0 0 0 0 -2.5644040229169036 -2.7732600147646735 0 -2.7732600147646735 28.745996684214333 0 0 0 0 -4.3161091433139873 2.8462664129765471 0 2.8462664129765471 24.274084096148727 0 0 0 0 -3.5218020126820462 2.3200834365208891 0 2.3200834365208891 17.601353803178199 0 0 0 0 -3.684462142908401 0.82909814604856535 0 0.82909814604856535 21.194146559638455 0 0 0 0 -25.95442470496539 19.216358719364507 0 19.216358719364507 -4.4412288956518751 0 0 0 0 -6.8267788862031011 -12.061030081575154 0 -12.061030081575154 17.92465547692882 0 0 0 0 -372.34623154172596 -32.553707066608695 0 -32.553707066608695 86.574500931223156 0 0 0 0 -0.01529430539804455 -1.9653792507402414 0 -1.9653792507402414 18.625607081136877 0 0 0 0 -24.747544039775221 10.048080857901368 0 10.048080857901368 -1.2526492856850382 0 0 0 0 12.267409870399433 8.3057719252974493 0 8.3057719252974493 -17.391862654636498 0 0 0 0 14.990500719962711 2.5061960493221704 0 2.5061960493221704 -16.379923619446345 0 0 0 0 5.0403121449601258 -7.1131863068330858 0 -7.1131863068330858 -40.223846110107843 0 0 0 0 -0.078487810143045844 -2.1914048409412077 0 -2.1914048409412077 3.9122575880530803 0 0 0 0 -1.6923494539086832 22.33155972060581 0 22.33155972060581 -23.237158091040328 0 0 0 0 16.154323466607536 6.5330358804858406 0 6.5330358804858406 -9.3230591067404021 0 0 0 0 -10.706425835232437 2.2120552561245859 0 2.2120552561245859 18.730929274301161 0 0 0 0 -3.3476463814955331 1.4368190144966206 0 1.4368190144966206 24.65501707728032 0 0 0 0 -68.690983122727175 84.112590833170543 0 84.112590833170543 -3.8584214173897635 0 0 0 0 7.3547364590840516 45.570317342935596 0 45.570317342935596 -31.266226672101766 0 0 0 0 -45.60702270753518 30.202184478177514 0 30.202184478177514 -12.911972231857362 0 0 0 0 -1.3216685810360076 9.7696505786248053 0 9.7696505786248053 -8.6978625183110125 0 0 0 0 -19.391723019979509 -68.320114688460308 0 -68.320114688460308 6.9791513814852806 0 0 0 0 -195.78739872277424 -26.735668613502639 0 -26.735668613502639 28.977943448466249 0 0 0 0 -205.64571520706863 -1.3311912496064906 0 -1.3311912496064906 51.553140009928029 0 0 0 0 -326.31569842723155 -50.690884261057363 0 -50.690884261057363 65.425499606659287 0 0 0 0 -332.70320191533966 -20.14560593663191 0 -20.14560593663191 39.77583540919295 0 0 0 0 -330.28300161383356 -19.004007001291029 0 -19.004007001291029 51.610028108247207 0 0 0 0 -427.1820669812796 -42.723744642556994 0 -42.723744642556994 73.678073963084898 0 0 0 0 -336.80916528829709 -11.831895850747969 0 -11.831895850747969 83.064866820059251 0 0 0 0 24.819760493615831 -39.793848383305885 0 -39.793848383305885 -7.1980329650905333 0 0 0 0 -158.69958460414887 91.61705815852838 0 91.61705815852838 22.649035353286308 0 0 0 0 42.353597606826185 -49.899975981485113 0 -49.899975981485113 54.094452208810253 0 0 0 0 -6.2960005245593997 -1.4755025584181283 0 -1.4755025584181283 -0.42371044358324639 0 0 0 0 -96.93274764995968 -331.69241190256616 0 -331.69241190256616 872.76788621480227 0 0 0 0 31.207186566482505 -693.63562995335087 0 -693.63562995335087 378.38128141073685 0 0 0 0 -302.91695947338212 -93.548410550414701 0 -93.548410550414701 -127.63851239715586 0 0 0 0 -382.5067858055196 53.067719675134867 0 53.067719675134867 36.160135217734933 0 0 0 0 -479.53891645642989 -119.1173051752703 0 -119.1173051752703 -26.585864496853901 0 0 0 0 -362.06937847739027 -225.52039070554747 0 -225.52039070554747 -391.59823674353538 0 0 0 0 -1041.4392472095656 172.83443027801695 0 172.83443027801695 54.622789684755844 0 0 0 0 0.38320924369854703 -1.9003765219646418 0 -1.9003765219646418 3.7854713733201493 0 0 0 0 226.1118473635845 -511.36616032358143 0 -511.36616032358143 541.91710499915644 0 0 0 0 134.59740929954387 -356.35778165253578 0 -356.35778165253578 285.28115277024335 0 0 0 0 79.669110597795907 -638.35348569886264 0 -638.35348569886264 770.64115870694513 0 0 0 0 15.975032987787927 -651.68690709221846 0 -651.68690709221846 984.19735572609352 0 0 0 0 -198.90255703465596 -562.83774012041249 0 -562.83774012041249 750.99959171167575 0 0 0 0 40.248251306257487 -574.47173984105757 0 -574.47173984105757 808.14290663342399 0 0 0 0 86.824648618806577 -639.73434867941251 0 -639.73434867941251 397.2150645306283 0 0 0 0 53.552075025495242 -790.15543781396991 0 -790.15543781396991 1053.9320244765986 0 0 0 0 -46.523667618009995 -631.68550989223877 0 -631.68550989223877 969.07989877666114 0 0 0 0 -1.5153469643964854 32.514337870547024 0 32.514337870547024 14.871163231742685 0 0 0 0 6.1586037524364201 53.418338555429727 0 53.418338555429727 -63.08234423706017 0 0 0 0 58.116217650974022 70.766747508398112 0 70.766747508398112 25.855785382591421 0 0 0 0 46.257335893162235 24.995109552663052 0 24.995109552663052 -27.466006572100014 0 0 0 0 40.411502355406014 -11.144412239057601 0 -11.144412239057601 -6.020876244379906 0 0 0 0 -23.150769996214194 -4.8634743974726007 0 -4.8634743974726007 156.36088926444063 0 0 0 0 82.964007140897024 -25.454118918074528 0 -25.454118918074528 -115.32132841261046 0 0 0 0 0.47373739294474959 -3.7432445503154845 0 -3.7432445503154845 11.200714165682825 0 0 0 0 89.76330135528633 -5.7877186449914007 0 -5.7877186449914007 -19.590924708725652 0 0 0 0 0.12555211657423215 -0.10572840331200872 0 -0.10572840331200872 1.0075077255948486 0 0 0 0 -89.58695423334575 -90.368054214253789 0 -90.368054214253789 684.73497693001991 0 0 0 0 100.49970377996806 25.149876034378394 0 25.149876034378394 64.210129857368884 0 0 0 0 78.480683489111925 16.277775146401837 0 16.277775146401837 255.02784631410032 0 0 0 0 141.16542098837454 -283.62057082053798 0 -283.62057082053798 631.29339459211042 0 0 0 0 -76.815514854001549 185.63875491795807 0 185.63875491795807 153.35880042248755 0 0 0 0 -252.54149278326099 24.182175104193448 0 24.182175104193448 147.84872136014747 0 0 0 0 134.39989531998572 -102.5389414880774 0 -102.5389414880774 107.90408398545696 0 0 0 0 -29.649002847698284 -5.545766513037961 0 -5.545766513037961 252.42950064706383 0 0 0 0 98.993662636091926 29.985609771378222 0 29.985609771378222 21.31256170605775 0 0 0 0 7.7928688339913919 -7.3146501672999875 0 -7.3146501672999875 43.578281823021825 0 0 0 0 -1.4943868536787779 1.316700525588355 0 1.316700525588355 17.422534589552811 0 0 0 0 -3.0008013142295225 2.0746714141207008 0 2.0746714141207008 30.950435600816945 0 0 0 0 -6.7085373927895944 9.9724956352365552 0 9.9724956352365552 -44.057908270056942 0 0 0 0 2.6747576084856473 0.44923182727507083 0 0.44923182727507083 47.09184129067944 0 0 0 0 2.7634700735506144 0.84805856185994344 0 0.84805856185994344 37.868826797297515 0 0 0 0 5.1219686734820762 -2.4492727010019735 0 -2.4492727010019735 35.523306798801059 0 0 0 0 0.00043177289626454844 -0.51379607456328813 0 -0.51379607456328813 37.340451083240623 0 0 0 0 0.46168228707135994 -0.99245380158754415 0 -0.99245380158754415 37.778737647400703 0 0 0 0 0.49439949044848719 -1.5121495424718887 0 -1.5121495424718887 41.869474436287419 0 0 0 0 1.0399291815600891 0.45310218808185709 0 0.45310218808185709 37.894986930579762 0 0 0 0 1.1058469782891327 1.5201427506908658 0 1.5201427506908658 34.705385419249069 0 0 0 0 -0.0020018808229590101 -0.79674454486666946 0 -0.79674454486666946 38.141577860696998 0 0 0 0 0.0021495646022017395 -1.3776782805326977 0 -1.3776782805326977 32.5244287840178 0 0 0 0 4.2168214011914751 3.9321152962438646 0 3.9321152962438646 30.725139462650986 0 0 0 0 0.066166069348908826 -2.7782501795676673 0 -2.7782501795676673 18.591971253129998 0 0 0 0 1.4874151833902545 -1.6442239793395856 0 -1.6442239793395856 26.447565844704513 0 0 0 0 0.49756542315955876 -3.7504361786341178 0 -3.7504361786341178 13.855843710247427 0 0 0 0 -0.25683661421841764 -4.5281883911172827 0 -4.5281883911172827 11.603591686349461 0 0 0 0 3.5648078560798027 1.0273987916298211 0 1.0273987916298211 37.059411885362351 0 0 0 0 -1.7454912621139536 0.600575591040867 0 0.600575591040867 27.148328637779002 0 0 0 0 8.2724093746980145 3.0062052982646037 0 3.0062052982646037 37.593438157942728 0 0 0 0 187.77132102790529 178.0242545262372 0 178.0242545262372 56.931644831493031 0 0 0 0 -8.1920716781778538 32.752713411973673 0 32.752713411973673 118.10730765210246 0 0 0 0 -5.4050625825504923 3.7063432168256085 0 3.7063432168256085 1.8323389377142689 0 0 0 0 291.01803307669798 -99.248037273100636 0 -99.248037273100636 -10.449627763591707 0 0 0 0 -0.43771346146836088 -4.7755748771898965 0 -4.7755748771898965 10.039186759800799 0 0 0 0 167.35370824585243 -206.9246553714147 0 -206.9246553714147 71.428585356472468 0 0 0 0 106.72642693310445 84.514297818965133 0 84.514297818965133 772.05146124896419 0 0 0 0 1287.9909925689637 -503.41376603514618 0 -503.41376603514618 -2.2316712898973492 0 0 0 0 248.81459811780314 272.88685942295342 0 272.88685942295342 154.07204763570917 0 0 0 0 5.1622146335982073 -4.2107955899563905 0 -4.2107955899563905 0.42505001215928928 0 0 0 0 46.062161734734218 182.85741665396927 0 182.85741665396927 521.04771719488781 0 0 0 0 95.110988350263142 218.89664525330591 0 218.89664525330591 160.65187375756796 0 0 0 0 22.919411886370654 97.346221328763932 0 97.346221328763932 209.00004917514889 0 0 0 0 -84.206986237572892 235.17496215498613 0 235.17496215498613 119.79689797044557 0 0 0 0 -287.71107132169436 139.76926485954755 0 139.76926485954755 795.8478825801576 0 0 0 0 -467.79809686802628 -318.96210901870472 0 -318.96210901870472 450.97884456414613 0 0 0 0 577.18815767441356 -110.35899444671668 0 -110.35899444671668 301.08832187843655 0 0 0 0 1804.7202868988957 -269.62161620790357 0 -269.62161620790357 -742.83872111513483 0 0 0 0 12.59531748349724 -9.5385590301514895 0 -9.5385590301514895 12.811518941602884 0 0 0 0 474.60245031801878 1462.1513740612354 0 1462.1513740612354 3496.1020158688043 0 0 0 0 2421.156793582637 -1900.1361187176408 0 -1900.1361187176408 1045.751896199552 0 0 0 0 1282.3882472345879 -2640.944880155108 0 -2640.944880155108 3107.5795755008076 0 0 0 0 1576.0066589627334 -677.31154075682934 0 -677.31154075682934 -39.369401082010882 0 0 0 0 441.76887947892192 -531.31958396669506 0 -531.31958396669506 896.89937878042656 0 0 0 0 1455.5115904394272 -1220.6478483024048 0 -1220.6478483024048 1662.8360881339177 0 0 0 0 791.1320739933401 -510.72795551424861 0 -510.72795551424861 914.05669021188805 0 0 0 0 669.15236796953525 -773.50043957430171 0 -773.50043957430171 1739.3303450997373 0 0 0 0 172.93678525564059 -1391.5677636746368 0 -1391.5677636746368 1702.8389771164257 0 0 0 0 213.75384185498027 -1055.9488112872864 0 -1055.9488112872864 2531.4757793365861 0 0 0 0 -511.29905713970572 -1683.9900208944891 0 -1683.9900208944891 3492.3167771804765 0 0 0 0 278.49412568283606 -106.92298014704284 0 -106.92298014704284 2486.3973605112333 0 0 0 0 -157.43335769397527 -688.25296888343291 0 -688.25296888343291 3473.419075337064 0 0 0 0 -234.71953341248235 -969.71765170412982 0 -969.71765170412982 2973.4065230830965 0 0 0 0 -5.0210583119980816 -0.29632748130023856 0 -0.29632748130023856 5.2715711811235479 0 0 0 0 258.41809886935448 -493.17962110642111 0 -493.17962110642111 1565.3958539421583 0 0 0 0 479.0017616764365 -721.50807149460343 0 -721.50807149460343 1631.0177623148338 0 0 0 0 438.0978925784575 -549.37324585772149 0 -549.37324585772149 1912.8858657575765 0 0 0 0 797.62469415515068 -674.23264643716084 0 -674.23264643716084 211.42939895554446 0 0 0 0 530.9428514401892 -350.73909335769531 0 -350.73909335769531 752.09818868186994 0 0 0 0 755.61852973376244 -587.28014867255115 0 -587.28014867255115 892.84361693202118 0 0 0 0 335.15878774079692 -89.877520512978663 0 -89.877520512978663 72.365217291956469 0 0 0 0 697.37311903996363 -633.00767847941461 0 -633.00767847941461 200.14325118176384 0 0 0 0 99.49217401675287 438.94332219345233 0 438.94332219345233 -535.45139824813486 0 0 0 0 -1.1211165258657374 -3.5829499884129348 0 -3.5829499884129348 -4.1925821875027793 0 0 0 0 881.54363207392589 -1240.7726334765212 0 -1240.7726334765212 901.14565881662566 0 0 0 0 125.53775437473905 -281.61683927387276 0 -281.61683927387276 -66.974487015839259 0 0 0 0 201.11758684698509 -470.21292389718656 0 -470.21292389718656 675.65616666615824 0 0 0 0 86.968585127592632 -217.21913800338734 0 -217.21913800338734 1344.3185681364266 0 0 0 0 543.07179463715602 -341.04052708244126 0 -341.04052708244126 -297.01297677246657 0 0 0 0 326.65117786805854 -757.56908293622473 0 -757.56908293622473 1085.0005532397627 0 0 0 0 63.353744775043481 -11.595785533585058 0 -11.595785533585058 1821.7320778500725 0 0 0 0 10.21390366644393 -125.72270642527292 0 -125.72270642527292 3500.6195662397222 0 0 0 0 -174.92090903058033 -266.95227691011314 0 -266.95227691011314 2852.8599902927817 0 0 0 0 332.64411511874232 -407.26240365366539 0 -407.26240365366539 2061.6368671393066 0 0 0 0 32.74753390783232 -348.88948868659645 0 -348.88948868659645 3500.419911993602 0 0 0 0 14.893036675313713 -256.43719872872316 0 -256.43719872872316 3608.3805581503548 0 0 0 0 -10.807014680991323 -1.1004678812188331 0 -1.1004678812188331 6.6396857589273957 0 0 0 0 195.77984131343101 117.55226658997708 0 117.55226658997708 2101.9837759642032 0 0 0 0 124.58536359885682 -454.90486828200847 0 -454.90486828200847 1465.1785124527814 0 0 0 0 297.36679948516246 -393.49824101732884 0 -393.49824101732884 1770.39375052783 0 0 0 0 -122.39876250356247 -32.746541852960945 0 -32.746541852960945 1579.575661241317 0 0 0 0 -66.14259811299371 -281.96081871955539 0 -281.96081871955539 1152.4807260584275 0 0 0 0 -5.8055995199549244 -0.79133106259089914 0 -0.79133106259089914 4.389781353146418 0 0 0 0 -947.37236277020361 711.86342850708752 0 711.86342850708752 2730.3807096335222 0 0 0 0 -530.46389932703084 -257.17979613660646 0 -257.17979613660646 2877.2997607798752 0 0 0 0 -1450.5774149461604 897.95609661229537 0 897.95609661229537 3493.2147918595683 0 0 0 0 -663.36777905611905 663.67435876553645 0 663.67435876553645 1277.9340633980755 0 0 0 0 -704.08828148609393 421.43008063473098 0 421.43008063473098 1920.2984530914036 0 0 0 0 -187.81654302565221 42.988133689055758 0 42.988133689055758 862.8705285078322 0 0 0 0 -152.37065654231401 36.214238944823592 0 36.214238944823592 77.218834457889898 0 0 0 0 147.85463440507192 -40.220764850342675 0 -40.220764850342675 213.98755658500158 0 0 0 0 112.13405851510197 -317.1007389273509 0 -317.1007389273509 175.44510747728782 0 0 0 0 -93.780858091871323 -96.57424381864621 0 -96.57424381864621 -52.134116202578298 0 0 0 0 -272.53629889983813 -354.27455671489588 0 -354.27455671489588 110.2719299121909 0 0 0 0 26.148104208141376 -13.237207407353708 0 -13.237207407353708 9.1418437007669127 0 0 0 0 7.3107984018247238 -22.147144001954217 0 -22.147144001954217 24.326472683652923 0 0 0 0 -15.664518828739347 -183.17567900073846 0 -183.17567900073846 -141.90512693762139 0 0 0 0 -3.1480080559642776 -15.249217808142291 0 -15.249217808142291 -8.1921657354517095 0 0 0 0 916.89381405766608 -406.99465713637619 0 -406.99465713637619 183.68676618015706 0 0 0 0 83.068504685991797 -34.277304400018693 0 -34.277304400018693 -320.46654954626865 0 0 0 0 -67.683388849216726 -320.50985966661938 0 -320.50985966661938 1249.6058729896467 0 0 0 0 1.5072786709491464 -9.1319433465769322 0 -9.1319433465769322 4.3602992012864661 0 0 0 0 1492.2469777726239 -642.10584462902625 0 -642.10584462902625 234.34624282369623 0 0 0 0 6.4683546191579353 -74.147370064985807 0 -74.147370064985807 40.165017283434281 0 0 0 0 199.76966064520252 33.705122736093472 0 33.705122736093472 55.099161780744907 0 0 0 0 -12.183070777218619 -12.099038047719191 0 -12.099038047719191 1.5158961710935444 0 0 0 0 832.23040760776303 -1085.1054986034651 0 -1085.1054986034651 868.11095792216656 0 0 0 0 529.74000688056958 -432.76692843337514 0 -432.76692843337514 740.59660360709313 0 0 0 0 102.61817659740097 -739.87614593416947 0 -739.87614593416947 1225.9610092476796 0 0 0 0 1261.8024345062481 -786.09427944186064 0 -786.09427944186064 719.06903753588267 0 0 0 0 316.40902007077995 -233.03293962754015 0 -233.03293962754015 194.58194226042542 0 0 0 0 108.56954308943443 -396.2222047105497 0 -396.2222047105497 1236.5295914878807 0 0 0 0 -239.77942065449918 154.3956778248903 0 154.3956778248903 371.31582689159768 0 0 0 0 989.00136584014581 -1050.9975874961456 0 -1050.9975874961456 726.71614038283951 0 0 0 0 613.44701309353695 -816.03862220577139 0 -816.03862220577139 588.06931612877452 0 0 0 0 447.2075817939583 -651.16081250013121 0 -651.16081250013121 649.42791677261266 0 0 0 0 205.46040814209243 -249.27432350414165 0 -249.27432350414165 315.72723895633681 0 0 0 0 687.4519712087822 -611.05132806735128 0 -611.05132806735128 265.82333796990861 0 0 0 0 188.20533645459182 -325.48969220603976 0 -325.48969220603976 140.87499033294444 0 0 0 0 566.94233103418355 -671.04987844746574 0 -671.04987844746574 408.36848832815303 0 0 0 0 -16.9125034995551 -292.14214232834638 0 -292.14214232834638 486.17641239364457 0 0 0 0 -16.364360530656317 13.488881902032475 0 13.488881902032475 63.949183770248339 0 0 0 0 -83.366002840527017 -23.688461413203186 0 -23.688461413203186 80.044902160661422 0 0 0 0 -18.087984140376133 10.128361872655532 0 10.128361872655532 61.745973723070392 0 0 0 0 -124.32943554060421 228.0018105861418 0 228.0018105861418 46.368911774384287 0 0 0 0 -111.50574299041375 143.37661558792024 0 143.37661558792024 146.51177819634904 0 0 0 0 -35.710053588906703 15.820699263336792 0 15.820699263336792 -5.9217173069846467 0 0 0 0 0.18619373785309046 -0.76950332986149306 0 -0.76950332986149306 6.2977449618664423 0 0 0 0 199.56555213436104 42.817073804479151 0 42.817073804479151 12.022148261554321 0 0 0 0 220.01362265548391 -289.18495090434408 0 -289.18495090434408 282.4165194107045 0 0 0 0 -4.5862307742407555 5.1788139458714113 0 5.1788139458714113 14.781444224322513 0 0 0 0 -7.7368785918465619 50.102464343843167 0 50.102464343843167 25.622137647405907 0 0 0 0 51.725614890657653 18.967091366244858 0 18.967091366244858 -53.827647455334954 0 0 0 0 -43.762749243139751 43.043461528381158 0 43.043461528381158 13.331937642964476 0 0 0 0 -35.604819242386384 97.195658615723005 0 97.195658615723005 -76.545655463576622 0 0 0 0 -24.0361822201358 6.4605099995765514 0 6.4605099995765514 50.265081505108583 0 0 0 0 -20.402435925522695 51.922757432129401 0 51.922757432129401 166.09566806501971 0 0 0 0 -174.97622242134457 104.75565454311436 0 104.75565454311436 -25.931528725035605 0 0 0 0 -22.084784047668737 32.384798413880176 0 32.384798413880176 -29.567683951551231 0 0 0 0 -107.05177264691201 -117.93543335326831 0 -117.93543335326831 469.56457487160151 0 0 0 0 -0.49146763303424734 -1.1846830171904799 0 -1.1846830171904799 -0.45747748879789185 0 0 0 0 -10.198317732644853 -55.909057513247262 0 -55.909057513247262 3.3241747543215752 0 0 0 0 117.06966892906257 -7.0632568372238893 0 -7.0632568372238893 -185.97071163129658 0 0 0 0 -47.4086955867283 81.607079119545233 0 81.607079119545233 -68.257169111486292 0 0 0 0 223.25671635238592 128.20898027814718 0 128.20898027814718 61.386339581273205 0 0 0 0 -79.478929662383507 -182.8333603139763 0 -182.8333603139763 581.86936578519089 0 0 0 0 -54.918934083498016 94.997048563796852 0 94.997048563796852 479.93531101757617 0 0 0 0 2.8482538304206173 -62.146649663318385 0 -62.146649663318385 -0.11039469352908782 0 0 0 0 212.01410836113146 -240.89340644469314 0 -240.89340644469314 137.98555153123016 0 0 0 0 -147.34883014768343 77.783801803668212 0 77.783801803668212 100.77593849432742 0 0 0 0 -68.870783120396482 -45.225961246553197 0 -45.225961246553197 166.30605954726343 0 0 0 0 -14.983779123525892 -90.65048668219606 0 -90.65048668219606 88.440840898685565 0 0 0 0 -23.370383360592768 -30.786228023878721 0 -30.786228023878721 12.243836580644711 0 0 0 0 -20.351817838918578 -38.679616242187876 0 -38.679616242187876 8.2388868254492991 0 0 0 0 -7.6745820571845798 -66.790881301774789 0 -66.790881301774789 8.8722981632163282 0 0 0 0 8.8076177427342373 -70.621442705500158 0 -70.621442705500158 1.674613847360888 0 0 0 0 0.27829101177093918 -3.3257239009409858 0 -3.3257239009409858 0.35262266433749545 0 0 0 0 7.9671033070635531 -28.908855203335406 0 -28.908855203335406 -59.691295726490353 0 0 0 0 -12.134100722466428 -27.803136894246563 0 -27.803136894246563 12.900778188099139 0 0 0 0 -10.156983651922928 -35.016463739331812 0 -35.016463739331812 9.5481943489321566 0 0 0 0 170.14503881139899 94.444388501200592 0 94.444388501200592 72.752545309893321 0 0 0 0 4.5877219597638934 -6.6247403828015337 0 -6.6247403828015337 7.6591107062222363 0 0 0 0 83.219832738779246 129.68249409401506 0 129.68249409401506 183.84019139601151 0 0 0 0 -41.254081210749064 21.217718656393117 0 21.217718656393117 102.12634778820211 0 0 0 0 26.677398021736735 29.762707573871012 0 29.762707573871012 87.237684139792691 0 0 0 0 87.67029992037078 104.32079782212531 0 104.32079782212531 120.65129302590503 0 0 0 0 -51.790059871371341 83.676386595623626 0 83.676386595623626 145.33295236827689 0 0 0 0 -66.725223725934484 19.930499550755485 0 19.930499550755485 137.81585477513181 0 0 0 0 -132.08356182032912 69.050067160344042 0 69.050067160344042 141.27749156556092 0 0 0 0 -153.59418271637151 33.977123888340429 0 33.977123888340429 144.26114307358512 0 0 0 0 -2.2526913509788056 -13.30571016975999 0 -13.30571016975999 60.178525157978925 0 0 0 0 -160.73305235025327 61.248859911487671 0 61.248859911487671 103.93960658533615 0 0 0 0 -182.47313805237945 24.94556095040025 0 24.94556095040025 133.19199007588031 0 0 0 0 9.1082059124369152 -22.499053715395348 0 -22.499053715395348 78.232412579935044 0 0 0 0 -77.228942685675065 32.058795902295969 0 32.058795902295969 114.60977727762656 0 0 0 0 -127.62650118635065 -21.022661234906991 0 -21.022661234906991 61.374496212491067 0 0 0 0 -54.322535051815066 42.395170387200778 0 42.395170387200778 104.47780732439787 0 0 0 0 -118.31207951891156 19.045680935305427 0 19.045680935305427 117.47550590480387 0 0 0 0 -12.030586940210924 39.719488879585697 0 39.719488879585697 23.488887093757512 0 0 0 0 -4.4496921808093228 14.987089229890518 0 14.987089229890518 -0.62685005713501596 0 0 0 0 -151.12166615931238 -41.292676603696236 0 -41.292676603696236 89.413987408741377 0 0 0 0 -162.33420048089738 -24.068595784308854 0 -24.068595784308854 120.90501398852211 0 0 0 0 -12.839312365700156 -1.2435525536105132 0 -1.2435525536105132 69.596506629023224 0 0 0 0 -53.116483486458719 126.96397517819014 0 126.96397517819014 86.978002077521523 0 0 0 0 -28.868770671529546 -18.888730282933466 0 -18.888730282933466 85.441688979226456 0 0 0 0 -19.0361979950776 74.179385803108744 0 74.179385803108744 79.119874557680305 0 0 0 0 -3.5727999201904161 -3.6359515750202789 0 -3.6359515750202789 28.11606472927474 0 0 0 0 -23.999463328392153 214.27964760929899 0 214.27964760929899 -105.53195518805296 0 0 0 0 -76.10333482617807 -17.8741415901859 0 -17.8741415901859 85.742752827105505 0 0 0 0 -13.788170577292625 9.6023436193519416 0 9.6023436193519416 65.002715588534585 0 0 0 0 333.65722686497372 191.65293893698981 0 191.65293893698981 -122.66512217157288 0 0 0 0 380.99255098888943 -129.43399434261119 0 -129.43399434261119 -105.26393815901247 0 0 0 0 5.0513225898279099 -7.8704125564858884 0 -7.8704125564858884 23.699028808519131 0 0 0 0 -187.48087267899382 -80.860603730812727 0 -80.860603730812727 186.02632406602061 0 0 0 0 -19.597183782443654 -94.081956615613194 0 -94.081956615613194 -96.159575975470943 0 0 0 0 -97.056914402072834 -147.56666229427356 0 -147.56666229427356 9.3921457466731226 0 0 0 0 8.2171797436932934 48.000902171199414 0 48.000902171199414 60.911816361898673 0 0 0 0 -104.12992014979682 -15.68031822964258 0 -15.68031822964258 162.92953941100859 0 0 0 0 -188.61936849157973 -63.209960507170763 0 -63.209960507170763 239.7313850014616 0 0 0 0 16.074232632580333 4.7666175278718583 0 4.7666175278718583 192.56765665196872 0 0 0 0 -137.06277074195543 -176.02863730498211 0 -176.02863730498211 773.56201735837294 0 0 0 0 1022.4725417188898 -350.22199444545913 0 -350.22199444545913 -82.307143230777001 0 0 0 0 7.4993465096072143 -5.8057056838414098 0 -5.8057056838414098 2.112902253467837 0 0 0 0 745.16751700141992 -1137.3188785370185 0 -1137.3188785370185 850.33657521258283 0 0 0 0 345.49099972405702 -90.009899068245431 0 -90.009899068245431 89.025028391100932 0 0 0 0 490.02942545856371 -304.92574820445225 0 -304.92574820445225 128.70104807851021 0 0 0 0 353.23244288403566 -494.13792644894056 0 -494.13792644894056 379.98384586519387 0 0 0 0 182.61979089945845 -178.21367093647132 0 -178.21367093647132 165.47138470926438 0 0 0 0 -67.642760169304893 -137.8679874392983 0 -137.8679874392983 241.95881112756615 0 0 0 0 122.78380256985611 -210.25726217066403 0 -210.25726217066403 227.42512706089474 0 0 0 0 -63.342206156903103 -81.439415556647873 0 -81.439415556647873 163.78665917736362 0 0 0 0 -144.21267870847328 -57.938197925614077 0 -57.938197925614077 134.59338444241439 0 0 0 0 -120.19798878328493 11.264302051007689 0 11.264302051007689 -43.754212802115944 0 0 0 0 -137.44610289367301 -9.3353311384453264 0 -9.3353311384453264 148.21921439684229 0 0 0 0 -147.04800491457536 34.806763588057947 0 34.806763588057947 91.051796635547362 0 0 0 0 -131.94528365165024 7.5865817526064347 0 7.5865817526064347 187.69978144320703 0 0 0 0 2.882090079441241 -29.740897065952595 0 -29.740897065952595 114.90901289461181 0 0 0 0 -242.73943146513943 156.5429672917453 0 156.5429672917453 42.805225863503438 0 0 0 0 -144.52229878413436 81.897148042990011 0 81.897148042990011 52.972674937249394 0 0 0 0 -295.47495966637462 59.422603094491933 0 59.422603094491933 123.49879781749041 0 0 0 0 -178.28460211769891 -32.885772012437883 0 -32.885772012437883 175.54624648755998 0 0 0 0 2.5199503696453336 2.2390927777722709 0 2.2390927777722709 23.113358240230838 0 0 0 0 10.424789088927355 -18.39743803874444 0 -18.39743803874444 81.365547698675073 0 0 0 0 -254.263992272829 -40.432848431300954 0 -40.432848431300954 44.245117701750132 0 0 0 0 -196.76291217104927 97.98939101977885 0 97.98939101977885 76.591221755850711 0 0 0 0 -142.62438642246755 -98.830321373123297 0 -98.830321373123297 278.75185091394815 0 0 0 0 18.825148552731093 -88.159143798453215 0 -88.159143798453215 155.14100250412594 0 0 0 0 -151.93168223344492 33.755290392422467 0 33.755290392422467 97.334084061352769 0 0 0 0 -150.14735612397862 -118.24636361659213 0 -118.24636361659213 201.28760000771581 0 0 0 0 -394.17610643851242 353.2998772581559 0 353.2998772581559 5.1210581507839379 0 0 0 0 -123.8414026353787 75.360584040732647 0 75.360584040732647 -180.21746867228649 0 0 0 0 1.4178618825903309 8.0320676398619355 0 8.0320676398619355 15.507801160209567 0 0 0 0 51.0553066231505 -25.948782670377113 0 -25.948782670377113 34.348893392976606 0 0 0 0 66.93058030631974 -91.514034886885383 0 -91.514034886885383 52.85407979786396 0 0 0 0 16.173550912708379 -32.081754271901445 0 -32.081754271901445 80.406557384456391 0 0 0 0 12.720336773356166 -56.560624837162322 0 -56.560624837162322 48.327599196520168 0 0 0 0 11.019329858555466 -49.186085197354259 0 -49.186085197354259 73.891758440418926 0 0 0 0 -47.25162284090311 -52.955356291029602 0 -52.955356291029602 53.89610963296218 0 0 0 0 9.9199070559800475 -58.739957634889834 0 -58.739957634889834 -8.7853478843899211 0 0 0 0 -340.32155521938262 -13.132654614115381 0 -13.132654614115381 -61.106895823191735 0 0 0 0 87.051143598017234 -25.113577675021588 0 -25.113577675021588 16.809546193268034 0 0 0 0 98.60247595563493 -52.699512585841148 0 -52.699512585841148 64.683929358143359 0 0 0 0 106.02463075848732 -43.776101386039954 0 -43.776101386039954 64.109738014551112 0 0 0 0 45.41057343089534 -11.556552770812687 0 -11.556552770812687 73.64000735670561 0 0 0 0 44.821008717519817 -5.1657084412727272 0 -5.1657084412727272 244.30037979636109 0 0 0 0 -16.745877780070714 91.36533392322599 0 91.36533392322599 329.8307667557674 0 0 0 0 -37.26474507922012 43.883035366903641 0 43.883035366903641 231.46763655574614 0 0 0 0 -36.670979092365087 0.1164732651959639 0 0.1164732651959639 571.10645680797461 0 0 0 0 42.885365291480412 52.269363361876458 0 52.269363361876458 -19.642585018056707 0 0 0 0 46.584136247452989 127.5021549986559 0 127.5021549986559 197.93008865868615 0 0 0 0 -58.960036295460441 -76.197418256160745 0 -76.197418256160745 35.683946299439413 0 0 0 0 -163.84599075056303 -20.616440660043736 0 -20.616440660043736 81.129014914404252 0 0 0 0 2.6579340812268129 -59.989901438078959 0 -59.989901438078959 56.354167162295198 0 0 0 0 12.607746620909893 8.700024331221357 0 8.700024331221357 65.412689212171244 0 0 0 0 -37.587562695190627 17.954166280702339 0 17.954166280702339 -4.4868057088460773 0 0 0 0 132.50835105711462 -10.038263396163529 0 -10.038263396163529 -16.568434524164331 0 0 0 0 -0.5320130275612458 -1.5570368266675794 0 -1.5570368266675794 14.857998553878588 0 0 0 0 -0.0016953581066445622 -71.382462668694643 0 -71.382462668694643 136.3172830932599 0 0 0 0 76.15045456721964 60.310143814160256 0 60.310143814160256 15.49840423137357 0 0 0 0 16.749868920026898 -32.952089231897084 0 -32.952089231897084 49.128158630761334 0 0 0 0 34.317253231046379 -57.815734700590838 0 -57.815734700590838 9.6459026524971705 0 0 0 0 -9.335482728801253 -107.88007170337005 0 -107.88007170337005 -3.5831556614175497 0 0 0 0 29.837916103060707 -69.71918839479622 0 -69.71918839479622 -44.28366393539909 0 0 0 0 -6.8918721997488319 -122.30313176580967 0 -122.30313176580967 117.04203773837071 0 0 0 0 49.144985461546696 -105.98919007899644 0 -105.98919007899644 141.42782512324629 0 0 0 0 -5.9874403976464237 -68.395461898253416 0 -68.395461898253416 122.4708689408053 0 0 0 0 -89.720073781280007 -94.734630296108662 0 -94.734630296108662 125.58940420530416 0 0 0 0 -143.91910912951425 -133.6594915098467 0 -133.6594915098467 132.10661223603529 0 0 0 0 -86.013709382501474 -108.13582439972379 0 -108.13582439972379 173.10585741125396 0 0 0 0 -46.028087354436138 -62.464077282362268 0 -62.464077282362268 49.748561901506037 0 0 0 0 -143.71933888734566 -27.990431337850168 0 -27.990431337850168 39.031104519177461 0 0 0 0 -217.01050303357533 -83.192776555384626 0 -83.192776555384626 113.36811388027854 0 0 0 0 4.3886836512909593 -6.9460848107079567 0 -6.9460848107079567 24.708235461702657 0 0 0 0 24.201169635899987 -45.27354115873095 0 -45.27354115873095 30.545481763700082 0 0 0 0 -207.79411975232551 -146.28465065544333 0 -146.28465065544333 119.97266945580486 0 0 0 0 -61.435806784123997 -28.745896113847266 0 -28.745896113847266 65.707007207733113 0 0 0 0 9.7724361519081633 -22.551080785277875 0 -22.551080785277875 41.541645774641836 0 0 0 0 -134.16038480228099 -151.82077489274525 0 -151.82077489274525 -16.71759701782139 0 0 0 0 -143.07486284603829 -120.83853207781431 0 -120.83853207781431 134.73566162600764 0 0 0 0 -147.08652587691176 -134.77875020723513 0 -134.77875020723513 103.75050670158817 0 0 0 0 -99.224360556676402 -105.44919794279849 0 -105.44919794279849 7.3754118093347643 0 0 0 0 -14.746048375415739 4.0819599779351847 0 4.0819599779351847 36.969105373631464 0 0 0 0 -12.022770099239652 14.554483503242402 0 14.554483503242402 11.869344598445821 0 0 0 0 27.565110803050629 -36.903434223946533 0 -36.903434223946533 26.129821254759008 0 0 0 0 -109.94965370222326 22.783429923152653 0 22.783429923152653 101.94949970394373 0 0 0 0 -109.37321933972635 24.627948845882202 0 24.627948845882202 -50.010595326690236 0 0 0 0 -92.354381553297571 18.005130417994224 0 18.005130417994224 35.07274598244112 0 0 0 0 -101.80338640229456 23.371629882181878 0 23.371629882181878 87.198831017216435 0 0 0 0 -91.8038702981803 45.123476973261859 0 45.123476973261859 125.03116881387541 0 0 0 0 -87.278772510595445 -9.9995386636146577 0 -9.9995386636146577 112.71939378877505 0 0 0 0 -71.737948199830498 15.789224152453244 0 15.789224152453244 141.4300709629606 0 0 0 0 -50.416839384515697 -1.0211650213605026 0 -1.0211650213605026 144.28666557048564 0 0 0 0 -21.97607347653684 30.670511643926147 0 30.670511643926147 169.80343967830413 0 0 0 0 -38.416754298659725 48.272499555547256 0 48.272499555547256 145.63372894719942 0 0 0 0 -32.715082857403104 32.582137734178104 0 32.582137734178104 188.4972449306224 0 0 0 0 18.892080138019992 58.139080683082284 0 58.139080683082284 277.47524522137246 0 0 0 0 5.0680922156097949 13.820153161796043 0 13.820153161796043 156.89217496482888 0 0 0 0 -21.077410904992576 -55.757525991968578 0 -55.757525991968578 269.38966997357784 0 0 0 0 40.981190209087799 -32.811335350706941 0 -32.811335350706941 220.16430715395836 0 0 0 0 -21.390416394288735 -68.068966062622167 0 -68.068966062622167 138.57519305020105 0 0 0 0 -79.215719080682902 -58.173731765738921 0 -58.173731765738921 114.1346879663688 0 0 0 0 -63.982556370624934 -65.27707354578888 0 -65.27707354578888 102.35380400967551 0 0 0 0 -60.946783819927077 -47.475933762267232 0 -47.475933762267232 200.50580857830937 0 0 0 0 224.18665014273392 5.9353204380895477 0 5.9353204380895477 251.71855399212291 0 0 0 0 370.02943208340366 -59.092379988389439 0 -59.092379988389439 268.73494169639889 0 0 0 0 244.81842893128305 -201.15994183155999 0 -201.15994183155999 519.59376487450209 0 0 0 0 200.5784613171927 -156.14589287455601 0 -156.14589287455601 243.62053596766782 0 0 0 0 166.16027203514022 -41.300671474833507 0 -41.300671474833507 330.47328054148238 0 0 0 0 48.656922656265579 -88.998451250696235 0 -88.998451250696235 258.39398524881108 0 0 0 0 136.57956851496783 -123.49519821979629 0 -123.49519821979629 267.66571320292132 0 0 0 0 59.410148984101397 17.586383543108241 0 17.586383543108241 357.64623103120539 0 0 0 0 195.70967819570069 219.4205712734547 0 219.4205712734547 430.0365675426001 0 0 0 0 87.80800266841652 57.906336727799498 0 57.906336727799498 205.43521387616056 0 0 0 0 102.20240951504957 6.7004739507738122 0 6.7004739507738122 352.142744028999 0 0 0 0 166.29154799275057 254.68446067602781 0 254.68446067602781 403.2693349274341 0 0 0 0 0.031616524388255129 0.040497703679392316 0 0.040497703679392316 1.0722307884431999 0 0 0 0 156.09374357265733 -273.22322848328622 0 -273.22322848328622 436.00214320210216 0 0 0 0 1.2500302936550618 -0.97593858094464281 0 -0.97593858094464281 -0.73756860470118113 0 0 0 0 114.984460364592 82.533115116893896 0 82.533115116893896 772.96456781716552 0 0 0 0 168.70048017312729 304.43419994807482 0 304.43419994807482 652.08338719347375 0 0 0 0 -10.007152212123401 -210.87507575462951 0 -210.87507575462951 373.84134836284647 0 0 0 0 62.114278810864562 -175.69520062606898 0 -175.69520062606898 382.64915409762034 0 0 0 0 96.802004992910952 -98.664342161702734 0 -98.664342161702734 217.88230205269065 0 0 0 0 126.05410323655815 -7.8465431554359384 0 -7.8465431554359384 498.50139851277709 0 0 0 0 19.311215007955752 53.436754042237226 0 53.436754042237226 1.9289383448194712 0 0 0 0 151.35030464918964 -110.4581565548142 0 -110.4581565548142 135.31404117787315 0 0 0 0 91.196375199146814 -9.302997914081061 0 -9.302997914081061 241.83183637601906 0 0 0 0 95.171988006555694 -60.365387439109327 0 -60.365387439109327 18.690054094462539 0 0 0 0 190.9282270571548 -28.800014408960124 0 -28.800014408960124 28.854723393866152 0 0 0 0 125.25382419763628 -134.28928906920919 0 -134.28928906920919 103.14643811658607 0 0 0 0 165.80620611965787 -73.674539247593202 0 -73.674539247593202 123.90131497522816 0 0 0 0 87.801581562789579 -74.331268764250126 0 -74.331268764250126 13.2268083600502 0 0 0 0 65.966012969830444 -117.17024559986748 0 -117.17024559986748 9.0172031229212735 0 0 0 0 117.47523588276454 -54.115966476067115 0 -54.115966476067115 -20.902443196348031 0 0 0 0 85.557351469436981 -71.937938626942923 0 -71.937938626942923 -30.27651452277496 0 0 0 0 43.202905168645884 -70.512831681167881 0 -70.512831681167881 -23.21855017485359 0 0 0 0 38.597663924346307 -49.997904857082176 0 -49.997904857082176 17.863631534419255 0 0 0 0 66.670927232677059 -46.05046555626177 0 -46.05046555626177 0.6867441631766269 0 0 0 0 59.853904518051877 -51.144219007486754 0 -51.144219007486754 24.91298451043258 0 0 0 0 59.45217700952071 -26.600305207444762 0 -26.600305207444762 -28.072625849130418 0 0 0 0 5.5548090896209583 -11.919990754679191 0 -11.919990754679191 2.5449798495163805 0 0 0 0 100.22264726268577 -30.420711172917436 0 -30.420711172917436 -35.82855189582915 0 0 0 0 115.99133110168532 -50.728397158331063 0 -50.728397158331063 -23.437411070626695 0 0 0 0 -2.3285926020983494 -0.61965571581961854 0 -0.61965571581961854 -1.7332812223303904 0 0 0 0 -65.179763448448284 -68.549251932949119 0 -68.549251932949119 31.579217848249755 0 0 0 0 7.9388493491542249 -44.186194184512715 0 -44.186194184512715 38.135469794604433 0 0 0 0 48.114173328149263 -47.302193513605744 0 -47.302193513605744 -20.158766852284316 0 0 0 0 48.170315718853089 -29.648105817395844 0 -29.648105817395844 10.995391453361663 0 0 0 0 41.648604426393376 -44.763984355267894 0 -44.763984355267894 -16.938059977677767 0 0 0 0 82.56234711092111 -43.196898226422491 0 -43.196898226422491 -19.696872533241276 0 0 0 0 35.509776499019608 -25.245256902376042 0 -25.245256902376042 -14.577120826913699 0 0 0 0 69.795497955748317 16.517318475114735 0 16.517318475114735 -35.846550640271744 0 0 0 0 60.563066062158214 -52.427858547685901 0 -52.427858547685901 -19.00766725390713 0 0 0 0 46.40347481498975 -50.894681993871927 0 -50.894681993871927 -15.429893557797186 0 0 0 0 121.06090093099647 -71.35547457265784 0 -71.35547457265784 -10.285659573339217 0 0 0 0 11.983386369157516 -2.8133111635628865 0 -2.8133111635628865 -10.839229232353233 0 0 0 0 12.401370270842563 -52.189205067566945 0 -52.189205067566945 -157.83651275689772 0 0 0 0 124.29633717124337 7.6324983887375311 0 7.6324983887375311 -34.654795114998706 0 0 0 0 32.789751628181762 -193.96371229642546 0 -193.96371229642546 -44.59290643154236 0 0 0 0 -110.62331806042539 -213.16299113004789 0 -213.16299113004789 7.3111678628774825 0 0 0 0 -97.483345292994272 -260.40788817159773 0 -260.40788817159773 -72.441789179021725 0 0 0 0 -52.84459096516639 -138.70698460306448 0 -138.70698460306448 2.4280398865375901 0 0 0 0 22.688529132772601 -117.10575588471693 0 -117.10575588471693 4.1924663311729091 0 0 0 0 14.308397445872686 -98.561918470120418 0 -98.561918470120418 -14.609719718806446 0 0 0 0 -17.440717396176524 -9.6331693126467144 0 -9.6331693126467144 41.857132210941927 0 0 0 0 -57.116616661105354 -162.93374802559265 0 -162.93374802559265 54.403350489890727 0 0 0 0 80.564009252466349 -128.69964761644951 0 -128.69964761644951 -35.673083569521623 0 0 0 0 30.595595395586315 -45.81596086804575 0 -45.81596086804575 300.4056662072544 0 0 0 0 -215.17297859771134 -91.381763792254787 0 -91.381763792254787 292.84213797200209 0 0 0 0 -24.184854245072529 -83.709140022663632 0 -83.709140022663632 453.50846691528568 0 0 0 0 478.83723038725554 -453.34803908086178 0 -453.34803908086178 225.30243258234987 0 0 0 0 363.07870199617355 -696.50525146532163 0 -696.50525146532163 613.18082369590411 0 0 0 0 521.1197174055535 -506.26941627189808 0 -506.26941627189808 743.90352514780534 0 0 0 0 221.77084429778847 -504.19066395135451 0 -504.19066395135451 744.27937990388364 0 0 0 0 334.01085992079152 -632.82272157426632 0 -632.82272157426632 793.18108696881029 0 0 0 0 255.35867782667492 -548.6097066097027 0 -548.6097066097027 792.15639443091641 0 0 0 0 489.72734199281649 -617.06266408766169 0 -617.06266408766169 737.74367891277507 0 0 0 0 -4.0210421678691963 0.61350147816118294 0 0.61350147816118294 21.7353957795155 0 0 0 0 -0.53377089005371037 -1.9134619131655199 0 -1.9134619131655199 25.23721179151471 0 0 0 0 0.00065260554608017793 0.076067263209552038 0 0.076067263209552038 24.727535758313024 0 0 0 0 -0.25545818505255524 -3.2366055573147605 0 -3.2366055573147605 18.328353227159823 0 0 0 0 1.4232208995598861 -1.3871901335951407 0 -1.3871901335951407 28.663524188188603 0 0 0 0 -1.6000044688415651 0.21617513794990373 0 0.21617513794990373 27.897366679098923 0 0 0 0 -4.3281518073959306 3.2007969516835288 0 3.2007969516835288 28.098701166476019 0 0 0 0 0.2275956731721902 -0.48678198122797767 0 -0.48678198122797767 32.085887589695631 0 0 0 0 -0.00048806355884525128 0.11124837449460756 0 0.11124837449460756 32.311385990375129 0 0 0 0 0.94321388789330041 -2.1881856589661766 0 -2.1881856589661766 35.57803486357443 0 0 0 0 2.6207564879889249 -0.15375755035165639 0 -0.15375755035165639 32.095258116300101 0 0 0 0 3.7779962268508189 -2.1458873470546678 0 -2.1458873470546678 35.490821696716921 0 0 0 0 -38.519050027110097 192.20924575401295 0 192.20924575401295 137.10389705612033 0 0 0 0 -3.374518380362832 5.0697757487975963 0 5.0697757487975963 28.859086070260787 0 0 0 0 135.01121960427383 -214.84190318064429 0 -214.84190318064429 20.663446108796052 0 0 0 0 0.71740821675946043 -2.6227094476656867 0 -2.6227094476656867 7.0619012117519446 0 0 0 0 36.160142572083714 53.256575485291251 0 53.256575485291251 185.1068037282821 0 0 0 0 -30.259366034991217 -201.12759522481792 0 -201.12759522481792 958.93694436951046 0 0 0 0 30.692853857279488 -20.798731155884525 0 -20.798731155884525 -23.864990504051093 0 0 0 0 327.22573127261785 -65.695963966973068 0 -65.695963966973068 -244.80223971718078 0 0 0 0 320.53019748127417 -424.78701376370009 0 -424.78701376370009 245.3512087843701 0 0 0 0 222.73608379548921 -307.92903133951404 0 -307.92903133951404 456.83609728029114 0 0 0 0 203.04701365750884 -388.39455842148163 0 -388.39455842148163 455.12732319667703 0 0 0 0 254.53057748639424 -589.00784633224066 0 -589.00784633224066 886.0042881584377 0 0 0 0 260.71780633248204 -546.50729353449424 0 -546.50729353449424 648.2355558633426 0 0 0 0 333.26216663010177 -566.00931443008085 0 -566.00931443008085 600.99014952854486 0 0 0 0 328.86700088062497 -573.91498395457165 0 -573.91498395457165 590.22279507250641 0 0 0 0 342.13606846004996 -555.69757747762924 0 -555.69757747762924 590.71070691691421 0 0 0 0 304.9514296713528 -583.29241131066374 0 -583.29241131066374 615.27644493511616 0 0 0 0 310.75244242560098 -568.7625986751591 0 -568.7625986751591 649.48407955259609 0 0 0 0 291.50940176838139 -550.28360303492809 0 -550.28360303492809 892.89005324001482 0 0 0 0 573.51292934773437 -510.77847377838179 0 -510.77847377838179 303.20137164500193 0 0 0 0 391.18080439996584 -646.02281300637696 0 -646.02281300637696 666.27809726304258 0 0 0 0 428.04725960227665 -777.38265798854991 0 -777.38265798854991 466.46950465447662 0 0 0 0 321.02206180955682 -909.18289056839058 0 -909.18289056839058 929.95321811211761 0 0 0 0 289.68730645867549 -606.58122984362126 0 -606.58122984362126 632.25020966814918 0 0 0 0 227.86965494443757 -772.30394657667784 0 -772.30394657667784 764.51565928547643 0 0 0 0 284.8941968214898 -595.1686227995815 0 -595.1686227995815 707.01607845147373 0 0 0 0 397.62390572149889 -433.06174378021387 0 -433.06174378021387 838.71269811059756 0 0 0 0 125.01660948167228 -684.88618759889505 0 -684.88618759889505 981.40204356965842 0 0 0 0 65.00503686753018 -516.5507337265517 0 -516.5507337265517 1056.4423136204132 0 0 0 0 475.89917115851881 -541.41533584392891 0 -541.41533584392891 637.34681700784131 0 0 0 0 367.67195768588772 -615.94831443906878 0 -615.94831443906878 635.56851149082172 0 0 0 0 354.62392863720493 -556.01015445434314 0 -556.01015445434314 580.78340754371311 0 0 0 0 329.38781397505977 -496.28950485182577 0 -496.28950485182577 488.122631928185 0 0 0 0 383.43519841047629 -540.8253248990859 0 -540.8253248990859 591.13806556534837 0 0 0 0 342.36759953240539 -580.04128315573325 0 -580.04128315573325 566.83376922319439 0 0 0 0 339.5575481782829 -518.98106606379224 0 -518.98106606379224 436.46217986627016 0 0 0 0 372.76929618062468 -637.83921745158295 0 -637.83921745158295 559.95763519081811 0 0 0 0 268.65834541358271 -486.22033849042782 0 -486.22033849042782 465.71664605117985 0 0 0 0 317.53125469067618 -402.04694251695764 0 -402.04694251695764 265.61268148680392 0 0 0 0 358.80974869024277 -536.10869221563917 0 -536.10869221563917 334.33531274001871 0 0 0 0 183.48053606412498 -258.28594193737081 0 -258.28594193737081 244.6048318567191 0 0 0 0 140.41972920151119 -342.37674964342932 0 -342.37674964342932 351.05564110352134 0 0 0 0 333.94843508125348 -515.89663822110015 0 -515.89663822110015 434.2292585499963 0 0 0 0 255.56896574765256 -368.68614941019041 0 -368.68614941019041 415.17997300364368 0 0 0 0 196.34724983668971 -389.53819452719472 0 -389.53819452719472 435.04452643421246 0 0 0 0 339.49251890910119 -440.11843980471167 0 -440.11843980471167 466.74127793904336 0 0 0 0 330.77942504175712 -500.04286389968183 0 -500.04286389968183 519.62520194721583 0 0 0 0 349.05790691005245 -396.25487534492277 0 -396.25487534492277 572.6928101539379 0 0 0 0 376.85800443373705 -314.15807440372009 0 -314.15807440372009 459.12301397384726 0 0 0 0 376.17032700399506 -327.31007844606211 0 -327.31007844606211 517.60105369743542 0 0 0 0 329.33348634952029 -288.70505061260337 0 -288.70505061260337 605.56377031869488 0 0 0 0 403.28102179904033 -151.76888437892194 0 -151.76888437892194 587.76571182420594 0 0 0 0 260.04525954110989 -311.29534930820228 0 -311.29534930820228 466.03621078538708 0 0 0 0 316.17724447495601 -242.57590012362925 0 -242.57590012362925 502.64662311400753 0 0 0 0 163.06579563337485 -125.21858133166097 0 -125.21858133166097 442.77800343482158 0 0 0 0 273.33166316104882 -329.4924603215768 0 -329.4924603215768 507.99464832541707 0 0 0 0 268.69226899501859 -369.97752594722988 0 -369.97752594722988 352.39263982625562 0 0 0 0 125.67648662126695 -208.57084981445951 0 -208.57084981445951 411.67551058602112 0 0 0 0 103.02055119386551 -243.10566158154688 0 -243.10566158154688 361.25262653814207 0 0 0 0 16.232208627683633 -80.448592567991 0 -80.448592567991 185.10006605986564 0 0 0 0 25.239895068486902 -257.31463707248099 0 -257.31463707248099 328.73016134364298 0 0 0 0 387.90303421865974 -324.72033952991478 0 -324.72033952991478 815.84118494618269 0 0 0 0 330.92971650820891 -491.0806073405256 0 -491.0806073405256 722.05178403164609 0 0 0 0 350.28187463586301 -399.69689825081878 0 -399.69689825081878 581.95246495195897 0 0 0 0 355.46108264971622 -370.21044214475842 0 -370.21044214475842 655.95966135909111 0 0 0 0 391.43911744877335 -272.26786940380407 0 -272.26786940380407 641.76147320122618 0 0 0 0 306.2401213641316 -149.67997713584919 0 -149.67997713584919 717.71398553628751 0 0 0 0 305.24543889248548 -246.72558397646208 0 -246.72558397646208 689.71376263108687 0 0 0 0 290.67904049716958 -310.06537607907194 0 -310.06537607907194 818.30492862762185 0 0 0 0 357.30533233879015 -383.64750487538549 0 -383.64750487538549 712.74029984493973 0 0 0 0 143.88482033826699 -221.71386258101847 0 -221.71386258101847 747.59465472809097 0 0 0 0 156.20843909392448 -432.38413475693756 0 -432.38413475693756 960.41045926524384 0 0 0 0 177.19954886392202 -265.0807602157729 0 -265.0807602157729 803.78473083845165 0 0 0 0 231.15238517570435 -238.18027453285322 0 -238.18027453285322 594.20857461646665 0 0 0 0 229.30593851504079 -162.49564580055085 0 -162.49564580055085 833.92896358727012 0 0 0 0 452.52677557648519 39.076577435684158 0 39.076577435684158 860.99821914962376 0 0 0 0 -68.449004715091831 -241.02999807352899 0 -241.02999807352899 1118.1288708832726 0 0 0 0 160.88636923925941 -348.6490219203406 0 -348.6490219203406 706.57518886549951 0 0 0 0 -27.194769073316877 -8.3632061225944199 0 -8.3632061225944199 55.714412998320768 0 0 0 0 -40.780980485063196 -15.360185801320767 0 -15.360185801320767 56.219607708917465 0 0 0 0 0.01881299648004342 -12.369051557220473 0 -12.369051557220473 -2.3106250633393444 0 0 0 0 0.15737851559588822 4.6126896246639468 0 4.6126896246639468 34.576839157402219 0 0 0 0 4.2765584299365855 -13.473611226123467 0 -13.473611226123467 40.949531988124363 0 0 0 0 1.3865997953097455 -39.402776307182194 0 -39.402776307182194 48.919691258735838 0 0 0 0 -128.32255484034164 201.18748590609175 0 201.18748590609175 155.51174910810369 0 0 0 0 -4.6526181699646827 -54.86365483719419 0 -54.86365483719419 119.04958335240372 0 0 0 0 -5.0874340451487683 4.9850239461084129 0 4.9850239461084129 293.922268476912 0 0 0 0 122.65575040895459 0.46579933445900679 0 0.46579933445900679 333.31160606868798 0 0 0 0 65.46905744825051 -147.87075619785173 0 -147.87075619785173 519.50461714927224 0 0 0 0 -27.731356003151802 107.75248626991379 0 107.75248626991379 398.84975750406738 0 0 0 0 -41.907756893462306 33.532716473680921 0 33.532716473680921 190.36161542602349 0 0 0 0 127.0205115346013 148.43246508746233 0 148.43246508746233 472.16843893840269 0 0 0 0 132.48186838609993 200.51972213311819 0 200.51972213311819 157.79149853880517 0 0 0 0 273.35904708465517 5.0253488549351459 0 5.0253488549351459 434.91325779346516 0 0 0 0 335.80470833623428 -300.22178638138575 0 -300.22178638138575 612.46964580193162 0 0 0 0 109.59091661083868 -20.061541987335659 0 -20.061541987335659 672.98177232514718 0 0 0 0 625.06246226793689 -309.95466934035358 0 -309.95466934035358 691.43525918162777 0 0 0 0 275.67694085618518 72.096887194624287 0 72.096887194624287 1166.8080321224843 0 0 0 0 797.46576153292017 423.26427781634266 0 423.26427781634266 457.4742778824002 0 0 0 0 886.86332943639627 111.66416383582691 0 111.66416383582691 39.621110152453184 0 0 0 0 -0.44184914703529188 -5.8671652295565728 0 -5.8671652295565728 4.4387690921600438 0 0 0 0 432.68497151716429 44.240742280264385 0 44.240742280264385 120.74007526690548 0 0 0 0 -0.30652753459837023 0.32060390390100224 0 0.32060390390100224 2.9777544190936993 0 0 0 0 126.5268769852548 139.228725363595 0 139.228725363595 -112.67405440822768 0 0 0 0 321.28849154610555 -138.35321932383522 0 -138.35321932383522 33.450651970382751 0 0 0 0 173.22732108573501 174.08241200486373 0 174.08241200486373 55.882413244951749 0 0 0 0 182.58157573577145 112.83537624355813 0 112.83537624355813 -162.46677640246344 0 0 0 0 27.338059893098489 294.3615144409996 0 294.3615144409996 -241.07660341133305 0 0 0 0 -38.970615572501984 286.31342867625062 0 286.31342867625062 -30.397370353894075 0 0 0 0 108.70167961053141 94.729515199040179 0 94.729515199040179 -5.5927671066310722 0 0 0 0 2.3930175235413031 6.1343240145765492 0 6.1343240145765492 11.564220426821265 0 0 0 0 -234.53774431440755 393.34519989174441 0 393.34519989174441 -121.09356333511823 0 0 0 0 -22.05741364478564 48.986907761558541 0 48.986907761558541 -191.94995449004637 0 0 0 0 141.5361403259966 123.22609407547316 0 123.22609407547316 -180.35956609378627 0 0 0 0 123.10841180449518 190.72022479634325 0 190.72022479634325 -181.25028505957744 0 0 0 0 -232.75638478025405 51.993819797426113 0 51.993819797426113 -22.187859345234756 0 0 0 0 219.21903870640699 694.94389018393849 0 694.94389018393849 735.37619558480219 0 0 0 0 106.98554996641042 60.00884392678563 0 60.00884392678563 -205.50590119078697 0 0 0 0 122.44334771634669 -109.47293679576251 0 -109.47293679576251 657.92155229763011 0 0 0 0 1.2348373989655377 2.2802529752936636 0 2.2802529752936636 4.4174828846126388 0 0 0 0 65.756593165537424 -116.11293422190647 0 -116.11293422190647 238.87238487314607 0 0 0 0 77.261042256946098 -186.81347643112895 0 -186.81347643112895 645.24692947979202 0 0 0 0 -22.561899828001003 -4.9239382061568904 0 -4.9239382061568904 24.981765955650189 0 0 0 0 -24.476354702115223 -34.931087863402354 0 -34.931087863402354 45.682656607707031 0 0 0 0 -21.611935349965734 -26.221269195935747 0 -26.221269195935747 36.81707426259527 0 0 0 0 -114.20528255919743 -6.8873634793999372 0 -6.8873634793999372 57.821415450533095 0 0 0 0 0.018522012531826726 5.0008337444608344 0 5.0008337444608344 36.515076396199163 0 0 0 0 -469.35129709611067 567.0320693555459 0 567.0320693555459 637.85144169683917 0 0 0 0 50.492691255785559 -26.82741482010897 0 -26.82741482010897 38.391373692124034 0 0 0 0 15.849008004681323 -21.417434506543941 0 -21.417434506543941 45.502846156261512 0 0 0 0 12.353213763280166 -32.644807344957371 0 -32.644807344957371 28.583591139962664 0 0 0 0 19.068078215794849 -33.084012067469303 0 -33.084012067469303 44.591768399870489 0 0 0 0 43.899631330488859 5.5276180350265349 0 5.5276180350265349 77.988934328663163 0 0 0 0 6.1957122620286498 -18.786552332618157 0 -18.786552332618157 46.718915686480614 0 0 0 0 32.950061211476246 -23.558879013828118 0 -23.558879013828118 30.981296165773529 0 0 0 0 0.20723106586026874 -0.047322734819744028 0 -0.047322734819744028 0.042191181092491092 0 0 0 0 5.4462399388771416 -21.123649023618782 0 -21.123649023618782 45.402217371447477 0 0 0 0 19.55005901042739 -34.481886367473635 0 -34.481886367473635 37.59508030332654 0 0 0 0 2.9044640366904915 -10.647287971892069 0 -10.647287971892069 -3.8785201044782127 0 0 0 0 143.52585269947031 -419.05057887891599 0 -419.05057887891599 948.19687863474246 0 0 0 0 17.960456898174073 -31.140927992819343 0 -31.140927992819343 50.870701391337207 0 0 0 0 8.6790064765367276 -15.92089491225488 0 -15.92089491225488 40.158064051312977 0 0 0 0 154.36569071039844 -530.44980376228341 0 -530.44980376228341 1478.5220069607312 0 0 0 0 3.9328863941202568 -7.1538222484896039 0 -7.1538222484896039 -1.5265803593455871 0 0 0 0 4.1282441001757775 -14.801696818263736 0 -14.801696818263736 45.653359814612486 0 0 0 0 140.73762818663675 -484.65377880926462 0 -484.65377880926462 1429.4159417291812 0 0 0 0 422.57205914774681 -835.37856876230217 0 -835.37856876230217 1173.9085212365608 0 0 0 0 276.35763188998078 -646.15237043757952 0 -646.15237043757952 1078.1427484951564 0 0 0 0 122.32210454715516 -401.85305698402226 0 -401.85305698402226 1067.1041730002908 0 0 0 0 -0.8366145612211715 -1.8444230896820102 0 -1.8444230896820102 9.893753395934425 0 0 0 0 -0.00095801950387691529 -0.10477915724914055 0 -0.10477915724914055 16.018037787460344 0 0 0 0 555.65159679914791 -590.34133271446626 0 -590.34133271446626 748.40758173330687 0 0 0 0 1347.0888855610797 -1275.0670949130363 0 -1275.0670949130363 1297.5494602797116 0 0 0 0 4.814590856103564 -640.21660633498323 0 -640.21660633498323 2219.830955828249 0 0 0 0 668.35563471959858 -902.30156025928591 0 -902.30156025928591 2225.1661150314976 0 0 0 0 1417.9844719229864 -2008.6200905457781 0 -2008.6200905457781 2297.2850581360399 0 0 0 0 11.577295716545422 -788.25241647975054 0 -788.25241647975054 3198.281238755917 0 0 0 0 9.0082201891581661 -14.560276161530055 0 -14.560276161530055 33.278420929862477 0 0 0 0 -1.9770342962718774 -22.871245347785589 0 -22.871245347785589 58.715969415556174 0 0 0 0 0.048192877097902986 -30.037980619221344 0 -30.037980619221344 42.739141421396198 0 0 0 0 2.4524748143206803 -3.3890698182630956 0 -3.3890698182630956 0.97961750226261302 0 0 0 0 10.405806737207413 -19.504443119949428 0 -19.504443119949428 41.893622178409714 0 0 0 0 6.1438579469954533 -8.0718662492072326 0 -8.0718662492072326 46.595292636440718 0 0 0 0 -7.3456357014158833 2.7056406982665067 0 2.7056406982665067 95.925146032706834 0 0 0 0 26.76545326032792 30.18240804881134 0 30.18240804881134 99.146343645115849 0 0 0 0 0.16423484727715415 0.0060598143923584757 0 0.0060598143923584757 0.14179748194302988 0 0 0 0 0.035012693055682685 8.6972231463623757 0 8.6972231463623757 125.23826364651541 0 0 0 0 6.6127168902377491 37.955813130327442 0 37.955813130327442 186.58540672660456 0 0 0 0 51.733252304558079 29.936030126089463 0 29.936030126089463 97.161919758465046 0 0 0 0 26.962081429953294 54.02845656255522 0 54.02845656255522 213.72245202503109 0 0 0 0 43.414257520477662 91.92315326804237 0 91.92315326804237 207.84687841589403 0 0 0 0 0.033752440968407516 33.778737084354901 0 33.778737084354901 326.42627354018623 0 0 0 0 4.0080740743478032 -31.006557469183463 0 -31.006557469183463 66.858727131562773 0 0 0 0 75.01007786729329 65.709086039663816 0 65.709086039663816 119.04636046133965 0 0 0 0 26.512845655925311 -0.66738434845319716 0 -0.66738434845319716 98.728521723402082 0 0 0 0 46.611448980983745 49.124644171835826 0 49.124644171835826 171.73314345195831 0 0 0 0 87.091925871793393 34.25648795581219 0 34.25648795581219 32.480701977023273 0 0 0 0 158.51172752794722 71.603729503565347 0 71.603729503565347 -23.539110114987125 0 0 0 0 160.0204147789475 289.7582861518531 0 289.7582861518531 412.84034681554476 0 0 0 0 76.452140601888843 173.44976519628381 0 173.44976519628381 311.77659732234315 0 0 0 0 90.760145547189538 107.17617118421185 0 107.17617118421185 139.33666063386772 0 0 0 0 -32.315327383906336 166.13717367213894 0 166.13717367213894 592.25649579711899 0 0 0 0 -30.18697457808268 132.982144677625 0 132.982144677625 574.72867172345286 0 0 0 0 5.1053906951864718 232.39259407443024 0 232.39259407443024 684.49089028984599 0 0 0 0 -26.640051205135894 118.68428578442763 0 118.68428578442763 974.52354419455514 0 0 0 0 -25.295466783997508 99.284584350014484 0 99.284584350014484 404.28901753301034 0 0 0 0 -24.894192874124826 93.335840952022409 0 93.335840952022409 457.61644384689862 0 0 0 0 -0.13073152680731859 17.565752432226873 0 17.565752432226873 511.48462781371927 0 0 0 0 -86.928524601083794 -39.44856892858661 0 -39.44856892858661 475.72268185814028 0 0 0 0 -0.049527131934117556 -39.558289195119869 0 -39.558289195119869 420.87494528607931 0 0 0 0 -60.749552255542582 -93.481192347142496 0 -93.481192347142496 345.21675344867253 0 0 0 0 -85.876826365499227 -27.256242227752409 0 -27.256242227752409 617.06701881623303 0 0 0 0 -120.41632519046841 -6.1429881316798856 0 -6.1429881316798856 615.49014520722631 0 0 0 0 -117.77532459377387 30.358453120583363 0 30.358453120583363 933.03097647379036 0 0 0 0 -72.178972507926801 -154.97943715748261 0 -154.97943715748261 717.87551277935563 0 0 0 0 300.04168358346624 293.88302131641831 0 293.88302131641831 1062.9116807746977 0 0 0 0 -71.980912523890197 -132.21956211202041 0 -132.21956211202041 1429.8606758687965 0 0 0 0 207.8998336548336 -278.51947778670365 0 -278.51947778670365 148.52552343287971 0 0 0 0 302.68994805037755 -569.73735404085528 0 -569.73735404085528 817.71018781197199 0 0 0 0 -48.969087080366869 -244.33424692999688 0 -244.33424692999688 768.54485304315313 0 0 0 0 -32.054382556458094 -198.91514573920722 0 -198.91514573920722 416.40035705351329 0 0 0 0 36.015730336291504 -176.33255253682 0 -176.33255253682 167.50045391952153 0 0 0 0 -322.39332138428051 7.6817339783738134 0 7.6817339783738134 143.36794299053145 0 0 0 0 -0.75009604175503686 0.70793034865680227 0 0.70793034865680227 11.598237957240599 0 0 0 0 -145.96240682333337 9.6064180876855971 0 9.6064180876855971 119.31475139639133 0 0 0 0 -65.751194889079102 -122.72246825536422 0 -122.72246825536422 106.88751989803859 0 0 0 0 2.7432817889283996 -11.254565963201458 0 -11.254565963201458 21.635575466309092 0 0 0 0 28.489555875404548 -113.78681646152836 0 -113.78681646152836 127.55459213988433 0 0 0 0 0.030173660051102932 -40.715108046311258 0 -40.715108046311258 242.180781788491 0 0 0 0 -2.5527048188133676 -142.74736021110584 0 -142.74736021110584 295.81761810223543 0 0 0 0 91.098582956237806 30.746481095229683 0 30.746481095229683 513.96148783748504 0 0 0 0 127.53592360374478 42.245312618913886 0 42.245312618913886 270.10821467940696 0 0 0 0 147.81932618124108 124.3263788448603 0 124.3263788448603 472.889354722196 0 0 0 0 49.639816202100633 -74.969479405459424 0 -74.969479405459424 295.4458608198911 0 0 0 0 60.312094967267285 -169.90104042051462 0 -169.90104042051462 542.25433623231947 0 0 0 0 128.3534648725265 -41.353112665849039 0 -41.353112665849039 296.6306306913466 0 0 0 0 131.88334673825375 -88.68927709912532 0 -88.68927709912532 158.42806692192971 0 0 0 0 145.78114697905869 -38.758555214291846 0 -38.758555214291846 224.70195287239039 0 0 0 0 146.45688065266688 -4.0654085195565131 0 -4.0654085195565131 301.69929157069419 0 0 0 0 109.8143411591625 -94.640311829964048 0 -94.640311829964048 207.91617261360807 0 0 0 0 118.50218969380944 -100.26575185809634 0 -100.26575185809634 112.71221854744363 0 0 0 0 168.41655517138986 -13.00771612792596 0 -13.00771612792596 147.32709522377991 0 0 0 0 30.300231218406083 1.0313439534511417 0 1.0313439534511417 -11.744443423478515 0 0 0 0 26.180036411255145 -82.459021298716834 0 -82.459021298716834 148.07114923649351 0 0 0 0 202.95810104972389 150.70406153590739 0 150.70406153590739 184.88548693471239 0 0 0 0 125.73197063901574 -122.23045465609175 0 -122.23045465609175 -181.21603094035527 0 0 0 0 177.85866638738878 -40.718399070879968 0 -40.718399070879968 -0.23911859576764982 0 0 0 0 163.23404103161732 31.540491076433682 0 31.540491076433682 245.08140794056817 0 0 0 0 174.49758917024667 100.45228012108419 0 100.45228012108419 169.30203014890139 0 0 0 0 227.77810548111407 144.56227316636478 0 144.56227316636478 163.10309662509826 0 0 0 0 234.44013534718562 262.66848670925538 0 262.66848670925538 403.44702337484341 0 0 0 0 62.2262172769274 259.76998778999405 0 259.76998778999405 651.92348407566897 0 0 0 0 -0.0054520830631618888 0.31716178652110472 0 0.31716178652110472 5.7304633553039253 0 0 0 0 9.7276097321076804 420.4185183260488 0 420.4185183260488 320.24681240588689 0 0 0 0 333.12270591181641 484.16611716490297 0 484.16611716490297 486.48924826383882 0 0 0 0 127.26508835401278 129.72831487969233 0 129.72831487969233 1038.2129080722516 0 0 0 0 883.26219574232073 -305.345940503772 0 -305.345940503772 1248.0031355552783 0 0 0 0 381.30845959426995 -300.15360967796732 0 -300.15360967796732 1629.0970738433534 0 0 0 0 127.89646553734121 353.74780999240829 0 353.74780999240829 683.78862705407664 0 0 0 0 93.777798914667187 364.20271603330912 0 364.20271603330912 1099.5821744686691 0 0 0 0 22.191536239948164 44.134507187358395 0 44.134507187358395 1575.5020350280756 0 0 0 0 567.11285379098172 517.05697745735779 0 517.05697745735779 1133.7419740167388 0 0 0 0 20.608348469001328 -28.562235965524451 0 -28.562235965524451 708.09657106517261 0 0 0 0 -123.40497151156194 332.88374713319354 0 332.88374713319354 1018.0743507875741 0 0 0 0 -212.18735385514458 159.94356827207775 0 159.94356827207775 805.61355087417178 0 0 0 0 -19.027030240066892 166.17674107637868 0 166.17674107637868 805.28919385257177 0 0 0 0 7.522223243955068 158.50991554694338 0 158.50991554694338 464.56585244122107 0 0 0 0 -71.596582750125208 -2.1170335307106143 0 -2.1170335307106143 536.84741296064749 0 0 0 0 -68.234308097497589 -72.068847449186705 0 -72.068847449186705 589.79338593666034 0 0 0 0 -221.28884605158646 277.17334319661677 0 277.17334319661677 517.90037476548605 0 0 0 0 -148.78658548265437 -227.16621879647755 0 -227.16621879647755 106.65554778728983 0 0 0 0 -134.30286247611838 -22.851241305778331 0 -22.851241305778331 753.20367972101667 0 0 0 0 38.855414927964716 -166.38279691135904 0 -166.38279691135904 -276.76210782992712 0 0 0 0 1.667467582019353 -5.627833536963081 0 -5.627833536963081 11.52056784765864 0 0 0 0 -495.35164430231225 -91.041840558187687 0 -91.041840558187687 251.06185626379738 0 0 0 0 -501.23568596293569 -351.8973687612488 0 -351.8973687612488 271.51567030914885 0 0 0 0 266.93788565706512 442.90717020025841 0 442.90717020025841 344.03262021288538 0 0 0 0 -5.6063058741794407 384.2955660420339 0 384.2955660420339 804.03471753996564 0 0 0 0 0.18390780481352698 0.33804124516750633 0 0.33804124516750633 11.594597779605863 0 0 0 0 528.80550192643386 -543.36941559348634 0 -543.36941559348634 707.46277444830775 0 0 0 0 421.87080608965965 -269.33270018925032 0 -269.33270018925032 45.305621486499149 0 0 0 0 22.751040046830781 -189.70619999327027 0 -189.70619999327027 40.824335829078336 0 0 0 0 -168.50149178376819 40.138356170612496 0 40.138356170612496 63.558777027734322 0 0 0 0 -49.304856222621822 -65.390352848655311 0 -65.390352848655311 80.517384809139912 0 0 0 0 -0.50029440834962979 1.9997986063018196 0 1.9997986063018196 30.049753897942082 0 0 0 0 -254.95519464383972 -322.3067194414507 0 -322.3067194414507 20.422102406155318 0 0 0 0 51.333802471070726 -355.91689572936593 0 -355.91689572936593 -327.87811723344203 0 0 0 0 -16.063963076228504 -10.097158412558201 0 -10.097158412558201 51.219016568458756 0 0 0 0 -28.249084089064667 -38.749494954223337 0 -38.749494954223337 29.748872445197776 0 0 0 0 -35.98771061020858 339.94831823925563 0 339.94831823925563 450.61901960860996 0 0 0 0 1.5421625674886092 -2.8091583302409333 0 -2.8091583302409333 4.8930494246989724 0 0 0 0 200.39703432494628 -332.04691319850826 0 -332.04691319850826 -156.59782107624051 0 0 0 0 43.388549652475774 -368.14239691049443 0 -368.14239691049443 669.92202733861632 0 0 0 0 1009.8940283414386 120.65624249060056 0 120.65624249060056 260.42943745183584 0 0 0 0 976.5327815268306 167.02708069168148 0 167.02708069168148 713.92911988023843 0 0 0 0 133.16994492633717 -58.128263603663072 0 -58.128263603663072 837.26967583021906 0 0 0 0 -37.741888423296587 242.53417062747758 0 242.53417062747758 624.47064318534103 0 0 0 0 17.976844597402419 172.77902054106016 0 172.77902054106016 540.07617854030104 0 0 0 0 -37.517554365872911 126.61056108543926 0 126.61056108543926 562.03149811665935 0 0 0 0 -85.616877920301249 188.27452586285654 0 188.27452586285654 501.4155955942515 0 0 0 0 -49.381530726412166 206.45426135584421 0 206.45426135584421 367.84492160071386 0 0 0 0 -66.126866855756589 185.86364775602124 0 185.86364775602124 424.51459442271153 0 0 0 0 5.5894502940143411 279.50193490173478 0 279.50193490173478 207.08434429010958 0 0 0 0 -70.159460749267964 196.83930977827549 0 196.83930977827549 427.5415180682885 0 0 0 0 -68.98677325923245 203.58392376583743 0 203.58392376583743 445.07645148855227 0 0 0 0 300.2875453486904 182.60193268072908 0 182.60193268072908 321.10722719103069 0 0 0 0 113.9428909378571 244.12803014418023 0 244.12803014418023 207.13351860741386 0 0 0 0 -37.600520989927418 234.72286609548974 0 234.72286609548974 431.91179474846285 0 0 0 0 0.24112568108501364 -1.5910310625307429 0 -1.5910310625307429 5.0368853601498245 0 0 0 0 427.83590003124391 -63.241217441845947 0 -63.241217441845947 -310.35966089151043 0 0 0 0 145.34732718600401 -204.8067550859314 0 -204.8067550859314 -335.39304109438672 0 0 0 0 153.55015175360859 15.62915994701325 0 15.62915994701325 81.400788920218474 0 0 0 0 -6.3818781645995841 50.679081416514236 0 50.679081416514236 621.06659031662275 0 0 0 0 127.30887852831358 -200.35804111020661 0 -200.35804111020661 324.96956131086336 0 0 0 0 8.6530611997040765 -6.8060000742246629 0 -6.8060000742246629 -1.6210365707235042 0 0 0 0 296.7250725641652 -109.93911214160471 0 -109.93911214160471 -65.625718777882867 0 0 0 0 -196.11156405351358 -281.67670541216648 0 -281.67670541216648 85.437944835459348 0 0 0 0 80.730241091627249 -9.7631311722361716 0 -9.7631311722361716 15.301931132446043 0 0 0 0 -1.7403576527490543 -5.6787070458654512 0 -5.6787070458654512 11.201265213049021 0 0 0 0 -108.32000635450095 10.210927055682987 0 10.210927055682987 122.56460229291406 0 0 0 0 -206.29879629224615 -138.92893259724224 0 -138.92893259724224 154.37574910063995 0 0 0 0 85.134991614755563 -81.895085221847694 0 -81.895085221847694 85.01824565755669 0 0 0 0 150.419422828194 -237.55683205166133 0 -237.55683205166133 -194.16553206357639 0 0 0 0 109.18242636899231 -72.900658979051514 0 -72.900658979051514 23.149157867897884 0 0 0 0 47.992628083546151 18.520712629298941 0 18.520712629298941 228.34805247167242 0 0 0 0 241.72086640748603 141.06500825860712 0 141.06500825860712 123.92594951628416 0 0 0 0 386.68787747135502 281.27710698219016 0 281.27710698219016 172.1346873197981 0 0 0 0 343.03614138606281 181.99933113437146 0 181.99933113437146 96.439663773206121 0 0 0 0 395.04355913433392 323.18441129924031 0 323.18441129924031 248.77336757921148 0 0 0 0 242.88928451297033 41.052782625105465 0 41.052782625105465 -13.337247057410423 0 0 0 0 249.8555108214166 182.90999114966007 0 182.90999114966007 190.7445174936729 0 0 0 0 639.90888250943681 128.16006579142413 0 128.16006579142413 -225.96495139389299 0 0 0 0 276.54502620182393 121.39184399830992 0 121.39184399830992 120.8243763516075 0 0 0 0 273.8299237323954 -35.396759011753602 0 -35.396759011753602 -91.550645918337977 0 0 0 0 318.18278355178609 365.21603940520436 0 365.21603940520436 376.50943453652144 0 0 0 0 212.51932245038188 273.84726795356255 0 273.84726795356255 308.56426200267742 0 0 0 0 356.11525257309222 393.10048781671503 0 393.10048781671503 317.7804148035284 0 0 0 0 395.44252387345341 303.74733684938474 0 303.74733684938474 337.16035143393674 0 0 0 0 250.55525051961013 286.10555317939725 0 286.10555317939725 335.41371471369348 0 0 0 0 287.57444884286861 369.00432883510439 0 369.00432883510439 484.5204253687989 0 0 0 0 126.8008047513531 97.231880689600075 0 97.231880689600075 815.29566433743457 0 0 0 0 261.93246782179813 334.6402307832177 0 334.6402307832177 467.74959686100919 0 0 0 0 274.50493495214414 456.63303295822698 0 456.63303295822698 1058.2466541850881 0 0 0 0 142.33437086206754 56.055156056345368 0 56.055156056345368 388.16421927558258 0 0 0 0 334.98518860295098 378.49494763288021 0 378.49494763288021 756.04951959307436 0 0 0 0 368.82621452991225 217.16634302934108 0 217.16634302934108 99.809466844657436 0 0 0 0 -0.52250914367475154 2.1385836061548815 0 2.1385836061548815 1.9926259560319863 0 0 0 0 456.1122967296451 491.84294929321914 0 491.84294929321914 506.89486010299879 0 0 0 0 435.51775654724588 342.13803976275085 0 342.13803976275085 309.98950206470909 0 0 0 0 338.563413730707 282.50884564351145 0 282.50884564351145 289.44844280986581 0 0 0 0 331.19956509401891 296.85675179641112 0 296.85675179641112 347.01223916007439 0 0 0 0 203.87988482831497 6.9531023001472931 0 6.9531023001472931 1052.7966284511788 0 0 0 0 321.10440687889059 160.25403986505989 0 160.25403986505989 843.25517221315386 0 0 0 0 282.49968096399334 290.84496364450024 0 290.84496364450024 885.65039321384393 0 0 0 0 321.26216192182846 163.89243656281906 0 163.89243656281906 851.17191130679566 0 0 0 0 252.74044293625775 151.63365176292427 0 151.63365176292427 886.57661334626027 0 0 0 0 377.0017006472508 80.393553619367594 0 80.393553619367594 846.86036313400837 0 0 0 0 182.0255178797961 52.544486154787592 0 52.544486154787592 851.22587784103234 0 0 0 0 158.77709568749015 82.543870875058929 0 82.543870875058929 844.55947760595882 0 0 0 0 156.0337767042962 191.42211224594189 0 191.42211224594189 1042.6265916635166 0 0 0 0 39.828608029407405 -170.28771629441326 0 -170.28771629441326 769.03448681136797 0 0 0 0 148.56793394549777 121.06680586806033 0 121.06680586806033 828.2454655989859 0 0 0 0 250.88762230350721 16.510848663576326 0 16.510848663576326 693.55853074486367 0 0 0 0 56.892884831522224 -2.8320339660785976 0 -2.8320339660785976 559.77343629305324 0 0 0 0 0.37224454285933462 -336.75040289536264 0 -336.75040289536264 419.49897327895451 0 0 0 0 -148.29021338333587 120.241594107727 0 120.241594107727 -91.437763601796178 0 0 0 0 -185.05350416680403 -26.392523066911963 0 -26.392523066911963 102.93206594267758 0 0 0 0 0.8609546107238657 250.88298706090791 0 250.88298706090791 192.26922086735431 0 0 0 0 11.452980735681649 -122.05745182064857 0 -122.05745182064857 275.32111037685536 0 0 0 0 118.64629216526646 107.69533723498898 0 107.69533723498898 356.65025856802822 0 0 0 0 188.01350377748486 259.38264936269843 0 259.38264936269843 494.91734799180995 0 0 0 0 105.83507614214614 -185.32343907050381 0 -185.32343907050381 118.56687032608897 0 0 0 0 71.633588475031502 -19.748571383141098 0 -19.748571383141098 -49.911147705672192 0 0 0 0 27.605096068948114 -36.019265056689619 0 -36.019265056689619 -50.053646958695026 0 0 0 0 45.20899789744908 -96.656802446948859 0 -96.656802446948859 -60.565821906318888 0 0 0 0 0.0064764332998201724 5.5856834410110139 0 5.5856834410110139 -5.1251353229138941 0 0 0 0 42.437775961681247 -21.796462180961015 0 -21.796462180961015 -8.7089724371070556 0 0 0 0 50.999319248057873 -61.897517064302519 0 -61.897517064302519 23.08340559729163 0 0 0 0 114.77343842990194 43.182646702327474 0 43.182646702327474 -185.68767263696645 0 0 0 0 4.4348178831480531 -5.8215099755117024 0 -5.8215099755117024 1.3241289396139848 0 0 0 0 57.108132740348651 -0.35192917267704615 0 -0.35192917267704615 7.5256596980034374 0 0 0 0 -35.545375992916888 -151.09702914597437 0 -151.09702914597437 -71.100926053957664 0 0 0 0 117.29963971812322 -5.6502355016564252 0 -5.6502355016564252 63.433922287425958 0 0 0 0 17.371042305061621 308.37981107789483 0 308.37981107789483 -239.12766830156033 0 0 0 0 93.820123540620443 -123.99221562512685 0 -123.99221562512685 85.139193024904216 0 0 0 0 2.7629397302781591 1.7835718589488039 0 1.7835718589488039 -0.37634466069872019 0 0 0 0 86.171318641961989 -31.607544939346553 0 -31.607544939346553 -61.20311426880653 0 0 0 0 46.662027773183127 -24.709399369400089 0 -24.709399369400089 -1.7129456875681459 0 0 0 0 33.40674507026597 -33.151453142883838 0 -33.151453142883838 83.17535043580574 0 0 0 0 57.600048545287791 -64.432518305402482 0 -64.432518305402482 1.1234035080706235 0 0 0 0 40.678595140930739 -28.224111405930316 0 -28.224111405930316 4.9809316056576947 0 0 0 0 7.3292816814566013 -8.0228050567190508 0 -8.0228050567190508 9.2438118445032842 0 0 0 0 -106.65085654140057 -49.142398755866452 0 -49.142398755866452 90.153631422435865 0 0 0 0 80.730241091632706 -9.7631311722361716 0 -9.7631311722361716 15.301931132487539 0 0 0 0 31.990451371344989 8.4538660151583827 0 8.4538660151583827 9.0505649268743582 0 0 0 0 80.730241091630887 -9.7631311722070677 0 -9.7631311722070677 15.301931132489699 0 0 0 0 152.63508020667905 -30.403745180585247 0 -30.403745180585247 -44.951361814055417 0 0 0 0 -118.23707669780561 -863.94412989847478 0 -863.94412989847478 4.7319095528218895 0 0 0 0 0.78488068614929674 1.4803825194118758 0 1.4803825194118758 2.2005554306527983 0 0 0 0 38.611480641751768 -174.7814070825134 0 -174.7814070825134 183.75651968804596 0 0 0 0 70.030281624332929 481.44518083809089 0 481.44518083809089 730.97835968993604 0 0 0 0 -183.88403596760639 272.87859987710362 0 272.87859987710362 890.36717647692421 0 0 0 0 151.97174655243725 309.06363293449976 0 309.06363293449976 907.62245152173273 0 0 0 0 117.16997312076819 334.21531706408132 0 334.21531706408132 1162.6617133041145 0 0 0 0 106.63308297483309 190.45868422628701 0 190.45868422628701 1157.4822843704314 0 0 0 0 98.934299540273059 206.20039927007747 0 206.20039927007747 1125.4550258711024 0 0 0 0 85.729098841173254 305.1741688867769 0 305.1741688867769 1435.1849832771986 0 0 0 0 270.06509648614519 264.46790189596504 0 264.46790189596504 1221.9362198332674 0 0 0 0 115.43589585702102 409.95088290858257 0 409.95088290858257 1251.9968937589147 0 0 0 0 222.74549549154835 395.80722534800589 0 395.80722534800589 926.00233741854026 0 0 0 0 547.17762849545034 -415.87941753333871 0 -415.87941753333871 1117.4025906149036 0 0 0 0 472.859134255963 129.09385666526214 0 129.09385666526214 805.47044643564732 0 0 0 0 340.94939747878925 -58.855356168278377 0 -58.855356168278377 912.0488940338837 0 0 0 0 358.44519995635574 546.18538700662248 0 546.18538700662248 1778.1057659042999 0 0 0 0 269.35103868950682 351.74497405748116 0 351.74497405748116 1988.7213380136236 0 0 0 0 351.69029824492827 482.52672959206393 0 482.52672959206393 1658.8516338046174 0 0 0 0 283.20738727020216 274.79471552374889 0 274.79471552374889 1519.8379172478308 0 0 0 0 973.57164522060066 238.26295995215332 0 238.26295995215332 1041.7131621217995 0 0 0 0 96.52632847152563 3.1952753095247317 0 3.1952753095247317 898.656547704486 0 0 0 0 334.37649774818419 -145.40628772234777 0 -145.40628772234777 -281.6238520892648 0 0 0 0 -140.95686495394705 -221.89198644165617 0 -221.89198644165617 391.40784663628438 0 0 0 0 364.65334271665051 -280.65839555043931 0 -280.65839555043931 429.97288309190481 0 0 0 0 211.92660694363076 177.38483634426666 0 177.38483634426666 796.72046167798544 0 0 0 0 182.1782932265221 -286.65528536108195 0 -286.65528536108195 609.65866150001239 0 0 0 0 46.615725051875415 -7.2842631284802337 0 -7.2842631284802337 375.62677354115294 0 0 0 0 232.63314271016861 -226.62855719454819 0 -226.62855719454819 136.20590558538242 0 0 0 0 108.70785517292643 -58.023242753770319 0 -58.023242753770319 992.54143472750729 0 0 0 0 -34.902845041557157 -183.31082737375255 0 -183.31082737375255 1658.6886167459743 0 0 0 0 79.285428092635811 82.235773040585627 0 82.235773040585627 1055.7123983210186 0 0 0 0 18.096396013634603 -143.00120879737642 0 -143.00120879737642 768.28205927641829 0 0 0 0 39.7053604659759 -147.0279020679227 0 -147.0279020679227 580.92018908236059 0 0 0 0 124.59949126671745 -63.57581841222418 0 -63.57581841222418 229.2911319018167 0 0 0 0 208.1308847715718 242.42659007327165 0 242.42659007327165 556.27820250992227 0 0 0 0 71.181193641711275 236.57827896928029 0 236.57827896928029 644.74480459179904 0 0 0 0 -31.527935052166868 138.04692103210255 0 138.04692103210255 702.68965160081643 0 0 0 0 1.8802229965322041 -1.4949412239232061 0 -1.4949412239232061 2.2418744394858763 0 0 0 0 985.87642259718268 -208.15200911753345 0 -208.15200911753345 977.7187521814194 0 0 0 0 19.675007379481031 371.62275542154384 0 371.62275542154384 1073.7283725572779 0 0 0 0 -8.4705026180372442 195.36322116878364 0 195.36322116878364 831.05680205964018 0 0 0 0 226.61457032867293 241.52275587726035 0 241.52275587726035 563.80502850280027 0 0 0 0 176.12688811965745 196.76707064211223 0 196.76707064211223 535.65971458586864 0 0 0 0 140.94553229996018 304.28512008945108 0 304.28512008945108 698.0333203907503 0 0 0 0 26.665749507743385 251.73173007771402 0 251.73173007771402 618.66065103214351 0 0 0 0 72.234676218820141 229.49774066622285 0 229.49774066622285 626.99435340659693 0 0 0 0 211.78097472310037 120.31942985311616 0 120.31942985311616 611.02231431609835 0 0 0 0 -26.567625504734679 83.396648223104421 0 83.396648223104421 618.29743919669272 0 0 0 0 14.298686464335333 12.482487873276114 0 12.482487873276114 657.24171566116456 0 0 0 0 279.83977688649611 -196.8403272000578 0 -196.8403272000578 677.73032579186838 0 0 0 0 527.38760793706842 -445.82885592004823 0 -445.82885592004823 636.68203092811746 0 0 0 0 374.47788903269611 -155.97161365825741 0 -155.97161365825741 150.95553931000177 0 0 0 0 408.67016431767843 153.60720001682057 0 153.60720001682057 -45.141610288752418 0 0 0 0 159.47558591164307 2.173372523910075 0 2.173372523910075 353.99501747309114 0 0 0 0 397.16451306847739 213.45729926887725 0 213.45729926887725 429.95030064831371 0 0 0 0 321.52045486698262 508.91195412825618 0 508.91195412825618 658.12555435019385 0 0 0 0 344.66712400430879 419.98112912310171 0 419.98112912310171 369.92185170292214 0 0 0 0 2.8605134358151112 5.7184560701457912 0 5.7184560701457912 9.7786036593638812 0 0 0 0 507.43318493330025 518.47969195438054 0 518.47969195438054 -286.21583849647141 0 0 0 0 197.94191404545199 -637.28762802270649 0 -637.28762802270649 1840.6819257128154 0 0 0 0 95.92880875389892 -90.634127769400948 0 -90.634127769400948 1930.3487317453109 0 0 0 0 -58.541891389639204 -1.0901960054470692 0 -1.0901960054470692 2381.0199307660587 0 0 0 0 -226.25100119769922 408.90593519028334 0 408.90593519028334 2154.136498459673 0 0 0 0 335.93551325333465 -667.93863138293091 0 -667.93863138293091 1222.5952608901935 0 0 0 0 86.358471628102052 -165.11932607075141 0 -165.11932607075141 1589.974569581711 0 0 0 0 85.59025501974611 -45.77309186256025 0 -45.77309186256025 1466.4398935317477 0 0 0 0 99.930335395760267 -63.763565154480602 0 -63.763565154480602 1415.4736729218857 0 0 0 0 44.211099426436704 29.545633229805389 0 29.545633229805389 1335.2705706542183 0 0 0 0 34.51904767443375 -27.684022424858995 0 -27.684022424858995 1139.2768707636233 0 0 0 0 61.741544777347372 -175.30855534809234 0 -175.30855534809234 1116.0450177181337 0 0 0 0 110.48297121192445 -231.55506168981083 0 -231.55506168981083 1176.9658103063266 0 0 0 0 321.42186895640634 -571.04513722188312 0 -571.04513722188312 679.01688571184059 0 0 0 0 -707.10185717920285 -245.32793107610632 0 -245.32793107610632 1003.7758227628947 0 0 0 0 957.25830748835506 -332.34428740407748 0 -332.34428740407748 -594.18351856337176 0 0 0 0 165.01755209831572 -341.08730988897514 0 -341.08730988897514 659.93998604721128 0 0 0 0 3.3664491936899097 -2.3314286495894123 0 -2.3314286495894123 1.5546163392903907 0 0 0 0 124.76363325882085 -72.602852554293349 0 -72.602852554293349 -19.756656439494691 0 0 0 0 -41.801295301229402 -68.815260263821983 0 -68.815260263821983 48.441550203137012 0 0 0 0 -33.519544715642411 -14.360746001721054 0 -14.360746001721054 1.6113291631107813 0 0 0 0 284.8462373365428 -236.95517084041785 0 -236.95517084041785 86.060411769693019 0 0 0 0 30.268133938230676 -0.2885818113500136 0 -0.2885818113500136 -2.6572605175133504 0 0 0 0 -101.74681883078301 2.2673324100614991 0 2.2673324100614991 4.2062300745601533 0 0 0 0 -13.261669654801748 -18.928873614185605 0 -18.928873614185605 7.8974035251698069 0 0 0 0 -14.863750619745147 -4.8310287499702724 0 -4.8310287499702724 21.371116597741576 0 0 0 0 -0.72765293749034754 -58.097910401207628 0 -58.097910401207628 -108.4580628463882 0 0 0 0 -14.284429729579642 -5.1622935770938057 0 -5.1622935770938057 12.080579325731378 0 0 0 0 -9.5555620086494102 -7.2358393866907704 0 -7.2358393866907704 13.589806174299497 0 0 0 0 96.025740839002538 163.74341252517479 0 163.74341252517479 593.76642969925888 0 0 0 0 115.35831653058267 115.27116866274446 0 115.27116866274446 65.49553455352725 0 0 0 0 0.056601292647620483 -4.9368299007084602 0 -4.9368299007084602 6.306929749064409 0 0 0 0 114.89794785884442 -187.77115564570704 0 -187.77115564570704 933.87171671188844 0 0 0 0 54.501005588218504 50.923326578413253 0 50.923326578413253 573.99152550561121 0 0 0 0 -35.118219936910464 120.66213736404461 0 120.66213736404461 498.66819143069733 0 0 0 0 -95.332060530789249 253.86916477771047 0 253.86916477771047 272.38073062346666 0 0 0 0 -35.996370266494523 182.14632290292138 0 182.14632290292138 563.97431637559202 0 0 0 0 -60.662072167466249 6.8473724941213732 0 6.8473724941213732 155.55816486285767 0 0 0 0 79.525271431719375 118.6028994284934 0 118.6028994284934 12.463323413830949 0 0 0 0 -3.3497061601583127 0.50634265615742891 0 0.50634265615742891 6.2901798812967513 0 0 0 0 -16.718243356784114 3.3400254856314859 0 3.3400254856314859 17.692133343232854 0 0 0 0 -12.419842920858606 -3.327023957137925 0 -3.327023957137925 8.2800404381253543 0 0 0 0 -84.359935803428016 -14.94655235256505 0 -14.94655235256505 18.14602664213453 0 0 0 0 -34.974726339148219 -118.04333872868301 0 -118.04333872868301 161.08711811350076 0 0 0 0 -1.23210191928524 -0.10829019250077287 0 -0.10829019250077287 4.4113485072970207 0 0 0 0 54.09983298146517 -32.076034639734644 0 -32.076034639734644 -44.897290629160125 0 0 0 0 40.369025111106566 -71.497418746734184 0 -71.497418746734184 237.75563200439137 0 0 0 0 293.30428609663113 166.82433041176955 0 166.82433041176955 150.38567091716686 0 0 0 0 1.5089872526020827 297.72776689581042 0 297.72776689581042 652.39048308759811 0 0 0 0 -149.38538406762018 -194.70346520297608 0 -194.70346520297608 1004.7707543553479 0 0 0 0 273.99722464506976 -21.745873263811518 0 -21.745873263811518 519.71117339299963 0 0 0 0 41.39364878788956 -335.7802647953722 0 -335.7802647953722 963.13891324302494 0 0 0 0 1.1265533071542375 -3.1805577110253864 0 -3.1805577110253864 6.0484610526464735 0 0 0 0 -117.00211320194535 -588.02098093293898 0 -588.02098093293898 185.34795486563598 0 0 0 0 -344.08901997927194 210.99577291566857 0 210.99577291566857 1075.1545210312179 0 0 0 0 -109.08948353196115 -455.8034172297921 0 -455.8034172297921 835.43454868620029 0 0 0 0 59.381488986252407 -188.47724736320561 0 -188.47724736320561 781.47607497526042 0 0 0 0 -123.16905057673193 -264.95077494370344 0 -264.95077494370344 771.11464222620816 0 0 0 0 77.997285154516703 -22.641824914651806 0 -22.641824914651806 934.45804051175946 0 0 0 0 58.801440848496895 -9.0968809562982642 0 -9.0968809562982642 982.61609553351445 0 0 0 0 15.060331825266985 -292.04473665912519 0 -292.04473665912519 898.21138651461297 0 0 0 0 306.72422731825463 -300.45407988123043 0 -300.45407988123043 227.485507484962 0 0 0 0 12.236172516448278 -23.771735297625128 0 -23.771735297625128 265.20505712879367 0 0 0 0 17.789267522727869 -244.3795977617574 0 -244.3795977617574 565.0881364447705 0 0 0 0 -12.76139974065336 -164.01657342797262 0 -164.01657342797262 751.97043761683744 0 0 0 0 -139.9031174870488 -189.1205314391118 0 -189.1205314391118 619.95620188338216 0 0 0 0 -100.21543546687917 -133.99533412701567 0 -133.99533412701567 509.84836665408511 0 0 0 0 -97.491802767382069 -223.49268216844939 0 -223.49268216844939 550.47163523835479 0 0 0 0 -78.2908628670084 -1.1533768325753044 0 -1.1533768325753044 471.66183752330471 0 0 0 0 24.845180063799489 -93.668613058180199 0 -93.668613058180199 20.076111919930554 0 0 0 0 -117.78138617944296 191.06235331002244 0 191.06235331002244 26.880020640682915 0 0 0 0 -42.595258550792096 -212.26549294275173 0 -212.26549294275173 381.52319926429482 0 0 0 0 2.9951225690359422 11.513340526699579 0 11.513340526699579 19.086392716474393 0 0 0 0 -55.16862088858079 443.09433701133821 0 443.09433701133821 428.24532258228282 0 0 0 0 166.20728676910403 -410.39467946879449 0 -410.39467946879449 175.95629167334118 0 0 0 0 23.735274265016415 -317.95355964222745 0 -317.95355964222745 152.30280291801319 0 0 0 0 38.951138226222611 -227.86849615736719 0 -227.86849615736719 277.92762356800085 0 0 0 0 9.8240901541353196 -401.47288757883598 0 -401.47288757883598 467.91558108630124 0 0 0 0 -0.20838654938815893 7.7269912032512593 0 7.7269912032512593 15.322242789242409 0 0 0 0 52.40258162061582 -59.644352325598447 0 -59.644352325598447 -62.065113058750285 0 0 0 0 -223.21310397790216 -39.838878619098978 0 -39.838878619098978 253.33636535578989 0 0 0 0 -67.98433795142023 -74.53461634670748 0 -74.53461634670748 511.56402991140203 0 0 0 0 39.412337629284366 -96.676144022054359 0 -96.676144022054359 203.50078931591997 0 0 0 0 195.07123404095046 -105.88932830312115 0 -105.88932830312115 225.47790885902577 0 0 0 0 -23.585254484097732 -5.2237156964401947 0 -5.2237156964401947 254.32521472389999 0 0 0 0 -112.87142950480541 -5.0395176378679025 0 -5.0395176378679025 373.69357540109195 0 0 0 0 96.979541474950565 -121.08323869282322 0 -121.08323869282322 437.69839974866773 0 0 0 0 365.09169517240798 -156.19464533653809 0 -156.19464533653809 424.39532819256419 0 0 0 0 303.55771618571043 422.63824699015095 0 422.63824699015095 -422.12694967231801 0 0 0 0 358.35660127364895 -272.77032722108561 0 -272.77032722108561 -78.692836171612726 0 0 0 0 -6.4027285128802198 0.83588753687578787 0 0.83588753687578787 2.3056252919425333 0 0 0 0 -449.42572166486207 -87.666056869078602 0 -87.666056869078602 905.4660105779185 0 0 0 0 44.166262769022524 269.4946409691438 0 269.4946409691438 -107.55873768277525 0 0 0 0 173.65445726548478 -760.78513856813515 0 -760.78513856813515 756.13057158082665 0 0 0 0 -201.20566575538578 319.26662511848554 0 319.26662511848554 -30.208989325691164 0 0 0 0 -0.97723123694157543 2.2201813314500782 0 2.2201813314500782 6.128485696643736 0 0 0 0 390.49434291503235 -324.41597335916049 0 -324.41597335916049 144.67548197033466 0 0 0 0 -58.276230961704641 -51.047951107597328 0 -51.047951107597328 468.08670532691229 0 0 0 0 8.1715443728280661 -6.5901354092366091 0 -6.5901354092366091 41.655321177851874 0 0 0 0 -18.894698049851399 -4.6307807698440513 0 -4.6307807698440513 -0.57766537216713232 0 0 0 0 18.381259746787919 -16.109553805610631 0 -16.109553805610631 1.2028408489568392 0 0 0 0 43.82326205012987 52.994328740220226 0 52.994328740220226 82.343492298234196 0 0 0 0 -18.942894268126565 -38.500023125026928 0 -38.500023125026928 96.721865289538982 0 0 0 0 77.787744962684656 78.019948507499066 0 78.019948507499066 172.5282112047862 0 0 0 0 26.41152885189274 -37.819909096999254 0 -37.819909096999254 97.216971110727172 0 0 0 0 21.684840757965048 136.04565405699395 0 136.04565405699395 134.31998146647675 0 0 0 0 -41.619702935547593 16.296747186181165 0 16.296747186181165 444.2669091183343 0 0 0 0 1.4433236672654397 0.40215517165762549 0 0.40215517165762549 0.13056581856839955 0 0 0 0 3.3830093076580852 69.486100287191221 0 69.486100287191221 -63.837840495812998 0 0 0 0 -6.8064459000815987 3.921983269348857 0 3.921983269348857 203.38884443673305 0 0 0 0 31.902537252979528 56.450924412696622 0 56.450924412696622 151.24195211833285 0 0 0 0 2.2962908425250461 2.8784832692009275 0 2.8784832692009275 3.5474308080262063 0 0 0 0 -14.418163322772671 14.533084074966609 0 14.533084074966609 142.51275200617965 0 0 0 0 42.691608078515856 100.33409636175202 0 100.33409636175202 194.28175883229414 0 0 0 0 -0.45387495427163138 72.438771448525188 0 72.438771448525188 320.72320264560403 0 0 0 0 -57.094813184025043 -24.894358454352187 0 -24.894358454352187 490.97407308184484 0 0 0 0 -0.28041495938387317 1.196976458399007 0 1.196976458399007 1.0571456776869752 0 0 0 0 -0.32345632866736196 43.574991060580942 0 43.574991060580942 269.86334765182983 0 0 0 0 -0.94366067202372506 145.54916003275139 0 145.54916003275139 417.1677988396259 0 0 0 0 -11.889728720527046 3.8253858250282065 0 3.8253858250282065 263.900277573528 0 0 0 0 -21.541472747713669 -58.664656155560806 0 -58.664656155560806 336.06410698211403 0 0 0 0 -21.716463950730031 -53.790213796164608 0 -53.790213796164608 221.46681714227452 0 0 0 0 -14.110113403325158 22.0325971136117 0 22.0325971136117 50.940808465664304 0 0 0 0 -6.5168426040972918 0.35089023554246523 0 0.35089023554246523 37.210214038990671 0 0 0 0 -9.0674844716436382 -2.0403622418125451 0 -2.0403622418125451 14.594708433243795 0 0 0 0 -3.9106863032923069 0.58264837699610972 0 0.58264837699610972 17.315898835733947 0 0 0 0 -5.8138848080087069 18.703508083062118 0 18.703508083062118 58.384817037060145 0 0 0 0 -2.8650078004757784 5.3523358879194802 0 5.3523358879194802 3.8998117075900041 0 0 0 0 -4.118085046273908 5.2076413750359194 0 5.2076413750359194 21.895953649815397 0 0 0 0 -6.451453907710043 -0.28607886654637582 0 -0.28607886654637582 11.195823245238046 0 0 0 0 -8.3428158914721813 -2.5257439389638705 0 -2.5257439389638705 10.354131111656073 0 0 0 0 -11.936063719946105 7.1833661424607271 0 7.1833661424607271 28.563562952142092 0 0 0 0 -5.4124974201886289 0.28018969708136865 0 0.28018969708136865 21.738419440487633 0 0 0 0 -12.803467412468763 9.9257966840086738 0 9.9257966840086738 20.073420617496595 0 0 0 0 -33.98092957247718 -6.6412971791214659 0 -6.6412971791214659 25.406773048347532 0 0 0 0 -6.971338825287603 3.7636300504236715 0 3.7636300504236715 14.309633349621436 0 0 0 0 -6.4952593984352065 3.1854632597611143 0 3.1854632597611143 18.924156789742767 0 0 0 0 -33.499877287283198 -13.113431109239173 0 -13.113431109239173 27.917016264684207 0 0 0 0 -13.095072597916214 -17.296735001964407 0 -17.296735001964407 27.119197837586398 0 0 0 0 -53.644011287956573 -30.455351934786449 0 -30.455351934786449 59.540619918974699 0 0 0 0 -59.139406677165198 -10.661261601242586 0 -10.661261601242586 8.7055251968849916 0 0 0 0 -71.484768570009805 -12.767067157950805 0 -12.767067157950805 37.381168561783852 0 0 0 0 -57.196132678216827 -36.693019989212189 0 -36.693019989212189 30.670013616181677 0 0 0 0 -9.9602804865970374 -0.19029375349199995 0 -0.19029375349199995 23.405323615368445 0 0 0 0 -26.112615606811232 -21.507281208891072 0 -21.507281208891072 16.926444890272251 0 0 0 0 -48.577093101702758 -27.002293185931194 0 -27.002293185931194 23.117498715277179 0 0 0 0 -16.875688016302774 -43.550822816705477 0 -43.550822816705477 59.276184886461124 0 0 0 0 -30.966958516350275 -13.708836167566005 0 -13.708836167566005 34.138306106528034 0 0 0 0 -29.178092896334874 -0.69226707692723721 0 -0.69226707692723721 76.364620399308478 0 0 0 0 -43.326188030095864 114.39541514647135 0 114.39541514647135 209.13962386401181 0 0 0 0 -42.963454222793644 123.391557938201 0 123.391557938201 -57.722741519653937 0 0 0 0 29.7974608564341 31.069615127213183 0 31.069615127213183 60.602715131586592 0 0 0 0 0.81504085036611951 0.64359767718914895 0 0.64359767718914895 0.6910991514718603 0 0 0 0 -90.960933928523673 45.919417467013773 0 45.919417467013773 3.1953043501271168 0 0 0 0 -83.647604346586832 10.118546448306006 0 10.118546448306006 86.551817218161887 0 0 0 0 -162.09921256170742 42.463560687847348 0 42.463560687847348 274.44644868254545 0 0 0 0 -16.940965409564072 -11.736620655902968 0 -11.736620655902968 2.7995649981945121 0 0 0 0 -29.242342879538569 31.220464242396702 0 31.220464242396702 4.3980725901928963 0 0 0 0 -1.7760860978916639 -0.049815864410575728 0 -0.049815864410575728 0.7098851323947315 0 0 0 0 -0.40576251458757762 2.3005943249108327 0 2.3005943249108327 4.1427528591961789 0 0 0 0 13.948995234778977 -57.742971988511272 0 -57.742971988511272 183.69068662563222 0 0 0 0 -25.095531240925311 -91.366847089149815 0 -91.366847089149815 165.97297049084591 0 0 0 0 19.137438135628145 14.460736442531925 0 14.460736442531925 -180.59881469549146 0 0 0 0 -43.093688593344268 -104.84471373101405 0 -104.84471373101405 17.05654767761007 0 0 0 0 25.898173818868599 49.345172899134923 0 49.345172899134923 -62.152708234600141 0 0 0 0 -50.379972359752401 -141.59880349968444 0 -141.59880349968444 -142.33465936343418 0 0 0 0 2.1470607164683315 -113.4050352597551 0 -113.4050352597551 -19.208615425799508 0 0 0 0 -217.18412751588062 -46.397290254182735 0 -46.397290254182735 173.63990738670691 0 0 0 0 -105.58856112665444 -156.87496849437593 0 -156.87496849437593 54.909039199877952 0 0 0 0 -3.6769419176029872 -3.5606248805955545 0 -3.5606248805955545 21.479415884334799 0 0 0 0 -9.3922602317970814 19.027890536650375 0 19.027890536650375 67.854533444755361 0 0 0 0 1.025342624052026 13.694022265736162 0 13.694022265736162 53.087944312731565 0 0 0 0 -40.398494796524574 -52.916989843768533 0 -52.916989843768533 -48.063796713977354 0 0 0 0 -13.076514249935826 24.14918689183105 0 24.14918689183105 61.218593873083591 0 0 0 0 -4.0642509450913167 13.377669778616109 0 13.377669778616109 56.531716751444037 0 0 0 0 -240.68960943010302 152.24344106327408 0 152.24344106327408 133.45323400464804 0 0 0 0 -0.072044413757207271 9.8939370725600817 0 9.8939370725600817 83.582004955532909 0 0 0 0 -17.606664333087593 5.1037713171627956 0 5.1037713171627956 82.082328417076496 0 0 0 0 26.399955325764722 -496.59653358539072 0 -496.59653358539072 83.746395341993775 0 0 0 0 0.31608951553221176 0.62257163616396838 0 0.62257163616396838 6.818692060600938 0 0 0 0 -65.839599039995164 106.36405770378769 0 106.36405770378769 181.92051960975368 0 0 0 0 -71.170935611419054 150.93936025330913 0 150.93936025330913 126.91953118389938 0 0 0 0 -32.604643437950017 126.32580661730026 0 126.32580661730026 -41.644951936323196 0 0 0 0 33.343419230506015 24.261135899105284 0 24.261135899105284 12.327606786653632 0 0 0 0 -33.128886064638181 125.55657735478053 0 125.55657735478053 146.88816490711179 0 0 0 0 -90.546547626725669 133.64119057057542 0 133.64119057057542 279.54493969441683 0 0 0 0 -75.918778741801134 16.495784973398258 0 16.495784973398258 286.63891345711227 0 0 0 0 -61.649151374100711 -62.332608429300308 0 -62.332608429300308 21.252175968893425 0 0 0 0 31.244703997750321 104.11307029779709 0 104.11307029779709 113.07576055760001 0 0 0 0 8.9433178843277688 -58.689322281206842 0 -58.689322281206842 436.24737743051082 0 0 0 0 45.763810486590842 -1.3462266926690063 0 -1.3462266926690063 126.25950219640799 0 0 0 0 -77.008079450693629 61.51450670163922 0 61.51450670163922 243.0732812587521 0 0 0 0 12.234038794820435 104.32360445646191 0 104.32360445646191 148.22620258112875 0 0 0 0 7.8754813299916684 -35.149588039925561 0 -35.149588039925561 58.757357730908552 0 0 0 0 -29.368501616807805 -8.7214162052150641 0 -8.7214162052150641 14.385189267151873 0 0 0 0 -33.661760343932201 -42.236858987522282 0 -42.236858987522282 83.334044855539105 0 0 0 0 -12.381700006321807 -34.91252683471248 0 -34.91252683471248 32.436069717841747 0 0 0 0 -45.757832172310373 -11.499510538156756 0 -11.499510538156756 128.12179852394911 0 0 0 0 -40.816078530437608 -20.645295221733249 0 -20.645295221733249 44.568364211598237 0 0 0 0 -21.424556426449453 -5.493775896398887 0 -5.493775896398887 4.9494584323425528 0 0 0 0 -26.21163179768223 -26.609817052398739 0 -26.609817052398739 36.819285362682422 0 0 0 0 -17.58804843797725 -27.602534196488705 0 -27.602534196488705 85.457346846131259 0 0 0 0 -25.437491816629809 0.47248079436946 0 0.47248079436946 27.324023510568765 0 0 0 0 119.13908747240612 -34.996397280759993 0 -34.996397280759993 -52.059076867029944 0 0 0 0 -7.1348006267046884 -3.422698916688546 0 -3.422698916688546 79.679950106001343 0 0 0 0 -7.8453020840279351 53.168612653731543 0 53.168612653731543 184.83739946282003 0 0 0 0 -70.799492597605422 0.78641878494818229 0 0.78641878494818229 133.72897027575527 0 0 0 0 -52.692868451206778 -10.029791121531161 0 -10.029791121531161 103.34336535583134 0 0 0 0 -13.142084464338838 -11.802174570739014 0 -11.802174570739014 75.813833665562242 0 0 0 0 -20.815602537724573 2.8958899869805919 0 2.8958899869805919 117.10663770343672 0 0 0 0 -312.09667975387379 456.35077401013041 0 456.35077401013041 324.68826213797911 0 0 0 0 -11.704763712593657 6.1712927183883011 0 6.1712927183883011 107.56010608736025 0 0 0 0 -21.937942897859557 -10.387003269723209 0 -10.387003269723209 -8.8202681240363745 0 0 0 0 -10.696122569934801 -9.2034733259642962 0 -9.2034733259642962 -10.395424776324944 0 0 0 0 -15.371045152340912 -12.722449975539348 0 -12.722449975539348 -12.540100070298649 0 0 0 0 -17.633648309433003 -7.3590332220521475 0 -7.3590332220521475 6.7160239367141941 0 0 0 0 -19.284842179132738 -9.5042967687331839 0 -9.5042967687331839 -4.9403035374125466 0 0 0 0 -14.893111483982921 33.78643954222207 0 33.78643954222207 23.262343164784397 0 0 0 0 -17.74705423023201 -12.080725029701398 0 -12.080725029701398 33.461010994273238 0 0 0 0 -27.780461670650766 14.914073301013559 0 14.914073301013559 61.546483005542541 0 0 0 0 -41.713735691746479 14.840731215452251 0 14.840731215452251 145.25956460182624 0 0 0 0 -19.796750311733156 -6.3391929609777264 0 -6.3391929609777264 8.0823685836963648 0 0 0 0 -12.343180632175518 -26.347335298443795 0 -26.347335298443795 -15.208367078812444 0 0 0 0 -18.445963289797781 -6.4619346846206156 0 -6.4619346846206156 7.9114147823105867 0 0 0 0 -17.212981651640803 -14.161021623272973 0 -14.161021623272973 -20.030313863964693 0 0 0 0 -12.878307586418941 -29.303950962254021 0 -29.303950962254021 3.7891531788809516 0 0 0 0 -23.5852202625274 -9.7868706935769296 0 -9.7868706935769296 -9.446744179513189 0 0 0 0 -17.248470100210511 -19.038941744074691 0 -19.038941744074691 -20.314314624469262 0 0 0 0 -24.107333869033482 -24.438411273087695 0 -24.438411273087695 53.376680992325419 0 0 0 0 39.701642744427318 -55.674657804163871 0 -55.674657804163871 59.631142758495116 0 0 0 0 -9.9297760857020876 20.817551835159975 0 20.817551835159975 94.336155438126298 0 0 0 0 -1.1391564130498075 0.21004068308957358 0 0.21004068308957358 0.16869567220965109 0 0 0 0 -11.184752502590527 -10.930664882769634 0 -10.930664882769634 -11.203483681048965 0 0 0 0 -14.925144430010448 -7.423758768964035 0 -7.423758768964035 -6.32810047971725 0 0 0 0 -13.139537132955411 7.8778985316603212 0 7.8778985316603212 -11.807955928405136 0 0 0 0 -3.6447446303790612 0.82574408071297967 0 0.82574408071297967 -0.1807775821637847 0 0 0 0 1.6460333868456019 29.878291239789178 0 29.878291239789178 -0.3731885979505023 0 0 0 0 -43.792556951405459 -15.858322000232874 0 -15.858322000232874 51.038014599704184 0 0 0 0 -0.42468596697611671 -3.863377294023782 0 -3.863377294023782 2.5209231045125762 0 0 0 0 -7.2237664105588237 -4.8947149934538174 0 -4.8947149934538174 2.350508026436728 0 0 0 0 -9.4908735668431632 -4.4259753735022969 0 -4.4259753735022969 2.6995001368268277 0 0 0 0 -0.32137560203815685 -3.2263231782038422 0 -3.2263231782038422 1.5237875700311747 0 0 0 0 -7.3245769949237456 -5.0467799622711027 0 -5.0467799622711027 -9.5522730931697879 0 0 0 0 3.0171249078393316 -1.606678602991451 0 -1.606678602991451 -4.9834092707314994 0 0 0 0 -1.4544773513062235 -1.7320052640156569 0 -1.7320052640156569 -3.1571085828446712 0 0 0 0 -12.492497053803504 -11.77490208222298 0 -11.77490208222298 -5.8986149864431354 0 0 0 0 -0.98830755521241054 -0.62928780798327466 0 -0.62928780798327466 -0.24890543831932632 0 0 0 0 -9.6026394479613941 4.1968690017311019 0 4.1968690017311019 7.4724736818170641 0 0 0 0 -37.541569859426545 -5.9953785259858705 0 -5.9953785259858705 8.4386773561418522 0 0 0 0 -15.710455893356425 -10.135177541262237 0 -10.135177541262237 -7.8929121795517858 0 0 0 0 -12.148794520672141 -37.919443371683883 0 -37.919443371683883 -3.9432570115677663 0 0 0 0 -8.5714951070797269 6.5710085053506191 0 6.5710085053506191 6.0396551574958721 0 0 0 0 -4.1074735621944907 -4.1555528584989787 0 -4.1555528584989787 0.95441212977840451 0 0 0 0 -130.29827633185482 97.283309796541289 0 97.283309796541289 98.08564658468822 0 0 0 0 -0.33321333977324108 0.1550724894867983 0 0.1550724894867983 -0.15313750062826159 0 0 0 0 -5.3016724078910045 6.0587455658751423 0 6.0587455658751423 -0.15611619365517981 0 0 0 0 -63.566205485818671 -15.460570934144926 0 -15.460570934144926 21.723836823250167 0 0 0 0 -58.135667941090787 -8.398369402391836 0 -8.398369402391836 9.1465750466886675 0 0 0 0 -2.9426513442658688 -3.6899444495502394 0 -3.6899444495502394 4.9222056683356641 0 0 0 0 -17.5692577985551 -3.2791309893091238 0 -3.2791309893091238 -2.157939242082648 0 0 0 0 -9.9833111035690258 -4.7697125054895935 0 -4.7697125054895935 4.9000992894270894 0 0 0 0 -4.2022167963993287 -1.2309378436097234 0 -1.2309378436097234 2.4915957123373431 0 0 0 0 -8.6576950409669173 -3.9612918944885127 0 -3.9612918944885127 5.0308865210284353 0 0 0 0 -5.1373914811497343 -1.9078943404310849 0 -1.9078943404310849 7.0988791087147547 0 0 0 0 2.6718847187681831 -2.4361824144216371 0 -2.4361824144216371 -6.8820614649957861 0 0 0 0 -19.479777459424895 3.0988329455431085 0 3.0988329455431085 184.38854408912994 0 0 0 0 1.2990538525581883 -47.738367416048277 0 -47.738367416048277 -53.612900367967086 0 0 0 0 -147.15694986190056 -42.754451812768821 0 -42.754451812768821 146.24043772126606 0 0 0 0 -2.3290625987481346 -1.8576262184953833 0 -1.8576262184953833 2.5530717644928131 0 0 0 0 27.778165711241741 13.019625522538263 0 13.019625522538263 -11.023183885892649 0 0 0 0 -149.59397358274998 93.21131675462675 0 93.21131675462675 30.803188292356936 0 0 0 0 -4.7614098481895297 -33.041770840070967 0 -33.041770840070967 1.7088916404900374 0 0 0 0 -98.725291780150911 69.433849766195635 0 69.433849766195635 -19.361624538069009 0 0 0 0 -15.738880581688548 -4.145468257875109 0 -4.145468257875109 6.7958256423007697 0 0 0 0 -3.0038584607493135 3.029395335510344 0 3.029395335510344 4.5271454151097714 0 0 0 0 1.113382642400552 -1.349884024624771 0 -1.349884024624771 5.2762714941200102 0 0 0 0 -87.718345278617221 66.96973985524528 0 66.96973985524528 -26.919935612604604 0 0 0 0 -2.007447237173996 -0.96953110322469627 0 -0.96953110322469627 3.9883889180155734 0 0 0 0 -97.840220120188718 99.436401434886648 0 99.436401434886648 -105.50477387188585 0 0 0 0 -1.0485518062342423 -0.46796485129743814 0 -0.46796485129743814 1.0882470046283998 0 0 0 0 -58.856445574356428 -43.973558749901713 0 -43.973558749901713 -78.196109160984633 0 0 0 0 -200.92999399703288 40.221923938959662 0 40.221923938959662 2.0070048261259217 0 0 0 0 -8.4300901241739901 24.541164049194776 0 24.541164049194776 14.895433903177036 0 0 0 0 -33.348959308208926 57.962346708445693 0 57.962346708445693 -80.41353021122859 0 0 0 0 52.743844759981457 -5.2857215657277266 0 -5.2857215657277266 -38.810131970065413 0 0 0 0 48.654824588191609 -4.2593447695326176 0 -4.2593447695326176 91.86562055239483 0 0 0 0 -62.144833958284835 -56.341721365308331 0 -56.341721365308331 59.360318232524151 0 0 0 0 78.60699843704765 -48.501857590472355 0 -48.501857590472355 35.920077281283739 0 0 0 0 -16.543952912575179 18.68878972704988 0 18.68878972704988 -10.372376638944843 0 0 0 0 0.17537743957633561 -8.0139543103286996 0 -8.0139543103286996 114.97575665555632 0 0 0 0 73.371305945716287 -45.416906198115612 0 -45.416906198115612 37.679292823639116 0 0 0 0 0.02539106078365172 0.004326066479649171 0 0.004326066479649171 0.44412386582769159 0 0 0 0 64.424884894619893 -81.836008763293648 0 -81.836008763293648 188.18222030749166 0 0 0 0 0.096202341538040748 -38.642518633354484 0 -38.642518633354484 84.536163613091048 0 0 0 0 41.994034233505765 -91.238755084554214 0 -91.238755084554214 133.24387277822825 0 0 0 0 24.253272216054491 -35.218128962776063 0 -35.218128962776063 77.873316141180112 0 0 0 0 69.306532844366671 -96.707802545119193 0 -96.707802545119193 105.34943786965596 0 0 0 0 0.0040534485214735044 -58.538755061737902 0 -58.538755061737902 159.86473374003981 0 0 0 0 -36.298281188683461 -3.2859331885665597 0 -3.2859331885665597 113.43785031143489 0 0 0 0 -0.057866790396081114 0.40214611294513247 0 0.40214611294513247 0.99468045734616339 0 0 0 0 58.469271355817597 -124.88934078406237 0 -124.88934078406237 179.1001162590037 0 0 0 0 -0.10307406327871954 1.0802944158542687 0 1.0802944158542687 1.8837886401492483 0 0 0 0 90.080238741956492 -159.82326626126269 0 -159.82326626126269 166.60298976561171 0 0 0 0 101.91478813247781 -24.279972843607538 0 -24.279972843607538 46.827772905315214 0 0 0 0 27.099164451233932 -99.040896711167079 0 -99.040896711167079 220.27543131270795 0 0 0 0 214.60392849338098 -84.998427791269933 0 -84.998427791269933 218.75626669280609 0 0 0 0 45.844366514762356 -102.41068499200992 0 -102.41068499200992 322.05372781425831 0 0 0 0 32.1595746256233 -137.61894648383895 0 -137.61894648383895 701.50810328179796 0 0 0 0 -29.518586312785132 -80.807660239530378 0 -80.807660239530378 255.22606333449403 0 0 0 0 4.0867556066812796 -105.82360136337229 0 -105.82360136337229 260.14903711083753 0 0 0 0 20.234808895120644 -163.99268672539984 0 -163.99268672539984 389.53490327387408 0 0 0 0 -0.098129788326365625 -47.061520517436293 0 -47.061520517436293 290.52578982032719 0 0 0 0 -39.880269198190426 23.797068385851162 0 23.797068385851162 203.04272238909471 0 0 0 0 -85.74665782171023 -6.1793903262732783 0 -6.1793903262732783 431.61795256719597 0 0 0 0 11.622245128667089 2.3638360879558604 0 2.3638360879558604 115.55033079824079 0 0 0 0 0.069771103185455735 -25.366425848281697 0 -25.366425848281697 170.76648897083942 0 0 0 0 204.66084048819187 -239.09623796119922 0 -239.09623796119922 137.37930562226393 0 0 0 0 315.11620845018388 -399.66953354263387 0 -399.66953354263387 350.68062291769456 0 0 0 0 -0.19713042358697458 -0.14092797925165002 0 -0.14092797925165002 4.1417623395021792 0 0 0 0 -147.94363797096949 187.11729319806909 0 187.11729319806909 141.55589936859178 0 0 0 0 -226.80780482815553 17.628446169801464 0 17.628446169801464 75.543042447796324 0 0 0 0 -11.323780141310188 -40.613879000895395 0 -40.613879000895395 42.955970985698514 0 0 0 0 -0.73479743529600605 0.29329209324370709 0 0.29329209324370709 9.9719771317320465 0 0 0 0 48.247850488991638 -174.63539237538203 0 -174.63539237538203 226.94820921096834 0 0 0 0 40.816789761102115 -70.29614647096605 0 -70.29614647096605 126.24193828486023 0 0 0 0 9.3760760576426208 -185.91254240304988 0 -185.91254240304988 316.1800626397162 0 0 0 0 13.014245066993681 -205.00914294888207 0 -205.00914294888207 403.43802487735229 0 0 0 0 2.7731105465618384 -117.08199786138721 0 -117.08199786138721 402.14451716952863 0 0 0 0 54.631307737917041 -122.97728448225644 0 -122.97728448225644 300.77365904330509 0 0 0 0 30.946898003605384 -138.73502017601277 0 -138.73502017601277 310.00780047486114 0 0 0 0 1.5524268759373854 -138.49102314277843 0 -138.49102314277843 330.83882732308484 0 0 0 0 50.450713808131923 -150.90964464101853 0 -150.90964464101853 241.41693911915354 0 0 0 0 134.90332995579593 -65.024230856492068 0 -65.024230856492068 242.87512752672774 0 0 0 0 126.43920753382463 -51.624316772009479 0 -51.624316772009479 230.99766631519742 0 0 0 0 91.956305575835813 -69.451430366854765 0 -69.451430366854765 317.10753928462509 0 0 0 0 96.235158939765597 -75.671052706886258 0 -75.671052706886258 309.61785353306914 0 0 0 0 76.578630476968783 -114.5554717729101 0 -114.5554717729101 247.16424214733888 0 0 0 0 103.75406846800797 39.117210699187126 0 39.117210699187126 177.26508575715343 0 0 0 0 129.09216054952651 -23.510172111691645 0 -23.510172111691645 284.36512113513891 0 0 0 0 129.03900998172253 -24.432643225489301 0 -24.432643225489301 275.96447647608875 0 0 0 0 69.250434629023403 38.470044227608014 0 38.470044227608014 349.86865767750714 0 0 0 0 99.013767890524377 -197.26762533192232 0 -197.26762533192232 468.48439257118662 0 0 0 0 1.6908952255346632 1.9634295134362674 0 1.9634295134362674 2.1725890631583127 0 0 0 0 74.257286873222256 -88.203950913026347 0 -88.203950913026347 498.52291252639407 0 0 0 0 96.437642964822771 -71.103396694859839 0 -71.103396694859839 426.68610529307625 0 0 0 0 122.16153948441843 -31.928225622701575 0 -31.928225622701575 462.95216270035598 0 0 0 0 82.338284474315287 -40.568440108439972 0 -40.568440108439972 369.06500379554927 0 0 0 0 85.893252865600743 -127.48670961690368 0 -127.48670961690368 398.74772689049132 0 0 0 0 53.106750690149283 -119.35658004642755 0 -119.35658004642755 308.44932995655108 0 0 0 0 51.916206326594875 -121.1176199218462 0 -121.1176199218462 323.54150626630508 0 0 0 0 75.25273145885285 -102.04077658257302 0 -102.04077658257302 338.48347076083883 0 0 0 0 55.917098178491869 -142.53614011959871 0 -142.53614011959871 350.45234711949888 0 0 0 0 56.656319891733233 -132.31764810680033 0 -132.31764810680033 296.82092306116829 0 0 0 0 181.33811250287147 110.88524410667742 0 110.88524410667742 522.80326301880996 0 0 0 0 38.007106635013088 -137.52018617837166 0 -137.52018617837166 297.35220947078778 0 0 0 0 1.2504848017160324 3.4006399063306105 0 3.4006399063306105 4.5102731454281866 0 0 0 0 50.208406609900749 -115.2299664640741 0 -115.2299664640741 255.73841371546041 0 0 0 0 105.84650871232679 -174.03484847249638 0 -174.03484847249638 295.39689172020007 0 0 0 0 85.10202191160397 -137.48612692460301 0 -137.48612692460301 251.94809526242898 0 0 0 0 -122.83588939326546 134.72500262570975 0 134.72500262570975 -91.541388799989363 0 0 0 0 -98.251971659386982 -258.96308469821815 0 -258.96308469821815 -13.456087568891235 0 0 0 0 -30.435670262696476 250.63210316649929 0 250.63210316649929 511.94194237636111 0 0 0 0 -685.65418408617279 -386.27945777139394 0 -386.27945777139394 1010.8852773213002 0 0 0 0 -147.51424392179115 67.785136059159413 0 67.785136059159413 230.35294815286761 0 0 0 0 -26.693221189798351 -19.227454825624591 0 -19.227454825624591 178.17505772325967 0 0 0 0 93.193491811585318 98.429306803598593 0 98.429306803598593 212.9388428091188 0 0 0 0 30.292021325232326 -43.353234928421443 0 -43.353234928421443 -37.832106539484812 0 0 0 0 -15.479100075862334 4.1736492103082128 0 4.1736492103082128 183.66559727845743 0 0 0 0 -3.5478511666251507 96.727142675284995 0 96.727142675284995 229.57357976148069 0 0 0 0 -77.184048063043065 -10.810984168274445 0 -10.810984168274445 85.496999336348381 0 0 0 0 -2.3775993538006857 -1.4581163812236024 0 -1.4581163812236024 -0.026678999296279926 0 0 0 0 -24.369524800828003 37.398194838970085 0 37.398194838970085 131.29820458375616 0 0 0 0 9.6404188287605166 -29.645686580392066 0 -29.645686580392066 -50.45356247125892 0 0 0 0 -9.4578240408864076 5.596749592164997 0 5.596749592164997 11.237185492078424 0 0 0 0 -9.4930266809140615 -2.3011672954192477 0 -2.3011672954192477 5.041827179891115 0 0 0 0 -35.489354188357993 -207.75421931838355 0 -207.75421931838355 249.07576559264271 0 0 0 0 158.29900309459117 -98.494554609118495 0 -98.494554609118495 61.050719804596156 0 0 0 0 122.8744135152117 137.05652695190656 0 137.05652695190656 111.08954074318171 0 0 0 0 -2.5240497714712804 0.69078554435766648 0 0.69078554435766648 4.8254218234337714 0 0 0 0 58.230885322598169 18.639905163996445 0 18.639905163996445 -23.819508646527538 0 0 0 0 -135.41999564017488 -105.68600299043464 0 -105.68600299043464 -152.22432178336021 0 0 0 0 -0.83740441445767999 -0.78318949444215491 0 -0.78318949444215491 0.77640140159648752 0 0 0 0 158.51688868685187 -64.194701744665508 0 -64.194701744665508 50.596461375476792 0 0 0 0 38.715149464911519 79.147923441938474 0 79.147923441938474 37.929272375360597 0 0 0 0 -33.409680475711497 -34.400775565729418 0 -34.400775565729418 297.41384879413818 0 0 0 0 -0.095649247313835728 1.9824148553329337 0 1.9824148553329337 3.1458161234894249 0 0 0 0 9.854883209972968 -209.9816929029621 0 -209.9816929029621 239.68010869247701 0 0 0 0 21.706757450351915 -2.4245003180403728 0 -2.4245003180403728 165.35031223337865 0 0 0 0 28.563831041030596 -125.09566241747234 0 -125.09566241747234 296.19479949169136 0 0 0 0 -8.6832533145716866 -92.347972607272823 0 -92.347972607272823 315.00652776422794 0 0 0 0 10.484450263992812 -131.54301815566578 0 -131.54301815566578 308.86567618802655 0 0 0 0 14.247617764632537 -124.70882600703408 0 -124.70882600703408 298.77544063495588 0 0 0 0 37.40648881342895 -134.37901243129454 0 -134.37901243129454 282.94314273112104 0 0 0 0 25.085211071090612 -127.07361919759569 0 -127.07361919759569 281.18318048299989 0 0 0 0 30.407291894267701 -119.3735690635076 0 -119.3735690635076 194.54643214489442 0 0 0 0 -617.62984674000654 131.35122303181788 0 131.35122303181788 128.22832343849859 0 0 0 0 -2.3311544702338587 -0.14990065271766539 0 -0.14990065271766539 37.086026659526539 0 0 0 0 -881.5654411380292 222.37233566354934 0 222.37233566354934 1052.2226202853121 0 0 0 0 -132.12606922593204 126.54184430732175 0 126.54184430732175 0.22715032890414477 0 0 0 0 -34.073541272503462 64.899489418626217 0 64.899489418626217 -39.650710958207128 0 0 0 0 -27.353633435550364 90.535179441675155 0 90.535179441675155 2.0867368700246516 0 0 0 0 30.00282655194269 76.87449236770442 0 76.87449236770442 -60.703438208605803 0 0 0 0 -36.015362766656381 172.04956432935205 0 172.04956432935205 938.89062519684558 0 0 0 0 273.17313923621077 0.22934310261643986 0 0.22934310261643986 -49.731525722329593 0 0 0 0 2.2463791115121836 3.2782752169637659 0 3.2782752169637659 5.8224544109754177 0 0 0 0 52.396747999861873 -310.12675101887362 0 -310.12675101887362 1135.890716098811 0 0 0 0 54.75731982517209 46.864570136527618 0 46.864570136527618 981.68885559132559 0 0 0 0 106.90318859773288 -214.97345043121004 0 -214.97345043121004 428.17750647906723 0 0 0 0 43.929917229046623 33.221325651952611 0 33.221325651952611 435.15272164167072 0 0 0 0 -66.011969011130532 -191.80938980662813 0 -191.80938980662813 577.30631767057457 0 0 0 0 435.04173383329271 -62.507758519690469 0 -62.507758519690469 496.8363322758978 0 0 0 0 220.48002450781314 -571.28451573797065 0 -571.28451573797065 483.96367181443247 0 0 0 0 -377.5941861591582 -254.4002909496553 0 -254.4002909496553 779.14568442734162 0 0 0 0 -678.91298464643114 -547.70805564368266 0 -547.70805564368266 781.83920232540095 0 0 0 0 -1.1684813476156135 1.4203531836822112 0 1.4203531836822112 16.328478884566032 0 0 0 0 -67.116603334257206 -48.347710571664948 0 -48.347710571664948 -269.73991924302754 0 0 0 0 740.00113866578317 692.39061477233668 0 692.39061477233668 -17.037391003193079 0 0 0 0 540.45797187748667 700.61356456437625 0 700.61356456437625 97.463728656808144 0 0 0 0 -176.6062629916496 -41.491486181056871 0 -41.491486181056871 11.887070874900928 0 0 0 0 -558.03029188693108 -111.51297234997878 0 -111.51297234997878 104.17018161858118 0 0 0 0 -55.063402005224361 -166.5824216597091 0 -166.5824216597091 51.994576417582394 0 0 0 0 -305.3309005970159 -352.27003336437497 0 -352.27003336437497 322.10959156677404 0 0 0 0 -0.79173199432133412 0.80174622866614698 0 0.80174622866614698 13.722909214435079 0 0 0 0 -38.504827849847061 -146.7890312266436 0 -146.7890312266436 179.13507120424276 0 0 0 0 -59.436807538644871 -151.33608699642571 0 -151.33608699642571 237.76998467721387 0 0 0 0 -68.427857017037695 -121.62798351904462 0 -121.62798351904462 276.49394273049643 0 0 0 0 -33.784281541878727 -68.046576835772498 0 -68.046576835772498 277.51814556806221 0 0 0 0 -45.896657697269347 -117.73338067208965 0 -117.73338067208965 224.1722330278626 0 0 0 0 -90.271105003861777 -54.782270528932116 0 -54.782270528932116 256.12937740941379 0 0 0 0 -83.140033031456824 -88.291050352701177 0 -88.291050352701177 332.99372031142229 0 0 0 0 -108.72666540713681 -127.32535850086879 0 -127.32535850086879 280.67523207915292 0 0 0 0 -81.486080485126422 -34.091546320421912 0 -34.091546320421912 246.92550680463091 0 0 0 0 -85.507706317099291 38.208857333579545 0 38.208857333579545 261.12046491158719 0 0 0 0 328.85851648700645 347.55338786134189 0 347.55338786134189 508.19058873425274 0 0 0 0 -174.32988450070661 -131.97345160282384 0 -131.97345160282384 414.84187925933929 0 0 0 0 -135.03276655008585 46.588654322162256 0 46.588654322162256 745.04442279105274 0 0 0 0 213.58902570243117 17.218389972672412 0 17.218389972672412 210.62346281324494 0 0 0 0 34.844599523117267 49.024100304705371 0 49.024100304705371 205.08837154793582 0 0 0 0 -40.505167245471057 55.871449157250026 0 55.871449157250026 437.82013079506987 0 0 0 0 767.61473483732016 96.975599557259784 0 96.975599557259784 -323.86351681961742 0 0 0 0 315.25228335210522 -406.87973813763483 0 -406.87973813763483 -248.36489539951469 0 0 0 0 25.360738626974126 -118.25987095906294 0 -118.25987095906294 368.1539937060511 0 0 0 0 318.32526564818249 -256.27110824034241 0 -256.27110824034241 250.65548564678556 0 0 0 0 7.1399286444395784 48.417945666899186 0 48.417945666899186 94.836381269543381 0 0 0 0 2.6110796443772415 105.35314170131232 0 105.35314170131232 103.2229340485892 0 0 0 0 -41.611075571117908 20.060063984819408 0 20.060063984819408 309.82789007865267 0 0 0 0 -54.821100668384588 175.28353520639212 0 175.28353520639212 58.268168368350416 0 0 0 0 -6.02137878879239 115.56853417155071 0 115.56853417155071 129.74389958167467 0 0 0 0 567.47972289466293 -326.7173958119929 0 -326.7173958119929 -577.68034942866416 0 0 0 0 1.2362756029469413 -1.6728150433985309 0 -1.6728150433985309 11.041129974579686 0 0 0 0 -179.48899502656604 61.283443465990786 0 61.283443465990786 212.86937667896018 0 0 0 0 -98.523029755844618 -19.404790974750085 0 -19.404790974750085 164.19449271582243 0 0 0 0 -75.853051294824667 60.68686136723079 0 60.68686136723079 61.135975421909279 0 0 0 0 -10.491905759744895 -22.862995659848366 0 -22.862995659848366 35.906845051288201 0 0 0 0 -20.464604914230222 214.22502734700583 0 214.22502734700583 -83.123155912586526 0 0 0 0 26.848863128315088 -178.69331608966081 0 -178.69331608966081 428.32495449745511 0 0 0 0 1.3264647184778884 1.3814548270172153 0 1.3814548270172153 1.4111446119913555 0 0 0 0 65.012891498479803 -111.14456123664615 0 -111.14456123664615 251.34776981708183 0 0 0 0 63.845325587746629 -17.113743049933873 0 -17.113743049933873 103.47651235347439 0 0 0 0 44.7255405476335 -78.027695686550487 0 -78.027695686550487 253.07996522227222 0 0 0 0 2.5920988677216883 -34.643120322799859 0 -34.643120322799859 381.90326174085749 0 0 0 0 -20.407869754697458 -111.38831604521783 0 -111.38831604521783 109.22646130427347 0 0 0 0 15.024393038884227 -46.134533647948956 0 -46.134533647948956 104.80976398275328 0 0 0 0 88.707688186868381 48.51297504413742 0 48.51297504413742 50.94278159856367 0 0 0 0 39.460789591972571 -196.85697860898381 0 -196.85697860898381 5.6398321463005914 0 0 0 0 -16.730133969224653 -71.878327384772319 0 -71.878327384772319 -61.28609900686115 0 0 0 0 -188.5522338815872 -149.4551670745293 0 -149.4551670745293 130.51326808733211 0 0 0 0 -0.61954839128422279 -16.552895276023762 0 -16.552895276023762 23.674929408332236 0 0 0 0 1032.3646774356312 -355.60684181430952 0 -355.60684181430952 -351.22332654326669 0 0 0 0 -18.542609121380472 -22.276941788243885 0 -22.276941788243885 36.745293258130573 0 0 0 0 77.654028760324991 92.272185740726854 0 92.272185740726854 128.48829179882159 0 0 0 0 -406.06208530635422 -170.9236351737685 0 -170.9236351737685 428.6735655688683 0 0 0 0 21.369279423316243 145.72345320046588 0 145.72345320046588 278.64625676719152 0 0 0 0 -50.096588890194653 67.929655218651533 0 67.929655218651533 235.11347482754172 0 0 0 0 -20.10923826056387 42.230053580906315 0 42.230053580906315 221.70948002148634 0 0 0 0 -32.285645990655283 -17.734121472404272 0 -17.734121472404272 29.525058362395981 0 0 0 0 -346.51962075434494 -33.032271019948297 0 -33.032271019948297 250.12495090732023 0 0 0 0 297.30077108450541 488.34487529325111 0 488.34487529325111 154.96326231975127 0 0 0 0 5.9522517268928823 -317.14717559069004 0 -317.14717559069004 -61.276774692685422 0 0 0 0 -695.23971380825151 938.35761649719632 0 938.35761649719632 732.95542909987557 0 0 0 0 0.39676392830087615 -2.0581646555260384 0 -2.0581646555260384 13.932607703210081 0 0 0 0 46.56053181304469 76.877782572826277 0 76.877782572826277 129.5739534328286 0 0 0 0 -81.9282261794242 75.204411386397624 0 75.204411386397624 253.56964681091358 0 0 0 0 -101.8803554711676 130.10257999625753 0 130.10257999625753 134.1928521003465 0 0 0 0 -79.890908182282146 -22.993593020679782 0 -22.993593020679782 87.705999592766148 0 0 0 0 -323.53142000599587 17.422251068179889 0 17.422251068179889 114.96161734514499 0 0 0 0 -1.3818181479284579 -2.8066755784388571 0 -2.8066755784388571 34.995258463127215 0 0 0 0 -1136.5091002431341 -165.33318756958852 0 -165.33318756958852 965.03773628817908 0 0 0 0 -26.004260138801158 94.723416686881038 0 94.723416686881038 165.76302195141898 0 0 0 0 15.224350911367765 47.657810599275535 0 47.657810599275535 35.876661282927671 0 0 0 0 -21.399020351447689 55.153795898680073 0 55.153795898680073 45.947209791982004 0 0 0 0 28.812309384022228 75.052575665632276 0 75.052575665632276 157.21012910286458 0 0 0 0 -7.2453561243762579 160.55594583839462 0 160.55594583839462 182.32629136982314 0 0 0 0 -51.999006948699574 -6.6976247185339073 0 -6.6976247185339073 22.185897129342898 0 0 0 0 17.106713010527528 28.728376728569856 0 28.728376728569856 132.79781588028254 0 0 0 0 -5.1213095644452551 43.638366711885283 0 43.638366711885283 174.21364955549689 0 0 0 0 21.053559709264846 74.783930927194433 0 74.783930927194433 197.05071733734439 0 0 0 0 2.9886268469617789 70.109859973534185 0 70.109859973534185 168.10084243320671 0 0 0 0 2.1240186073109726 48.810986424310613 0 48.810986424310613 240.95082650557742 0 0 0 0 28.103738592402806 27.624870228644795 0 27.624870228644795 244.7107520052582 0 0 0 0 46.387838027214457 48.490209950252392 0 48.490209950252392 220.79421270186867 0 0 0 0 -11.673751238658951 131.23541457790179 0 131.23541457790179 440.10700693824583 0 0 0 0 -59.427475712711384 130.05446735716214 0 130.05446735716214 10.220076830481048 0 0 0 0 -67.495119020999482 87.617186578003384 0 87.617186578003384 182.56545614021616 0 0 0 0 -49.613739752486026 3.0682312315586842 0 3.0682312315586842 86.471478995863436 0 0 0 0 -60.729514814835056 -37.352956263843225 0 -37.352956263843225 229.86312271035695 0 0 0 0 -162.62274482946805 -9.7232545484912407 0 -9.7232545484912407 215.16373478188325 0 0 0 0 -8.938794261078165 -15.521577226351585 0 -15.521577226351585 117.90915541577814 0 0 0 0 -450.06767926617613 253.0030554911782 0 253.0030554911782 218.01267723240977 0 0 0 0 0.41552870716554935 -46.481541930992535 0 -46.481541930992535 255.16287034322158 0 0 0 0 10.206996264942063 -67.111168868970708 0 -67.111168868970708 94.588619055526578 0 0 0 0 103.79572486239168 -8.5580270625343928 0 -8.5580270625343928 83.080893540856778 0 0 0 0 112.25005131352287 -224.76748447157252 0 -224.76748447157252 265.47645139288943 0 0 0 0 11.15294689437372 10.667675986428151 0 10.667675986428151 6.4940045028080817 0 0 0 0 66.918740466848249 74.255071255320217 0 74.255071255320217 183.55253625212936 0 0 0 0 -260.67799930682258 162.75328629476621 0 162.75328629476621 107.05016239463657 0 0 0 0 -10.036827402559993 -114.36582763208207 0 -114.36582763208207 206.04592900585703 0 0 0 0 -5.8855848316340076 -8.9033881994596094 0 -8.9033881994596094 129.10974793318402 0 0 0 0 20.071278133877289 4.2185467687514091 0 4.2185467687514091 41.999775602106382 0 0 0 0 -35.304891582807443 -8.5557453823962533 0 -8.5557453823962533 40.249376576015493 0 0 0 0 -33.304594177219769 14.530992840875115 0 14.530992840875115 168.49664065225807 0 0 0 0 -25.569935757013809 83.150060972599022 0 83.150060972599022 141.42211065331321 0 0 0 0 -36.498806853501947 40.997518263337042 0 40.997518263337042 122.72308056260226 0 0 0 0 -28.019571060655835 64.304397360570874 0 64.304397360570874 161.73675113546778 0 0 0 0 14.760192244651989 54.958569156679005 0 54.958569156679005 147.7061733493174 0 0 0 0 -3.1425788861305435 -19.931416528488192 0 -19.931416528488192 50.157448556127989 0 0 0 0 94.41826494720226 -233.66769062105641 0 -233.66769062105641 141.39175745576358 0 0 0 0 -42.250265406332552 -4.1954960545826765 0 -4.1954960545826765 108.46739561983533 0 0 0 0 -35.29646146158484 -231.89918728577322 0 -231.89918728577322 -8.7292056098522153 0 0 0 0 -9.9785976363164828 31.67115029025944 0 31.67115029025944 159.98936351188581 0 0 0 0 -18.491553891088241 -13.131955099464932 0 -13.131955099464932 40.577232205755536 0 0 0 0 19.921223182529502 97.655805898786639 0 97.655805898786639 184.28260261736068 0 0 0 0 75.090764283024328 44.065673215845891 0 44.065673215845891 120.79631958194659 0 0 0 0 -58.329646260119262 10.428308735077735 0 10.428308735077735 98.446712821358233 0 0 0 0 -22.165232450696834 20.419052807501124 0 20.419052807501124 101.47317020642643 0 0 0 0 -10.991666274219824 34.532922064296145 0 34.532922064296145 135.93188219356671 0 0 0 0 -112.91196205819722 -2.7549235191700063 0 -2.7549235191700063 232.86918855555268 0 0 0 0 -28.728638268535711 8.8250128375842536 0 8.8250128375842536 146.70445946994286 0 0 0 0 -80.973503919311042 142.01819949811033 0 142.01819949811033 601.94870787850232 0 0 0 0 -19.176095024326969 90.750650844708616 0 90.750650844708616 117.78654799530386 0 0 0 0 -70.980590312084843 7.2900280065636771 0 7.2900280065636771 28.605634903617563 0 0 0 0 13.747123616941735 82.015040671881479 0 82.015040671881479 91.927824772494205 0 0 0 0 -82.16103990222291 115.21189603222683 0 115.21189603222683 58.147962759283473 0 0 0 0 -88.517040354952769 114.83255269503752 0 114.83255269503752 147.06186786171384 0 0 0 0 -49.701885070233018 -14.327144905493981 0 -14.327144905493981 44.022568796433291 0 0 0 0 -23.816794857413242 50.145509468373348 0 50.145509468373348 168.41624689255696 0 0 0 0 -12.218729744272352 -4.2982317520422839 0 -4.2982317520422839 148.58872877609974 0 0 0 0 -209.51206781017163 -12.527031329529564 0 -12.527031329529564 164.19133733892886 0 0 0 0 -34.882968058672098 -25.415659111322995 0 -25.415659111322995 23.221955253305197 0 0 0 0 -74.809396763107912 46.384951684187399 0 46.384951684187399 108.18752775475878 0 0 0 0 -95.041311524830235 42.3735742093304 0 42.3735742093304 77.212828446114145 0 0 0 0 -68.207792603877181 55.641217718664848 0 55.641217718664848 18.490429759840481 0 0 0 0 4.2173672647277414 2.9000621833883997 0 2.9000621833883997 2.6861625489065375 0 0 0 0 -102.65570423181043 189.79353140300736 0 189.79353140300736 170.77238940726966 0 0 0 0 -90.598336294892647 200.33548479232013 0 200.33548479232013 -80.492325348895974 0 0 0 0 -628.31653033963676 92.230916072207037 0 92.230916072207037 944.91115953991539 0 0 0 0 150.52076132767979 -352.09106123995298 0 -352.09106123995298 409.17130834202544 0 0 0 0 209.12549210981615 -168.1252354067401 0 -168.1252354067401 250.38095579942228 0 0 0 0 -92.350069412697394 73.422537365073367 0 73.422537365073367 16.250310972063744 0 0 0 0 -81.080940272383941 13.097702618404583 0 13.097702618404583 -23.044227741118448 0 0 0 0 -87.504330339851549 19.15058766018592 0 19.15058766018592 108.98822583524452 0 0 0 0 -57.966067319597641 56.466129330314288 0 56.466129330314288 112.67364045685099 0 0 0 0 -41.312193109693908 49.920448338096321 0 49.920448338096321 118.76938709422757 0 0 0 0 -54.576289163071351 19.139873226580676 0 19.139873226580676 63.188015919318786 0 0 0 0 -29.365222586871369 -6.7336107842384081 0 -6.7336107842384081 88.870302406282462 0 0 0 0 -61.809056084063855 15.329323033722176 0 15.329323033722176 93.28991638354637 0 0 0 0 -45.091836326991682 13.39652277155983 0 13.39652277155983 93.407166919962947 0 0 0 0 -22.969868989376664 18.428451601950655 0 18.428451601950655 96.266405767855758 0 0 0 0 -17.277066825221709 20.642685868879198 0 20.642685868879198 71.253249923858675 0 0 0 0 -19.43278921578775 27.181134559976272 0 27.181134559976272 53.372005744691705 0 0 0 0 -26.694377304997943 14.238441259811225 0 14.238441259811225 74.85018911206862 0 0 0 0 -13.854661257802036 16.508957738074969 0 16.508957738074969 73.2887542249955 0 0 0 0 -27.971458354778587 17.976957983712964 0 17.976957983712964 82.575674735002394 0 0 0 0 -22.978210991710284 32.071057277182263 0 32.071057277182263 75.749108025918758 0 0 0 0 -26.502399664897666 39.594066766359902 0 39.594066766359902 74.736782158310234 0 0 0 0 -29.60028272664136 13.7461665455549 0 13.7461665455549 -5.2420013843558877 0 0 0 0 -23.438801236874497 51.076477598995552 0 51.076477598995552 95.550102187124139 0 0 0 0 -56.932337833956581 33.352762307018565 0 33.352762307018565 104.72407719180046 0 0 0 0 -27.750192696050021 70.00240572598841 0 70.00240572598841 119.76343209057086 0 0 0 0 -43.871073947673267 54.845669938651554 0 54.845669938651554 110.57247222025035 0 0 0 0 -18.150379931507814 209.16148218689341 0 209.16148218689341 258.52141366222349 0 0 0 0 -39.80361111244774 18.720168702568785 0 18.720168702568785 -12.585230900371371 0 0 0 0 63.828924369157505 146.080480729991 0 146.080480729991 179.8916997272463 0 0 0 0 17.556994086919985 131.10804150100012 0 131.10804150100012 141.63344079261333 0 0 0 0 82.810494916598145 165.17832889586134 0 165.17832889586134 158.71490783718036 0 0 0 0 65.669425429460432 169.45915314117451 0 169.45915314117451 172.06028666297789 0 0 0 0 -18.958110715554739 7.7980805627514655 0 7.7980805627514655 -1.6512180178398239 0 0 0 0 72.199004833674735 97.078023921184467 0 97.078023921184467 100.20132929120155 0 0 0 0 101.66804068121382 180.7548388580326 0 180.7548388580326 177.34825464636378 0 0 0 0 17.767902238469105 17.613118005101569 0 17.613118005101569 16.802615064196289 0 0 0 0 52.896963696508465 168.50776283518644 0 168.50776283518644 65.261665413672745 0 0 0 0 98.745799045385866 126.24501875854912 0 126.24501875854912 104.18029856734211 0 0 0 0 183.75809569700141 165.03611000221281 0 165.03611000221281 80.614813145344669 0 0 0 0 166.04109396789499 14.595407706219703 0 14.595407706219703 -31.637832729607908 0 0 0 0 10.760826117673787 29.373270960739319 0 29.373270960739319 28.002667770953849 0 0 0 0 46.795622731784533 -67.527381143008824 0 -67.527381143008824 -58.142547612769704 0 0 0 0 -11.058917866423144 82.565048289994593 0 82.565048289994593 -59.314078306371812 0 0 0 0 -2.2773371651133445 0.70270693694253339 0 0.70270693694253339 0.79169385181643293 0 0 0 0 -14.884965992762773 16.292354512421298 0 16.292354512421298 46.429467452318931 0 0 0 0 90.464619919677716 94.524971572893264 0 94.524971572893264 67.771614613389829 0 0 0 0 247.10189770664874 -207.60069107155141 0 -207.60069107155141 -250.42327271550857 0 0 0 0 239.26778600125999 -124.49147588365486 0 -124.49147588365486 181.60760644840775 0 0 0 0 10.64384244048272 10.230100445443169 0 10.230100445443169 10.884838592227307 0 0 0 0 38.721362244533339 47.796883951606219 0 47.796883951606219 7.8316738840458129 0 0 0 0 21.387418883550254 57.987695523370121 0 57.987695523370121 6.3170082453925716 0 0 0 0 -313.64174597615784 -172.60347433426341 0 -172.60347433426341 232.88494185459967 0 0 0 0 -0.96189263204490594 16.860011206990084 0 16.860011206990084 33.178786770429582 0 0 0 0 33.847597996959848 -127.25356067419125 0 -127.25356067419125 172.37920505183865 0 0 0 0 -165.03970010406965 147.25854622658062 0 147.25854622658062 253.97825203870889 0 0 0 0 -21.614578368033108 73.350568164609285 0 73.350568164609285 164.06524518422884 0 0 0 0 -8.9196161687088331 14.433273434722622 0 14.433273434722622 222.38432287695377 0 0 0 0 -49.413257635606904 34.716129285057576 0 34.716129285057576 22.898811523696821 0 0 0 0 0.7395991894427425 131.99501882052209 0 131.99501882052209 165.93345672394935 0 0 0 0 -128.71003947926511 75.350289676658576 0 75.350289676658576 186.095414564772 0 0 0 0 -21.558690727086287 203.05941621965394 0 203.05941621965394 151.08033122001507 0 0 0 0 -342.81741423882204 197.89899871554371 0 197.89899871554371 189.28843398216122 0 0 0 0 352.98835038478228 -301.49622326066583 0 -301.49622326066583 -1029.9293408362792 0 0 0 0 157.56714942016151 441.06911573344405 0 441.06911573344405 -52.958085353524439 0 0 0 0 -1001.8989206350227 172.17932735987233 0 172.17932735987233 1941.6605138434606 0 0 0 0 0.10150123991037407 19.476353026531338 0 19.476353026531338 229.94047491066885 0 0 0 0 27.433796727754498 -105.59002289206774 0 -105.59002289206774 795.98397893110086 0 0 0 0 143.31540536282409 72.830917814944769 0 72.830917814944769 104.03166028674332 0 0 0 0 103.67078558753292 329.65877785501925 0 329.65877785501925 1028.0247889421553 0 0 0 0 -241.57157674195514 -25.207649792810116 0 -25.207649792810116 1420.6653782482254 0 0 0 0 -134.10330306780088 -100.12988482508263 0 -100.12988482508263 986.02996268785137 0 0 0 0 -233.02992467544027 -83.936133126144341 0 -83.936133126144341 993.5551317179652 0 0 0 0 1.5778824980552164 3.3851628405064167 0 3.3851628405064167 9.2571460459505985 0 0 0 0 -56.214863130993763 -379.01744400444659 0 -379.01744400444659 970.23889355600022 0 0 0 0 -8.2084223992551415 -309.61234211279043 0 -309.61234211279043 233.51597297670924 0 0 0 0 -64.852462592207303 -42.4041445409066 0 -42.4041445409066 351.14171391479613 0 0 0 0 4.3889933866128326 11.6117248910752 0 11.6117248910752 23.217877921487045 0 0 0 0 -384.79765685220264 219.351915780534 0 219.351915780534 102.96244904590185 0 0 0 0 -19.086306246166714 148.12669675640427 0 148.12669675640427 -117.33791098837264 0 0 0 0 -336.7593834861791 520.07734087327754 0 520.07734087327754 -251.10100098807106 0 0 0 0 -0.2075285262159543 0.28260319335036321 0 0.28260319335036321 5.8396884079092217 0 0 0 0 -203.3326129908919 -16.329647348400158 0 -16.329647348400158 -5.5855214783914562 0 0 0 0 -374.70545807859571 -224.9868182694463 0 -224.9868182694463 352.54306423586786 0 0 0 0 -602.07939968585845 257.1665445955623 0 257.1665445955623 218.56878101194889 0 0 0 0 -344.06901563381234 584.91505834651616 0 584.91505834651616 216.73346276423399 0 0 0 0 -0.71025744024678961 19.154538604580839 0 19.154538604580839 216.00273431784603 0 0 0 0 290.6640330367336 900.88914296040093 0 900.88914296040093 82.157694352426915 0 0 0 0 -169.26589458577746 106.35590249794768 0 106.35590249794768 148.2481831145833 0 0 0 0 -130.76558726330268 202.94412357568399 0 202.94412357568399 202.1233508290461 0 0 0 0 60.997236826347034 123.99842836082098 0 123.99842836082098 133.69046193772374 0 0 0 0 -137.23726187221109 122.28543280200438 0 122.28543280200438 338.29480786393106 0 0 0 0 -120.31297668623847 179.80224832141539 0 179.80224832141539 63.176362350059208 0 0 0 0 -550.75694927251425 -3.6873562172295351 0 -3.6873562172295351 354.11955709907124 0 0 0 0 267.86709416188819 -76.229886641282064 0 -76.229886641282064 283.57064949366759 0 0 0 0 82.486748489402999 222.61598430883168 0 222.61598430883168 188.92460000201663 0 0 0 0 -148.51545150317634 -314.8943121515731 0 -314.8943121515731 604.24072620530978 0 0 0 0 -92.986454274028347 441.42767027603441 0 441.42767027603441 514.66645092517138 0 0 0 0 -587.96703962037645 -251.19384201521461 0 -251.19384201521461 367.8547784779455 0 0 0 0 -306.05602000800206 -192.71212424517762 0 -192.71212424517762 36.365409524907591 0 0 0 0 -257.87865553723714 -33.571729792151018 0 -33.571729792151018 561.80728696840742 0 0 0 0 5.4689286078574506 16.453769269366717 0 16.453769269366717 41.95522690995697 0 0 0 0 386.17801614266546 11.091984646648143 0 11.091984646648143 -171.13663510425249 0 0 0 0 -576.81408589969794 387.43353811993256 0 387.43353811993256 117.45456839285907 0 0 0 0 82.992504742313031 351.73641020200739 0 351.73641020200739 36.661236381940398 0 0 0 0 60.427419639073833 266.47306926636793 0 266.47306926636793 -284.70258778924472 0 0 0 0 -1.2685766490146033 12.665478115703406 0 12.665478115703406 191.58281273751106 0 0 0 0 -831.72828257984611 297.94648645837515 0 297.94648645837515 400.26899301508092 0 0 0 0 66.403138105140897 85.9093305458955 0 85.9093305458955 585.45286511239101 0 0 0 0 140.08997420191281 280.85821367410244 0 280.85821367410244 402.48495926885516 0 0 0 0 79.591285019560019 213.40390718298295 0 213.40390718298295 224.52622619550675 0 0 0 0 87.745861669111036 131.38793569730478 0 131.38793569730478 295.82139853440458 0 0 0 0 68.875417469048898 175.1971048630985 0 175.1971048630985 310.61774767125462 0 0 0 0 126.45819585173194 170.88391157853039 0 170.88391157853039 180.64902859722497 0 0 0 0 46.850400318345237 145.63253826098298 0 145.63253826098298 485.29786954712472 0 0 0 0 90.56008207917148 104.24779290730658 0 104.24779290730658 298.13033776204975 0 0 0 0 43.859835880487481 53.96356049624228 0 53.96356049624228 455.26761710206483 0 0 0 0 94.620280623651524 128.82537148598567 0 128.82537148598567 184.26688385700254 0 0 0 0 69.754619604416575 184.5981202942603 0 184.5981202942603 184.75897089650971 0 0 0 0 68.126241096945705 35.025224696724763 0 35.025224696724763 271.80379654752323 0 0 0 0 46.898636767161406 84.752994586884597 0 84.752994586884597 418.20275847926678 0 0 0 0 61.123806676177082 -5.0587945575643971 0 -5.0587945575643971 455.84816855069948 0 0 0 0 2.0352599134616867 -49.49380820188162 0 -49.49380820188162 799.79016931320075 0 0 0 0 7.1436613358433654 -0.50099118987566271 0 -0.50099118987566271 0.84827485138389846 0 0 0 0 6.0531939026432156 15.673836788242625 0 15.673836788242625 680.72888914625219 0 0 0 0 150.44456593840277 -285.94022402097471 0 -285.94022402097471 264.64458209701206 0 0 0 0 11.542061730985385 -3.9285049670038177 0 -3.9285049670038177 1.4959225177716959 0 0 0 0 50.620541103719916 -31.647496707002574 0 -31.647496707002574 554.57900804525707 0 0 0 0 38.355620763449167 73.345977989114544 0 73.345977989114544 485.66683744821057 0 0 0 0 33.503136943213462 25.569406426153364 0 25.569406426153364 559.38437029454508 0 0 0 0 42.095277791971057 33.770876436843537 0 33.770876436843537 566.03086240320408 0 0 0 0 6.4407702723513509 -3.8208489470917186 0 -3.8208489470917186 2.2532379352953811 0 0 0 0 32.163488747844895 69.875309133423798 0 69.875309133423798 643.95361783215048 0 0 0 0 191.89710351832156 83.855057015005059 0 83.855057015005059 542.77653389808256 0 0 0 0 47.982855786197433 58.269530765388481 0 58.269530765388481 615.43432607412979 0 0 0 0 -40.637566602499646 41.366739288772806 0 41.366739288772806 654.58368462176441 0 0 0 0 68.422783383653268 -197.69348987733974 0 -197.69348987733974 319.52814648361527 0 0 0 0 -177.76799779794874 -29.843120980869571 0 -29.843120980869571 1010.2124497418172 0 0 0 0 -113.80895390116393 -97.574832808059 0 -97.574832808059 914.06665418407647 0 0 0 0 2.5245695700682518 -65.897041559115678 0 -65.897041559115678 231.66161931310489 0 0 0 0 -69.409814145445125 238.16822552516533 0 238.16822552516533 734.16711251076049 0 0 0 0 5.537687186184395 -7.1492261237831372 0 -7.1492261237831372 10.266574427213015 0 0 0 0 401.66503715584804 -336.20574040883002 0 -336.20574040883002 -104.21037398058252 0 0 0 0 104.06701704711122 -956.88870611212042 0 -956.88870611212042 1458.7522772195662 0 0 0 0 -60.756443741364393 409.38553283901024 0 409.38553283901024 1318.2172041578597 0 0 0 0 10.333932627722305 731.66442121387763 0 731.66442121387763 1408.7726181017933 0 0 0 0 191.43789877650602 -597.7889280463678 0 -597.7889280463678 723.18140877649421 0 0 0 0 189.84813370714119 -242.79833594054799 0 -242.79833594054799 -17.773254147643456 0 0 0 0 68.318269730778653 -143.94003856217 0 -143.94003856217 -52.578001694506384 0 0 0 0 24.373156647208589 -115.12077562469858 0 -115.12077562469858 28.415083443884214 0 0 0 0 27.203409849269065 -136.9453680458937 0 -136.9453680458937 -74.116876226362365 0 0 0 0 -184.09205032346506 -213.55406949199096 0 -213.55406949199096 -41.514356255989696 0 0 0 0 50.337922067794807 -59.599460743564123 0 -59.599460743564123 -70.460974206868286 0 0 0 0 13.039016392188636 -19.497781911727671 0 -19.497781911727671 28.805924012418018 0 0 0 0 -120.31172081192835 -154.39004990553804 0 -154.39004990553804 248.86996510998051 0 0 0 0 -226.8041581484506 -168.49960803153226 0 -168.49960803153226 -32.723475178325316 0 0 0 0 -70.349350935169923 -117.14629756579961 0 -117.14629756579961 -43.556034777466266 0 0 0 0 -226.26571867262692 -151.48064587331464 0 -151.48064587331464 -14.986254373507109 0 0 0 0 41.741176731816608 -110.06804033232675 0 -110.06804033232675 -69.685615659022005 0 0 0 0 -28.577136435364082 -114.74880155769642 0 -114.74880155769642 -31.540198228729423 0 0 0 0 21.484842127494481 -31.977282427189778 0 -31.977282427189778 35.981689613015703 0 0 0 0 120.19932663158033 -112.11461664861235 0 -112.11461664861235 -70.289262774167582 0 0 0 0 1.0130016791490561 9.1933341578624095 0 9.1933341578624095 102.06431860987504 0 0 0 0 -631.0060145446032 -126.2060251806688 0 -126.2060251806688 283.74195489716658 0 0 0 0 -4.231367213285381 -13.112333660009966 0 -13.112333660009966 49.614111426780539 0 0 0 0 -388.12431369585283 195.60932372698153 0 195.60932372698153 131.48667028585623 0 0 0 0 -12.760830254356438 -38.707811222825612 0 -38.707811222825612 26.953139981076419 0 0 0 0 -218.83518877471261 -126.38647238052818 0 -126.38647238052818 348.62053878891311 0 0 0 0 -86.320971387091959 -174.82711101562018 0 -174.82711101562018 407.41965328787046 0 0 0 0 -4.2247886940403987 2.6185238441917353 0 2.6185238441917353 173.26282666219646 0 0 0 0 255.14026427401564 -215.54329445193753 0 -215.54329445193753 93.441898702832987 0 0 0 0 4.4475987532450745 67.409599315620653 0 67.409599315620653 163.78881150989037 0 0 0 0 -481.9363463235884 -271.68402108695045 0 -271.68402108695045 147.63590209354879 0 0 0 0 -404.63869743734585 104.95541466543727 0 104.95541466543727 62.425942502930411 0 0 0 0 108.9127356781928 128.7382821041956 0 128.7382821041956 414.10615053890797 0 0 0 0 -18.509039602411576 -386.23239421800099 0 -386.23239421800099 287.23930741196091 0 0 0 0 75.453524931707307 -316.59290658913596 0 -316.59290658913596 103.74238692133076 0 0 0 0 -127.69850580462844 -253.18824830258018 0 -253.18824830258018 153.67437585585867 0 0 0 0 -322.016675448569 -494.69249026344187 0 -494.69249026344187 224.74965238563345 0 0 0 0 -37.917373790354759 -290.73067185325272 0 -290.73067185325272 155.1884730320071 0 0 0 0 -165.99312612154608 -186.82368110277821 0 -186.82368110277821 179.00202577060554 0 0 0 0 80.580365336991235 -302.51257418862224 0 -302.51257418862224 107.7785305987054 0 0 0 0 -4.1863979410081811 -233.39627791619932 0 -233.39627791619932 66.28436678131402 0 0 0 0 69.557411446062474 -181.97195368425207 0 -181.97195368425207 99.508521830866812 0 0 0 0 -12.158366702611602 -146.1416071088388 0 -146.1416071088388 85.795376421781839 0 0 0 0 -15.833755686163386 -139.56469121488408 0 -139.56469121488408 171.12820895083041 0 0 0 0 -90.784368282907053 -74.606531568228093 0 -74.606531568228093 200.31082863362099 0 0 0 0 -46.161189056707371 -42.619161090937268 0 -42.619161090937268 213.36640922909646 0 0 0 0 -141.2722811879712 -128.4853271086904 0 -128.4853271086904 276.11421200374025 0 0 0 0 -227.21003104688862 -39.284097000760084 0 -39.284097000760084 227.36695775168482 0 0 0 0 -99.162035468660179 -16.775320235014078 0 -16.775320235014078 183.09464075314463 0 0 0 0 -6.9683527405849732 1.1258743615950042 0 1.1258743615950042 207.2253388217247 0 0 0 0 -3.739715523972901 5.808366585996291 0 5.808366585996291 200.56029430132884 0 0 0 0 -67.546232380578658 -21.807775655488513 0 -21.807775655488513 198.85998081508296 0 0 0 0 -488.85156693856607 80.119598067672086 0 80.119598067672086 559.07901155054697 0 0 0 0 491.16608357851692 -689.5499492852673 0 -689.5499492852673 719.53913558235945 0 0 0 0 543.43458110067331 358.0129121224254 0 358.0129121224254 501.14822719208314 0 0 0 0 -1.2379631813596017 0.75965325395348415 0 0.75965325395348415 13.11727429860489 0 0 0 0 279.36874983891539 97.524104791614263 0 97.524104791614263 -796.12293750352126 0 0 0 0 46.225370657650274 -93.24558271828937 0 -93.24558271828937 152.40359112937767 0 0 0 0 21.97321359874968 -121.12479480430648 0 -121.12479480430648 293.06942539857846 0 0 0 0 22.113281430336428 -245.92356351624039 0 -245.92356351624039 379.37768374482675 0 0 0 0 43.712732160005544 -220.81931731570512 0 -220.81931731570512 194.72947357146677 0 0 0 0 -25.373857275413663 -30.630272865606713 0 -30.630272865606713 -9.5541987145865619 0 0 0 0 16.953263646944379 -105.67245757095952 0 -105.67245757095952 20.475337662996026 0 0 0 0 540.10458557337006 401.06196625361008 0 401.06196625361008 301.12858029895324 0 0 0 0 -64.629993761984224 666.28442528030791 0 666.28442528030791 871.70646125736039 0 0 0 0 -377.58417693181036 1038.6193389730142 0 1038.6193389730142 642.38625380904341 0 0 0 0 440.00881618499807 588.35673138476341 0 588.35673138476341 -39.66822062322899 0 0 0 0 -2.0297985925364159 -0.20891184599829593 0 -0.20891184599829593 11.529586468185695 0 0 0 0 290.90222900659501 371.21355173710981 0 371.21355173710981 806.35448486948917 0 0 0 0 405.3435355638685 935.98551811087873 0 935.98551811087873 -786.59598136747263 0 0 0 0 519.37533702841029 -114.46810921665701 0 -114.46810921665701 529.55906178698046 0 0 0 0 -322.20099682530326 708.14123277574299 0 708.14123277574299 200.21952285233419 0 0 0 0 -153.68822004063554 355.18156315470969 0 355.18156315470969 798.23375726077938 0 0 0 0 -1.7178163086415772 -7.2636305414608451 0 -7.2636305414608451 15.349601327702974 0 0 0 0 -46.571741774520888 547.5293416635318 0 547.5293416635318 519.9517510209871 0 0 0 0 -79.874427848167215 197.05941599415678 0 197.05941599415678 531.36530757539731 0 0 0 0 -1.9947143571339438 59.101896934724209 0 59.101896934724209 709.17941468599474 0 0 0 0 -1.4716493689695946 -3.5706874695837048 0 -3.5706874695837048 4.3019688693894036 0 0 0 0 -344.78187111871739 389.43650930515287 0 389.43650930515287 935.67374032946827 0 0 0 0 -160.57968079970487 84.309902798414214 0 84.309902798414214 1057.3082603330786 0 0 0 0 576.37269653923249 674.43575284873623 0 674.43575284873623 65.067238370556879 0 0 0 0 -496.98942891136358 8.4637233355028911 0 8.4637233355028911 1181.8250873849165 0 0 0 0 836.27201042816114 -452.60732979065267 0 -452.60732979065267 213.96300994905596 0 0 0 0 -5.3093172686478738 -41.487280075697527 0 -41.487280075697527 12.119053847814939 0 0 0 0 -5.8146980473716035 -7.9505748580720486 0 -7.9505748580720486 -5.0115526119343663 0 0 0 0 -466.9550056438411 -98.228668950195356 0 -98.228668950195356 133.88223254935383 0 0 0 0 -2.7277356521448253 -0.090226808789989121 0 -0.090226808789989121 27.069829857708974 0 0 0 0 -117.24889945290124 137.25394955826533 0 137.25394955826533 7.8823073785607605 0 0 0 0 -332.57187077927574 254.96802803175251 0 254.96802803175251 582.14114737840725 0 0 0 0 -226.24341196262185 24.871096579754521 0 24.871096579754521 226.35131689163973 0 0 0 0 -54.856941946732377 -173.26529121296153 0 -173.26529121296153 102.14506589624216 0 0 0 0 -602.07116433113333 -297.42499619490491 0 -297.42499619490491 341.4259715689368 0 0 0 0 -887.97532384430406 242.01928586518875 0 242.01928586518875 487.74138321450482 0 0 0 0 4.5028180687757331 25.752427975211841 0 25.752427975211841 82.659132132246839 0 0 0 0 147.84374843838577 -40.66755950766219 0 -40.66755950766219 -279.59518836671214 0 0 0 0 93.090568265693037 -312.88795690063489 0 -312.88795690063489 190.15770261674925 0 0 0 0 30.920143963871851 84.227316813274228 0 84.227316813274228 -126.11107661270216 0 0 0 0 -304.44208146504525 6.1481855256463405 0 6.1481855256463405 270.04961039020964 0 0 0 0 148.64570658604043 -123.26506068470599 0 -123.26506068470599 -34.34702377041549 0 0 0 0 7.0025524050519392 22.924731738316272 0 22.924731738316272 68.190495284422894 0 0 0 0 -582.58253443921558 173.23428153016357 0 173.23428153016357 250.1605026568468 0 0 0 0 -127.20923090496035 -22.187712034229662 0 -22.187712034229662 125.27249618532733 0 0 0 0 43.482313518606134 19.339419548146907 0 19.339419548146907 -116.78480620859295 0 0 0 0 65.059362096427321 30.401563213527425 0 30.401563213527425 -120.72885457986195 0 0 0 0 48.4521494528326 15.879839802048082 0 15.879839802048082 -118.16571517630655 0 0 0 0 104.63854185980563 2.0961371702760516 0 2.0961371702760516 -130.29855928219422 0 0 0 0 40.892368384030874 -11.525132902821326 0 -11.525132902821326 -129.06470788620209 0 0 0 0 -3.2198750277931296 -2.5594882034386019 0 -2.5594882034386019 -2.014829943240585 0 0 0 0 -115.2803708595975 -118.96272988275791 0 -118.96272988275791 -73.977966653474141 0 0 0 0 -40.035469188669595 -25.731899406463526 0 -25.731899406463526 21.884316914885403 0 0 0 0 -1.2203887702220353 -3.3013804215733504 0 -3.3013804215733504 35.238117653734498 0 0 0 0 -575.35754108585752 -280.91099085305109 0 -280.91099085305109 118.34532502096798 0 0 0 0 -311.11265177750647 46.182557098203773 0 46.182557098203773 152.17598064973038 0 0 0 0 60.85307489905972 -83.366930604682238 0 -83.366930604682238 -166.31347326730611 0 0 0 0 279.48292525951729 -117.80090633865075 0 -117.80090633865075 -254.20638179167508 0 0 0 0 19.82993027230259 -37.400370339350957 0 -37.400370339350957 -128.16191950392022 0 0 0 0 -1.1190554926309426 -5.1435583747985394 0 -5.1435583747985394 40.780689742499902 0 0 0 0 -541.1739235668183 -186.5499009341996 0 -186.5499009341996 33.03056279571274 0 0 0 0 -559.98740160737043 -530.51910208551863 0 -530.51910208551863 22.498242465255316 0 0 0 0 -782.68757376729945 372.2333412133712 0 372.2333412133712 1259.1835424946839 0 0 0 0 -1.7611287614219817 -2.208736547057649 0 -2.208736547057649 34.712888707100987 0 0 0 0 703.12126964818447 336.80343440046215 0 336.80343440046215 203.65262146542955 0 0 0 0 609.09527240269199 -533.0678117758639 0 -533.0678117758639 -265.14582769177923 0 0 0 0 131.71183773043049 239.2819544652175 0 239.2819544652175 978.87669585225603 0 0 0 0 16.037121559025763 -6.1587062940443502 0 -6.1587062940443502 265.65948164996098 0 0 0 0 31.740152337164545 -63.907335891712592 0 -63.907335891712592 336.31158068711193 0 0 0 0 -15.359280138499045 -118.58567764556281 0 -118.58567764556281 222.70334080181419 0 0 0 0 -36.160121420705764 122.30223600478166 0 122.30223600478166 81.80287693441187 0 0 0 0 76.439743523966172 -59.388115043085463 0 -59.388115043085463 104.8964194949549 0 0 0 0 117.71025578240733 176.5503150430086 0 176.5503150430086 -22.844948949436912 0 0 0 0 -3.1540827883859421 0.54200565395548583 0 0.54200565395548583 11.460480983528441 0 0 0 0 -97.551568868699178 234.5098867345605 0 234.5098867345605 -58.577667004763498 0 0 0 0 -41.026572880889944 148.24482363547986 0 148.24482363547986 130.12789082942982 0 0 0 0 -2.821254280715948 113.37026684335979 0 113.37026684335979 -146.91903519089919 0 0 0 0 -114.90724973364183 69.427471797236535 0 69.427471797236535 -61.550395497226418 0 0 0 0 278.84708854724028 237.19382925508378 0 237.19382925508378 146.14801836996958 0 0 0 0 126.04607068817677 34.981671600877235 0 34.981671600877235 -120.38971645867093 0 0 0 0 25.89127129693702 41.058429772099885 0 41.058429772099885 133.33363520912712 0 0 0 0 70.60058164737552 131.50057388797808 0 131.50057388797808 210.2245162946906 0 0 0 0 14.232359440557047 -17.356535682781555 0 -17.356535682781555 179.29480362269351 0 0 0 0 15.40800683918178 -3.8857737773969347 0 -3.8857737773969347 129.75202628760013 0 0 0 0 -38.990812787877758 -73.660311515743842 0 -73.660311515743842 70.793798839696137 0 0 0 0 -152.03659291756912 16.819480109980987 0 16.819480109980987 51.075783159234589 0 0 0 0 -231.03459660645831 -133.13792585333067 0 -133.13792585333067 -32.710243110070678 0 0 0 0 -248.79983393738803 15.366020809990232 0 15.366020809990232 12.701848668902414 0 0 0 0 -6.8218245562079574 82.528588842599561 0 82.528588842599561 80.765833625523385 0 0 0 0 -112.48352556834857 -79.881194469985019 0 -79.881194469985019 14.11816329352996 0 0 0 0 -84.884962153643755 120.28323645492424 0 120.28323645492424 92.628429303939186 0 0 0 0 -133.37050821024513 -58.918087265130225 0 -58.918087265130225 -57.201512029121204 0 0 0 0 75.500915312167308 -45.281448200100158 0 -45.281448200100158 101.86520616261737 0 0 0 0 42.12134237989585 19.250539400297811 0 19.250539400297811 167.80463426039432 0 0 0 0 100.34855381654506 258.65710310523951 0 258.65710310523951 300.37092092438803 0 0 0 0 149.88709157316589 251.98760428687126 0 251.98760428687126 321.03153200424327 0 0 0 0 67.04750458800072 181.93252028055281 0 181.93252028055281 319.52253504326961 0 0 0 0 121.82862022259962 214.64750430087381 0 214.64750430087381 168.03792555420841 0 0 0 0 59.225369745973467 118.62931864056816 0 118.62931864056816 252.96122095080841 0 0 0 0 91.580564379081977 229.43614824274746 0 229.43614824274746 286.11525253601212 0 0 0 0 64.917811567320598 227.98377663206873 0 227.98377663206873 394.80596282860313 0 0 0 0 60.254877533512285 205.02540887877211 0 205.02540887877211 513.69287067612311 0 0 0 0 173.03954361461683 336.15347066939853 0 336.15347066939853 508.54418133724471 0 0 0 0 25.25465455294443 180.61026007198745 0 180.61026007198745 497.63794883886715 0 0 0 0 27.010856649849757 218.28887364229948 0 218.28887364229948 770.72577743883232 0 0 0 0 187.14893420904991 192.25888231808892 0 192.25888231808892 552.08795920733132 0 0 0 0 46.109805094852959 219.08329320027127 0 219.08329320027127 591.97122975297384 0 0 0 0 78.590164060372899 139.75485981555801 0 139.75485981555801 527.50608098073837 0 0 0 0 -137.75959573198816 249.39702214018416 0 249.39702214018416 681.41838399685366 0 0 0 0 256.4420756098616 45.958428532892469 0 45.958428532892469 519.89486231143792 0 0 0 0 -132.03092060937524 -12.018509115608481 0 -12.018509115608481 592.68222432454525 0 0 0 0 -110.65029583981686 -306.86004708125029 0 -306.86004708125029 16.912659466480818 0 0 0 0 -1.3616189178567168 -2.2619315488970235 0 -2.2619315488970235 5.983824219854883 0 0 0 0 139.0474254571518 675.61728674180608 0 675.61728674180608 1223.8230834063675 0 0 0 0 322.69920117170386 347.39256159522211 0 347.39256159522211 465.9347646293345 0 0 0 0 140.57618783342559 93.059607910035311 0 93.059607910035311 -14.116942156555453 0 0 0 0 14.829064710284761 8.1303271766610603 0 8.1303271766610603 -12.468885250965794 0 0 0 0 -11.65789878259784 249.39671737400272 0 249.39671737400272 341.92012854159475 0 0 0 0 0.77223808633049273 1.7826597339241492 0 1.7826597339241492 5.895878929270153 0 0 0 0 80.913332964580377 214.79216026714954 0 214.79216026714954 591.90078696577029 0 0 0 0 -73.213187049444514 -24.640957846520507 0 -24.640957846520507 1.4423935860093593 0 0 0 0 70.321069705840273 221.38521663129609 0 221.38521663129609 654.96856755614772 0 0 0 0 112.64430669842093 279.47203745379539 0 279.47203745379539 398.23256272143749 0 0 0 0 13.667423590899482 11.617782301200565 0 11.617782301200565 -9.9277055053366823 0 0 0 0 231.10848762342357 276.76864074578543 0 276.76864074578543 326.89337118994263 0 0 0 0 118.67394736348297 35.284538832032581 0 35.284538832032581 322.84449498467347 0 0 0 0 6.1064775337300619 1.2720477491510045 0 1.2720477491510045 -5.9044415022710268 0 0 0 0 15.75932483492852 25.37535592749191 0 25.37535592749191 6.3502520941501643 0 0 0 0 14.135515490726263 56.650420713824616 0 56.650420713824616 -3.0844637943428097 0 0 0 0 11.993991786314652 19.889678621792207 0 19.889678621792207 26.245549344517535 0 0 0 0 -131.26388532364217 50.941534137025371 0 50.941534137025371 42.375133788469043 0 0 0 0 8.59886589942505 -8.7102756582971779 0 -8.7102756582971779 152.52216543575651 0 0 0 0 21.987435939086254 7.249974656861923 0 7.249974656861923 -7.265747283163364 0 0 0 0 47.929908500344936 31.502144678348486 0 31.502144678348486 4.614884794927093 0 0 0 0 12.769326800993213 23.564302085349937 0 23.564302085349937 53.74456974009172 0 0 0 0 87.234052153119137 11.286289821898208 0 11.286289821898208 44.367591330941195 0 0 0 0 -14.211766448954904 20.209537420559627 0 20.209537420559627 146.29494737344157 0 0 0 0 35.029572469038158 -74.290792278252866 0 -74.290792278252866 80.880121816675455 0 0 0 0 1.1633284276326243 -0.542675031564535 0 -0.542675031564535 -0.70945033328909446 0 0 0 0 22.083502800966301 -24.940120657749048 0 -24.940120657749048 185.86785595477886 0 0 0 0 28.61031603932264 -46.225027414261149 0 -46.225027414261149 228.80337760799375 0 0 0 0 -2.553063264023308 3.4591992954806301 0 3.4591992954806301 153.76517213417446 0 0 0 0 -31.813497003139815 -8.7713101086019378 0 -8.7713101086019378 206.48879663355501 0 0 0 0 -22.408657746687425 62.293117818295286 0 62.293117818295286 152.25975183370747 0 0 0 0 -37.153949950796033 -2.6065448183228455 0 -2.6065448183228455 244.1252774868135 0 0 0 0 6.727602257348849 34.396548571729454 0 34.396548571729454 136.838405294533 0 0 0 0 23.387647276305398 2.8175899049235795 0 2.8175899049235795 35.857975256405552 0 0 0 0 16.717782926308697 33.685118072322439 0 33.685118072322439 60.84656527979223 0 0 0 0 17.924853806480616 4.754645913754846 0 4.754645913754846 -8.813344967733908 0 0 0 0 22.107009956929573 40.265849821600568 0 40.265849821600568 -3.1163218225738092 0 0 0 0 8.9372815220312987 273.32627581545466 0 273.32627581545466 365.5325421472885 0 0 0 0 22.910680055142876 -107.74070004269454 0 -107.74070004269454 159.58708404124718 0 0 0 0 -1.7133820311880932 -9.5541402656981624 0 -9.5541402656981624 11.573084771157788 0 0 0 0 1298.3536720399643 -608.56607584585436 0 -608.56607584585436 1164.5543837137084 0 0 0 0 25.297063628911474 116.21225610807141 0 116.21225610807141 162.49043945383346 0 0 0 0 24.704603840616109 -0.030371463625318285 0 -0.030371463625318285 -9.8574369885768718 0 0 0 0 113.48367998448111 48.114582673071709 0 48.114582673071709 -172.9356869228377 0 0 0 0 -160.94798844680372 287.80130037524486 0 287.80130037524486 73.414337259053355 0 0 0 0 -69.225888427788959 194.84367134936747 0 194.84367134936747 82.759422633193026 0 0 0 0 -139.93463959376595 242.31071942189101 0 242.31071942189101 128.32767824344774 0 0 0 0 -750.88906345089526 266.18463870245614 0 266.18463870245614 1637.3352971339264 0 0 0 0 28.853565232268011 322.0704386105308 0 322.0704386105308 258.30991787485732 0 0 0 0 -12.328837690384493 11.543802626920431 0 11.543802626920431 36.292645900262556 0 0 0 0 45.309002554720792 138.85186816139321 0 138.85186816139321 222.83283809228487 0 0 0 0 11.526664535629777 -24.531746400258825 0 -24.531746400258825 290.04639384098937 0 0 0 0 -90.557347677910002 225.30295876547825 0 225.30295876547825 64.900649324677261 0 0 0 0 28.362779013137153 2.0233965657497777 0 2.0233965657497777 26.654652306588556 0 0 0 0 186.65299527829484 -391.0803320992236 0 -391.0803320992236 -74.316382117909598 0 0 0 0 -254.29776638573276 -142.19876543600367 0 -142.19876543600367 -16.199051548917851 0 0 0 0 -13.345055689244887 -4.882799265510755 0 -4.882799265510755 29.196313282029934 0 0 0 0 -11.548433333855428 -13.858678059048543 0 -13.858678059048543 224.18805411353242 0 0 0 0 2.7790914153770956 13.056689093331661 0 13.056689093331661 186.47650090145129 0 0 0 0 429.68396217567692 153.36544446966673 0 153.36544446966673 155.12897755482481 0 0 0 0 -50.65378781916877 209.110996476129 0 209.110996476129 150.81008213981477 0 0 0 0 960.9119095762677 693.18213073001834 0 693.18213073001834 665.25665702105471 0 0 0 0 2050.9259455015008 -1489.3240683275635 0 -1489.3240683275635 -457.31856540496847 0 0 0 0 107.74110051675461 237.01680443451187 0 237.01680443451187 1035.7307134036664 0 0 0 0 4.239529755129821 9.245359393926968 0 9.245359393926968 17.101034264911078 0 0 0 0 273.30356819423059 423.3952543161231 0 423.3952543161231 43.76531170402086 0 0 0 0 118.48142086620396 -216.15094460700493 0 -216.15094460700493 547.12951524130222 0 0 0 0 -803.7895478498358 757.21199876508217 0 757.21199876508217 1265.8974676896041 0 0 0 0 -79.918066229986835 -17.82668937057133 0 -17.82668937057133 263.89446167947608 0 0 0 0 -156.49786722330145 141.43209140329054 0 141.43209140329054 306.35513609959708 0 0 0 0 -2.0449004456773689 -2.5901035513110586 0 -2.5901035513110586 160.10710399869902 0 0 0 0 -11.42436469912686 20.811338348552276 0 20.811338348552276 8.4026398751260061 0 0 0 0 -20.764835843206981 51.537287351910777 0 51.537287351910777 222.20130872845402 0 0 0 0 -53.728014892945794 88.191218895457496 0 88.191218895457496 294.70488021202254 0 0 0 0 -41.696101647931755 15.193352251961187 0 15.193352251961187 720.94419557205401 0 0 0 0 -35.388890241267518 -77.532012779297474 0 -77.532012779297474 393.53725744271787 0 0 0 0 -45.765249435440296 -32.424413921779887 0 -32.424413921779887 197.66180892045759 0 0 0 0 126.07246506236902 -112.05556290671393 0 -112.05556290671393 48.55807085273409 0 0 0 0 -28.309908689092936 25.174298602597446 0 25.174298602597446 89.264604276733735 0 0 0 0 18.05983223484435 -0.37678163314922131 0 -0.37678163314922131 66.853780674204245 0 0 0 0 4.8064048303753024 -25.297997774483292 0 -25.297997774483292 135.94998444668818 0 0 0 0 4.3479362607260352 -2.5475777225460865 0 -2.5475777225460865 7.4243227172437543 0 0 0 0 67.085099684428997 -151.81983740108126 0 -151.81983740108126 -11.161567824136 0 0 0 0 888.14174138735689 250.63834530630993 0 250.63834530630993 -274.44281315668923 0 0 0 0 4.2182759975391519 -25.527299305563083 0 -25.527299305563083 99.041800965441155 0 0 0 0 257.83914824868179 -116.06199717039635 0 -116.06199717039635 -241.84703077895028 0 0 0 0 -860.79511791967468 588.9001840702058 0 588.9001840702058 268.01245723977627 0 0 0 0 5.4653919315882558 18.437382223323613 0 18.437382223323613 51.575703530381595 0 0 0 0 102.77317916740139 713.06848972854641 0 713.06848972854641 -255.91218148146618 0 0 0 0 10.70889515523811 137.04349428098385 0 137.04349428098385 333.78722611883859 0 0 0 0 846.51819942433394 -130.24399600986362 0 -130.24399600986362 -79.891957790830929 0 0 0 0 36.002178806349548 211.99054819390221 0 211.99054819390221 212.20223439801703 0 0 0 0 867.70997121992423 -78.797801573557081 0 -78.797801573557081 20.81691243849491 0 0 0 0 267.10828788916115 -167.45841118943281 0 -167.45841118943281 162.4962408606516 0 0 0 0 178.06021088574562 189.2789269989953 0 189.2789269989953 470.55720191049113 0 0 0 0 805.09774467672833 -154.83688218971474 0 -154.83688218971474 37.627899396102293 0 0 0 0 11.599311629571138 -4.230200461588268 0 -4.230200461588268 12.577411624546219 0 0 0 0 -977.45515510793575 215.80751055249675 0 215.80751055249675 624.0421096625505 0 0 0 0 593.18947166720909 252.08684743804406 0 252.08684743804406 -324.89637406604606 0 0 0 0 777.52858553904025 -195.56646179781819 0 -195.56646179781819 -16.879533905936114 0 0 0 0 563.55972719827207 -35.294310713029631 0 -35.294310713029631 81.020675330710219 0 0 0 0 -311.70744458421996 -303.66596255709737 0 -303.66596255709737 340.83758188739375 0 0 0 0 359.36070078404282 209.90610703412676 0 209.90610703412676 436.51260825422287 0 0 0 0 304.78630798704762 39.511340937580826 0 39.511340937580826 320.62632498116727 0 0 0 0 555.21886449295789 122.08094790054838 0 122.08094790054838 299.41327813921089 0 0 0 0 27.867233306921662 131.94192907970137 0 131.94192907970137 432.65455965755609 0 0 0 0 153.08748541919886 118.47388768319797 0 118.47388768319797 433.41664174672042 0 0 0 0 -6.2401077219347627 20.303077013867551 0 20.303077013867551 78.375845085573019 0 0 0 0 -4.4256914685659803 28.058372293429784 0 28.058372293429784 94.944257595778254 0 0 0 0 -35.782157282441744 51.707236886845749 0 51.707236886845749 72.468515384700254 0 0 0 0 6.5574809608984577 23.649274552526272 0 23.649274552526272 74.036336700259881 0 0 0 0 7.8247675819779294 34.952045849530805 0 34.952045849530805 67.7408531405963 0 0 0 0 2.4816891174761899 23.127213003546785 0 23.127213003546785 58.686332112227319 0 0 0 0 0.36628511644598483 16.069189655485388 0 16.069189655485388 112.61050693367633 0 0 0 0 11.062193463987342 50.624766980110508 0 50.624766980110508 83.093366415461787 0 0 0 0 -10.106521742645015 -3.2106899555121764 0 -3.2106899555121764 3.6750960678754119 0 0 0 0 -13.295878459716974 -2.1777566057294173 0 -2.1777566057294173 4.5460038757271057 0 0 0 0 6.2061938983095786 12.072979755046504 0 12.072979755046504 36.343425454786484 0 0 0 0 -27.402173415779998 36.957611440479013 0 36.957611440479013 167.78133280244765 0 0 0 0 -23.232056546071348 2.9353159808869691 0 2.9353159808869691 98.817249741052365 0 0 0 0 7.4807265913085246 14.840165077059282 0 14.840165077059282 14.912071818089316 0 0 0 0 -17.172962288728442 -1.8179181989156454 0 -1.8179181989156454 6.1374811978974577 0 0 0 0 17.407696135791866 79.892732714301928 0 79.892732714301928 114.77144290359593 0 0 0 0 -19.015382115546004 18.101938673520635 0 18.101938673520635 216.70097286327564 0 0 0 0 -0.42763696431642728 0.21421898967277997 0 0.21421898967277997 2.7125789908057953 0 0 0 0 14.936722040201403 42.191460563395594 0 42.191460563395594 256.14867002406504 0 0 0 0 14.627109007112495 13.02267159170151 0 13.02267159170151 231.28718169779614 0 0 0 0 -27.227422296811028 39.170280388214906 0 39.170280388214906 256.8717419233908 0 0 0 0 -24.927713506653845 -3.39058410144753 0 -3.39058410144753 225.94248076153235 0 0 0 0 8.7058015568873941 -3.2521610262820104 0 -3.2521610262820104 196.03254091310737 0 0 0 0 -24.839854894574614 -5.6171524064247933 0 -5.6171524064247933 202.72743858471949 0 0 0 0 -23.774299844581126 -8.8688771213192013 0 -8.8688771213192013 170.05740050521217 0 0 0 0 -23.76526045679044 -11.58557922417458 0 -11.58557922417458 192.56827369770508 0 0 0 0 -17.972801114265256 34.622865491490529 0 34.622865491490529 142.40344707103941 0 0 0 0 -101.11292689922021 -37.191225916451003 0 -37.191225916451003 273.63470986281027 0 0 0 0 -64.767815070673919 6.6644505080148519 0 6.6644505080148519 477.90912495966768 0 0 0 0 -18.42042952918689 115.30030577023717 0 115.30030577023717 212.23195118595322 0 0 0 0 83.030886451680658 -121.95788943930893 0 -121.95788943930893 143.63606723516568 0 0 0 0 -138.24211924889028 -154.2223410942097 0 -154.2223410942097 222.6780801762452 0 0 0 0 -53.768921229410807 -15.372107420131215 0 -15.372107420131215 202.13963150382733 0 0 0 0 -101.46894428427662 -107.28087279050055 0 -107.28087279050055 52.315491140310769 0 0 0 0 -399.3400333244274 -191.67802646303608 0 -191.67802646303608 50.264103504814557 0 0 0 0 -114.17280698587149 -326.47936847634446 0 -326.47936847634446 -274.10514541799785 0 0 0 0 -417.58741396562141 -164.03407666887506 0 -164.03407666887506 2.446306058234768 0 0 0 0 5.5247257340770375 -112.63705839231261 0 -112.63705839231261 -387.68145342187199 0 0 0 0 3.9595137138568752 -7.2279761394253512 0 -7.2279761394253512 7.265269528853878 0 0 0 0 -211.68176977550235 -248.85371720331386 0 -248.85371720331386 -140.09915236730012 0 0 0 0 -86.532568056438777 -41.223764419955842 0 -41.223764419955842 -218.65959524094069 0 0 0 0 -44.651898486139942 -138.865721584938 0 -138.865721584938 -71.718366282111674 0 0 0 0 -44.994373547199871 -142.31189840967272 0 -142.31189840967272 -12.592420855362434 0 0 0 0 -25.690190009682112 0.73796267753459688 0 0.73796267753459688 23.28013169519545 0 0 0 0 35.482768127749523 -75.626119041411584 0 -75.626119041411584 43.042597357634804 0 0 0 0 -59.593359800818007 -137.43360101846338 0 -137.43360101846338 -19.218362384097418 0 0 0 0 7.7533324216772712 -23.025004100467413 0 -23.025004100467413 -35.590210064932762 0 0 0 0 29.799830913644655 -94.92214187047648 0 -94.92214187047648 6.3976847666344838 0 0 0 0 2.5606867868327754 -20.482662053233071 0 -20.482662053233071 171.34254789099214 0 0 0 0 42.173050117342115 3.139043847847006 0 3.139043847847006 96.494094811554532 0 0 0 0 -27.361848507761351 14.058535336320347 0 14.058535336320347 291.15927039884264 0 0 0 0 -6.2984394813711333 17.066429821916245 0 17.066429821916245 193.92419621599402 0 0 0 0 144.13658680106602 80.912058261892525 0 80.912058261892525 119.97475503481473 0 0 0 0 3.483666490869382 67.495869915579533 0 67.495869915579533 406.69112519422924 0 0 0 0 126.34018795997872 -166.98013186912431 0 -166.98013186912431 192.86898843917152 0 0 0 0 -3.8785319692028679 -114.25213676319254 0 -114.25213676319254 394.05176936431553 0 0 0 0 -0.8579017398566553 -1.1671815837371575 0 -1.1671815837371575 5.1039339521534828 0 0 0 0 -10.361380814411859 -77.68416249215079 0 -77.68416249215079 195.66008160343335 0 0 0 0 -26.470321718990363 -69.891784832892881 0 -69.891784832892881 280.52268075582106 0 0 0 0 -38.623424061041078 -16.91801000200212 0 -16.91801000200212 250.21511584492691 0 0 0 0 -26.41701613708301 -39.424580712984607 0 -39.424580712984607 198.72240109794075 0 0 0 0 -14.791960332155213 -22.849963618211405 0 -22.849963618211405 171.42737110167218 0 0 0 0 -26.554092006702376 -38.148664374741202 0 -38.148664374741202 220.0201181155353 0 0 0 0 -18.916216860252462 -26.763109882202116 0 -26.763109882202116 193.73125999794138 0 0 0 0 -18.560165676168253 -1.8923740686586825 0 -1.8923740686586825 212.45238131732185 0 0 0 0 -18.159759023662446 1.4234350283986714 0 1.4234350283986714 239.08968431250833 0 0 0 0 -33.6141177905738 -20.03358353843214 0 -20.03358353843214 230.51652030152036 0 0 0 0 -37.781722090598123 -10.309807821075083 0 -10.309807821075083 254.59703194044414 0 0 0 0 -31.104693306397166 -35.714167323203583 0 -35.714167323203583 247.15447509421756 0 0 0 0 -23.907012997253332 -6.0194463284424273 0 -6.0194463284424273 242.28484983805538 0 0 0 0 -22.428925729762796 -10.035071105730822 0 -10.035071105730822 239.12692456805962 0 0 0 0 -34.253503642323267 -8.5742269850416051 0 -8.5742269850416051 226.40297950450622 0 0 0 0 -38.384724736990393 -12.728572698237258 0 -12.728572698237258 248.53530972596855 0 0 0 0 -29.973179677508597 -26.166036434995476 0 -26.166036434995476 217.49239149441928 0 0 0 0 2.2828317591209952 -19.280922697502319 0 -19.280922697502319 192.34894761162286 0 0 0 0 -1.0486396456199145 -52.757772965254844 0 -52.757772965254844 129.21346946864651 0 0 0 0 -28.492856253976242 -24.392683899903204 0 -24.392683899903204 216.30139122155379 0 0 0 0 27.137676941953259 -82.164262259334919 0 -82.164262259334919 141.40397280167235 0 0 0 0 -26.902797274883483 -61.794173418627452 0 -61.794173418627452 240.5909532563528 0 0 0 0 -26.372461464030494 -67.061202432843857 0 -67.061202432843857 199.10613723285496 0 0 0 0 -24.48158543527461 -38.459511976121576 0 -38.459511976121576 227.6238368924096 0 0 0 0 -4.8103888612185983 -57.408804023089033 0 -57.408804023089033 207.92213137637009 0 0 0 0 9.8220000548499229 -80.774465093993058 0 -80.774465093993058 237.32100592415372 0 0 0 0 13.941118036917032 -32.275506113866868 0 -32.275506113866868 227.86317680111097 0 0 0 0 -11.785605676206615 -83.279087895447446 0 -83.279087895447446 193.26415239446942 0 0 0 0 29.028369671856126 -41.880923618169618 0 -41.880923618169618 206.55497753700911 0 0 0 0 -23.208695671951773 -18.629833978721763 0 -18.629833978721763 197.70618459346588 0 0 0 0 -5.198942139897099 -2.5373317047615274 0 -2.5373317047615274 220.06497801590012 0 0 0 0 -2.5295202554501408 1.0191179724113972 0 1.0191179724113972 193.38344446002566 0 0 0 0 72.236276221489788 -110.39326005812927 0 -110.39326005812927 317.11747730149364 0 0 0 0 93.87609895793139 -25.122556538874051 0 -25.122556538874051 181.46140918216406 0 0 0 0 -59.966422504866387 328.19465352855696 0 328.19465352855696 126.14218297810294 0 0 0 0 -14.856296305471389 14.669119211258106 0 14.669119211258106 61.727108493264609 0 0 0 0 -25.280636977920949 -111.81292730448331 0 -111.81292730448331 344.17946474772179 0 0 0 0 -43.428068825851369 210.03999615568318 0 210.03999615568318 520.29266376746818 0 0 0 0 34.387111872920286 -185.55018028046652 0 -185.55018028046652 455.74008292949293 0 0 0 0 34.244430076170829 -181.80358450277708 0 -181.80358450277708 373.03879166919069 0 0 0 0 -228.65109555172239 120.59678862664441 0 120.59678862664441 85.37742877578421 0 0 0 0 -14.704804246561253 -19.964773263825919 0 -19.964773263825919 287.24238356157184 0 0 0 0 283.03122431503289 -88.274283157021273 0 -88.274283157021273 297.93814654227026 0 0 0 0 136.48699845551346 81.417326501836214 0 81.417326501836214 389.1389532124449 0 0 0 0 14.311347389259026 2.5990987010882236 0 2.5990987010882236 424.49345004346105 0 0 0 0 -8.4413069987676863 -23.30734461445536 0 -23.30734461445536 399.39740658129449 0 0 0 0 -7.2776150826430239 -29.876822203550546 0 -29.876822203550546 273.56419144508982 0 0 0 0 -24.096321328296654 -45.417087769124009 0 -45.417087769124009 297.39482881607546 0 0 0 0 -13.045612581841851 15.80014559465053 0 15.80014559465053 296.3655812720317 0 0 0 0 25.051663809452293 25.305541170600918 0 25.305541170600918 295.82046963756875 0 0 0 0 68.113898417788732 -2.0982816821197048 0 -2.0982816821197048 287.21509829556453 0 0 0 0 15.810926914342417 14.991960572137032 0 14.991960572137032 226.26478680819855 0 0 0 0 24.636026139800379 8.9400370472212671 0 8.9400370472212671 225.15924142650329 0 0 0 0 16.420568574036224 3.6328048218711047 0 3.6328048218711047 176.9664934980101 0 0 0 0 61.332360532447638 -9.2528653192530328 0 -9.2528653192530328 163.10735747059516 0 0 0 0 28.856873673168593 -1.4366804417732055 0 -1.4366804417732055 142.10600507651179 0 0 0 0 19.050616505503058 -18.043098212023324 0 -18.043098212023324 200.41880235484859 0 0 0 0 116.61347221246433 -11.005996290423354 0 -11.005996290423354 199.98752349014103 0 0 0 0 31.846227583762811 -38.112173077417538 0 -38.112173077417538 125.73475632711416 0 0 0 0 -7.1092112769692903 -22.202323116864136 0 -22.202323116864136 119.23702699259229 0 0 0 0 26.962845542937885 -29.808647724794355 0 -29.808647724794355 77.725698327296413 0 0 0 0 8.0225697463065444 -13.228174713840417 0 -13.228174713840417 163.6161684157023 0 0 0 0 26.504914611407003 -12.383613997375505 0 -12.383613997375505 115.34352589401533 0 0 0 0 7.1775335437941976 1.7673498969525099 0 1.7673498969525099 177.17674389179047 0 0 0 0 19.054593687294755 -8.8074732029617735 0 -8.8074732029617735 92.577407145989127 0 0 0 0 15.680542633454024 -9.7265317609635531 0 -9.7265317609635531 114.98508929848686 0 0 0 0 17.730302872976608 -24.81958108227991 0 -24.81958108227991 86.314074385387357 0 0 0 0 13.151090290339198 -14.192510603592382 0 -14.192510603592382 82.032038750137872 0 0 0 0 21.362570106890416 -23.547239652401913 0 -23.547239652401913 66.613155768020079 0 0 0 0 14.318617921859186 -16.387280051629205 0 -16.387280051629205 57.220036741637159 0 0 0 0 17.295112283385198 -16.143360297768986 0 -16.143360297768986 57.237431919522351 0 0 0 0 17.297167979699946 -23.825656216741223 0 -23.825656216741223 64.868173997470876 0 0 0 0 18.159203412160423 -19.656289900798583 0 -19.656289900798583 45.166709311975865 0 0 0 0 4.0084248540188128 -22.787014492183516 0 -22.787014492183516 67.501693281315966 0 0 0 0 13.897379894842743 -12.43567518783675 0 -12.43567518783675 58.568249848329287 0 0 0 0 16.924956664754063 -16.390039751786389 0 -16.390039751786389 52.677659967652289 0 0 0 0 -156.22711334218275 -195.78984784022305 0 -195.78984784022305 299.65118787384563 0 0 0 0 6.1816798488647642 -17.170168077579 0 -17.170168077579 64.478368352028156 0 0 0 0 -4.0156091282588022 -27.5303354905991 0 -27.5303354905991 70.933060645467776 0 0 0 0 5.9315959239265794 -35.328077692705847 0 -35.328077692705847 77.045745566632831 0 0 0 0 -4.7427496498130495 -14.099560535876662 0 -14.099560535876662 58.884036644594744 0 0 0 0 82.714880820891267 170.47421220969409 0 170.47421220969409 480.7656516309944 0 0 0 0 98.289650709273701 185.16545747386772 0 185.16545747386772 413.19067468566936 0 0 0 0 82.362593756864953 201.53199448793021 0 201.53199448793021 481.84592430607472 0 0 0 0 97.686815484407816 174.84538614101257 0 174.84538614101257 461.62975887166976 0 0 0 0 63.133870140709405 232.16799634192284 0 232.16799634192284 400.71011505769093 0 0 0 0 103.82113645351421 206.80004242855375 0 206.80004242855375 392.40400035598577 0 0 0 0 -70.709025844726057 5.3087198554167117 0 5.3087198554167117 64.46636854649114 0 0 0 0 6.2622764168204714 -12.326944919773901 0 -12.326944919773901 36.993290357944915 0 0 0 0 -66.436075896293914 32.278138489793491 0 32.278138489793491 53.762343876784144 0 0 0 0 3.0361973592185905 3.1040079115639116 0 3.1040079115639116 11.845392774127625 0 0 0 0 1.6225496516377618 0.34449253237818311 0 0.34449253237818311 9.3341922997396871 0 0 0 0 -42.891690022359398 1.34664802615589 0 1.34664802615589 55.730111892407876 0 0 0 0 -35.817210870955023 4.8037335183180403 0 4.8037335183180403 148.73117024679959 0 0 0 0 19.132825821527149 -14.913791205646703 0 -14.913791205646703 32.507333641697187 0 0 0 0 1.4316315155410848 -8.0376123349560658 0 -8.0376123349560658 50.577405349104083 0 0 0 0 13.240492393375462 -7.1428978636977263 0 -7.1428978636977263 40.997712389013031 0 0 0 0 75.456737519625676 -19.879899710911559 0 -19.879899710911559 82.960272471769713 0 0 0 0 39.15060092299791 30.992744769107958 0 30.992744769107958 -0.81925450494600227 0 0 0 0 1.099624424618888 3.8189014808348958 0 3.8189014808348958 -1.0834424287118258 0 0 0 0 -5.0349495958289481 21.333220360516862 0 21.333220360516862 49.860980923403986 0 0 0 0 -3.5042669601263015 38.743183778724188 0 38.743183778724188 19.35639374468883 0 0 0 0 -20.257286806274351 63.623193186573189 0 63.623193186573189 48.75964415276394 0 0 0 0 51.089075031066386 59.846182843321003 0 59.846182843321003 27.168609367065073 0 0 0 0 7.7866514544616621 -28.48727303988926 0 -28.48727303988926 57.397288249914709 0 0 0 0 92.574802293411267 9.2975407446137979 0 9.2975407446137979 9.7385750949470093 0 0 0 0 -49.704698138700223 -1.8603567898680922 0 -1.8603567898680922 88.08855485348613 0 0 0 0 13.676215803202467 -30.274561858559537 0 -30.274561858559537 7.2416725566727109 0 0 0 0 0.13035708036557025 2.5746015603673413 0 2.5746015603673413 -0.80551667392616721 0 0 0 0 25.647715164253896 2.4179490094029461 0 2.4179490094029461 3.4362128574794042 0 0 0 0 -4.042774869427376 20.487429582462937 0 20.487429582462937 9.110407617965393 0 0 0 0 13.443795282657447 1.1450621953663358 0 1.1450621953663358 31.397988050230197 0 0 0 0 27.758394036377467 -22.629696537369455 0 -22.629696537369455 43.682442985220405 0 0 0 0 23.964691896675504 -10.771201315801591 0 -10.771201315801591 40.686484468678827 0 0 0 0 -6.3833990945422556 18.048486576590221 0 18.048486576590221 28.453933754906757 0 0 0 0 6.4989088219117548 -22.474206344137201 0 -22.474206344137201 61.933625906862744 0 0 0 0 -29.38208893677438 -16.063118906207819 0 -16.063118906207819 62.149520067396224 0 0 0 0 8.4553525230730884 -29.512342658650596 0 -29.512342658650596 39.248660037934314 0 0 0 0 4.2319400847604811 -12.026257966413141 0 -12.026257966413141 87.071146607981063 0 0 0 0 7.4172462545793678 -27.439275926291884 0 -27.439275926291884 77.947021020561806 0 0 0 0 -10.187558399728005 -3.0236478062070091 0 -3.0236478062070091 73.747037002103752 0 0 0 0 6.0032962088243949 -24.059684843909054 0 -24.059684843909054 85.516156258567207 0 0 0 0 -3.7910717194945391 -17.349317764317675 0 -17.349317764317675 126.52521781723772 0 0 0 0 0.5730464821899659 -19.016546692189877 0 -19.016546692189877 128.78721654783294 0 0 0 0 5.4011656085112918 -24.852186818694463 0 -24.852186818694463 93.09434806479112 0 0 0 0 8.036129607260591 -12.634563491421432 0 -12.634563491421432 130.03059700989979 0 0 0 0 -5.3609581297096156 -4.1126505059983174 0 -4.1126505059983174 172.89070464992255 0 0 0 0 -4.8780833039090794 -25.73202611819579 0 -25.73202611819579 128.36822246226075 0 0 0 0 -13.482897424408293 -25.586809113621712 0 -25.586809113621712 171.2982843117411 0 0 0 0 0.88138859577338735 -65.089875645287975 0 -65.089875645287975 175.45270836327836 0 0 0 0 -1.8517445639128596 -33.823281359372459 0 -33.823281359372459 136.66233475589252 0 0 0 0 -1.4238107750791187 -40.471500778814971 0 -40.471500778814971 127.98132070756401 0 0 0 0 2.5781009906513646 -17.854965195823752 0 -17.854965195823752 95.564130733822822 0 0 0 0 35.207165587947202 -81.569659718021285 0 -81.569659718021285 136.14371258120082 0 0 0 0 77.585254926935704 -50.035751032959524 0 -50.035751032959524 -22.628521847553202 0 0 0 0 36.022765441743104 -62.21811246543075 0 -62.21811246543075 63.068998286231363 0 0 0 0 3.6006757112243122 -57.325729960648459 0 -57.325729960648459 179.42874905212375 0 0 0 0 -39.550212851064089 -11.681105443076376 0 -11.681105443076376 8.2970931660165661 0 0 0 0 -26.811790866107764 -31.975156365568182 0 -31.975156365568182 -13.107150039213593 0 0 0 0 -1.6868550384870451 0.34097939692308188 0 0.34097939692308188 10.977245025134806 0 0 0 0 27.092509116439032 -20.395696462794149 0 -20.395696462794149 12.920470277691493 0 0 0 0 1.5189893952406237 25.863544658433966 0 25.863544658433966 21.412223686656944 0 0 0 0 -52.99093326400407 8.44407342408158 0 8.44407342408158 82.852065033555846 0 0 0 0 12.698961934365798 -15.465166380854498 0 -15.465166380854498 50.293204216301092 0 0 0 0 13.850407366973286 -22.748332655108243 0 -22.748332655108243 27.624874143613852 0 0 0 0 4.6321898443311511 -10.68832136936544 0 -10.68832136936544 -15.27579368712486 0 0 0 0 65.448107778705889 -68.55377095190488 0 -68.55377095190488 -12.039354111269859 0 0 0 0 -1.4656266316150059 3.8096319907937186 0 3.8096319907937186 2.3378563556915601 0 0 0 0 -19.048264281279444 -3.9006879308362841 0 -3.9006879308362841 39.266272249806207 0 0 0 0 -1.9162449811808835 -0.40718757024983887 0 -0.40718757024983887 7.5169975305248613 0 0 0 0 -22.011638826784292 5.6245451323702582 0 5.6245451323702582 13.22331377237424 0 0 0 0 10.152090868999721 -28.735706680092335 0 -28.735706680092335 98.17518189974362 0 0 0 0 -27.35112532428343 -50.473134778443637 0 -50.473134778443637 124.7028081812241 0 0 0 0 109.87811954717108 -93.163347718575096 0 -93.163347718575096 46.922638723997807 0 0 0 0 -23.028610546474539 -1.991203197005234 0 -1.991203197005234 11.508841752183798 0 0 0 0 -3.2582181605889753 2.1327048284775572 0 2.1327048284775572 2.6762782615435299 0 0 0 0 39.526971555123225 -45.870715079487127 0 -45.870715079487127 60.996553484052129 0 0 0 0 -1.0989569191074844 1.6238723283545937 0 1.6238723283545937 -0.11731543678177037 0 0 0 0 -62.490160979039729 -10.697726228594547 0 -10.697726228594547 -13.535371147822843 0 0 0 0 -33.654090677574118 -74.627609735132864 0 -74.627609735132864 272.55049275161582 0 0 0 0 -93.597279260260507 -1.5939892359310761 0 -1.5939892359310761 189.81632066504471 0 0 0 0 -138.11702729377942 -58.062021942017964 0 -58.062021942017964 337.82018727734976 0 0 0 0 -58.958738619889573 -31.773758948169416 0 -31.773758948169416 -29.061365068817395 0 0 0 0 -0.67346817589911456 0.6365319924704238 0 0.6365319924704238 0.48897677300830367 0 0 0 0 10.920179779896785 51.500798152268544 0 51.500798152268544 -245.75237327963259 0 0 0 0 -1.5654444186951793 -16.394825350686006 0 -16.394825350686006 -6.2229291047260631 0 0 0 0 -11.251619874777717 -64.862795630670007 0 -64.862795630670007 -132.73240787025134 0 0 0 0 35.99201722105829 -62.248933365310222 0 -62.248933365310222 1.4766763107327279 0 0 0 0 -4.1254751008384574 -25.589162133241189 0 -25.589162133241189 331.11889308182435 0 0 0 0 36.097559000564445 -5.2223957738788158 0 -5.2223957738788158 280.99367105049168 0 0 0 0 -140.25346383770943 -144.50422488829281 0 -144.50422488829281 115.26584066708892 0 0 0 0 -12.548986739592722 -4.8698675754939629 0 -4.8698675754939629 63.991953653347878 0 0 0 0 -206.45813999667985 285.39408827934403 0 285.39408827934403 -14.292733818947454 0 0 0 0 -269.13080910042561 26.382760097669234 0 26.382760097669234 134.9002704143968 0 0 0 0 89.888828939389981 47.030000585145899 0 47.030000585145899 69.548570218830719 0 0 0 0 103.40554279382734 6.3197276545142813 0 6.3197276545142813 43.945710646099542 0 0 0 0 47.887111500905576 10.139633491489803 0 10.139633491489803 37.611253149385448 0 0 0 0 -75.875820070058921 -42.254880047228653 0 -42.254880047228653 76.324174774785206 0 0 0 0 -157.03860821924559 -123.32623788151614 0 -123.32623788151614 32.408591618019273 0 0 0 0 -85.139183738207748 17.069717906117148 0 17.069717906117148 -11.753431370278122 0 0 0 0 -29.367715536270055 25.645011181530208 0 25.645011181530208 117.50992213518475 0 0 0 0 -3.5496980655997623 3.5446971065033779 0 3.5446971065033779 4.3925684260657363 0 0 0 0 -90.811603037348505 -137.86658969445125 0 -137.86658969445125 229.31915768804902 0 0 0 0 78.98220038724412 -86.087687111943524 0 -86.087687111943524 33.163282219011307 0 0 0 0 -79.282710472071244 -178.16371742997944 0 -178.16371742997944 368.24935632498818 0 0 0 0 -77.443414116235658 -114.81813499014243 0 -114.81813499014243 269.02661836791503 0 0 0 0 -36.757005054594629 -125.7709477043536 0 -125.7709477043536 229.24063166524866 0 0 0 0 -36.081494256119186 -52.487530168480589 0 -52.487530168480589 256.17195545864524 0 0 0 0 -118.12548869899047 -40.158249786054512 0 -40.158249786054512 169.45808892350033 0 0 0 0 -38.454811704019562 -78.676936954114353 0 -78.676936954114353 124.18732769665439 0 0 0 0 29.663366301269434 -53.246011196373729 0 -53.246011196373729 262.26970709036686 0 0 0 0 -12.496802612566626 -78.086091663499246 0 -78.086091663499246 250.13801270596377 0 0 0 0 -33.430600422547059 -105.84829027559499 0 -105.84829027559499 348.47472983557964 0 0 0 0 45.08137074921342 -169.41037052369938 0 -169.41037052369938 278.99361462633533 0 0 0 0 -0.79971003505437821 -1.2811493264517715 0 -1.2811493264517715 3.5359324360770756 0 0 0 0 236.01801108357495 -282.78641249346765 0 -282.78641249346765 331.29931261543243 0 0 0 0 29.406943119836711 -48.848666272574178 0 -48.848666272574178 598.03368316301203 0 0 0 0 161.38499498739839 85.723862480579555 0 85.723862480579555 279.74096268272115 0 0 0 0 105.38727350965405 53.967555600106664 0 53.967555600106664 262.41955813027744 0 0 0 0 95.966228958427564 190.44158097468608 0 190.44158097468608 163.690805377988 0 0 0 0 106.22821935506499 84.722479942774953 0 84.722479942774953 180.17697070774375 0 0 0 0 44.741007482484065 15.116628467482769 0 15.116628467482769 109.51134984356759 0 0 0 0 198.45327047961018 83.032567774298514 0 83.032567774298514 65.537453829734659 0 0 0 0 177.89138239535509 119.18006617686569 0 119.18006617686569 62.106516685838869 0 0 0 0 103.89943863622102 68.664584493519214 0 68.664584493519214 122.50593785937235 0 0 0 0 144.25488367022126 28.061141165173467 0 28.061141165173467 -1.1090150120289763 0 0 0 0 166.23486938715723 12.966149720035901 0 12.966149720035901 -188.19413807942692 0 0 0 0 95.428450698776942 -126.25999895870336 0 -126.25999895870336 -26.992281626648037 0 0 0 0 108.55805074460659 -121.77327316682204 0 -121.77327316682204 -69.756169015206979 0 0 0 0 101.38543954450688 -88.136549137270777 0 -88.136549137270777 -21.466688246953709 0 0 0 0 -4.5512530949661034 0.82863108798136409 0 0.82863108798136409 3.6344925546097642 0 0 0 0 -67.136068499355133 14.250165721456142 0 14.250165721456142 90.372225745764808 0 0 0 0 557.22667274621972 -375.06752174774738 0 -375.06752174774738 -671.51372525330953 0 0 0 0 613.21223766135336 451.74910762069339 0 451.74910762069339 322.67633190953893 0 0 0 0 805.2304158017721 -450.24325608581512 0 -450.24325608581512 121.1311058778665 0 0 0 0 -202.77451538607511 -12.885092440736116 0 -12.885092440736116 148.71528431255138 0 0 0 0 99.764058268669942 234.68803107574058 0 234.68803107574058 -78.457859886440929 0 0 0 0 -88.88209392106819 -20.684166542992898 0 -20.684166542992898 800.17757465451723 0 0 0 0 8.8763179500510887 -69.433443597086807 0 -69.433443597086807 506.13345230399864 0 0 0 0 58.206067678295767 107.994127937749 0 107.994127937749 95.078106949307767 0 0 0 0 28.934535562999372 -112.46786662840168 0 -112.46786662840168 495.29593053794088 0 0 0 0 -37.657968991764392 -245.92326803568722 0 -245.92326803568722 353.69369415354595 0 0 0 0 21.918516971567385 11.647173431736178 0 11.647173431736178 38.264219096759916 0 0 0 0 1.0668346842396534 -3.535528213200017 0 -3.535528213200017 12.998126414804119 0 0 0 0 -263.10236063272896 109.71634828817332 0 109.71634828817332 1270.1172459788213 0 0 0 0 702.64960898946265 887.07012106812181 0 887.07012106812181 607.00811690275259 0 0 0 0 65.898065141919233 92.270089055899007 0 92.270089055899007 328.96292143967003 0 0 0 0 80.070065783541395 242.29480019759285 0 242.29480019759285 356.66972000291571 0 0 0 0 371.63266491214381 158.68439552456584 0 158.68439552456584 168.73309116133896 0 0 0 0 83.856731257599108 208.68861490905283 0 208.68861490905283 357.87261259614024 0 0 0 0 -130.70277065948312 327.7570775752647 0 327.7570775752647 296.62771305960632 0 0 0 0 191.43921695665949 352.834249810865 0 352.834249810865 -14.892379712429829 0 0 0 0 -538.33607400804613 -490.38944920678478 0 -490.38944920678478 281.46027463133942 0 0 0 0 -222.96383414811339 -374.7474341957377 0 -374.7474341957377 42.891805994840979 0 0 0 0 146.75962695451335 13.909765169963066 0 13.909765169963066 -222.12418848958623 0 0 0 0 64.760473348740561 18.410520181758329 0 18.410520181758329 -38.91739603766473 0 0 0 0 114.10242660753124 39.71394609894196 0 39.71394609894196 161.46195991783316 0 0 0 0 36.776846042039097 -123.3759537841288 0 -123.3759537841288 -214.04995709731884 0 0 0 0 -45.460280637592859 -510.56804317946626 0 -510.56804317946626 140.07029549765048 0 0 0 0 8.6562740616759086 -51.947994663094214 0 -51.947994663094214 53.459284247448075 0 0 0 0 3.7903705208032274 -8.7746758539505407 0 -8.7746758539505407 5.4042501662515292 0 0 0 0 19.704059514742767 -5.596988161210902 0 -5.596988161210902 51.043497101723915 0 0 0 0 9.385955458200204 -9.6472280659776715 0 -9.6472280659776715 -18.33445558449057 0 0 0 0 192.557577003814 230.9914313885165 0 230.9914313885165 -441.91438289210782 0 0 0 0 -748.84735549383367 -30.892429047504265 0 -30.892429047504265 557.16262743986954 0 0 0 0 -19.569339710409441 -13.280724597230886 0 -13.280724597230886 62.776566528150809 0 0 0 0 -133.07414990382051 -64.88017580966789 0 -64.88017580966789 350.04717238214289 0 0 0 0 7.8898179482064208 -11.888027937384251 0 -11.888027937384251 14.262254630594384 0 0 0 0 5.4122918911964497 -38.458922354736941 0 -38.458922354736941 68.202204866882127 0 0 0 0 34.064117023990548 -31.301253153404105 0 -31.301253153404105 45.222263132603985 0 0 0 0 -117.19596241793079 111.25445896516612 0 111.25445896516612 65.591137905139476 0 0 0 0 -78.477218819991577 197.23255684084961 0 197.23255684084961 589.8093380011087 0 0 0 0 -133.95513237071305 226.92144938110687 0 226.92144938110687 573.9418217303155 0 0 0 0 95.659288479009263 635.67796837548303 0 635.67796837548303 780.23277959443476 0 0 0 0 31.815330400872597 536.08540692600218 0 536.08540692600218 882.72339032530726 0 0 0 0 201.23433546017714 321.3405859175964 0 321.3405859175964 541.46433298747797 0 0 0 0 299.74578322330524 330.36420287602959 0 330.36420287602959 301.58115538290076 0 0 0 0 709.60915505842888 571.14513309080439 0 571.14513309080439 434.24888792959973 0 0 0 0 325.03160345007689 986.37162015247941 0 986.37162015247941 1261.5356283452893 0 0 0 0 8.6718139524580522 991.59434479387187 0 991.59434479387187 1659.297749571404 0 0 0 0 59.130168836207503 867.98607324692557 0 867.98607324692557 1409.9700184272042 0 0 0 0 -489.83295261386729 1118.2381671498451 0 1118.2381671498451 3500.1864885968134 0 0 0 0 243.07423941012743 1542.4285138683099 0 1542.4285138683099 2165.3230654679792 0 0 0 0 205.4219347573906 1390.8114972220628 0 1390.8114972220628 1956.869859137505 0 0 0 0 1560.8978486508113 1268.1680875948841 0 1268.1680875948841 485.93064797024272 0 0 0 0 882.10948760524752 2629.2720646072885 0 2629.2720646072885 3493.8835563348002 0 0 0 0 3811.9985718949938 2120.4913051151689 0 2120.4913051151689 649.26376801081278 0 0 0 0 19.71704765156127 6.7546150322305039 0 6.7546150322305039 3489.6202175174253 0 0 0 0 14.728107083196546 5.1456406487388691 0 5.1456406487388691 9.5478569373997715 0 0 0 0 1719.5689410301466 105.96169084679968 0 105.96169084679968 -317.23205052519916 0 0 0 0 650.93695652428971 -611.28415870448282 0 -611.28415870448282 224.27678060231119 0 0 0 0 533.00997923709065 911.86202751787278 0 911.86202751787278 762.6338507482933 0 0 0 0 -93.012928686001032 23.820691400667783 0 23.820691400667783 265.04525233080494 0 0 0 0 4.2781303188440223 -25.315228033747175 0 -25.315228033747175 61.291339664255261 0 0 0 0 463.58759604198713 -757.72666719213157 0 -757.72666719213157 25.351304084979347 0 0 0 0 -61.506410716948267 74.25178660675374 0 74.25178660675374 81.244755245788838 0 0 0 0 545.5849991971354 464.73368062201189 0 464.73368062201189 449.55092195628345 0 0 0 0 208.72147970955029 -181.53374649188481 0 -181.53374649188481 129.52323935498771 0 0 0 0 -498.57194529660865 622.10144202653464 0 622.10144202653464 327.57304609939456 0 0 0 0 3.355695619088241 -3.5161124784029454 0 -3.5161124784029454 4.5194305202403342 0 0 0 0 119.20144041121966 -114.53629362522042 0 -114.53629362522042 -3.7651108923491847 0 0 0 0 5.5323153160485159 -29.224598826575065 0 -29.224598826575065 75.442464373466407 0 0 0 0 81.662339045331464 -88.238295841350919 0 -88.238295841350919 21.290218166162958 0 0 0 0 132.32273150352921 -165.73027630948491 0 -165.73027630948491 64.757851875019696 0 0 0 0 90.869544441045946 -78.364648570590361 0 -78.364648570590361 -44.333969268773217 0 0 0 0 77.076614761983365 -46.775502697124466 0 -46.775502697124466 123.1984110155463 0 0 0 0 -12.940949341260875 -72.486141862136719 0 -72.486141862136719 116.56789494129771 0 0 0 0 22.416559674597011 -155.80138695974711 0 -155.80138695974711 298.17538668686757 0 0 0 0 56.468533050969654 48.181115846342436 0 48.181115846342436 113.83256581016758 0 0 0 0 -5.870309678653939 33.63300669547607 0 33.63300669547607 214.55134485622693 0 0 0 0 -7.802351108597577 -35.1626505637214 0 -35.1626505637214 212.50917686909088 0 0 0 0 118.76068475322506 183.41123828107993 0 183.41123828107993 307.58347614650847 0 0 0 0 3.572971931126105 8.8431593911641357 0 8.8431593911641357 212.77061777642666 0 0 0 0 393.72920064517268 46.042230250837747 0 46.042230250837747 -59.29885515321439 0 0 0 0 0.5528322166792341 1.8523964608081016 0 1.8523964608081016 3.8522086561809772 0 0 0 0 272.80698844719609 60.689718906680355 0 60.689718906680355 -15.455948528871886 0 0 0 0 14.294395682497452 -31.915912912609201 0 -31.915912912609201 85.246132260479499 0 0 0 0 24.053650764876195 37.265619508912664 0 37.265619508912664 -14.865998251982091 0 0 0 0 23.753674197240798 20.75769839847635 0 20.75769839847635 -84.122932179117925 0 0 0 0 0.084700076445496819 -7.7092247390013355 0 -7.7092247390013355 44.862958897522958 0 0 0 0 1.9940583077426557 1.6969322426346913 0 1.6969322426346913 13.340746609888811 0 0 0 0 11.869002534875364 -14.694340296810651 0 -14.694340296810651 -47.914519055004348 0 0 0 0 13.563284512546943 -27.606896888839401 0 -27.606896888839401 -77.256298557515493 0 0 0 0 -847.22976351622492 221.61843856613268 0 221.61843856613268 -92.388494345999788 0 0 0 0 -0.25391112679885364 -2.9164046577296716 0 -2.9164046577296716 7.8020315663610234 0 0 0 0 1408.3673445797972 -933.17334999040395 0 -933.17334999040395 637.93437946606718 0 0 0 0 8.437652661895088 0.76323648538429723 0 0.76323648538429723 5.7212534302244364 0 0 0 0 761.71989668930678 780.54548642320151 0 780.54548642320151 821.15503588493448 0 0 0 0 -153.21881455749053 -176.88799252511672 0 -176.88799252511672 3486.2583912680152 0 0 0 0 9.5481634401685564 -2.9184733777070377 0 -2.9184733777070377 0.7077839701531019 0 0 0 0 26.221873277631929 13.646795456698463 0 13.646795456698463 33.508899218455632 0 0 0 0 -253.80334069794003 -1231.9472380502484 0 -1231.9472380502484 3493.8170126054247 0 0 0 0 53.38137998751489 56.697198434521852 0 56.697198434521852 166.33369222660258 0 0 0 0 -33.073535767589647 7.9183993172409828 0 7.9183993172409828 51.140029685044283 0 0 0 0 -26.336937306506229 -18.196417960396502 0 -18.196417960396502 137.29802274388203 0 0 0 0 1.5768952382511645 -1.2203386992975851 0 -1.2203386992975851 0.51930673928172411 0 0 0 0 102.12994434791392 -12.394261576875579 0 -12.394261576875579 9.6135912281315541 0 0 0 0 305.54021991738693 36.578046108836133 0 36.578046108836133 149.70191799234453 0 0 0 0 252.7985196223587 113.41626310247375 0 113.41626310247375 95.419844933276181 0 0 0 0 293.64369731316543 237.10936170179048 0 237.10936170179048 -19.853147679161339 0 0 0 0 42.291544450013021 51.261673602712108 0 51.261673602712108 150.14100775330007 0 0 0 0 226.40195821862471 237.37703460794728 0 237.37703460794728 251.92469884475577 0 0 0 0 -12.224769602813717 0.19735776671927141 0 0.19735776671927141 16.923530979283612 0 0 0 0 150.89554663653669 -51.783983384892053 0 -51.783983384892053 574.00622840452706 0 0 0 0 195.90406235802837 365.16697222645598 0 365.16697222645598 865.04738605827151 0 0 0 0 -219.35028307465598 -498.74448492140073 0 -498.74448492140073 2036.921765931078 0 0 0 0 116.00194021740799 -475.12586389313947 0 -475.12586389313947 2014.1210496953499 0 0 0 0 137.95176670840118 -181.43758620986046 0 -181.43758620986046 1412.4465141647815 0 0 0 0 -133.96830905755246 212.08584220620105 0 212.08584220620105 2207.7681913537672 0 0 0 0 -207.43399195896734 -323.96637812237168 0 -323.96637812237168 2373.6361022168621 0 0 0 0 -526.37081631157059 102.25610823677926 0 102.25610823677926 3500.9292355625221 0 0 0 0 155.94301044157314 626.68664982316477 0 626.68664982316477 1315.9275508104329 0 0 0 0 37.227469967642179 643.48601497446361 0 643.48601497446361 2480.5485116071432 0 0 0 0 95.922407770441666 9.7016173573483684 0 9.7016173573483684 1529.7440085568524 0 0 0 0 21.480532865631311 -28.478813989201498 0 -28.478813989201498 34.430918266254167 0 0 0 0 240.34391567839714 179.3859956255219 0 179.3859956255219 1417.9893182646138 0 0 0 0 -335.40658411112054 -387.92281142733555 0 -387.92281142733555 -337.79271267967124 0 0 0 0 -183.43906392709749 106.53063568320431 0 106.53063568320431 1521.4974688809889 0 0 0 0 167.87579676025229 436.1388306442459 0 436.1388306442459 675.61151292480645 0 0 0 0 2.0457634828166635 -12.780499499872107 0 -12.780499499872107 5.5570509905977588 0 0 0 0 -497.75385446343898 -19.474723490951874 0 -19.474723490951874 405.13908712148259 0 0 0 0 -7.4063287429336562 -11.353210592863082 0 -11.353210592863082 64.586727945530697 0 0 0 0 -166.0438903298899 185.80478027410754 0 185.80478027410754 188.93673362076515 0 0 0 0 -533.57806989871824 118.22303654792631 0 118.22303654792631 347.41292737373442 0 0 0 0 -75.182409266333906 -33.62415631904878 0 -33.62415631904878 -147.7652128929476 0 0 0 0 282.29512522901558 90.873576471334673 0 90.873576471334673 -120.15336697268867 0 0 0 0 285.04223816835292 284.08490553398588 0 284.08490553398588 155.6759274363867 0 0 0 0 -57.74739913537752 75.691553273776663 0 75.691553273776663 45.655720608046977 0 0 0 0 470.74904097361764 59.080393749540235 0 59.080393749540235 52.129427148953255 0 0 0 0 1.3048053625769285 36.799562392967346 0 36.799562392967346 426.85413634518045 0 0 0 0 -9.3763275314547627 126.26862656184312 0 126.26862656184312 -59.939207972915028 0 0 0 0 229.96580353299237 289.83101831082058 0 289.83101831082058 -323.71281747419562 0 0 0 0 -126.43642461815307 -286.37967906267113 0 -286.37967906267113 290.05752877426858 0 0 0 0 -187.72047961784301 -60.313675827987026 0 -60.313675827987026 102.98724803761979 0 0 0 0 -96.950213981359411 -1.604945796226275 0 -1.604945796226275 67.649096669245864 0 0 0 0 -186.29327715882573 -80.87404019245696 0 -80.87404019245696 91.236866698021913 0 0 0 0 -128.92401868610921 -53.824327896444174 0 -53.824327896444174 503.95481744028802 0 0 0 0 -86.689900007291271 -56.964946285414044 0 -56.964946285414044 72.456055800633294 0 0 0 0 -370.85095583925931 -450.70204132212712 0 -450.70204132212712 176.02592933263486 0 0 0 0 261.1351787832948 -419.73757175941137 0 -419.73757175941137 -793.96293845717082 0 0 0 0 -86.554077799068637 -49.728649245840643 0 -49.728649245840643 65.305634898903918 0 0 0 0 10.321634949671324 -16.880226256513843 0 -16.880226256513843 12.518568132286591 0 0 0 0 174.20869686197602 -172.47772307022387 0 -172.47772307022387 -324.07143527437256 0 0 0 0 0.89750617677698585 0.94645328704843834 0 0.94645328704843834 0.55151122892701565 0 0 0 0 80.681434486544106 180.10214474393433 0 180.10214474393433 1723.0367970716197 0 0 0 0 -190.07113431995845 -96.248816505994 0 -96.248816505994 50.909793272825482 0 0 0 0 -22.410392956139958 358.31548703119768 0 358.31548703119768 1440.2270719752423 0 0 0 0 14.062874586978719 -21.871259723382781 0 -21.871259723382781 14.55421720804474 0 0 0 0 -88.215521552103382 -101.36792486624108 0 -101.36792486624108 -33.446945440246054 0 0 0 0 86.063855167470592 -71.740324621524906 0 -71.740324621524906 538.01406960221652 0 0 0 0 24.931330766105134 394.73636201625959 0 394.73636201625959 885.52782732498599 0 0 0 0 151.40370848154771 166.55392407729687 0 166.55392407729687 558.66192871579824 0 0 0 0 -35.785993645673898 53.200885986731919 0 53.200885986731919 952.21350198052323 0 0 0 0 -26.727451858127097 -39.037892284745794 0 -39.037892284745794 931.86181016192882 0 0 0 0 -191.79063513350229 -27.821549320535269 0 -27.821549320535269 -171.23519853545986 0 0 0 0 -214.89898243275991 -72.262176395440292 0 -72.262176395440292 70.77846773775309 0 0 0 0 -91.182192752558194 -24.88414495629064 0 -24.88414495629064 840.30640013592847 0 0 0 0 -156.58820458860316 -148.99495179220833 0 -148.99495179220833 1097.466645776226 0 0 0 0 -68.318322393638482 -133.5842438316231 0 -133.5842438316231 883.61220867040993 0 0 0 0 -4.1874948682061586 -4.9772146395644086 0 -4.9772146395644086 771.91462293745008 0 0 0 0 -132.92160286169474 -78.210659049569813 0 -78.210659049569813 752.43364335233218 0 0 0 0 -114.95748708912176 203.50750785090426 0 203.50750785090426 329.23354774598829 0 0 0 0 -23.523685216670856 -16.721096584031329 0 -16.721096584031329 -19.590893775748555 0 0 0 0 52.764653359615295 100.5343416448577 0 100.5343416448577 80.026736915951915 0 0 0 0 -36.277086900414361 -92.875968517604633 0 -92.875968517604633 -67.722690383367308 0 0 0 0 -0.686698716823539 -0.23196840176229827 0 -0.23196840176229827 -0.71566914964697581 0 0 0 0 -159.20806367977093 -19.539184783117889 0 -19.539184783117889 224.97730103208596 0 0 0 0 -170.6855324943408 -132.67645505498149 0 -132.67645505498149 89.387233645617016 0 0 0 0 -175.56370367672753 -61.173765225576062 0 -61.173765225576062 80.963012673128105 0 0 0 0 -183.69925207961978 -86.949529901628921 0 -86.949529901628921 183.02206680821291 0 0 0 0 -158.0882001181194 -125.2124051491428 0 -125.2124051491428 49.357786801660041 0 0 0 0 -82.931390340868916 -39.689784410579023 0 -39.689784410579023 122.37541234527816 0 0 0 0 -108.73627659245449 -37.772808129320765 0 -37.772808129320765 126.2801904710268 0 0 0 0 -31.802228774400191 -38.728889600063667 0 -38.728889600063667 94.502091349137118 0 0 0 0 -4.9805713154454736 -14.323279450857001 0 -14.323279450857001 67.884445220865018 0 0 0 0 -70.85129792167038 -80.903769458797569 0 -80.903769458797569 51.879984474118828 0 0 0 0 -6.0805774677960471 -28.119787033538159 0 -28.119787033538159 18.305937718458154 0 0 0 0 -18.830239430309803 -43.070603513219794 0 -43.070603513219794 64.971533069663565 0 0 0 0 -51.609859949276057 -40.603949297690974 0 -40.603949297690974 97.599123511616199 0 0 0 0 -30.005411812969214 -21.116169142418585 0 -21.116169142418585 113.87749123933281 0 0 0 0 -59.690739327915821 2.8376900309096982 0 2.8376900309096982 155.41777740521138 0 0 0 0 -35.429400310990331 8.192325020356293 0 8.192325020356293 145.47221040807653 0 0 0 0 -36.045799074179058 59.127363828082707 0 59.127363828082707 170.35461057286102 0 0 0 0 8.786546563219872 95.349309155326637 0 95.349309155326637 185.96732147855619 0 0 0 0 -191.06929343185647 -20.285559467081384 0 -20.285559467081384 164.81655740137649 0 0 0 0 -56.642009478685736 63.371194245375591 0 63.371194245375591 181.86717192681681 0 0 0 0 49.708980408017169 105.91339085951768 0 105.91339085951768 151.26915680929778 0 0 0 0 -112.71469315243326 14.445325554387637 0 14.445325554387637 307.57539675344015 0 0 0 0 48.772819143888647 81.823197568690219 0 81.823197568690219 126.00348606151965 0 0 0 0 -6.8310552760495531 -1.4139235282624725 0 -1.4139235282624725 18.238214859833732 0 0 0 0 -15.966030480987342 29.550255783195098 0 29.550255783195098 68.33650495384245 0 0 0 0 -538.03233169270936 -65.328785162515487 0 -65.328785162515487 201.87748625697714 0 0 0 0 -132.97328297061563 -233.98333818899118 0 -233.98333818899118 -14.370732742554537 0 0 0 0 1.1828634040025117 18.677294846023571 0 18.677294846023571 91.099808895844205 0 0 0 0 -9.4709431082324489 -42.129839005021246 0 -42.129839005021246 51.347887178157947 0 0 0 0 48.882038332687998 -92.241812389394909 0 -92.241812389394909 46.704404146374145 0 0 0 0 48.12798026921871 -139.1979421136466 0 -139.1979421136466 259.93550504098494 0 0 0 0 239.3207597467831 198.52312187515145 0 198.52312187515145 193.79269020401807 0 0 0 0 -2.0834452818486708 -7.7954226420343522 0 -7.7954226420343522 10.193069021570537 0 0 0 0 0.5164492280596269 -1.7861157394919474 0 -1.7861157394919474 5.6616017495915685 0 0 0 0 371.64643489137438 146.54489126163753 0 146.54489126163753 -57.996008816029644 0 0 0 0 -86.181918709121419 28.940052351917984 0 28.940052351917984 336.25907608059606 0 0 0 0 410.39489318161213 -383.10652632337587 0 -383.10652632337587 35.270160055450106 0 0 0 0 -185.80019431379469 -139.37770107954202 0 -139.37770107954202 -44.328627925140609 0 0 0 0 3.0891030386039038 -51.991174611361117 0 -51.991174611361117 41.198331684351999 0 0 0 0 237.02703083256711 -234.5123867721486 0 -234.5123867721486 -324.4957818542207 0 0 0 0 76.030258616881497 -70.225345808692509 0 -70.225345808692509 -107.7468750273365 0 0 0 0 -105.98383614953536 67.356547619412595 0 67.356547619412595 278.16340873949412 0 0 0 0 -133.1444816753783 -83.541460502543487 0 -83.541460502543487 100.27903458197761 0 0 0 0 359.97771448921043 556.72233849780605 0 556.72233849780605 75.529475580493454 0 0 0 0 -186.3373785560392 111.62827916745937 0 111.62827916745937 634.79959714358665 0 0 0 0 3.7291352969949454 1.8629778631899683 0 1.8629778631899683 0.94078431513506455 0 0 0 0 632.6729799860118 -114.85563721335711 0 -114.85563721335711 -15.636511903405335 0 0 0 0 189.21948423754907 177.6973218005387 0 177.6973218005387 669.32778435433465 0 0 0 0 674.57434830312377 -318.51442555920767 0 -318.51442555920767 836.39389531791767 0 0 0 0 29.898123964374918 -165.23283236447423 0 -165.23283236447423 754.88492319086436 0 0 0 0 -125.65393232108268 325.82877465146987 0 325.82877465146987 1295.8593037168866 0 0 0 0 341.25681268807858 216.75203655728274 0 216.75203655728274 74.991635746266184 0 0 0 0 -46.129712243603194 -24.031463060624446 0 -24.031463060624446 313.29910173305279 0 0 0 0 -67.136928734658227 -4.9218006013679769 0 -4.9218006013679769 374.23578896701474 0 0 0 0 -529.42920992063023 363.38044247856305 0 363.38044247856305 1309.274689135962 0 0 0 0 -283.16502254927639 -554.87630339324915 0 -554.87630339324915 1435.7238952208768 0 0 0 0 -166.2941855655659 -392.10412642214487 0 -392.10412642214487 677.25700616549511 0 0 0 0 3.5678535446290667 -34.097428547205709 0 -34.097428547205709 362.0023280726864 0 0 0 0 4.4861407713301436 3.3199812131582718 0 3.3199812131582718 1.2879748763385548 0 0 0 0 -175.89306455055566 481.12595918142688 0 481.12595918142688 2651.4473915695407 0 0 0 0 -488.94253537116629 -1030.5994131920661 0 -1030.5994131920661 2509.9310702037392 0 0 0 0 20.838828766375684 -256.00340719988617 0 -256.00340719988617 818.18664224930035 0 0 0 0 543.79920784994067 -214.50619041972914 0 -214.50619041972914 1013.9074693578577 0 0 0 0 122.40844200655863 -970.71924042676847 0 -970.71924042676847 2395.5636865280321 0 0 0 0 -321.60650211594157 609.4240818826147 0 609.4240818826147 1078.4843320655518 0 0 0 0 -292.8978419084591 386.33334086470768 0 386.33334086470768 2803.5090858422536 0 0 0 0 -28.195836163397303 864.84199431935804 0 864.84199431935804 1246.693041782808 0 0 0 0 -688.18812402229628 1784.1740068250729 0 1784.1740068250729 1004.8869572419389 0 0 0 0 -0.16359132608737736 4.7525319966167512 0 4.7525319966167512 15.424092176709301 0 0 0 0 -89.903819270704275 601.96346082737273 0 601.96346082737273 90.991621632792885 0 0 0 0 -68.625649334116133 767.47079642682911 0 767.47079642682911 1361.4457507324278 0 0 0 0 -1441.1919432576262 251.08994295137018 0 251.08994295137018 1381.7656048774625 0 0 0 0 -813.94971352149196 -338.76079646373364 0 -338.76079646373364 1235.8037159906726 0 0 0 0 -991.9604221933364 192.80739194672333 0 192.80739194672333 3499.4284621667739 0 0 0 0 -756.94823783042057 416.94564502221147 0 416.94564502221147 1944.5198793872105 0 0 0 0 52.416673613756529 -296.13032046822809 0 -296.13032046822809 25.694462271740122 0 0 0 0 469.82483001945786 451.33615887856922 0 451.33615887856922 1350.8840407398293 0 0 0 0 -1272.5635022305812 566.18452283783154 0 566.18452283783154 1039.2691459588971 0 0 0 0 0.20108456043062806 10.130275960743855 0 10.130275960743855 30.845191907799084 0 0 0 0 1.1743040319236724 5.0927839580130563 0 5.0927839580130563 15.540756613478706 0 0 0 0 -561.65739874145447 -1469.5068957399135 0 -1469.5068957399135 3494.3912355247394 0 0 0 0 463.74486750015831 1973.9089827269408 0 1973.9089827269408 566.98435344763584 0 0 0 0 -127.3333169615594 807.93050664950078 0 807.93050664950078 1874.7665029192303 0 0 0 0 -134.83343984551416 1637.8535868556182 0 1637.8535868556182 3492.0450204972003 0 0 0 0 -499.16084727311392 295.91348428966512 0 295.91348428966512 3500.9513810508674 0 0 0 0 -136.62705074763599 622.4221778763731 0 622.4221778763731 2409.4161506579076 0 0 0 0 -54.85273360204917 65.596765926121861 0 65.596765926121861 2443.8386615463692 0 0 0 0 26.881704854221653 155.58409108060641 0 155.58409108060641 1924.1636221276567 0 0 0 0 323.75002172485131 402.04468102466853 0 402.04468102466853 1913.8075230420764 0 0 0 0 176.0865253750984 -93.454383411464732 0 -93.454383411464732 1989.8745757407639 0 0 0 0 391.62336565789445 -375.11535047977122 0 -375.11535047977122 2341.3402054109229 0 0 0 0 20.776350863596861 -203.39525084131378 0 -203.39525084131378 2085.6089855159262 0 0 0 0 26.567443091345694 96.969491133964084 0 96.969491133964084 2034.5953413047046 0 0 0 0 187.16783253647827 111.67778755739346 0 111.67778755739346 1697.0991124621351 0 0 0 0 221.12776390164493 255.98749751316291 0 255.98749751316291 2305.9591996512208 0 0 0 0 4.0652648350904368 -6.0228002952605184 0 -6.0228002952605184 5.9864089299570029 0 0 0 0 -204.43023387894783 117.68850695802894 0 117.68850695802894 4027.7889092949817 0 0 0 0 -162.44116845006556 -33.921539416119685 0 -33.921539416119685 1435.2668817431945 0 0 0 0 -257.17894589647972 -260.13866848619455 0 -260.13866848619455 1774.5257601299061 0 0 0 0 -187.33382787642176 -223.21017114674009 0 -223.21017114674009 1423.0569421217115 0 0 0 0 -205.55361816011418 -206.79313249644588 0 -206.79313249644588 1425.8178086072157 0 0 0 0 -118.59978498982582 -91.086256446251809 0 -91.086256446251809 1114.5282093983642 0 0 0 0 -133.40764971774115 -161.74563392857613 0 -161.74563392857613 1284.1469552896324 0 0 0 0 -106.4577693268302 10.720662088946938 0 10.720662088946938 1188.6372102830264 0 0 0 0 -96.604092835976189 48.808103222288537 0 48.808103222288537 1256.9136987240104 0 0 0 0 -71.224526898520253 135.58785869422354 0 135.58785869422354 1321.8496564866286 0 0 0 0 -159.71364137623777 -123.90429241835363 0 -123.90429241835363 1555.1940113042415 0 0 0 0 -89.810648796707483 21.272460015523393 0 21.272460015523393 1646.939627115702 0 0 0 0 0.034429628582756777 -30.224175320279755 0 -30.224175320279755 1601.6695327849197 0 0 0 0 -148.91315741259768 39.384573313587225 0 39.384573313587225 1835.4067631879984 0 0 0 0 -198.57472697933986 -238.72947222230232 0 -238.72947222230232 1929.8848759449388 0 0 0 0 -145.10545981693917 -94.293376639686358 0 -94.293376639686358 2183.5529024968305 0 0 0 0 -376.31676837385703 -315.28011753180112 0 -315.28011753180112 2211.1541987183623 0 0 0 0 -228.17701799981145 -118.63978571170261 0 -118.63978571170261 1884.9443552760026 0 0 0 0 -366.42131909112265 -291.51387307496418 0 -291.51387307496418 2003.0336220040576 0 0 0 0 -501.67036299445147 -304.29792311628825 0 -304.29792311628825 2624.6976302445091 0 0 0 0 -396.10653976077811 -222.37794438732453 0 -222.37794438732453 2249.8762524307567 0 0 0 0 -592.63720419748631 -343.50922372581334 0 -343.50922372581334 2633.9254784939353 0 0 0 0 -367.34760535029125 -90.242788637729632 0 -90.242788637729632 2688.5732536600472 0 0 0 0 -132.99851371198741 -78.4262267018903 0 -78.4262267018903 2179.6970339903946 0 0 0 0 -592.89935214027071 -15.101254619712108 0 -15.101254619712108 2671.798671593745 0 0 0 0 -608.23747781119494 -102.88166028422256 0 -102.88166028422256 3119.8287778735585 0 0 0 0 -845.09400301407186 -358.69092670142408 0 -358.69092670142408 3499.0616755548531 0 0 0 0 -873.74570819841188 -695.53175849790932 0 -695.53175849790932 3499.7254409150592 0 0 0 0 -860.40476164005747 -559.29811168375659 0 -559.29811168375659 2928.9545237965913 0 0 0 0 -632.06395013717633 -376.74395433289124 0 -376.74395433289124 2877.8625569815717 0 0 0 0 8.3030769715594488 -667.00811373334636 0 -667.00811373334636 3154.9106640381478 0 0 0 0 -3.168518983166142 -1.4431984763850991 0 -1.4431984763850991 5.0516388715129619 0 0 0 0 -26.392524124896227 -1172.2761624850073 0 -1172.2761624850073 3010.4211920563266 0 0 0 0 677.66434793586541 -1023.5947179262084 0 -1023.5947179262084 2620.4576344723946 0 0 0 0 -432.74423132832771 -923.45441469916364 0 -923.45441469916364 2916.1744760296619 0 0 0 0 85.435029314603298 -880.82646302340402 0 -880.82646302340402 2360.6566846851083 0 0 0 0 303.75093966321219 -1056.7127928641003 0 -1056.7127928641003 2619.9277875207194 0 0 0 0 72.111287010794626 -830.92271215788344 0 -830.92271215788344 2422.5732014973628 0 0 0 0 56.032056848013326 -672.70562532736938 0 -672.70562532736938 2069.3635169402478 0 0 0 0 296.47523290001072 -928.79557444632064 0 -928.79557444632064 2334.8963690035234 0 0 0 0 -67.599957605658801 -831.24961840654805 0 -831.24961840654805 2370.3293244513156 0 0 0 0 -193.83966537527363 -660.05154618967822 0 -660.05154618967822 2167.423420753184 0 0 0 0 -451.21736034907144 -558.63057026948002 0 -558.63057026948002 2627.4434956361169 0 0 0 0 -509.28200053713181 -412.5771271049378 0 -412.5771271049378 2313.5637341395222 0 0 0 0 -752.48991651719223 -552.95226353153464 0 -552.95226353153464 2632.1327390721603 0 0 0 0 -506.07678264338551 -1317.5424484109001 0 -1317.5424484109001 3080.4396149347813 0 0 0 0 -25.945414240044784 -1005.6479527424663 0 -1005.6479527424663 2865.5701784715911 0 0 0 0 312.31698982207809 -1048.192094826456 0 -1048.192094826456 3499.8686728985363 0 0 0 0 -218.49228969641581 -985.29502375033917 0 -985.29502375033917 3440.4938620572884 0 0 0 0 -3.4766064422831446 -1.2748921639991302 0 -1.2748921639991302 7.6913309500822855 0 0 0 0 196.59683303271049 -552.69672029711001 0 -552.69672029711001 3272.472676606294 0 0 0 0 -27.27642702203957 -912.52126602317094 0 -912.52126602317094 2941.906027192862 0 0 0 0 706.35164850253113 -586.17306820036447 0 -586.17306820036447 2790.7251830264759 0 0 0 0 343.04092366087207 -845.32788441378216 0 -845.32788441378216 2670.6438699231348 0 0 0 0 363.40346015727005 -917.80393530962283 0 -917.80393530962283 2247.9906049011915 0 0 0 0 486.27859781380994 -722.27020492339852 0 -722.27020492339852 2412.5624646311389 0 0 0 0 391.96942033403582 -766.6909039338218 0 -766.6909039338218 1970.0117501693503 0 0 0 0 309.34301356195101 -717.65189058382293 0 -717.65189058382293 1973.9199353767144 0 0 0 0 318.23806928440808 -870.66001971397691 0 -870.66001971397691 1931.4665493812788 0 0 0 0 336.92914750759769 -951.47256880909708 0 -951.47256880909708 1960.1611131845393 0 0 0 0 379.45958181007501 -813.45980630957888 0 -813.45980630957888 2408.8059436651474 0 0 0 0 324.90168128962574 -772.67044820045112 0 -772.67044820045112 2398.1965813452316 0 0 0 0 163.06400638218213 -1285.4468581708234 0 -1285.4468581708234 2556.218777190591 0 0 0 0 308.82306171306692 -869.80870232944267 0 -869.80870232944267 2007.9788897741983 0 0 0 0 298.95532933959032 -983.92963323370304 0 -983.92963323370304 1867.4547774972771 0 0 0 0 295.99671036164227 -813.4159501604438 0 -813.4159501604438 1644.7269401606973 0 0 0 0 258.66925927127045 -1301.473856182819 0 -1301.473856182819 1807.4881003992768 0 0 0 0 45.397745004351691 -228.56378914597235 0 -228.56378914597235 -275.96270195491434 0 0 0 0 261.16082810581571 -886.71366851905032 0 -886.71366851905032 1756.1672219091943 0 0 0 0 -4.7519131746155452 -2.945905260127307 0 -2.945905260127307 1.4457537120637967 0 0 0 0 -89.612230376005755 -67.628644810894002 0 -67.628644810894002 234.47626473866126 0 0 0 0 61.506956768953387 -825.4199113514087 0 -825.4199113514087 1753.8544088385052 0 0 0 0 371.72392758923138 -886.63904275159121 0 -886.63904275159121 1667.6060942557397 0 0 0 0 123.52173429759205 -992.82810935650923 0 -992.82810935650923 1674.9080878198265 0 0 0 0 -133.35370669434747 -522.04698514539245 0 -522.04698514539245 242.68356012547883 0 0 0 0 -200.27663914795971 -707.58336667867479 0 -707.58336667867479 2239.3801339646511 0 0 0 0 1232.2440605485206 -119.04041667287049 0 -119.04041667287049 1447.9511072676378 0 0 0 0 1412.2183686704045 -738.17760001559145 0 -738.17760001559145 740.39257608901517 0 0 0 0 532.59280836536823 -1301.994591441392 0 -1301.994591441392 878.70881014026418 0 0 0 0 537.18115722125026 -823.92833906105761 0 -823.92833906105761 1501.4435970355717 0 0 0 0 937.05108366451759 -780.44192833517718 0 -780.44192833517718 1503.0784908369242 0 0 0 0 428.67054565217086 -467.7027804509562 0 -467.7027804509562 1644.9016979479229 0 0 0 0 493.57553449304919 -541.87292705195796 0 -541.87292705195796 1596.1472374003097 0 0 0 0 547.61588587524079 -743.50855527966314 0 -743.50855527966314 1683.6603162952397 0 0 0 0 342.4671402267777 -292.92622625129621 0 -292.92622625129621 1715.663620571838 0 0 0 0 636.59682847640897 -496.36791664013845 0 -496.36791664013845 1250.6803186710372 0 0 0 0 458.17887597700133 -630.67721825078911 0 -630.67721825078911 475.31793651830833 0 0 0 0 343.52622427865361 -664.16237947325885 0 -664.16237947325885 1120.9175548897003 0 0 0 0 406.12529244202142 285.0084366289982 0 285.0084366289982 244.29457139034093 0 0 0 0 0.74350287427995521 1.5978393301676914 0 1.5978393301676914 12.073252147820149 0 0 0 0 234.30690266733626 -597.310053367156 0 -597.310053367156 1417.9025622612098 0 0 0 0 167.04286941712917 405.09991992823643 0 405.09991992823643 835.8526300194535 0 0 0 0 -153.79038079565817 104.65804536373253 0 104.65804536373253 710.47835878931164 0 0 0 0 83.96843702578326 190.04547063214864 0 190.04547063214864 301.64883684086635 0 0 0 0 -2.4369088767648464 171.19039187682483 0 171.19039187682483 298.40650279115539 0 0 0 0 289.55638132688955 107.03252906497846 0 107.03252906497846 3.0751132010454967 0 0 0 0 -130.60175843789693 57.854573953638464 0 57.854573953638464 304.20295660294869 0 0 0 0 -15.317684723499042 126.37797789844171 0 126.37797789844171 154.56076789584768 0 0 0 0 -164.27746835640042 -28.344920786050892 0 -28.344920786050892 216.95851046961707 0 0 0 0 -90.520171548309918 -488.30727607196008 0 -488.30727607196008 1591.2448497450657 0 0 0 0 -293.83803421668608 -383.8931647058098 0 -383.8931647058098 1921.5481758325748 0 0 0 0 -228.26067831223054 -401.89430405288977 0 -401.89430405288977 1763.9276361681896 0 0 0 0 -405.03176754170727 -407.97062121490501 0 -407.97062121490501 2313.6267308183087 0 0 0 0 -241.1290222743412 -545.61271194081087 0 -545.61271194081087 2140.347428805052 0 0 0 0 -241.3531050431211 -493.16104019713254 0 -493.16104019713254 1952.7432800726951 0 0 0 0 13.559994951625413 -615.5618513232132 0 -615.5618513232132 1809.1046600848767 0 0 0 0 140.90416079865054 -597.56698424171213 0 -597.56698424171213 1873.3550843273961 0 0 0 0 316.83678258771624 -717.53476459936905 0 -717.53476459936905 1902.2877923082856 0 0 0 0 23.161053694659131 -483.10774690026585 0 -483.10774690026585 1764.8819159490954 0 0 0 0 166.7874036352232 -430.80812370390038 0 -430.80812370390038 1646.0247876596095 0 0 0 0 77.250340219386544 -597.82232145700618 0 -597.82232145700618 1698.664538532222 0 0 0 0 -120.79259631494779 -478.86577453133441 0 -478.86577453133441 1749.1864560297563 0 0 0 0 49.055061145616037 -449.31251086461572 0 -449.31251086461572 1379.5785732916049 0 0 0 0 32.98903144593055 -495.973782487086 0 -495.973782487086 1078.5955727791415 0 0 0 0 -27.311107450413601 -484.13883441061967 0 -484.13883441061967 1371.6026392563633 0 0 0 0 121.67904727319706 -312.28644029354768 0 -312.28644029354768 1064.1118447532035 0 0 0 0 23.847942120384687 -218.3268617532492 0 -218.3268617532492 803.71331073322006 0 0 0 0 -169.23674534054089 -345.99555353170649 0 -345.99555353170649 1523.8684444579139 0 0 0 0 -246.27696499261629 -270.86347399895703 0 -270.86347399895703 1718.4395315678523 0 0 0 0 -107.58523003327218 -345.9564938010634 0 -345.9564938010634 1264.7444734807996 0 0 0 0 -117.38839562099247 -275.51665394815814 0 -275.51665394815814 1253.4010515971524 0 0 0 0 -74.970810137558829 -240.08868682803052 0 -240.08868682803052 994.27620765534039 0 0 0 0 15.772075159275573 -196.78222506482916 0 -196.78222506482916 702.70944620383671 0 0 0 0 44.054626627749286 -41.787532874909829 0 -41.787532874909829 306.14161171168371 0 0 0 0 36.297730349177073 -297.16078767040017 0 -297.16078767040017 763.70371161639639 0 0 0 0 31.564031776884349 -181.08472572635583 0 -181.08472572635583 264.44856064277064 0 0 0 0 165.85205108378887 -133.96593924061108 0 -133.96593924061108 -16.071675273156643 0 0 0 0 14.511097776998714 -21.347398281701675 0 -21.347398281701675 13.33934803126149 0 0 0 0 33.88019220202537 -58.663231676799796 0 -58.663231676799796 91.629296787810745 0 0 0 0 -7.2109156336787237 -22.700407050038848 0 -22.700407050038848 88.957944587465136 0 0 0 0 -0.90321269640753776 -1.9558524150259089 0 -1.9558524150259089 9.1553803038822483 0 0 0 0 62.757721068604582 44.857231480414839 0 44.857231480414839 -109.79653232953115 0 0 0 0 5.2339855693765838 -1.604599179108078 0 -1.604599179108078 23.471202552832391 0 0 0 0 -2.4095829213647448 -0.26399357219952435 0 -0.26399357219952435 62.787191099090052 0 0 0 0 3.7906671034940871 -19.420361001604327 0 -19.420361001604327 29.972497163402018 0 0 0 0 95.09447204111116 61.735982582395735 0 61.735982582395735 80.441188870363931 0 0 0 0 -20.532835881046594 82.595480472574877 0 82.595480472574877 108.19908338277264 0 0 0 0 254.80132746588288 -214.85447167235156 0 -214.85447167235156 250.9662171984819 0 0 0 0 -6.4617834580878935 1.6204891367215168 0 1.6204891367215168 36.610827666105251 0 0 0 0 0.630373178877905 5.9013425394236547 0 5.9013425394236547 31.189661213177441 0 0 0 0 -87.949109789276974 31.270591364754637 0 31.270591364754637 140.41000167076936 0 0 0 0 -58.166232494203541 65.515523368779213 0 65.515523368779213 65.252790567398733 0 0 0 0 -108.28366871959315 95.485235504518187 0 95.485235504518187 144.40310303212391 0 0 0 0 54.533314452224204 2.776687930197113 0 2.776687930197113 -7.4039554447363116 0 0 0 0 80.250433479240201 81.160931610440798 0 81.160931610440798 53.223417334493206 0 0 0 0 -6.4003081907285457 19.229617041110995 0 19.229617041110995 99.605342929589824 0 0 0 0 -8.4212375878745966 -0.45283578850148132 0 -0.45283578850148132 27.042525781559995 0 0 0 0 -9.9145246915350072 2.7720462225770461 0 2.7720462225770461 99.020229044577718 0 0 0 0 -3.0020786521877199 4.0011223318433622 0 4.0011223318433622 86.516304845263221 0 0 0 0 -5.7396191412826738 0.28671312926599057 0 0.28671312926599057 111.19929314519868 0 0 0 0 -3.4659227160055304 3.7754571968131323 0 3.7754571968131323 14.98784646622442 0 0 0 0 -3.5246464264023416 1.3095761920958466 0 1.3095761920958466 111.6103223463017 0 0 0 0 -6.3981918098273614 14.816907380072426 0 14.816907380072426 51.947913908736155 0 0 0 0 3.8485524756824816 1.4574670370366221 0 1.4574670370366221 108.76237825138014 0 0 0 0 -1.7074820075312034 -1.6875540397420359 0 -1.6875540397420359 55.442595310094447 0 0 0 0 -63.034740109915674 21.506096978027927 0 21.506096978027927 118.12452718869372 0 0 0 0 -5.6379583595785272 -9.3089518032154377 0 -9.3089518032154377 75.60167460031883 0 0 0 0 -2.3605098388134138 -0.73810312967543723 0 -0.73810312967543723 108.09394869571042 0 0 0 0 -12.962521661129474 -7.1383569787643957 0 -7.1383569787643957 31.679123607525185 0 0 0 0 -19.016123192766827 1.5289564711756611 0 1.5289564711756611 56.479568187480254 0 0 0 0 -30.045824503226868 24.661681615067209 0 24.661681615067209 116.37381506300335 0 0 0 0 -0.53460692208241767 -14.228889502051702 0 -14.228889502051702 33.922838989881868 0 0 0 0 -4.078516179091821 -3.4473667020411085 0 -3.4473667020411085 78.53625292885954 0 0 0 0 -37.907563350327194 -42.556269581270499 0 -42.556269581270499 263.97122602067611 0 0 0 0 177.25452622930425 24.576504800526891 0 24.576504800526891 46.820988110070175 0 0 0 0 -14.21654815634929 60.776341093735255 0 60.776341093735255 149.9196119639164 0 0 0 0 -5.9330573887174154 -5.8568238220435127 0 -5.8568238220435127 89.747991793867371 0 0 0 0 17.206810215972837 -140.44972240805873 0 -140.44972240805873 243.16170686623923 0 0 0 0 -13.163701320785407 73.73137682366297 0 73.73137682366297 -9.3598894433980604 0 0 0 0 -0.10320633792271572 0.88611601646415128 0 0.88611601646415128 0.64006126061639534 0 0 0 0 -17.024927698748797 -46.229378436305524 0 -46.229378436305524 107.55491546458416 0 0 0 0 65.704809955435849 -98.479210390345543 0 -98.479210390345543 163.33125621216345 0 0 0 0 39.556432806969497 -5.8080929607153848 0 -5.8080929607153848 50.051651573249728 0 0 0 0 -5.0373887435655202 -2.4844849996902001 0 -2.4844849996902001 68.168204273966012 0 0 0 0 -7.9794650346889284 -12.923205088536633 0 -12.923205088536633 82.550300163517022 0 0 0 0 -5.6611431384756088 -13.602971674508808 0 -13.602971674508808 76.870897646404046 0 0 0 0 -23.260495610431462 -25.515532847546638 0 -25.515532847546638 86.336850362401947 0 0 0 0 -9.2556768070380713 -25.353839623507156 0 -25.353839623507156 86.017527146138946 0 0 0 0 4.9653416103090819 -24.558501579854351 0 -24.558501579854351 72.873070806330361 0 0 0 0 14.660989512733352 -17.850029780605837 0 -17.850029780605837 77.742703766492923 0 0 0 0 5.5179192284829242 -13.589300791893038 0 -13.589300791893038 93.460600509685264 0 0 0 0 -67.791411375680582 -96.654104974792062 0 -96.654104974792062 103.94205166275697 0 0 0 0 -20.826185682224605 -20.886906998104678 0 -20.886906998104678 87.964267885893605 0 0 0 0 -26.861787435031147 -2.361610538810055 0 -2.361610538810055 175.24111436068051 0 0 0 0 15.358284380451551 -43.330330720635175 0 -43.330330720635175 132.55236796272766 0 0 0 0 4.2260300343059498 -110.51952361426083 0 -110.51952361426083 139.65551395332386 0 0 0 0 -62.789627557495805 -24.399028918489421 0 -24.399028918489421 176.77918807909009 0 0 0 0 -7.2197995494316274 11.394677887790749 0 11.394677887790749 284.07195139018586 0 0 0 0 -26.342067819614385 -71.268924985222839 0 -71.268924985222839 -61.176463494099153 0 0 0 0 0.6695492939563934 1.2686104571681724 0 1.2686104571681724 -2.4465928949632598 0 0 0 0 10.507447777108609 15.389568829188647 0 15.389568829188647 128.2473664932113 0 0 0 0 -11.973499623159114 3.0942012283740041 0 3.0942012283740041 130.51982166703601 0 0 0 0 -36.76386381145312 32.318826742679448 0 32.318826742679448 105.82206076109992 0 0 0 0 -3.5439783904976458 1.0077084380970049 0 1.0077084380970049 17.619652028477979 0 0 0 0 -27.073001749777177 -24.62557230540915 0 -24.62557230540915 71.145636568311602 0 0 0 0 8.0864410371759732 -5.0326826484924823 0 -5.0326826484924823 81.862249459878512 0 0 0 0 -9.108525585271309 -2.0188424073498936 0 -2.0188424073498936 90.763568131382272 0 0 0 0 -2.3127724316959508 2.3591702239259948 0 2.3591702239259948 68.669029575698872 0 0 0 0 -38.618717223141175 -19.037299918682038 0 -19.037299918682038 103.54622937415843 0 0 0 0 -60.539189769378936 -16.071702175133396 0 -16.071702175133396 103.35205697473248 0 0 0 0 -0.22501858813408049 -2.268986161354789 0 -2.268986161354789 23.577127302396995 0 0 0 0 -37.333266305549841 5.8425544039346278 0 5.8425544039346278 114.35240468606207 0 0 0 0 7.3115470979664678 -3.5516474723772262 0 -3.5516474723772262 122.19384991773063 0 0 0 0 -11.187700866556961 2.2587563442196199 0 2.2587563442196199 93.022520650331685 0 0 0 0 -2.0528335771773234 23.275238019096953 0 23.275238019096953 115.55044873111984 0 0 0 0 -40.542851691049691 11.005604449099337 0 11.005604449099337 171.97189013638854 0 0 0 0 -134.19002403571085 102.37046901183635 0 102.37046901183635 157.11593873560469 0 0 0 0 -1.2354332053584649 -2.8835094720733476 0 -2.8835094720733476 33.620130938352766 0 0 0 0 -13.364013717692615 -4.0920067368056152 0 -4.0920067368056152 135.48105595998641 0 0 0 0 -98.445499859742995 116.84810347306666 0 116.84810347306666 16.365175037002359 0 0 0 0 -87.322750922883642 -4.6180435318674427 0 -4.6180435318674427 185.23860680675716 0 0 0 0 -9.5444142395218705 43.223776523056586 0 43.223776523056586 162.77329612233007 0 0 0 0 -38.268537496755584 32.690349127926311 0 32.690349127926311 196.14784793874787 0 0 0 0 -31.979821675508724 -4.6764737222027435 0 -4.6764737222027435 22.411925217801226 0 0 0 0 -2.6250244916661813 27.145576509115926 0 27.145576509115926 155.13999998238069 0 0 0 0 10.093672597457044 -1.0158495428931928 0 -1.0158495428931928 132.08881810814637 0 0 0 0 -70.916834146188194 -14.623685082618977 0 -14.623685082618977 142.38212518384535 0 0 0 0 -39.626162828194992 24.127029004365795 0 24.127029004365795 208.05887264726698 0 0 0 0 -11.010114093580341 0.3881438231546781 0 0.3881438231546781 172.01549325672568 0 0 0 0 -33.8977605932036 56.713272071201573 0 56.713272071201573 257.21085131228028 0 0 0 0 -27.096741852146472 -6.5854099930145864 0 -6.5854099930145864 -0.52454435638628283 0 0 0 0 -14.543692767958191 48.302996034261014 0 48.302996034261014 152.3567913015645 0 0 0 0 168.85293335761054 576.82480373963699 0 576.82480373963699 1091.0414812709641 0 0 0 0 9.6466592386916545 58.950941296972815 0 58.950941296972815 49.216151153708779 0 0 0 0 2.6711040619079482 19.429072661460893 0 19.429072661460893 0.41723046444445444 0 0 0 0 -117.77443280121452 -8.3693445914532276 0 -8.3693445914532276 177.30568548435122 0 0 0 0 -2.1588744249667178 27.126012104034992 0 27.126012104034992 121.35242242980999 0 0 0 0 -128.81723391142077 55.020005802276216 0 55.020005802276216 104.44667566419594 0 0 0 0 -23.491652509500909 51.313888275635691 0 51.313888275635691 127.4545872271928 0 0 0 0 -13.866193937249022 22.552989875297499 0 22.552989875297499 126.74934148074681 0 0 0 0 -8.1167778105798334 45.81289645882589 0 45.81289645882589 121.2084885008735 0 0 0 0 128.29829404588963 166.4867402823038 0 166.4867402823038 254.86768152963316 0 0 0 0 -4.190765809843942 20.070128688877475 0 20.070128688877475 24.424278188190677 0 0 0 0 446.67515358014134 -257.82657032833231 0 -257.82657032833231 366.67318748699387 0 0 0 0 -17.481397989207821 -1.3166150394595943 0 -1.3166150394595943 33.18447939049824 0 0 0 0 -105.79759683210477 -24.458328895097566 0 -24.458328895097566 142.5739900478934 0 0 0 0 1323.9266877235823 -1012.3227936388485 0 -1012.3227936388485 472.14610764113786 0 0 0 0 313.31608974372193 -508.47939353718311 0 -508.47939353718311 1020.197023815721 0 0 0 0 377.59937171821127 -1589.8742896224549 0 -1589.8742896224549 2471.3068494186628 0 0 0 0 -1.1190102745255399 11.075693136223652 0 11.075693136223652 62.440851306572753 0 0 0 0 3170.8077621273774 -2662.5799925624306 0 -2662.5799925624306 1907.6781179493701 0 0 0 0 2244.3426457672658 1941.5805447888961 0 1941.5805447888961 1117.7887967469978 0 0 0 0 4.5378206636943563 1.1955692797240296 0 1.1955692797240296 26.031005834674346 0 0 0 0 -207.29073249300291 -1899.3122468541792 0 -1899.3122468541792 3501.559259918009 0 0 0 0 976.49627046753096 -2496.3912467742566 0 -2496.3912467742566 3493.2826471312183 0 0 0 0 865.26098775534649 -1916.9367643924852 0 -1916.9367643924852 2433.1825032104452 0 0 0 0 313.80716958654028 9.264345460511322 0 9.264345460511322 386.9663625754838 0 0 0 0 239.71322499980695 1069.1821451064407 0 1069.1821451064407 2084.133451162299 0 0 0 0 111.00419811679701 1935.176797589751 0 1935.176797589751 3494.2151222183838 0 0 0 0 -200.2449049015234 1103.6617612421342 0 1103.6617612421342 2115.1906118758889 0 0 0 0 -216.27536478660807 1235.4610931008292 0 1235.4610931008292 2861.1822435829963 0 0 0 0 -245.24708458535514 888.32564926099622 0 888.32564926099622 3500.7545816177244 0 0 0 0 -8.8465215221137967 583.07316114715195 0 583.07316114715195 2820.6651706110097 0 0 0 0 -147.10129941704133 405.95104124136742 0 405.95104124136742 2628.0916470249367 0 0 0 0 52.375751536071377 376.15211849527441 0 376.15211849527441 3242.4526814539981 0 0 0 0 -173.28776388671105 905.66057090456889 0 905.66057090456889 3266.9193945988845 0 0 0 0 -30.183295706674144 720.01539650879931 0 720.01539650879931 3499.3508385275431 0 0 0 0 -224.62857142518897 523.5232358321864 0 523.5232358321864 3329.4538235815817 0 0 0 0 -241.49128842429334 982.12693312850206 0 982.12693312850206 3282.1943712157154 0 0 0 0 -231.4125794375758 543.90172864310989 0 543.90172864310989 4444.9151131609469 0 0 0 0 -68.828933353116454 248.94615279061782 0 248.94615279061782 -338.20251797699893 0 0 0 0 0.57375547310058728 5.4141102019760083 0 5.4141102019760083 3.3947330578231201 0 0 0 0 -322.03189112422706 254.2495075816496 0 254.2495075816496 2180.1347086727174 0 0 0 0 -178.39070095190218 360.37676426817688 0 360.37676426817688 515.49200544129417 0 0 0 0 -99.692292792076714 125.60958790128825 0 125.60958790128825 246.26115499271077 0 0 0 0 -37.905837734832176 63.361940283484728 0 63.361940283484728 167.91676390191583 0 0 0 0 2.3613087821865992 15.124169158387303 0 15.124169158387303 4.1939635086165268 0 0 0 0 -7.5012989746403917 107.2980561343611 0 107.2980561343611 -79.634779044263269 0 0 0 0 332.75083300987274 -12.174797170734905 0 -12.174797170734905 2966.5130047007478 0 0 0 0 -138.63199100793764 404.11487781096548 0 404.11487781096548 3499.5115761351408 0 0 0 0 284.13511995172394 530.27396978602678 0 530.27396978602678 2976.0123861600659 0 0 0 0 -251.50960436475447 628.11115386189613 0 628.11115386189613 3140.4525991404225 0 0 0 0 -463.08560949821498 584.23334708590846 0 584.23334708590846 3500.2835813869187 0 0 0 0 -353.84256089145691 644.33662856823867 0 644.33662856823867 3144.096596868545 0 0 0 0 -298.2659506643522 340.79521202514661 0 340.79521202514661 2145.5167015338193 0 0 0 0 -164.64252449222516 307.87986891672699 0 307.87986891672699 1329.2439085394581 0 0 0 0 -19.560154039834913 -848.87204136907894 0 -848.87204136907894 2035.2943932593555 0 0 0 0 -95.702910462849871 195.94158923060422 0 195.94158923060422 1983.4405466126263 0 0 0 0 -343.47380459163514 27.810465816157375 0 27.810465816157375 2549.725066436451 0 0 0 0 -302.74994669155114 333.99515307365164 0 333.99515307365164 4138.2408574798101 0 0 0 0 945.07101587794432 586.96897650901883 0 586.96897650901883 2961.6580771991921 0 0 0 0 661.56271796735973 -1150.9174722339812 0 -1150.9174722339812 1761.4277706136563 0 0 0 0 733.60162973448325 1456.622757433478 0 1456.622757433478 1741.302688648233 0 0 0 0 0.76452237992053451 0.54178751941270153 0 0.54178751941270153 21.638452099585322 0 0 0 0 946.56763616718786 -93.611424824901476 0 -93.611424824901476 2976.3001142163776 0 0 0 0 -0.15324245172842405 2.0350944411918901 0 2.0350944411918901 54.496972758303087 0 0 0 0 -320.86238152946794 180.69604118895222 0 180.69604118895222 269.04613754555248 0 0 0 0 -277.84125683442687 94.76993928450338 0 94.76993928450338 -184.75582654119353 0 0 0 0 -37.184982872900946 -5.5370766592459404 0 -5.5370766592459404 136.08149383396085 0 0 0 0 147.52803689207872 -140.60384958209397 0 -140.60384958209397 150.91430739732459 0 0 0 0 -51.260028398863597 -82.057115840761981 0 -82.057115840761981 -176.83636367999134 0 0 0 0 -250.45609521559624 56.531577511230353 0 56.531577511230353 452.5045252188429 0 0 0 0 393.5717495757923 50.305225492000318 0 50.305225492000318 163.18092170932505 0 0 0 0 -387.07999286213249 -194.60682074477154 0 -194.60682074477154 -7.3975554282624216 0 0 0 0 264.35995415305655 -76.744362718513003 0 -76.744362718513003 13.894236202722823 0 0 0 0 -1.0472728107012139 -1.522981090505624 0 -1.522981090505624 0.42179328430272989 0 0 0 0 -447.33149664193343 -63.555268743752094 0 -63.555268743752094 1329.2706038415135 0 0 0 0 353.58032143420678 -396.23987547473916 0 -396.23987547473916 -1112.9717923198914 0 0 0 0 5.5125672604124247 -118.80476304093827 0 -118.80476304093827 -30.984314444060146 0 0 0 0 -124.62500432142042 16.283446010589614 0 16.283446010589614 258.01898520114628 0 0 0 0 -126.88225259355568 -453.59085948343636 0 -453.59085948343636 661.42991160044767 0 0 0 0 88.779305687295619 -190.14292258560272 0 -190.14292258560272 -339.41748291389376 0 0 0 0 -41.801707892987565 -149.82192121778644 0 -149.82192121778644 648.15214853215366 0 0 0 0 -5.9288607495817738 -6.8531528220607498 0 -6.8531528220607498 1.7026905543185151 0 0 0 0 68.152012904771937 -122.72231858514715 0 -122.72231858514715 48.896840661189344 0 0 0 0 -124.01874548369165 -70.009568982706696 0 -70.009568982706696 247.48892942967359 0 0 0 0 -4.2001235791130966 13.636376126731193 0 13.636376126731193 59.241058148352749 0 0 0 0 -99.052073423247478 -28.219662600541596 0 -28.219662600541596 -14.557760247153055 0 0 0 0 128.68057988118966 84.667269319462321 0 84.667269319462321 502.2749318838687 0 0 0 0 -90.894078621446738 -201.90659058257734 0 -201.90659058257734 268.36671997724352 0 0 0 0 -429.93221742774836 -166.28269691152309 0 -166.28269691152309 529.2040692571245 0 0 0 0 -434.76831135931388 -189.60591913298413 0 -189.60591913298413 783.34884923472782 0 0 0 0 -270.08967544371376 -418.33684088673181 0 -418.33684088673181 725.90760275888897 0 0 0 0 -403.1810491331953 -225.02248350488662 0 -225.02248350488662 692.55816739198053 0 0 0 0 -292.58766458076167 -172.66140322401407 0 -172.66140322401407 178.49812527967151 0 0 0 0 -380.1631960838489 -231.57500033983706 0 -231.57500033983706 255.121726620564 0 0 0 0 -285.90809973144314 -42.83939522489527 0 -42.83939522489527 -213.30376031612104 0 0 0 0 -314.00191227029245 -112.17444074127707 0 -112.17444074127707 233.01958207536518 0 0 0 0 5.4106881672854854 -71.709340713836355 0 -71.709340713836355 148.8697103234299 0 0 0 0 -246.145906247955 -14.190042937014368 0 -14.190042937014368 657.20595448512904 0 0 0 0 -203.54993978252065 -126.46058048422856 0 -126.46058048422856 144.18046727595356 0 0 0 0 -197.94240075722567 23.111279310565351 0 23.111279310565351 -94.62159894107026 0 0 0 0 -588.87099073537365 25.781318834084232 0 25.781318834084232 78.290956398523122 0 0 0 0 -274.73023403774289 14.114285797557386 0 14.114285797557386 -31.848480989508971 0 0 0 0 -285.19988546213654 1.365532252300909 0 1.365532252300909 52.201421841171395 0 0 0 0 -494.6226942324796 60.700003905595167 0 60.700003905595167 15.976398122147657 0 0 0 0 -493.52400459800072 70.799885824555531 0 70.799885824555531 51.927112317964202 0 0 0 0 -284.65439595631443 -24.101059241569601 0 -24.101059241569601 -52.51909124195663 0 0 0 0 -472.66708370981667 203.38834686416521 0 203.38834686416521 -157.22032184986165 0 0 0 0 -975.17024638461999 9.0559150432236493 0 9.0559150432236493 10.777352986391634 0 0 0 0 -22.583766832620313 -12.878511758011882 0 -12.878511758011882 22.075515200716836 0 0 0 0 17.99408569823504 -61.515478033736144 0 -61.515478033736144 69.306419928718242 0 0 0 0 -1.5081064634979267 -13.038639367418977 0 -13.038639367418977 2.4857461172783104 0 0 0 0 -7.9977457755917456 11.229480193326062 0 11.229480193326062 10.920182306956718 0 0 0 0 -125.94139582914158 38.214381504862104 0 38.214381504862104 31.951589776661422 0 0 0 0 27.631458007117772 -85.402687593428709 0 -85.402687593428709 34.939460788125871 0 0 0 0 50.26951493705144 -47.321030293827789 0 -47.321030293827789 61.170937017610413 0 0 0 0 -66.826504447365551 -61.281827214057557 0 -61.281827214057557 86.696201942962944 0 0 0 0 0.97703915635082694 -124.90112856414453 0 -124.90112856414453 85.358358736542868 0 0 0 0 -2.5203898664126694 -1.5756871559012158 0 -1.5756871559012158 74.666578637206754 0 0 0 0 -19.157950486054688 -72.156203009086312 0 -72.156203009086312 62.843832558894064 0 0 0 0 -324.63945446130782 -76.39002628979506 0 -76.39002628979506 167.39621430376428 0 0 0 0 -363.77886138291797 40.418911789685808 0 40.418911789685808 77.533492611488327 0 0 0 0 -134.61526894874987 -109.45929739314306 0 -109.45929739314306 111.73914888230502 0 0 0 0 -111.30684174874023 -30.652364381268853 0 -30.652364381268853 76.752363295934629 0 0 0 0 -215.85951200828185 33.116274620158947 0 33.116274620158947 101.12244610462221 0 0 0 0 -204.37223650342821 -84.885728222390753 0 -84.885728222390753 135.05349553847918 0 0 0 0 -231.79214882020301 -206.02546513806737 0 -206.02546513806737 81.1577054799709 0 0 0 0 -39.829349849534537 -187.54806594815454 0 -187.54806594815454 32.398891391654615 0 0 0 0 -133.13326193591183 -83.764829515261226 0 -83.764829515261226 116.68186905985931 0 0 0 0 6.688607649687583 -41.762117981939809 0 -41.762117981939809 201.71218318082902 0 0 0 0 -12.737117046757703 -5.116859162102628 0 -5.116859162102628 241.91745989206902 0 0 0 0 -20.966751047669835 -7.3978486888785966 0 -7.3978486888785966 2.5787313627320518 0 0 0 0 -82.938778157438492 35.013564687747021 0 35.013564687747021 318.58847303170114 0 0 0 0 4.2769868090204 39.415675748179638 0 39.415675748179638 169.48472274204823 0 0 0 0 -32.85402958134835 3.316205323979375 0 3.316205323979375 261.89108715886641 0 0 0 0 -163.80338469230247 -116.51744127205711 0 -116.51744127205711 224.59751952611623 0 0 0 0 -129.4155902010715 -280.23168645783517 0 -280.23168645783517 677.6582692183265 0 0 0 0 -13.463281260887236 -8.1421141522402039 0 -8.1421141522402039 2.2791533956348484 0 0 0 0 -16.186607034904227 -38.911105198285441 0 -38.911105198285441 398.765814431325 0 0 0 0 -52.019366984663066 -137.90912132224548 0 -137.90912132224548 256.8484623299064 0 0 0 0 38.564900305527544 -68.12297389809828 0 -68.12297389809828 284.80452034849804 0 0 0 0 3.7778891004090838 -104.90106298875071 0 -104.90106298875071 302.41125849436139 0 0 0 0 23.435289324163932 -95.772469516436104 0 -95.772469516436104 239.78907523743828 0 0 0 0 -15.824111148472667 -43.507972022260446 0 -43.507972022260446 250.81470388733578 0 0 0 0 29.14369868574704 -94.248057832041013 0 -94.248057832041013 231.33983617532067 0 0 0 0 12.122099681886652 -56.742288154641983 0 -56.742288154641983 218.99423663598282 0 0 0 0 22.779360813839048 -73.64826567631826 0 -73.64826567631826 185.12170471217541 0 0 0 0 83.536857533637885 -151.46563330808021 0 -151.46563330808021 208.28059029697943 0 0 0 0 -5.3649978115699923 -114.56388446846177 0 -114.56388446846177 364.93281901548471 0 0 0 0 1.4313934467749938 0.16168238744890573 0 0.16168238744890573 -0.22806878535058672 0 0 0 0 76.048143904207791 -83.105530273106524 0 -83.105530273106524 -127.63305014782236 0 0 0 0 -37.173492157587134 -27.661700167813251 0 -27.661700167813251 -9.3355255843307532 0 0 0 0 34.503748271042241 -56.158330699785438 0 -56.158330699785438 -6.5394851127311995 0 0 0 0 -40.067688987028419 -48.977527305369676 0 -48.977527305369676 -25.520961129033822 0 0 0 0 2.3818856098913539 -0.80984862956985637 0 -0.80984862956985637 0.39466632937342183 0 0 0 0 100.97357917760655 -102.68844307487052 0 -102.68844307487052 102.80265364486331 0 0 0 0 -7.091736914269859 -85.984158693067002 0 -85.984158693067002 241.66334923492104 0 0 0 0 -53.246813687251233 6.3532467343020471 0 6.3532467343020471 34.012070716817107 0 0 0 0 -0.2224177098266571 -1.4260464216981728 0 -1.4260464216981728 1.3684550833087457 0 0 0 0 -60.459601207974629 -13.544610849105084 0 -13.544610849105084 146.21927458799837 0 0 0 0 22.610070714330504 -71.693469240857667 0 -71.693469240857667 -1.1183262773956812 0 0 0 0 -17.241290029419929 -13.963563149852234 0 -13.963563149852234 -32.032060512821772 0 0 0 0 17.613066703117511 -22.823699670079804 0 -22.823699670079804 5.4454930613610486 0 0 0 0 1.1798340406214116 -1.2401071551762186 0 -1.2401071551762186 0.74738918284672451 0 0 0 0 -0.22084368412151889 -44.513665725035025 0 -44.513665725035025 -40.805555533210281 0 0 0 0 43.532691200343834 -20.933351953516649 0 -20.933351953516649 -6.0463358126289677 0 0 0 0 26.198152379970452 -66.339818588980052 0 -66.339818588980052 97.268764815127724 0 0 0 0 -1.1976865546316731 -10.387334616036242 0 -10.387334616036242 37.597025116261648 0 0 0 0 0.32406472301039457 -34.405837899787684 0 -34.405837899787684 113.85877968477507 0 0 0 0 -5.1187903913905757 -5.2019258991804236 0 -5.2019258991804236 29.186644427583815 0 0 0 0 -8.817936769130938 -55.555275746764892 0 -55.555275746764892 130.00765576931008 0 0 0 0 -7.3862803619290389 -52.22496587725982 0 -52.22496587725982 128.20411729214902 0 0 0 0 -213.58870908324661 47.879503473310251 0 47.879503473310251 244.69502290845048 0 0 0 0 26.179082783860224 30.014561259612037 0 30.014561259612037 -17.606661295056256 0 0 0 0 -0.63825244589227559 -0.97072461321881764 0 -0.97072461321881764 1.1354248511173068 0 0 0 0 112.13901675261513 -118.17164736175437 0 -118.17164736175437 130.44399941251686 0 0 0 0 18.514943027795539 61.335958017955818 0 61.335958017955818 128.34326170356144 0 0 0 0 34.602816983262528 -21.044955219113035 0 -21.044955219113035 44.285982334473374 0 0 0 0 16.935880051007189 -4.8359073407827964 0 -4.8359073407827964 29.426260870401165 0 0 0 0 -24.580618149213024 -65.223019619790648 0 -65.223019619790648 -18.656812418743357 0 0 0 0 -0.60137326379415335 -2.213756815097133 0 -2.213756815097133 1.6351386515790693 0 0 0 0 -97.708024643681256 -34.641860809981154 0 -34.641860809981154 9.8416034604397282 0 0 0 0 -339.36495480138336 -371.59850029246491 0 -371.59850029246491 53.615982688010263 0 0 0 0 -256.20266242113928 -74.141562585646625 0 -74.141562585646625 90.108089283501613 0 0 0 0 -143.17795564005996 -96.653342115871055 0 -96.653342115871055 48.238936692971038 0 0 0 0 261.35902182549052 -114.8462758981841 0 -114.8462758981841 -186.71661191634848 0 0 0 0 22.285870686472947 -80.38605099551387 0 -80.38605099551387 89.542207662481815 0 0 0 0 -109.22235954749442 -151.70788707425527 0 -151.70788707425527 48.215841324417852 0 0 0 0 -1.9880072141482963 -12.350945220863359 0 -12.350945220863359 80.455836209729753 0 0 0 0 -615.7649800558886 -44.274634162378788 0 -44.274634162378788 40.753868177736877 0 0 0 0 -0.28454311401361054 -0.077485760440098694 0 -0.077485760440098694 0.47674199546447937 0 0 0 0 -452.49081603676376 -61.989303822765578 0 -61.989303822765578 -18.793956418245216 0 0 0 0 -321.50490586336991 50.977190367178991 0 50.977190367178991 -42.251302796467826 0 0 0 0 -258.59292598268644 -71.143379490713414 0 -71.143379490713414 -52.23524645120051 0 0 0 0 -230.88064387679418 7.6829059635610975 0 7.6829059635610975 -15.836156788114749 0 0 0 0 -275.71412481855032 -122.96588203807914 0 -122.96588203807914 -4.0942454710457241 0 0 0 0 -142.38351879312637 -47.05390941513906 0 -47.05390941513906 38.954730806897715 0 0 0 0 -118.25113517628643 -46.50803943678693 0 -46.50803943678693 -40.977674096415285 0 0 0 0 -87.504928801312417 -69.515329191484852 0 -69.515329191484852 -23.267375370702212 0 0 0 0 -154.05124007152108 24.483777723813546 0 24.483777723813546 -9.304934089530434 0 0 0 0 -36.358273596427125 -54.477786686908075 0 -54.477786686908075 -57.058564856492012 0 0 0 0 -30.408140407855171 -18.683327786246082 0 -18.683327786246082 22.464204816789788 0 0 0 0 -16.229000753699438 -46.353446037415779 0 -46.353446037415779 -79.698652415452671 0 0 0 0 -48.974550987253224 -2.0679322972428054 0 -2.0679322972428054 -55.999976126344222 0 0 0 0 0.82329590613237258 -0.61401032618544349 0 -0.61401032618544349 0.31040241735800578 0 0 0 0 -4.4853818018132188 -39.683078337046027 0 -39.683078337046027 109.37914254955467 0 0 0 0 5.682481094390937 -9.9152393256908908 0 -9.9152393256908908 183.89238536993798 0 0 0 0 -27.328255193325276 -83.810852058712044 0 -83.810852058712044 139.86249189439332 0 0 0 0 -21.600087582899761 -51.915736880311215 0 -51.915736880311215 129.30333285519009 0 0 0 0 -133.62248216378248 -118.05940999555241 0 -118.05940999555241 223.8793869151159 0 0 0 0 -81.19982657482285 7.7322524336359493 0 7.7322524336359493 365.27616159333411 0 0 0 0 0.44960906472330198 0.16330652967108961 0 0.16330652967108961 -0.08067929683526387 0 0 0 0 -184.71163055544775 -144.77673450602742 0 -144.77673450602742 -96.858630033610098 0 0 0 0 -185.30331922509959 -136.1820359488629 0 -136.1820359488629 156.87150700963321 0 0 0 0 -211.81633873567398 -135.7814802873545 0 -135.7814802873545 164.94260086298891 0 0 0 0 -144.33149985983698 -145.23899076473026 0 -145.23899076473026 137.52487159562952 0 0 0 0 -133.64911040187431 -136.95994506609944 0 -136.95994506609944 143.18366454882198 0 0 0 0 -280.99788893598645 -260.99246068172943 0 -260.99246068172943 187.84788095573094 0 0 0 0 -144.5248119640753 -149.82485817712586 0 -149.82485817712586 29.818355760842678 0 0 0 0 -210.04866916740338 -101.79539884339999 0 -101.79539884339999 350.54752295358776 0 0 0 0 -9.7036667218913522 43.64539179114945 0 43.64539179114945 165.55528842914646 0 0 0 0 204.36985552902709 -368.14746686191302 0 -368.14746686191302 -146.19635114746052 0 0 0 0 -167.41551172792634 -38.744083352732559 0 -38.744083352732559 5.547396209704857 0 0 0 0 -114.4134182802137 -63.108577179162239 0 -63.108577179162239 -43.270328897779109 0 0 0 0 -184.21001367893231 -92.331533978462176 0 -92.331533978462176 -3.8988466206064913 0 0 0 0 -192.45367155932996 -84.992032820618988 0 -84.992032820618988 -70.691478097563959 0 0 0 0 -190.99786767363648 -94.540513928436667 0 -94.540513928436667 -8.8333214395534014 0 0 0 0 -190.67084230849633 -185.15174694670986 0 -185.15174694670986 -122.47268481663195 0 0 0 0 -257.44259382851192 -118.28017365509368 0 -118.28017365509368 -29.267717681599606 0 0 0 0 -117.25571190923279 -74.410721671094507 0 -74.410721671094507 -31.82464146536222 0 0 0 0 -189.22361261885328 -170.1743883791255 0 -170.1743883791255 22.450126701609406 0 0 0 0 -96.950908738770067 -101.12983071595954 0 -101.12983071595954 -19.08189353698981 0 0 0 0 -79.873522395609598 -66.372655278526508 0 -66.372655278526508 49.962363490854841 0 0 0 0 -68.964782227711567 -99.10246207047021 0 -99.10246207047021 26.164247116579645 0 0 0 0 -51.917237970879569 -71.29620050633639 0 -71.29620050633639 11.941007769637508 0 0 0 0 -57.722346977983193 -30.857226599804562 0 -30.857226599804562 29.739145784180437 0 0 0 0 -72.525261881845836 -59.675552021326439 0 -59.675552021326439 5.3857825245067943 0 0 0 0 -118.71742675279981 -46.998928810064172 0 -46.998928810064172 20.586640421090124 0 0 0 0 -50.365063907768672 -28.178315491517424 0 -28.178315491517424 3.1499008768923886 0 0 0 0 -52.358657652164311 -19.767524452840007 0 -19.767524452840007 37.358757936521215 0 0 0 0 -33.9668620225425 -40.259936510574335 0 -40.259936510574335 22.774201944568631 0 0 0 0 -8.3918732631573221 -35.452042462551617 0 -35.452042462551617 39.768204139109002 0 0 0 0 -17.032027546933023 -55.336958606527332 0 -55.336958606527332 36.815427418514446 0 0 0 0 -28.504115527438898 -27.065567042573093 0 -27.065567042573093 46.216038701975776 0 0 0 0 -44.453645713347669 -51.579245388751588 0 -51.579245388751588 60.57778219634929 0 0 0 0 -19.859729408753992 -55.871309957132326 0 -55.871309957132326 53.120180879410327 0 0 0 0 -68.666959781055311 -88.24307997469441 0 -88.24307997469441 105.13361357116082 0 0 0 0 -13.227523813883977 -73.19491809162173 0 -73.19491809162173 78.731303249041957 0 0 0 0 -11.903318157002786 -42.312499714352271 0 -42.312499714352271 68.671087217400782 0 0 0 0 -8.1296799350087099 -66.455526851727313 0 -66.455526851727313 118.26449004318056 0 0 0 0 -9.2236306955896907 -57.704331357330375 0 -57.704331357330375 100.50666131344769 0 0 0 0 1.3718983102206153 -44.126019287653321 0 -44.126019287653321 90.604292490781518 0 0 0 0 1.3503918330052329 -45.067701864158153 0 -45.067701864158153 56.973793162462243 0 0 0 0 5.2988748340444545 -27.064925836291877 0 -27.064925836291877 59.881033505174855 0 0 0 0 -2.1979821027989601 -22.136419878839661 0 -22.136419878839661 63.35412349894159 0 0 0 0 9.2572759872475672 -18.38932020197808 0 -18.38932020197808 77.409455851811799 0 0 0 0 17.913540922337233 -10.451639247614366 0 -10.451639247614366 56.771068156136607 0 0 0 0 9.9646813860199472 -10.272259000194026 0 -10.272259000194026 59.794022627488857 0 0 0 0 -5.7612046631435305 -14.687552832387155 0 -14.687552832387155 63.286572103737853 0 0 0 0 12.313838422309345 -19.461482226935914 0 -19.461482226935914 61.998220026434865 0 0 0 0 12.313838422302069 -19.46148222690681 0 -19.46148222690681 61.998220026362105 0 0 0 0 0.38758393555963266 -20.878338741291373 0 -20.878338741291373 63.021954693955195 0 0 0 0 12.313838422291155 -19.461482226848602 0 -19.461482226848602 61.998220026427589 0 0 0 0 -68.356075018989941 113.65691951281133 0 113.65691951281133 154.33266396463659 0 0 0 0 -11.675353425599708 11.242534066589181 0 11.242534066589181 71.652441898689034 0 0 0 0 -8.444999191261104 134.12068705613456 0 134.12068705613456 -29.272589876878556 0 0 0 0 -2.542524569704824 41.364040139686495 0 41.364040139686495 -126.94529128168142 0 0 0 0 -35.835624318538066 226.04994992607044 0 226.04994992607044 676.46281401425222 0 0 0 0 -26.987736826747778 -22.614264855770671 0 -22.614264855770671 29.007477872335585 0 0 0 0 -25.03004815251245 8.0583649600630451 0 8.0583649600630451 42.742393412907404 0 0 0 0 -22.565878729233191 -2.0649258239791379 0 -2.0649258239791379 63.910556490329327 0 0 0 0 -5.9307218812592275 6.4918958641856221 0 6.4918958641856221 13.421982722708695 0 0 0 0 -4.8587593240263232 -22.045479968043765 0 -22.045479968043765 64.833114201508579 0 0 0 0 -18.316445527029828 -7.9769358944649866 0 -7.9769358944649866 51.72875040033432 0 0 0 0 -28.655285047364202 -47.593478385721937 0 -47.593478385721937 40.918537616118556 0 0 0 0 -46.119863147499245 -19.074478252987319 0 -19.074478252987319 7.8414362905532471 0 0 0 0 579.08112780818169 -470.77253419181034 0 -470.77253419181034 -84.399745775768679 0 0 0 0 0.38399901181455309 1.8704976567824829 0 1.8704976567824829 -3.1908245894726832 0 0 0 0 -9.4037832812871329 -48.800266995287529 0 -48.800266995287529 -5.9107552273071633 0 0 0 0 -206.23766885506529 -106.072729999898 0 -106.072729999898 288.8438535944988 0 0 0 0 -59.439875833516453 -159.60682226578501 0 -159.60682226578501 172.99550029930106 0 0 0 0 10.821184789769973 -73.016171887937162 0 -73.016171887937162 15.795360749842075 0 0 0 0 -102.26599937339165 -27.979066467723896 0 -27.979066467723896 36.441614293085877 0 0 0 0 -90.680903350033745 -81.458675841793593 0 -81.458675841793593 22.447304023051402 0 0 0 0 -157.9782578008336 -56.074366908262164 0 -56.074366908262164 65.529129686972738 0 0 0 0 38.22806454417946 -102.34705784693801 0 -102.34705784693801 -6.9663023632206205 0 0 0 0 75.076665175536618 -49.035926027660025 0 -49.035926027660025 -53.145013645311337 0 0 0 0 37.74549694577945 10.579277307582743 0 10.579277307582743 1.5385240282807899 0 0 0 0 11.834565861554069 -36.736327983592702 0 -36.736327983592702 36.190167890663368 0 0 0 0 -1.4855255179005944 -5.0024201168214333 0 -5.0024201168214333 27.374262755128228 0 0 0 0 21.388505906302953 -11.515233758432259 0 -11.515233758432259 115.73962334636963 0 0 0 0 9.5102615350015185 -11.779719338081122 0 -11.779719338081122 196.56114945167792 0 0 0 0 31.98128281605716 46.823835272779888 0 46.823835272779888 140.52152296876011 0 0 0 0 11.5166292067006 -75.991336526827581 0 -75.991336526827581 244.33478296947214 0 0 0 0 6.8811491245740513 -46.730070381904625 0 -46.730070381904625 123.0118026889395 0 0 0 0 -0.28210375532580656 -40.376248858188774 0 -40.376248858188774 96.359101146255853 0 0 0 0 -0.11642461328801801 -45.380575848788794 0 -45.380575848788794 129.7411889570285 0 0 0 0 11.4973805489185 -20.660511283111191 0 -20.660511283111191 79.428886239908024 0 0 0 0 31.551372433617871 -26.063072050075789 0 -26.063072050075789 92.332988338514951 0 0 0 0 8.760348883266591 -38.976775923063485 0 -38.976775923063485 30.536569417444309 0 0 0 0 11.667377624297842 -6.3943529287334968 0 -6.3943529287334968 108.05014190040492 0 0 0 0 -36.684950194602834 -45.072292929158436 0 -45.072292929158436 124.88450930848785 0 0 0 0 12.395447000006925 -8.3265437760383065 0 -8.3265437760383065 77.640682041510445 0 0 0 0 -35.99651204329416 -42.015439864771906 0 -42.015439864771906 85.855515230954552 0 0 0 0 4.9900137806225002 -37.4062973122969 0 -37.4062973122969 34.242890066234807 0 0 0 0 -34.564493899843228 -30.634262916998068 0 -30.634262916998068 97.357272259272122 0 0 0 0 -44.787609584235952 -23.65187670966634 0 -23.65187670966634 97.36756241480316 0 0 0 0 -24.284208866067274 -18.239446498188499 0 -18.239446498188499 110.72904532705502 0 0 0 0 110.53473108910839 -10.566161045859644 0 -10.566161045859644 120.71597969241157 0 0 0 0 -3.523892115462786 -80.028186856415914 0 -80.028186856415914 271.55062563416232 0 0 0 0 -16.197037923466041 -56.25575612955322 0 -56.25575612955322 90.796196620505725 0 0 0 0 46.864812495012757 -73.67117018548015 0 -73.67117018548015 92.587744718293379 0 0 0 0 74.244679996569175 -57.106220086434405 0 -57.106220086434405 86.641160035234861 0 0 0 0 74.606952114098476 11.412577758054908 0 11.412577758054908 122.14665939596125 0 0 0 0 57.220965996213863 -24.131295873422914 0 -24.131295873422914 220.91008379258119 0 0 0 0 98.493783757266556 -9.1257984759131432 0 -9.1257984759131432 137.04551650633903 0 0 0 0 -39.793420583307125 -103.71571695858847 0 -103.71571695858847 206.65875094271843 0 0 0 0 0.44131686511310875 -0.87349870581582612 0 -0.87349870581582612 2.3371183420641835 0 0 0 0 167.0999090263258 -52.774348929124187 0 -52.774348929124187 47.75991163490653 0 0 0 0 5.7931930017016384 -24.311949865263387 0 -24.311949865263387 66.763701050158218 0 0 0 0 161.93826304214508 -81.050834420652336 0 -81.050834420652336 106.05375543668777 0 0 0 0 -1.5054167559324014 -3.1426680790318642 0 -3.1426680790318642 21.506679119147066 0 0 0 0 3.2047772548293776 -4.117794254340267 0 -4.117794254340267 16.639077013318726 0 0 0 0 8.8961419311007148 -7.3761932260382252 0 -7.3761932260382252 18.135297936349616 0 0 0 0 8.3457167049663212 13.134371518910427 0 13.134371518910427 43.881409309031369 0 0 0 0 -1.627703935933841 0.3859046152209995 0 0.3859046152209995 26.658141127551023 0 0 0 0 -1.0209278237010508 1.1504918906027797 0 1.1504918906027797 6.9256684808233322 0 0 0 0 -10.762553967287658 19.993727542321267 0 19.993727542321267 48.297802040377064 0 0 0 0 5.7888455485726809 2.6390094677499292 0 2.6390094677499292 50.397857388975808 0 0 0 0 30.571669077548449 61.349863050617387 0 61.349863050617387 74.518623134132554 0 0 0 0 13.567593730211229 -4.1563606061558858 0 -4.1563606061558858 11.420658548934966 0 0 0 0 138.09027611347756 17.937319657772946 0 17.937319657772946 14.095281045838419 0 0 0 0 31.448035159570736 26.358586235955045 0 26.358586235955045 15.436512871118794 0 0 0 0 11.797177927482153 24.476910083025814 0 24.476910083025814 49.139613588886959 0 0 0 0 6.8333346047832038 15.123778768558282 0 15.123778768558282 42.131496018698272 0 0 0 0 49.491646899286934 83.569514682100362 0 83.569514682100362 46.09383914022419 0 0 0 0 16.496293614220335 17.12182264095172 0 17.12182264095172 19.265418470186251 0 0 0 0 -8.040302373351139 -54.619685428104624 0 -54.619685428104624 56.02068210917858 0 0 0 0 -10.886329042408761 38.113913872980902 0 38.113913872980902 198.79198509284333 0 0 0 0 36.893947831278638 4.8240772232729796 0 4.8240772232729796 123.47501476473553 0 0 0 0 23.338310494328681 18.682361129884676 0 18.682361129884676 46.490527490060245 0 0 0 0 0.27774205801101415 4.3794224063783256 0 4.3794224063783256 4.4060469509354121 0 0 0 0 301.18788303931001 193.87391925122756 0 193.87391925122756 51.416889687287039 0 0 0 0 126.58973850816437 71.461899315352639 0 71.461899315352639 38.654905746258009 0 0 0 0 60.187668410424521 42.645394531269631 0 42.645394531269631 44.512659702566907 0 0 0 0 47.262164987350843 -31.090641004862846 0 -31.090641004862846 13.998358771224275 0 0 0 0 101.18103809965237 -1.9681839695629151 0 -1.9681839695629151 10.406821386521187 0 0 0 0 181.0817292667125 75.966055998209413 0 75.966055998209413 70.058311132146628 0 0 0 0 15.66605326840272 62.304910191402087 0 62.304910191402087 194.85306617576498 0 0 0 0 126.9746108643194 231.26490238742736 0 231.26490238742736 276.91874087043448 0 0 0 0 41.461693152827138 135.25958474669005 0 135.25958474669005 276.07982448645816 0 0 0 0 -0.62168944277381577 4.171690436578622 0 4.171690436578622 6.2408152302155955 0 0 0 0 38.930281267567807 61.437008873300329 0 61.437008873300329 159.87614406782404 0 0 0 0 19.175619236826606 -6.5973434895367973 0 -6.5973434895367973 240.55080443886163 0 0 0 0 -7.9789113509891649 6.502003906733421 0 6.502003906733421 63.465796628615863 0 0 0 0 48.447111733121346 32.28709847695427 0 32.28709847695427 -14.852948960156937 0 0 0 0 2.6992659739163969 -1.0878781788786558 0 -1.0878781788786558 3.1312045989492194 0 0 0 0 87.125747344830415 -17.264599205486775 0 -17.264599205486775 -99.722106642468134 0 0 0 0 57.530252517010013 -24.650734476340403 0 -24.650734476340403 15.50837521098947 0 0 0 0 -0.094216268412827597 3.8603912239092839 0 3.8603912239092839 -2.2218365543888758 0 0 0 0 -40.03196611184876 30.228097039125259 0 30.228097039125259 2.3063775581395021 0 0 0 0 51.046926292618082 20.464539404717698 0 20.464539404717698 16.710433933571039 0 0 0 0 3.2549615656025708 47.538113633757348 0 47.538113633757348 2.661464270655415 0 0 0 0 0.41104089772852603 -20.417779636916748 0 -20.417779636916748 25.819227808508003 0 0 0 0 91.476401139631889 25.111779656086128 0 25.111779656086128 -277.94755106906632 0 0 0 0 1.8704540285460962 1.974207668999902 0 1.974207668999902 1.9357516859768538 0 0 0 0 45.157297434232078 84.082506754751876 0 84.082506754751876 -66.756973701383458 0 0 0 0 -16.049782224276441 -64.60697338879163 0 -64.60697338879163 275.56181423594717 0 0 0 0 4.4648616583531293 19.080927287586746 0 19.080927287586746 15.111512941324463 0 0 0 0 -19.928678127436797 -6.0181451084310993 0 -6.0181451084310993 81.97178689753855 0 0 0 0 14.687752571257299 0.97446302863852896 0 0.97446302863852896 5.1692802858011788 0 0 0 0 8.0890060910401189 -8.8245312948926085 0 -8.8245312948926085 17.060916170289772 0 0 0 0 16.137842027229794 -12.164747486371766 0 -12.164747486371766 13.266710186740056 0 0 0 0 20.006860101338034 -4.3399803649586488 0 -4.3399803649586488 5.3748010703666296 0 0 0 0 10.894027795071906 -0.69987376858304318 0 -0.69987376858304318 -0.12497411878462006 0 0 0 0 1.8449421872206664 0.85718442768087577 0 0.85718442768087577 0.80258461085390298 0 0 0 0 33.479033512617491 -10.269066373798154 0 -10.269066373798154 5.9533802827161821 0 0 0 0 -14.494805273820305 -6.9129293531323128 0 -6.9129293531323128 16.488549107157155 0 0 0 0 6.7536189729736913 0.2422022403484636 0 0.2422022403484636 0.10779546356188652 0 0 0 0 27.936593383661489 11.740577862458736 0 11.740577862458736 -12.206235846514573 0 0 0 0 2.5897147042394972 -0.40965331789742043 0 -0.40965331789742043 -0.28725057638979345 0 0 0 0 -7.8266743206056617 -11.584770864295933 0 -11.584770864295933 21.26251227091484 0 0 0 0 71.385111628114146 88.934447855986832 0 88.934447855986832 112.09876245094637 0 0 0 0 30.072216493241143 -2.3829118221072747 0 -2.3829118221072747 -59.564879763761382 0 0 0 0 26.214681225633335 1.120359728837542 0 1.120359728837542 -14.747410510366535 0 0 0 0 24.427696844912589 -16.493740162942004 0 -16.493740162942004 9.3860134666673503 0 0 0 0 10.882478438384368 17.880147503957968 0 17.880147503957968 27.073319004583791 0 0 0 0 -28.68723421432685 74.862377652904343 0 74.862377652904343 48.366606470459374 0 0 0 0 9.9473058425085128 276.38142576840687 0 276.38142576840687 41.954147338882962 0 0 0 0 -0.69262916917864459 -59.575472417346191 0 -59.575472417346191 34.379807625604144 0 0 0 0 21.855466626549969 -4.986443689475891 0 -4.986443689475891 16.310773411069476 0 0 0 0 0.95925728489523365 0.60645676402862136 0 0.60645676402862136 3.9854581427637026 0 0 0 0 9.7002484483980709 15.473891978383877 0 15.473891978383877 21.286618312580842 0 0 0 0 -25.814982530684688 22.055899719665831 0 22.055899719665831 62.342710375635761 0 0 0 0 157.39013631899888 117.06515372508602 0 117.06515372508602 205.77593314941623 0 0 0 0 116.48472398309059 -26.746630300671313 0 -26.746630300671313 -33.966711545984708 0 0 0 0 10.975928346572573 -138.02123964579278 0 -138.02123964579278 336.83152971785239 0 0 0 0 12.770595832378406 16.119979897552327 0 16.119979897552327 -1.0541828745172097 0 0 0 0 14.668993449385908 17.717810481623019 0 17.717810481623019 -3.3913051515773986 0 0 0 0 2.0728677683267165 44.534000445213678 0 44.534000445213678 -47.445418551217244 0 0 0 0 3.7305968504693174 5.681562995194426 0 5.681562995194426 6.7059102189998541 0 0 0 0 -66.229419028987195 163.66793456522123 0 163.66793456522123 91.224334273611021 0 0 0 0 -96.993333999834249 37.296345530738108 0 37.296345530738108 302.26594006817322 0 0 0 0 128.62448609570947 -97.961853660277484 0 -97.961853660277484 45.625723003157418 0 0 0 0 2.2577504033733931 -186.51701352582131 0 -186.51701352582131 346.98201758816731 0 0 0 0 -0.98905744745434276 3.8656284322078136 0 3.8656284322078136 10.576080742991508 0 0 0 0 0.94189644010657503 7.5259574240953953 0 7.5259574240953953 5.5173807880155437 0 0 0 0 4.1013521541026448 7.076160631928877 0 7.076160631928877 7.4857911045960419 0 0 0 0 0.39739572040208859 2.7315982879978318 0 2.7315982879978318 6.6278152274134712 0 0 0 0 869.30679817782766 -478.63026766737494 0 -478.63026766737494 348.09118367235351 0 0 0 0 -36.543798795678413 -261.68721320958866 0 -261.68721320958866 389.64123118772113 0 0 0 0 -477.25120851609381 -166.65730430922031 0 -166.65730430922031 722.13191094042759 0 0 0 0 2.7612160892124358 -20.756169533339651 0 -20.756169533339651 11.611970047384574 0 0 0 0 -338.73904234352631 -414.89664885479306 0 -414.89664885479306 963.94171262033069 0 0 0 0 803.10807766301036 -714.44748785150887 0 -714.44748785150887 373.61658692649871 0 0 0 0 0.10691435336443289 0.70576442996422806 0 0.70576442996422806 1.194272859994669 0 0 0 0 -12.952455287413613 -189.09627497167685 0 -189.09627497167685 562.10353440008112 0 0 0 0 -88.254183038795873 -40.137649682872507 0 -40.137649682872507 553.2645878236608 0 0 0 0 -67.131309995377251 118.18928741302443 0 118.18928741302443 220.34239275810796 0 0 0 0 114.77336759394211 -144.58352093456688 0 -144.58352093456688 27.091894367334135 0 0 0 0 0.42623228621455311 -28.549999261630884 0 -28.549999261630884 39.101871445709264 0 0 0 0 22.613155908850786 -59.898190516078557 0 -59.898190516078557 135.68835595520068 0 0 0 0 22.909216022626254 -70.842780680465353 0 -70.842780680465353 63.483092569188805 0 0 0 0 -40.199044404996584 64.885248683892314 0 64.885248683892314 440.35591890319802 0 0 0 0 -90.254676635189981 -73.86194187016838 0 -73.86194187016838 578.1776442968403 0 0 0 0 88.620528445534092 -179.94974563516644 0 -179.94974563516644 254.56267154395937 0 0 0 0 -0.34123813608569487 -5.1358295186638969 0 -5.1358295186638969 6.223366123142128 0 0 0 0 58.351578930404457 112.36423042646766 0 112.36423042646766 205.58050962560628 0 0 0 0 8.6189473559719261 -50.027754106933855 0 -50.027754106933855 -7.8808983656199416 0 0 0 0 -1.3133851491218707 -15.43582384595129 0 -15.43582384595129 34.447042322548214 0 0 0 0 -13.29776630276308 -15.094027167175909 0 -15.094027167175909 78.603280049705972 0 0 0 0 -3.6266245764100411 -6.5855857266551157 0 -6.5855857266551157 46.487814403716946 0 0 0 0 -2.6966950313225642 -10.65055530240698 0 -10.65055530240698 21.350772220020982 0 0 0 0 -12.42894491253807 -0.53199598872788911 0 -0.53199598872788911 30.001077335557003 0 0 0 0 -21.175684601186731 -1.9728769867851952 0 -1.9728769867851952 79.498486518314166 0 0 0 0 -20.444332911240963 -7.7286211427344824 0 -7.7286211427344824 85.999290176303475 0 0 0 0 -4.5556373733582856 -17.502097282980156 0 -17.502097282980156 90.284612240055495 0 0 0 0 -7.4676858193352018 -28.602954071175532 0 -28.602954071175532 88.255259310990368 0 0 0 0 -12.071994853336946 -20.074424657218515 0 -20.074424657218515 72.636800335897988 0 0 0 0 -18.671057283841947 -9.7595487741009492 0 -9.7595487741009492 91.439294677937482 0 0 0 0 -31.283888253608438 20.622163452029326 0 20.622163452029326 53.007928348765745 0 0 0 0 2.5921077530505769 -3.6153946753140582 0 -3.6153946753140582 13.071338670812437 0 0 0 0 -15.218865730934795 -7.7486437675984234 0 -7.7486437675984234 63.008831999441099 0 0 0 0 29.455520958833176 -19.021639335639975 0 -19.021639335639975 61.655833879683087 0 0 0 0 -35.245069732646698 -30.725674802431968 0 -30.725674802431968 71.979133583345629 0 0 0 0 -5.9327651312063523 -1.3318555752603132 0 -1.3318555752603132 85.135170458904767 0 0 0 0 -2.1811388818623527 -26.662952537742967 0 -26.662952537742967 99.452402061799148 0 0 0 0 -32.532477101922268 -22.003056888668652 0 -22.003056888668652 118.60550119547042 0 0 0 0 12.095843464731388 -53.562870791012756 0 -53.562870791012756 129.65835738551687 0 0 0 0 25.950374201369414 -46.603253897319519 0 -46.603253897319519 104.16300472326202 0 0 0 0 19.979879391594295 -63.028115352559325 0 -63.028115352559325 131.98565255507856 0 0 0 0 -1.6467649196628145 -35.592626825949992 0 -35.592626825949992 168.93720565102558 0 0 0 0 19.877353115740334 -60.282022980451075 0 -60.282022980451075 130.29601084191745 0 0 0 0 -22.341712878321232 -54.806237891141791 0 -54.806237891141791 193.46617213341597 0 0 0 0 16.241006839985857 -64.107256947685528 0 -64.107256947685528 195.61769357762023 0 0 0 0 49.741939224603129 -53.392843675563654 0 -53.392843675563654 209.50638677107054 0 0 0 0 30.273075681214323 -141.16341980214929 0 -141.16341980214929 223.31757736323243 0 0 0 0 111.2407726425522 -161.84862689709007 0 -161.84862689709007 31.378892839857144 0 0 0 0 42.690996647908833 -37.927846459628199 0 -37.927846459628199 31.585733747801086 0 0 0 0 14.984898059083662 -100.67908912566509 0 -100.67908912566509 118.43687347110608 0 0 0 0 40.508258925301561 -63.597348004139349 0 -63.597348004139349 113.80221671840491 0 0 0 0 16.00425462643625 -40.10342852748272 0 -40.10342852748272 114.01023867761251 0 0 0 0 35.536832929977663 -59.51947656737957 0 -59.51947656737957 117.2369395382957 0 0 0 0 61.31296890129488 -60.982535605518933 0 -60.982535605518933 60.005162760902749 0 0 0 0 40.082334834543872 -7.8124562956127193 0 -7.8124562956127193 73.503100832703694 0 0 0 0 3.984335325207212 -35.702170402768388 0 -35.702170402768388 228.29282391429115 0 0 0 0 5.0324243012287866 -29.746358079688321 0 -29.746358079688321 114.49068423479184 0 0 0 0 30.547055013887075 -24.054065567291218 0 -24.054065567291218 115.37276896592994 0 0 0 0 9.2499443724693293 -66.508957165052976 0 -66.508957165052976 54.070913468520828 0 0 0 0 -129.4443588727022 -69.843864897551612 0 -69.843864897551612 216.85671632021649 0 0 0 0 21.700711899260568 -50.295014222343525 0 -50.295014222343525 130.6233728090665 0 0 0 0 -579.86727700652864 480.39167769445521 0 480.39167769445521 383.01682980313126 0 0 0 0 143.31203016392919 385.29720744402221 0 385.29720744402221 -75.752823407019605 0 0 0 0 1715.2189557076344 464.68601585561555 0 464.68601585561555 247.05186796359339 0 0 0 0 384.68163310006821 1059.3640317305162 0 1059.3640317305162 269.17966091300332 0 0 0 0 1824.3711726433921 46.894425967533607 0 46.894425967533607 -92.500447223876108 0 0 0 0 1.0771743161493683 0.82220450269538858 0 0.82220450269538858 0.40337300171017887 0 0 0 0 35.98080195771422 135.26688650753931 0 135.26688650753931 520.79810663583339 0 0 0 0 28.143367827716702 -48.429768139337284 0 -48.429768139337284 126.89667628853567 0 0 0 0 17.741523515622248 -37.710839637922618 0 -37.710839637922618 157.38704027168205 0 0 0 0 -0.1409169329164994 -15.186606963839273 0 -15.186606963839273 2.9929937408596743 0 0 0 0 -3.2397756262968986 -27.46002662839237 0 -27.46002662839237 8.4494825064612087 0 0 0 0 -20.394155014323122 -48.156877895657999 0 -48.156877895657999 26.50919919135049 0 0 0 0 0.69636821836326201 -2.7811934848376225 0 -2.7811934848376225 22.128768886592695 0 0 0 0 43.195319862435554 42.484873305707879 0 42.484873305707879 126.25859436388419 0 0 0 0 -36.923194329660397 -13.4665366436966 0 -13.4665366436966 32.157189224173635 0 0 0 0 5.629047759573325 132.7809452610818 0 132.7809452610818 46.362900667765643 0 0 0 0 3.7090066071757413 4.1602751813987027 0 4.1602751813987027 27.839612062157357 0 0 0 0 -0.79410911876781132 -1.1087316231483442 0 -1.1087316231483442 6.6626596679728323 0 0 0 0 45.338042703856217 -74.701304726666422 0 -74.701304726666422 89.532380404089054 0 0 0 0 -114.2823442210242 125.59015177492256 0 125.59015177492256 241.36976551334374 0 0 0 0 -3.6847157565644615 -1.4830180054664766 0 -1.4830180054664766 22.913310355733159 0 0 0 0 -44.851627935773195 182.30557677613979 0 182.30557677613979 -84.771786588826217 0 0 0 0 13.991331891455275 9.9331963284203084 0 9.9331963284203084 -3.8291156446139212 0 0 0 0 -9.9234774182977006 0.44254508184268104 0 0.44254508184268104 18.48387399025934 0 0 0 0 -3.4782289979717689 -3.5022937053909118 0 -3.5022937053909118 79.494388829411037 0 0 0 0 -4.0880204727957477 3.9397877735937072 0 3.9397877735937072 82.929056724300608 0 0 0 0 1.0241790837364988 0.31159708573977696 0 0.31159708573977696 74.381399793852324 0 0 0 0 -4.632796909190855 -1.2313917761957107 0 -1.2313917761957107 70.600221537316116 0 0 0 0 11.917068669596347 -1.6202820254620747 0 -1.6202820254620747 85.17623072268907 0 0 0 0 1.7256129052813662 -4.0922554955068335 0 -4.0922554955068335 32.186958621663507 0 0 0 0 -2.9158765128843243 -10.2387012462641 0 -10.2387012462641 44.280806629143626 0 0 0 0 1.6198254360608533 -5.7006848860518886 0 -5.7006848860518886 40.588950829780345 0 0 0 0 -33.486121238135183 42.415990562607476 0 42.415990562607476 8.5452704156050459 0 0 0 0 -3.8187241455800791 -3.7134909279501329 0 -3.7134909279501329 13.470589581572071 0 0 0 0 -238.60045081898829 65.064536733880232 0 65.064536733880232 73.202539810881717 0 0 0 0 -39.819730604468191 55.276689371999964 0 55.276689371999964 27.299072092111601 0 0 0 0 1.0746029192462354 -8.6702620512077146 0 -8.6702620512077146 35.204204201823529 0 0 0 0 -14.198700669742266 -14.692426793684717 0 -14.692426793684717 37.262149218004197 0 0 0 0 -0.095831242123233462 -3.8561246135476708 0 -3.8561246135476708 36.326702234675679 0 0 0 0 231.14617888000481 225.34522471202581 0 225.34522471202581 143.16820697850562 0 0 0 0 -61.440861149732719 -47.461330507081584 0 -47.461330507081584 87.999899567788816 0 0 0 0 -53.453610859123813 -37.051277660968481 0 -37.051277660968481 21.353144315195095 0 0 0 0 0.45058947156078638 -8.0551543698196397 0 -8.0551543698196397 35.015472610399058 0 0 0 0 1.0560772146244493 80.358363699608162 0 80.358363699608162 836.90240172711492 0 0 0 0 -36.312287643368393 -94.623801634999836 0 -94.623801634999836 57.04834486040636 0 0 0 0 182.49380107145197 -28.608957496800031 0 -28.608957496800031 467.73747245129198 0 0 0 0 70.169371403499099 184.86883003777621 0 184.86883003777621 232.98122544950456 0 0 0 0 -330.72088758512547 1056.8571262426121 0 1056.8571262426121 3491.4857391934565 0 0 0 0 86.884089944827622 460.4562297487646 0 460.4562297487646 2143.3841527577315 0 0 0 0 1711.7486613264632 2198.2107715403545 0 2198.2107715403545 1398.9735534794308 0 0 0 0 1591.6337848194137 -2048.2087044114232 0 -2048.2087044114232 2851.7667296469153 0 0 0 0 2.4351374089448563 -0.17698393990777106 0 -0.17698393990777106 16.866004375462978 0 0 0 0 1905.2742691265735 -1995.1531477634235 0 -1995.1531477634235 901.38637502075289 0 0 0 0 254.04766013942663 -4.9861166853079339 0 -4.9861166853079339 -266.9141227468499 0 0 0 0 4.2649607161373755 -5.2854243121853273 0 -5.2854243121853273 1.1171154632256162 0 0 0 0 5.0692936108530375 -113.22491428327339 0 -113.22491428327339 724.14061472471076 0 0 0 0 52.190748205030332 858.63989547679375 0 858.63989547679375 1692.3624708701918 0 0 0 0 0.46601621392427139 1.265005933729384 0 1.265005933729384 13.324669951641795 0 0 0 0 120.9872598007214 -268.6289332590095 0 -268.6289332590095 36.115196949955134 0 0 0 0 -166.49242197496687 93.138509416683519 0 93.138509416683519 218.84070138947573 0 0 0 0 1.383098320948482 -7.3405292907001112 0 -7.3405292907001112 39.879613922502529 0 0 0 0 378.1296919023842 -346.36493837919261 0 -346.36493837919261 -167.09241235315858 0 0 0 0 -800.50847439018128 -301.93306800194478 0 -301.93306800194478 413.02587605174631 0 0 0 0 1.0294705480495958 -7.9938094279122893 0 -7.9938094279122893 28.799556772153892 0 0 0 0 -553.82697809458023 -57.890743151572678 0 -57.890743151572678 192.38947512122104 0 0 0 0 -267.57913720568172 167.21412576960574 0 167.21412576960574 179.40784235020692 0 0 0 0 -37.358194024948489 -7.0246659898912185 0 -7.0246659898912185 29.32503878546413 0 0 0 0 -103.33424203349296 97.581804252346046 0 97.581804252346046 592.86577247775494 0 0 0 0 -0.52339255648873095 -2.5004091739450374 0 -2.5004091739450374 37.627249509981823 0 0 0 0 -14.651687150347016 -20.068979948766355 0 -20.068979948766355 33.755062052921858 0 0 0 0 -141.23719682044921 139.41549448341516 0 139.41549448341516 184.55896331644908 0 0 0 0 -146.54408912997988 51.552474431157407 0 51.552474431157407 -20.025889354335959 0 0 0 0 121.63299566909126 94.507069109833537 0 94.507069109833537 -7.6431510364782298 0 0 0 0 180.14600065144811 219.02240881413672 0 219.02240881413672 180.90577571583708 0 0 0 0 306.13824395274156 -65.661415416547243 0 -65.661415416547243 65.831755523424363 0 0 0 0 33.109338907648407 -28.873115592497925 0 -28.873115592497925 640.9064798481777 0 0 0 0 57.778049278290837 41.629131542802497 0 41.629131542802497 20.156085351627553 0 0 0 0 377.50195640339132 -407.69183367594815 0 -407.69183367594815 482.15959255412963 0 0 0 0 68.719106870583175 -240.53666190814693 0 -240.53666190814693 634.42600771281286 0 0 0 0 1118.1108526432774 -1493.5152587868652 0 -1493.5152587868652 1151.0140793457686 0 0 0 0 -21.747218482643774 -366.40893138026877 0 -366.40893138026877 2096.6414968558747 0 0 0 0 -186.34942345222581 -1173.477193824172 0 -1173.477193824172 2246.5874551317247 0 0 0 0 -151.59796600763579 -1250.84114311132 0 -1250.84114311132 2409.5967031288747 0 0 0 0 811.46806700789944 -2015.2464507785808 0 -2015.2464507785808 3494.5855787708206 0 0 0 0 -31.112138787026566 -2007.2085664440528 0 -2007.2085664440528 3518.2551581757216 0 0 0 0 349.9170310348195 -1351.9748342363473 0 -1351.9748342363473 3464.357613263106 0 0 0 0 -449.43098434481237 -873.15401839149854 0 -873.15401839149854 3501.2314981402865 0 0 0 0 -442.16605823209181 -92.912333927928557 0 -92.912333927928557 3556.4586301623131 0 0 0 0 -35.833038109288964 945.7987452282614 0 945.7987452282614 1683.8469089229438 0 0 0 0 119.45445379160387 -160.93047585570457 0 -160.93047585570457 1054.6781497116172 0 0 0 0 135.4700957892735 175.16673259236995 0 175.16673259236995 983.61805647400888 0 0 0 0 -0.0086808845051957739 -11.864949884821105 0 -11.864949884821105 55.214667375120655 0 0 0 0 472.02939318855357 -180.71673507055675 0 -180.71673507055675 -173.82984384987503 0 0 0 0 -335.81287224273223 -265.74215559809818 0 -265.74215559809818 78.472240659433737 0 0 0 0 -1043.9314153906994 -121.99899879970326 0 -121.99899879970326 53.272484703105874 0 0 0 0 -2.9125052668526941 -4.203244691561963 0 -4.203244691561963 11.382413068176163 0 0 0 0 -1493.9898617407662 -350.38969353465654 0 -350.38969353465654 -20.746642742407857 0 0 0 0 -810.93380324881332 -174.98276119353068 0 -174.98276119353068 79.756142035097582 0 0 0 0 -712.21295471494068 -23.234248837761697 0 -23.234248837761697 64.597722608377808 0 0 0 0 1.7548144444651601 -11.582743968436418 0 -11.582743968436418 45.160623842048608 0 0 0 0 -532.03934230832704 43.824361588096508 0 43.824361588096508 92.93634093052242 0 0 0 0 -16.627112125474241 -2.7419515720685013 0 -2.7419515720685013 58.922053706233783 0 0 0 0 -1.805444556539924 -7.294546874059094 0 -7.294546874059094 12.421433818049145 0 0 0 0 180.33404275596857 -144.24424560982516 0 -144.24424560982516 -255.20149404685799 0 0 0 0 117.05345512339991 73.466574702604703 0 73.466574702604703 -214.58879195430927 0 0 0 0 -27.18006654769372 26.597506730737223 0 26.597506730737223 40.660471260700433 0 0 0 0 -18.960206743334084 88.378856514762447 0 88.378856514762447 -7.9044730195632837 0 0 0 0 -1.7110954556136044 -6.4603462926336022 0 -6.4603462926336022 0.026634534893446471 0 0 0 0 -6.8196891194964451 2.7250590786024986 0 2.7250590786024986 72.458512947925556 0 0 0 0 1.2381532623938583 4.4965909309121344 0 4.4965909309121344 63.832935801146959 0 0 0 0 -4.5067373564491753 -8.9823197311184231 0 -8.9823197311184231 53.989631874013867 0 0 0 0 -5.3352093999859846 -12.84896446482162 0 -12.84896446482162 60.043485773217071 0 0 0 0 -3.9821342275875367 -14.675911386646476 0 -14.675911386646476 40.735363470044831 0 0 0 0 -24.392534771140504 -9.2970994550778414 0 -9.2970994550778414 52.298520768104936 0 0 0 0 1.1671720615792935 -2.9322432006556483 0 -2.9322432006556483 46.724025585375784 0 0 0 0 28.975598107264432 -69.262509981355834 0 -69.262509981355834 -331.31255124419113 0 0 0 0 0.84181813264577943 -7.2459157109700385 0 -7.2459157109700385 45.146421874613566 0 0 0 0 -407.50488941660569 45.414643111311307 0 45.414643111311307 562.83521055948222 0 0 0 0 -455.35582445480384 55.515875599368883 0 55.515875599368883 233.94322479976108 0 0 0 0 -460.95739298186936 11.956560921498749 0 11.956560921498749 226.73127271514386 0 0 0 0 -0.17869201115773803 0.067358597933205644 0 0.067358597933205644 2.2079442584000901 0 0 0 0 -655.77611816283627 136.67703193720808 0 136.67703193720808 189.70720380509738 0 0 0 0 -472.50199963789419 56.05839306213602 0 56.05839306213602 300.43168884446641 0 0 0 0 -321.80275286320625 140.48733173479559 0 140.48733173479559 -228.73008910608769 0 0 0 0 -447.83338748720917 104.04887167863126 0 104.04887167863126 265.24472003588744 0 0 0 0 -556.60355836404028 -240.46734821864311 0 -240.46734821864311 -112.60009262341191 0 0 0 0 -25.754781722545317 85.956432679260615 0 85.956432679260615 213.07417108263326 0 0 0 0 128.22700773796973 283.24020987986273 0 283.24020987986273 76.513148036225175 0 0 0 0 -1.8982678900841887 0.90216667315883114 0 0.90216667315883114 0.99604411761185929 0 0 0 0 -332.96982540468252 128.08975208580523 0 128.08975208580523 81.641000112977054 0 0 0 0 -300.7921612353997 60.779485489692888 0 60.779485489692888 -89.233058965022792 0 0 0 0 158.70623411687961 -19.197888817172498 0 -19.197888817172498 61.298596628708765 0 0 0 0 -409.39292187843057 -15.046396070376431 0 -15.046396070376431 146.27841309037467 0 0 0 0 -1.74442387335103 0.97605721002418022 0 0.97605721002418022 0.16508680225973649 0 0 0 0 -512.40243781385175 -52.09168575725198 0 -52.09168575725198 191.70787728604046 0 0 0 0 46.289722599862102 349.17842978741828 0 349.17842978741828 157.89955972107418 0 0 0 0 180.1089550755481 132.15576483246696 0 132.15576483246696 69.815880621419637 0 0 0 0 78.953743732319538 50.393368406268564 0 50.393368406268564 196.76950144670809 0 0 0 0 -17.040701340898522 129.16526131788123 0 129.16526131788123 131.78529797319061 0 0 0 0 165.38982259483589 38.139794279595662 0 38.139794279595662 38.581871939582925 0 0 0 0 -23.481024224103351 95.373690216318209 0 95.373690216318209 167.1959467757697 0 0 0 0 134.86865217323168 53.920127379500627 0 53.920127379500627 133.08566001010877 0 0 0 0 27.998786046237342 142.4462370980782 0 142.4462370980782 94.062910753767937 0 0 0 0 -33.095030832621774 105.97350799370906 0 105.97350799370906 164.89280629841232 0 0 0 0 170.15071173613183 -128.6148181600438 0 -128.6148181600438 85.16103028068585 0 0 0 0 -0.02791494663653582 -0.027688920424765229 0 -0.027688920424765229 0.78524966109156935 0 0 0 0 179.5144801857636 85.191159427216917 0 85.191159427216917 230.55002921204868 0 0 0 0 214.3087133264228 -180.83135039503759 0 -180.83135039503759 979.37056751082127 0 0 0 0 149.98836207034299 10.127882936136302 0 10.127882936136302 97.156762342754519 0 0 0 0 46.86436626644263 153.56159288287017 0 153.56159288287017 164.48107162831002 0 0 0 0 115.51403577792576 144.2600572758065 0 144.2600572758065 -11.591609635870554 0 0 0 0 -681.80040485840561 -60.023691336216871 0 -60.023691336216871 55.011497407511342 0 0 0 0 75.538421701551329 148.28757012401729 0 148.28757012401729 -21.949815963162109 0 0 0 0 -315.87208649825288 85.23034876017482 0 85.23034876017482 52.543932106069406 0 0 0 0 -344.97703856424073 188.34225650117151 0 188.34225650117151 -32.313865893927868 0 0 0 0 -722.93296135146556 184.04891134506761 0 184.04891134506761 -18.979726618985296 0 0 0 0 -1021.7897715353031 -250.84458205274677 0 -250.84458205274677 426.39385811977263 0 0 0 0 -338.261729739972 -70.521162440010812 0 -70.521162440010812 -247.3401905057799 0 0 0 0 -344.95987132241589 -71.042558263645333 0 -71.042558263645333 301.10428617906291 0 0 0 0 -486.42229839907492 221.80642852691926 0 221.80642852691926 546.0984965870739 0 0 0 0 260.14533410787635 -95.614056818965764 0 -95.614056818965764 76.940802682594949 0 0 0 0 232.75272384429951 -490.34378078158181 0 -490.34378078158181 905.59717582813755 0 0 0 0 65.706083539967665 -1259.0091511306418 0 -1259.0091511306418 1856.0553946773653 0 0 0 0 2.0105175463985843 -5.8740919849926385 0 -5.8740919849926385 24.240490900090634 0 0 0 0 923.71895307418504 -1365.3961801850091 0 -1365.3961801850091 383.47399816650795 0 0 0 0 -15.713404335562629 -1305.4977787141106 0 -1305.4977787141106 3445.7563770310153 0 0 0 0 304.39797678386981 -291.64267554175603 0 -291.64267554175603 3509.988576035279 0 0 0 0 1103.3510759311296 -843.54699370477465 0 -843.54699370477465 3498.8647142809423 0 0 0 0 -572.38241463033114 -635.76779910155983 0 -635.76779910155983 3499.6023859921261 0 0 0 0 -207.21473150638252 -849.27777477527525 0 -849.27777477527525 3500.3688934534366 0 0 0 0 -483.39831211459557 -543.77543697259171 0 -543.77543697259171 3163.7568450601029 0 0 0 0 -372.19257878253859 -917.09059031637662 0 -917.09059031637662 3251.4187713547208 0 0 0 0 -306.2997137736034 -790.33409800382105 0 -790.33409800382105 2482.7268321831361 0 0 0 0 -189.73978972812313 -269.85614995117794 0 -269.85614995117794 2129.6454951093074 0 0 0 0 101.31049841228599 -427.92044225702193 0 -427.92044225702193 1060.9298493198366 0 0 0 0 187.56361721531127 -709.65761335658863 0 -709.65761335658863 1574.2469514896366 0 0 0 0 43.594318051596474 -26.698371715414396 0 -26.698371715414396 1131.4673769150832 0 0 0 0 72.224787548534096 131.09259370814107 0 131.09259370814107 1809.2092706350904 0 0 0 0 -169.46548918672485 -393.23876786168967 0 -393.23876786168967 2046.3226619905836 0 0 0 0 -279.13944343449884 -24.536427521619771 0 -24.536427521619771 2669.8242360111126 0 0 0 0 -546.05800042556564 -393.71853627625387 0 -393.71853627625387 3129.6713365224314 0 0 0 0 -519.8051470429981 -441.62607991099867 0 -441.62607991099867 3058.8990089806448 0 0 0 0 -425.88822651289559 -218.37833811987002 0 -218.37833811987002 3499.916883451202 0 0 0 0 -58.679388596198443 1.507052341272356 0 1.507052341272356 3499.5031020157157 0 0 0 0 -157.52432460032591 -240.7198365700242 0 -240.7198365700242 3060.9266629995036 0 0 0 0 -88.308128635208092 -48.051141919706424 0 -48.051141919706424 3787.5868989559021 0 0 0 0 -286.29198891303093 -100.33692377999614 0 -100.33692377999614 3152.5160798530724 0 0 0 0 -10.481871642345657 269.54465304057703 0 269.54465304057703 2225.5875108545188 0 0 0 0 37.187578104484544 237.79586511843809 0 237.79586511843809 2194.8040669594775 0 0 0 0 468.6482913668616 605.65969393577279 0 605.65969393577279 985.32043009792687 0 0 0 0 429.01908937909349 91.279307433902432 0 91.279307433902432 242.40694144941881 0 0 0 0 251.08591150650366 50.902791015172625 0 50.902791015172625 335.3640117294126 0 0 0 0 289.67013249886492 39.758307351152325 0 39.758307351152325 116.3855594843335 0 0 0 0 378.85945645853553 -8.3744062033874798 0 -8.3744062033874798 362.40903450565384 0 0 0 0 400.14665437772294 356.46585885377135 0 356.46585885377135 969.70267143773526 0 0 0 0 127.81172354745718 66.662434067886352 0 66.662434067886352 1171.7257346931874 0 0 0 0 246.0136101429577 -137.51767334408032 0 -137.51767334408032 926.72295238624065 0 0 0 0 188.65150891546753 -203.18420081580189 0 -203.18420081580189 322.02537643363758 0 0 0 0 139.68685780826559 -12.457998054247582 0 -12.457998054247582 963.56402887936929 0 0 0 0 407.12979647839893 114.29064917249161 0 114.29064917249161 322.60099071580044 0 0 0 0 318.05458124175004 -21.50020506636065 0 -21.50020506636065 178.83395525824744 0 0 0 0 142.3130961596342 92.784801277343831 0 92.784801277343831 335.06064491010329 0 0 0 0 341.24220314694844 75.698309269955644 0 75.698309269955644 103.13101518058102 0 0 0 0 295.83980353668437 -0.33632581899655634 0 -0.33632581899655634 -3.3654556484980276 0 0 0 0 176.52433688466763 66.637634233386052 0 66.637634233386052 108.91799312936746 0 0 0 0 324.5852793244722 53.013776595391391 0 53.013776595391391 83.726874324649543 0 0 0 0 355.86122163165118 -25.267488874196715 0 -25.267488874196715 12.393385804680292 0 0 0 0 321.13518435144567 -49.663655317017401 0 -49.663655317017401 8.830573499079037 0 0 0 0 217.57070777378533 -64.094409821773297 0 -64.094409821773297 25.71805285087612 0 0 0 0 217.09393603900958 -48.979572587588336 0 -48.979572587588336 37.864074671117123 0 0 0 0 87.501765566793438 -97.422103505285122 0 -97.422103505285122 60.476571369275916 0 0 0 0 212.3192095301402 -106.04311631283053 0 -106.04311631283053 85.135978138467181 0 0 0 0 191.22880751100251 -70.65190239338699 0 -70.65190239338699 30.090648241486633 0 0 0 0 167.80284575481846 -133.25797453577252 0 -133.25797453577252 126.9848017272202 0 0 0 0 89.691316402753955 -50.3250320996558 0 -50.3250320996558 73.365666903962847 0 0 0 0 306.7273984860077 -21.588461947281758 0 -21.588461947281758 65.557521765949787 0 0 0 0 304.80738269317084 -34.093325657806417 0 -34.093325657806417 111.21785828348948 0 0 0 0 375.58461450255447 -97.405427494901232 0 -97.405427494901232 145.57260876732471 0 0 0 0 430.60148300382588 64.128198200163752 0 64.128198200163752 116.58453763667785 0 0 0 0 265.0590579337387 7.5460584003740223 0 7.5460584003740223 39.798640305409208 0 0 0 0 269.900430356058 40.011403384400182 0 40.011403384400182 36.887026287746266 0 0 0 0 266.72843694096923 8.0599220439180499 0 8.0599220439180499 27.243917780149786 0 0 0 0 205.70340842816586 20.367956426067394 0 20.367956426067394 81.507943506156153 0 0 0 0 -1.7107169025420295 -18.338441100828859 0 -18.338441100828859 86.684978498668045 0 0 0 0 200.13931461145762 6.5985400851677696 0 6.5985400851677696 63.177209184304957 0 0 0 0 209.01317123979021 -21.21618784994098 0 -21.21618784994098 25.306908946979092 0 0 0 0 69.068530536609046 -15.538367026339984 0 -15.538367026339984 66.247393491808907 0 0 0 0 207.34040462845905 9.5173174264054978 0 9.5173174264054978 58.460795662424061 0 0 0 0 283.90222721652026 -35.593761945779988 0 -35.593761945779988 7.7117222091037547 0 0 0 0 279.72694925074364 -8.6306572735657028 0 -8.6306572735657028 11.225412535000942 0 0 0 0 265.04743777691471 40.175616052780242 0 40.175616052780242 -16.665921294677901 0 0 0 0 288.3138081386179 -12.094335280096857 0 -12.094335280096857 -3.7002030959265539 0 0 0 0 254.15850358376525 49.074485954304691 0 49.074485954304691 -55.891543301404454 0 0 0 0 172.94719581118511 6.5625897859531506 0 6.5625897859531506 -3.615462160705647 0 0 0 0 256.98185664666386 27.847290624250491 0 27.847290624250491 11.836330124395317 0 0 0 0 275.74423866503616 11.566276020887017 0 11.566276020887017 -17.43314784199174 0 0 0 0 259.78396924744641 35.98383625990391 0 35.98383625990391 16.152965767774731 0 0 0 0 262.22832127596871 25.174330530971929 0 25.174330530971929 33.438990585593274 0 0 0 0 245.50934659787043 70.776070652107592 0 70.776070652107592 1.5232531809451757 0 0 0 0 256.52138395379404 47.50817539990021 0 47.50817539990021 48.979836747341324 0 0 0 0 266.12127341065127 62.38171566120036 0 62.38171566120036 43.618601237758412 0 0 0 0 214.96348063138552 75.557782529427641 0 75.557782529427641 15.810448928525147 0 0 0 0 221.60835265203937 62.333958191495185 0 62.333958191495185 41.677599554270273 0 0 0 0 224.27879287774829 107.87239639645122 0 107.87239639645122 84.136294908887066 0 0 0 0 241.55778795672597 83.928517664455285 0 83.928517664455285 32.465967398065914 0 0 0 0 250.95953921471744 84.232091659396247 0 84.232091659396247 111.18154223980673 0 0 0 0 247.33750694848413 99.410174707474653 0 99.410174707474653 59.572202664353426 0 0 0 0 272.52469640232448 74.924420426861616 0 74.924420426861616 115.11103791028654 0 0 0 0 319.11520870163906 106.65809671591796 0 106.65809671591796 97.34002744708414 0 0 0 0 291.92337644809186 98.922232119191904 0 98.922232119191904 99.787663308903575 0 0 0 0 298.48531311884244 70.244442503651953 0 70.244442503651953 179.96495716364689 0 0 0 0 274.52269385230693 86.441072513276595 0 86.441072513276595 114.782917090095 0 0 0 0 278.52080707057758 90.382636489288416 0 90.382636489288416 69.281204859609716 0 0 0 0 273.13035693076972 79.435586106912524 0 79.435586106912524 91.454728365133633 0 0 0 0 265.92799979415372 51.043674261003616 0 51.043674261003616 72.158770222533349 0 0 0 0 301.22386026523259 74.91180695436924 0 74.91180695436924 79.578170571840019 0 0 0 0 283.75800279631119 113.40803047383088 0 113.40803047383088 116.78893718622567 0 0 0 0 248.70953278856544 33.223999698733678 0 33.223999698733678 65.789468993869377 0 0 0 0 253.05823254418908 72.051031759784109 0 72.051031759784109 131.35921589640202 0 0 0 0 0.54978617166849619 -2.0886444219805895 0 -2.0886444219805895 4.5251353333029698 0 0 0 0 -225.43092789044579 45.310220791838219 0 45.310220791838219 153.20092853493406 0 0 0 0 -2.9323277853395759 -16.852172989707739 0 -16.852172989707739 91.48185441002974 0 0 0 0 -282.95913890611257 -285.25173598733227 0 -285.25173598733227 1.9532892104471102 0 0 0 0 -253.27309861801908 274.39189957651251 0 274.39189957651251 428.79662347862177 0 0 0 0 -205.45184984132811 -157.65638470406157 0 -157.65638470406157 -173.40599623407616 0 0 0 0 -370.97919471472505 -199.29080418976605 0 -199.29080418976605 -50.694127851638768 0 0 0 0 -274.04291650986772 -73.163475595654745 0 -73.163475595654745 -145.71495585537377 0 0 0 0 1.235974859380732 -5.0551052748276035 0 -5.0551052748276035 11.391366643510878 0 0 0 0 -272.28406003333657 -108.44091723454039 0 -108.44091723454039 -22.26588338779402 0 0 0 0 -380.67505724501683 -99.128613040810706 0 -99.128613040810706 -38.994975446214085 0 0 0 0 -258.9139152088415 -135.95822593407502 0 -135.95822593407502 -61.794201812845131 0 0 0 0 -3.1214956399856915 -16.722304018919722 0 -16.722304018919722 93.027881087766531 0 0 0 0 -74.55926025585228 -230.26433340606491 0 -230.26433340606491 51.601459585630437 0 0 0 0 335.67488308310067 156.18994392055902 0 156.18994392055902 130.22642900134088 0 0 0 0 269.68334918353094 144.97285765238485 0 144.97285765238485 183.56645253516081 0 0 0 0 -195.39984441854202 343.75464144317039 0 343.75464144317039 -70.53504684001382 0 0 0 0 -79.183396252181581 -573.36052308789476 0 -573.36052308789476 96.732327695184267 0 0 0 0 -291.10168816538533 -91.217133448091772 0 -91.217133448091772 -20.492797240898653 0 0 0 0 -240.93069704674548 -129.77226377678016 0 -129.77226377678016 -52.543088050922961 0 0 0 0 -195.28962659379505 -71.812022092872212 0 -71.812022092872212 -41.860509428805017 0 0 0 0 -294.89741242327477 -120.0724034315208 0 -120.0724034315208 -31.962332608727593 0 0 0 0 -268.10480928061986 -189.93419030529913 0 -189.93419030529913 -120.22146361583145 0 0 0 0 -242.6604391572115 -105.92152887181874 0 -105.92152887181874 -120.27330344551112 0 0 0 0 -251.86830135486795 -121.67541226373214 0 -121.67541226373214 -23.877841759487637 0 0 0 0 -219.88501326867743 -74.56898367793292 0 -74.56898367793292 -31.62857517581142 0 0 0 0 -174.2315676875649 -101.28373666636617 0 -101.28373666636617 -17.412204335312708 0 0 0 0 -224.51812469141771 -82.167685510688898 0 -82.167685510688898 46.822097598313121 0 0 0 0 -190.75805660336647 -58.325705334766099 0 -58.325705334766099 43.736061157862423 0 0 0 0 -174.64159123998661 -95.123321887808743 0 -95.123321887808743 109.47448889104271 0 0 0 0 -232.90122836379152 -82.060631879425273 0 -82.060631879425273 102.51777091543772 0 0 0 0 -216.51651966244142 -78.960404980825842 0 -78.960404980825842 -22.355624713737598 0 0 0 0 -266.53978538613831 -121.6551082813985 0 -121.6551082813985 17.183626393758459 0 0 0 0 1.6049074508949299 -5.4966409876200437 0 -5.4966409876200437 11.077268151380338 0 0 0 0 -293.38380354146858 -177.71999977598853 0 -177.71999977598853 -17.67975925050996 0 0 0 0 -168.30536272678734 -153.9371212259739 0 -153.9371212259739 -98.833400984680338 0 0 0 0 -206.14900199840855 -78.438764504375285 0 -78.438764504375285 16.263660771425862 0 0 0 0 -237.202054720371 -91.648237008605065 0 -91.648237008605065 41.356154876149958 0 0 0 0 -183.90714331986919 -24.647359605281963 0 -24.647359605281963 15.001159919444035 0 0 0 0 -186.70572326871931 32.498477917230048 0 32.498477917230048 168.60738845535525 0 0 0 0 -102.39270396052768 15.291013892430783 0 15.291013892430783 -64.011559033140657 0 0 0 0 -189.55649726026138 22.880884610654903 0 22.880884610654903 257.05823364893877 0 0 0 0 -223.17185193507055 -17.372867544156179 0 -17.372867544156179 223.72254547053308 0 0 0 0 -222.758300095186 12.193511914342139 0 12.193511914342139 202.96462499309564 0 0 0 0 -253.37520646354631 -13.060767884462621 0 -13.060767884462621 265.32375883389614 0 0 0 0 -248.2551791121607 -25.977267002221197 0 -25.977267002221197 265.64808648809412 0 0 0 0 -225.86812718271483 -61.587310895531118 0 -61.587310895531118 209.36406197130418 0 0 0 0 -225.56101087972689 -37.081892222307943 0 -37.081892222307943 189.41432242161318 0 0 0 0 -214.92936222077228 -37.684109889876709 0 -37.684109889876709 103.58861269689919 0 0 0 0 -227.88083545081855 -36.528927454204677 0 -36.528927454204677 167.75459744498221 0 0 0 0 35.985714769074548 54.634454348910367 0 54.634454348910367 182.40101772856724 0 0 0 0 81.350494559711024 46.917656870569772 0 46.917656870569772 165.66783760291582 0 0 0 0 53.627944148101506 94.554249398352113 0 94.554249398352113 205.06056099729904 0 0 0 0 86.549355445467199 102.42068623098021 0 102.42068623098021 194.07914667364093 0 0 0 0 35.473064897326253 75.592743749410147 0 75.592743749410147 187.04075008968357 0 0 0 0 -85.431494874493026 101.08270927887042 0 101.08270927887042 293.38374424018548 0 0 0 0 -406.52278336412496 -352.62917738750002 0 -352.62917738750002 86.612733039080922 0 0 0 0 -1.2709785239409226 -24.873489772553707 0 -24.873489772553707 115.19345987533194 0 0 0 0 1.027814458924166 -2.5936319894452282 0 -2.5936319894452282 4.1103440837026426 0 0 0 0 232.22020570058135 97.825201239582384 0 97.825201239582384 146.84488762071123 0 0 0 0 236.5212893516275 135.56562070432483 0 135.56562070432483 160.54232199231046 0 0 0 0 -2.2856918095977172 -19.916494965869418 0 -19.916494965869418 100.91007063155797 0 0 0 0 -276.15054606517401 54.818822399640339 0 54.818822399640339 -288.42896837220178 0 0 0 0 161.10241414002303 58.277901501329325 0 58.277901501329325 161.07877545023803 0 0 0 0 155.74516436436443 141.78123530430821 0 141.78123530430821 177.64290251792409 0 0 0 0 115.98341645480809 112.35417729446635 0 112.35417729446635 196.09844151140533 0 0 0 0 102.09636631034164 117.06203006017313 0 117.06203006017313 194.91683965962147 0 0 0 0 59.232512910791286 131.02321020494492 0 131.02321020494492 206.07146352586278 0 0 0 0 111.47104390700724 137.96776583009523 0 137.96776583009523 205.38858424976934 0 0 0 0 125.21918748266373 190.99972749964763 0 190.99972749964763 133.58390820044588 0 0 0 0 206.57964355802596 124.40158366223477 0 124.40158366223477 197.666251611794 0 0 0 0 202.44671211077548 140.97922702931828 0 140.97922702931828 169.71817204104445 0 0 0 0 207.27060890263397 146.91495034589389 0 146.91495034589389 160.72619883257721 0 0 0 0 186.50143388396646 126.09936240306706 0 126.09936240306706 182.6241794650341 0 0 0 0 324.5382304884331 94.182279509064756 0 94.182279509064756 134.00900355220074 0 0 0 0 258.90267654543641 93.765441997515154 0 93.765441997515154 196.37551685542985 0 0 0 0 231.45262553228827 114.70225082450634 0 114.70225082450634 139.53493375670223 0 0 0 0 288.74536709775498 127.78227611815237 0 127.78227611815237 122.21295872803603 0 0 0 0 283.62057839183581 134.59270527856279 0 134.59270527856279 127.28829711979779 0 0 0 0 226.80766929987928 135.34111649943497 0 135.34111649943497 68.99564113143424 0 0 0 0 49.604862763937376 209.57872362492344 0 209.57872362492344 35.438277369727075 0 0 0 0 -31.738053544098079 151.64273843800038 0 151.64273843800038 239.87912973951461 0 0 0 0 68.884838424603444 152.98793927197221 0 152.98793927197221 198.37528002548788 0 0 0 0 50.826481204390227 152.42569438109058 0 152.42569438109058 218.4178529026467 0 0 0 0 79.611121039902855 157.41411682248872 0 157.41411682248872 198.69696072445913 0 0 0 0 45.898662719522754 128.08323094071966 0 128.08323094071966 236.64011808920623 0 0 0 0 98.217642617001957 111.59991058900414 0 111.59991058900414 222.091768900842 0 0 0 0 113.25586871056626 129.21777445717998 0 129.21777445717998 228.08710785569565 0 0 0 0 52.735020106213483 141.89881316146057 0 141.89881316146057 251.75314795107806 0 0 0 0 23.559640492167318 109.20798002326774 0 109.20798002326774 228.0447725261547 0 0 0 0 61.99486122840306 139.58960185918477 0 139.58960185918477 232.63225727033569 0 0 0 0 42.17529050586387 115.09665745472012 0 115.09665745472012 216.53055276422674 0 0 0 0 356.31816304774247 -57.385979089609464 0 -57.385979089609464 269.66904435101424 0 0 0 0 45.090132096795969 0.639159034279146 0 0.639159034279146 259.18678177898983 0 0 0 0 105.54187515210322 120.86137630429585 0 120.86137630429585 238.68604936832708 0 0 0 0 194.90794613306116 103.39982248225715 0 103.39982248225715 232.21652733329029 0 0 0 0 154.7288639714684 114.18602650103276 0 114.18602650103276 219.18818184763222 0 0 0 0 98.758609924207121 112.41933067964419 0 112.41933067964419 221.34940285104676 0 0 0 0 155.85238684162013 40.412631750402426 0 40.412631750402426 254.35889213870541 0 0 0 0 47.380951184003607 82.636508743627928 0 82.636508743627928 243.97875811519316 0 0 0 0 116.67675529373946 112.76819014607463 0 112.76819014607463 194.27862835799169 0 0 0 0 1.1069912290354582 1.1141910607429821 0 1.1141910607429821 0.23150827682036379 0 0 0 0 11.014865546869032 -30.992950772269978 0 -30.992950772269978 132.63771985275162 0 0 0 0 66.115989107231712 85.62694491518414 0 85.62694491518414 33.182627535650681 0 0 0 0 52.183642811711252 -3.7558816191121878 0 -3.7558816191121878 0.54779080794833135 0 0 0 0 0.068629247850322095 1.6418810827656927 0 1.6418810827656927 2.2865583241950276 0 0 0 0 3.2335639644597904 -9.0893540483957622 0 -9.0893540483957622 0.63411208731849911 0 0 0 0 -25.477715240677753 9.4028447579366912 0 9.4028447579366912 5.3884110730141401 0 0 0 0 -4.8410685301352991 -1.1298949929618232 0 -1.1298949929618232 4.091577893370328 0 0 0 0 -59.000695999389109 126.50877444586513 0 126.50877444586513 -163.07240605109837 0 0 0 0 -3.9291357977513144 -0.0062336015689652413 0 -0.0062336015689652413 4.6164401481073583 0 0 0 0 -3.0173535275769439 1.7991161477405342 0 1.7991161477405342 3.2951147165942984 0 0 0 0 -3.1780066854139477 -1.8811155659677752 0 -1.8811155659677752 18.811025213668472 0 0 0 0 -6.6200304898760178 3.7229532133832066 0 3.7229532133832066 9.9878597600221042 0 0 0 0 -2.1064116990201089 -0.7300344223777131 0 -0.7300344223777131 -0.065981171904979874 0 0 0 0 -201.82452689772811 259.75141954566789 0 259.75141954566789 -339.53649699455491 0 0 0 0 -268.52542975471192 276.6448023697958 0 276.6448023697958 -275.33461499217083 0 0 0 0 -76.348581177006849 212.30615183076588 0 212.30615183076588 -426.66738287462795 0 0 0 0 -0.87242248698033542 -1.0187056143792574 0 -1.0187056143792574 1.0075306705423799 0 0 0 0 -181.18555756012199 40.408879663773405 0 40.408879663773405 26.246222045928334 0 0 0 0 -35.32315868201195 -26.610089143364348 0 -26.610089143364348 -7.1105694652651437 0 0 0 0 -92.118788984316211 207.64335733055486 0 207.64335733055486 -148.74693644585204 0 0 0 0 261.45551588935336 86.21260387737675 0 86.21260387737675 4.4243177264288533 0 0 0 0 -116.94037456215008 196.84350049967179 0 196.84350049967179 34.519234199099628 0 0 0 0 0.83405448076382238 1.0292322603378139 0 1.0292322603378139 -1.165773179926191 0 0 0 0 194.32895798362705 3.0678813950571566 0 3.0678813950571566 -48.491771280198009 0 0 0 0 -263.94540887326355 -28.618655421341828 0 -28.618655421341828 5.6379622766871762 0 0 0 0 0.88955039779002143 1.0868868175000728 0 1.0868868175000728 -1.1512999140915099 0 0 0 0 47.522911659705869 -60.155267606434791 0 -60.155267606434791 -142.48231307469177 0 0 0 0 -86.499989046127325 121.11267729170504 0 121.11267729170504 -59.991796883317875 0 0 0 0 -29.440168061531494 61.059209705772446 0 61.059209705772446 4.8782788795979286 0 0 0 0 168.8105318119313 53.238950196297083 0 53.238950196297083 -67.18860487263737 0 0 0 0 -30.694879616964045 -27.160039107217017 0 -27.160039107217017 17.956220687017776 0 0 0 0 -146.49290979077807 98.758313643164001 0 98.758313643164001 140.0623440725758 0 0 0 0 0.27460974194247939 0.4299552508932436 0 0.4299552508932436 -0.27422826982183324 0 0 0 0 123.61655543364861 27.18760387610746 0 27.18760387610746 43.413651034075883 0 0 0 0 -41.156620771256314 -4.9733718313000281 0 -4.9733718313000281 67.855253087640449 0 0 0 0 -8.0463603229234195 153.6063587361823 0 153.6063587361823 -50.567947334879136 0 0 0 0 -62.468092802486353 125.49958118095674 0 125.49958118095674 75.829832208353764 0 0 0 0 -251.60114758083131 318.30624535874085 0 318.30624535874085 185.29956716642482 0 0 0 0 -164.69585141997618 191.80369620247802 0 191.80369620247802 -23.105777398945065 0 0 0 0 3.571066815727022 206.35540632467018 0 206.35540632467018 -31.101440402300796 0 0 0 0 -186.05990109631594 212.49703665535526 0 212.49703665535526 -90.351446520595346 0 0 0 0 -94.129137207010558 215.82863655727851 0 215.82863655727851 -109.38526024426392 0 0 0 0 0.11785262166369814 3.4555361120233457 0 3.4555361120233457 1.1333258489669049 0 0 0 0 -152.63009446486581 193.81908021674099 0 193.81908021674099 -110.16854531884019 0 0 0 0 -157.01534669498326 154.53761438594302 0 154.53761438594302 -168.26636625833635 0 0 0 0 -214.55455970084097 209.7802936179869 0 209.7802936179869 -139.3285956907639 0 0 0 0 -99.56523347101006 64.885398694175819 0 64.885398694175819 -170.85231386736268 0 0 0 0 -109.81803686817938 109.22267676020965 0 109.22267676020965 -62.816129434868344 0 0 0 0 -10.529962747778768 6.9094185532630945 0 6.9094185532630945 -4.2896442437668156 0 0 0 0 -10.02482922523518 0.1377190109451476 0 0.1377190109451476 21.223836635002954 0 0 0 0 -7.8783706988181565 -1.2079529972118337 0 -1.2079529972118337 25.097241532970088 0 0 0 0 -6.8667928176951136 3.8105246855993755 0 3.8105246855993755 16.447644314204808 0 0 0 0 -6.8310316744135715 2.254412695819795 0 2.254412695819795 8.771120952565397 0 0 0 0 -9.5026830386241272 12.927406129390874 0 12.927406129390874 5.4873432224849239 0 0 0 0 -443.42931921713944 167.18118100866559 0 167.18118100866559 -242.44348448060919 0 0 0 0 -3.1103214194242486 3.3419333172386221 0 3.3419333172386221 7.3949777944303605 0 0 0 0 -8.8828188211380166 -56.945345922445995 0 -56.945345922445995 -199.70244362892117 0 0 0 0 0.13042004809917851 0.7905703130499262 0 0.7905703130499262 0.93648671298677755 0 0 0 0 -41.503974368546437 13.394210262475099 0 13.394210262475099 18.204856899123115 0 0 0 0 -467.97282497445548 199.73013215234096 0 199.73013215234096 120.34396280274086 0 0 0 0 -112.45214718091017 30.20637002265903 0 30.20637002265903 169.3735945430235 0 0 0 0 -2.2239408979277981 -4.1443268887205029 0 -4.1443268887205029 39.817143269593686 0 0 0 0 -17.311468796376211 -12.737183744645336 0 -12.737183744645336 41.889201565900294 0 0 0 0 4.2478836855611917 -32.151032093399408 0 -32.151032093399408 52.861862792728061 0 0 0 0 -10.217688357453193 1.9491371239705586 0 1.9491371239705586 1.1208798935905122 0 0 0 0 22.70292860944619 -9.6670246478461195 0 -9.6670246478461195 18.697070334208547 0 0 0 0 5.2282397158559206 -10.69718676532284 0 -10.69718676532284 24.59322062258434 0 0 0 0 -3.7151423315926877 -14.439065083817695 0 -14.439065083817695 43.55431853124901 0 0 0 0 5.0594581341852063 -10.143846303311875 0 -10.143846303311875 27.387983108666958 0 0 0 0 -11.803390060070454 -0.46629331646391847 0 -0.46629331646391847 10.132466630650967 0 0 0 0 -1.802927083691884 0.70281428454836714 0 0.70281428454836714 14.319467300796532 0 0 0 0 4.706795408713333 -1.955106226465432 0 -1.955106226465432 7.4911285498092184 0 0 0 0 5.443419021254158 -8.2762666109410929 0 -8.2762666109410929 14.774161167617422 0 0 0 0 -0.84155543965789548 -4.1979272979297093 0 -4.1979272979297093 26.743079775274964 0 0 0 0 5.333871902664395 -1.2137234858539045 0 -1.2137234858539045 14.751127193099819 0 0 0 0 -3.6030351677381987 -4.4744416781250038 0 -4.4744416781250038 13.570299881452229 0 0 0 0 -421.80373527841812 159.10178053256095 0 159.10178053256095 149.99823792222014 0 0 0 0 -561.79554830465668 -370.96064348068012 0 -370.96064348068012 1226.2518141802429 0 0 0 0 2.8507534194736159 -0.44801683731651565 0 -0.44801683731651565 1.6601052518319008 0 0 0 0 -42.626253489856026 45.059259933943395 0 45.059259933943395 11.557180387382687 0 0 0 0 4.8485244400071679 -6.7140648772074201 0 -6.7140648772074201 5.7343265399686061 0 0 0 0 24.570882762192923 -19.376470858842367 0 -19.376470858842367 71.482105808230699 0 0 0 0 16.813425278850445 28.172835850149568 0 28.172835850149568 39.155664944955788 0 0 0 0 -47.196559519186849 0.24664467427646741 0 0.24664467427646741 78.545441384252626 0 0 0 0 -2.3398457980792058 -5.0371298093594632 0 -5.0371298093594632 35.807138391571954 0 0 0 0 7.4671517449021394 20.175950001299498 0 20.175950001299498 18.848372801090591 0 0 0 0 0.44968687739608892 0.22566788759031198 0 0.22566788759031198 0.23818078098659612 0 0 0 0 -10.759030845073994 -1.1997736119119509 0 -1.1997736119119509 21.071344569980283 0 0 0 0 -2.9146097816165266 -2.1285787554022946 0 -2.1285787554022946 21.574812589799507 0 0 0 0 -8.3438207131271156 -3.5710435094079003 0 -3.5710435094079003 28.866779308766127 0 0 0 0 -8.2257733942004059 6.0559415616241665 0 6.0559415616241665 12.192404420463134 0 0 0 0 -8.3664872867252598 2.6042687469162047 0 2.6042687469162047 21.520294762660342 0 0 0 0 -8.4798198770017734 3.873578062892193 0 3.873578062892193 19.300601376395207 0 0 0 0 -3.6274292994359749 1.6738534065176474 0 1.6738534065176474 16.656201006212171 0 0 0 0 -5.4268972022224498 -3.9887763178434028 0 -3.9887763178434028 10.729620777319091 0 0 0 0 -40.811164794045908 -36.592956795528153 0 -36.592956795528153 16.771725884565967 0 0 0 0 5.6248274327849686 -14.961814696143847 0 -14.961814696143847 14.883226260562878 0 0 0 0 30.369242824325056 -50.524172891379749 0 -50.524172891379749 13.298034478495538 0 0 0 0 0.76855916525269796 -4.0148836931858405 0 -4.0148836931858405 23.440271184965241 0 0 0 0 24.997907115546695 14.963262875913642 0 14.963262875913642 29.553813475053175 0 0 0 0 25.236515640657672 -45.490965531054826 0 -45.490965531054826 29.344265496416483 0 0 0 0 102.74468022818382 -109.64543564234918 0 -109.64543564234918 28.379604749192367 0 0 0 0 31.517647648507932 -86.318589420519857 0 -86.318589420519857 103.44910582594457 0 0 0 0 -93.428593985954649 -39.981650365582027 0 -39.981650365582027 83.038053625117755 0 0 0 0 85.052835690021084 -8.2325567005518678 0 -8.2325567005518678 44.566385928279487 0 0 0 0 -82.653620649389723 154.79157924753235 0 154.79157924753235 374.28738826065091 0 0 0 0 0.45609631563288122 -1.5864746261940468 0 -1.5864746261940468 8.4591152593854986 0 0 0 0 525.19506888431829 -294.49765005275958 0 -294.49765005275958 109.22135285254626 0 0 0 0 459.22312852673258 -443.12466699930883 0 -443.12466699930883 194.72326022371271 0 0 0 0 348.85288142216905 14.513325608262676 0 14.513325608262676 -246.3703847455472 0 0 0 0 168.18389153985117 -226.20512020306342 0 -226.20512020306342 603.51059174203692 0 0 0 0 -248.70707608345288 72.431324805929762 0 72.431324805929762 117.43883817203823 0 0 0 0 199.22084650120837 52.227281894400221 0 52.227281894400221 -40.023091828312317 0 0 0 0 -0.79203777191165603 1.044200415957814 0 1.044200415957814 2.073370740947837 0 0 0 0 -820.97281080413677 -546.27433597954951 0 -546.27433597954951 819.32475266323672 0 0 0 0 402.23277742879429 312.87688063907535 0 312.87688063907535 154.73968402210448 0 0 0 0 -34.317324744851703 -187.81101441675128 0 -187.81101441675128 632.55191241497596 0 0 0 0 61.712512065649776 -347.07336294482593 0 -347.07336294482593 71.730484233288735 0 0 0 0 -87.188270517951139 -14.157802205250846 0 -14.157802205250846 68.191487424497609 0 0 0 0 199.86820145402316 -258.7572216412118 0 -258.7572216412118 138.24837381482212 0 0 0 0 10.821369659445736 -196.12563968457835 0 -196.12563968457835 117.94411634352582 0 0 0 0 12.565739650684918 -114.96300146920112 0 -114.96300146920112 222.9959785097526 0 0 0 0 -123.16657481100658 -108.79603539189424 0 -108.79603539189424 390.2257095996174 0 0 0 0 -121.30457063999583 22.461622176183766 0 22.461622176183766 103.34834253521694 0 0 0 0 65.740621689070167 -295.55666745423878 0 -295.55666745423878 280.43986578630575 0 0 0 0 290.91185431118265 -588.39594600763303 0 -588.39594600763303 322.89553812046506 0 0 0 0 105.69018258936603 247.54874290514272 0 247.54874290514272 630.03561530032312 0 0 0 0 390.82501675317303 266.38524163427792 0 266.38524163427792 242.607181848849 0 0 0 0 0.40383973028591713 -0.61683475981528968 0 -0.61683475981528968 8.7901695953806893 0 0 0 0 -59.938884546368399 154.32215639611604 0 154.32215639611604 80.863372920081019 0 0 0 0 -29.021788832747689 52.429587977385381 0 52.429587977385381 347.82093676199293 0 0 0 0 -15.988212210719666 93.779003945994191 0 93.779003945994191 25.063639677658102 0 0 0 0 288.50736515560709 116.96703917550622 0 116.96703917550622 26.410219959878305 0 0 0 0 -499.73163510793211 -174.97669873415362 0 -174.97669873415362 282.20912327449332 0 0 0 0 45.416520610936828 61.885022806834741 0 61.885022806834741 35.254097742064914 0 0 0 0 -0.35199469937789363 -0.032348064465001158 0 -0.032348064465001158 23.428449341662827 0 0 0 0 -38.613451018985415 47.105639746598172 0 47.105639746598172 32.78897583149228 0 0 0 0 -71.800050124703802 51.937271008095877 0 51.937271008095877 53.286227783690265 0 0 0 0 -0.46961240558881417 0.9232201124466588 0 0.9232201124466588 32.425278093740701 0 0 0 0 -0.061692765801816131 -1.2719215302386147 0 -1.2719215302386147 77.194779758319783 0 0 0 0 -38.678089930675469 51.499499088007724 0 51.499499088007724 85.320941429188679 0 0 0 0 -72.547191301037856 74.314594462011883 0 74.314594462011883 70.06358616711077 0 0 0 0 -2.3461656698594218 -2.0393956475548904 0 -2.0393956475548904 84.256621545617179 0 0 0 0 0.054500913149116176 -17.82221437305634 0 -17.82221437305634 74.39031915605301 0 0 0 0 -16.578748873254888 -7.7140533805686573 0 -7.7140533805686573 76.313488300060271 0 0 0 0 -76.451639397100166 -49.021993550188199 0 -49.021993550188199 63.148095756863768 0 0 0 0 -368.22203894470704 81.308817750741582 0 81.308817750741582 179.22217810004804 0 0 0 0 -2.5208694229509523 -2.5503424751310533 0 -2.5503424751310533 89.778619270930079 0 0 0 0 -15.375420703591914 87.557080043888391 0 87.557080043888391 68.183402605915035 0 0 0 0 -0.33828395034218695 -74.349355444028333 0 -74.349355444028333 44.69830365182861 0 0 0 0 -222.98730766948381 -120.05882317103169 0 -120.05882317103169 50.593468228275015 0 0 0 0 0.91105950328908736 -203.52227672748501 0 -203.52227672748501 57.850312451657373 0 0 0 0 -207.73222840907692 210.72655891720206 0 210.72655891720206 441.73634890808898 0 0 0 0 -474.49819735951263 -255.5190003231437 0 -255.5190003231437 403.90749007419072 0 0 0 0 -2.348065795656042 -4.1917495463965437 0 -4.1917495463965437 91.673642542601726 0 0 0 0 180.3341956706463 -84.392791876758565 0 -84.392791876758565 -60.333379868636257 0 0 0 0 172.52780019135071 9.0948916544512031 0 9.0948916544512031 -16.547415905966773 0 0 0 0 72.289255648609469 44.461494344912353 0 44.461494344912353 36.026497991919314 0 0 0 0 2.7945540151383099 -1.0901347085105186 0 -1.0901347085105186 0.55885410680985359 0 0 0 0 956.07665944807832 -408.32194757624529 0 -408.32194757624529 680.42605680618726 0 0 0 0 5.3483831770593042 12.3569688120715 0 12.3569688120715 20.87343195338326 0 0 0 0 21.790452291809743 -15.68602493895014 0 -15.68602493895014 -20.580518437258434 0 0 0 0 59.409520740532571 15.76768822001759 0 15.76768822001759 -5.4693647495441837 0 0 0 0 110.9991467112427 -107.3142235776977 0 -107.3142235776977 -67.403082651511795 0 0 0 0 30.525324160348191 -18.292620182466635 0 -18.292620182466635 -19.212648943042041 0 0 0 0 -158.64865716972963 -136.8164531788243 0 -136.8164531788243 -4.7900422289530979 0 0 0 0 0.6255222784479102 -35.79101278690905 0 -35.79101278690905 38.392752118379576 0 0 0 0 0.66012111836334952 -35.486426562292763 0 -35.486426562292763 18.932901030850189 0 0 0 0 10.80048831182944 -22.801320565726201 0 -22.801320565726201 29.852373291549156 0 0 0 0 -44.302003226492388 -49.721787263919396 0 -49.721787263919396 46.885703915599152 0 0 0 0 -25.113152721993174 -24.458018062046904 0 -24.458018062046904 74.885489527943719 0 0 0 0 -232.27864676364607 51.938931727687304 0 51.938931727687304 211.00142661253631 0 0 0 0 -2.8667330904974841 1.2095505553696171 0 1.2095505553696171 75.918747734435215 0 0 0 0 -0.28785207254559397 -1.4502747911366924 0 -1.4502747911366924 11.172302776016124 0 0 0 0 52.392794647103585 28.93829777326755 0 28.93829777326755 246.52759422540839 0 0 0 0 259.65096197340563 227.28243558524991 0 227.28243558524991 -16.637233618152095 0 0 0 0 472.20115937432308 433.06165247962053 0 433.06165247962053 173.83507522108266 0 0 0 0 -0.087451217016735083 0.3638126433758373 0 0.3638126433758373 3.8819054163924989 0 0 0 0 34.121857993920003 118.45534164698984 0 118.45534164698984 -175.77774727129145 0 0 0 0 -2.4948019209761663 -3.3440743912121214 0 -3.3440743912121214 86.86500017804201 0 0 0 0 -534.85342304558981 -92.793999657718814 0 -92.793999657718814 447.77172545148642 0 0 0 0 0.3803411223925508 38.459460024836517 0 38.459460024836517 99.466855189471971 0 0 0 0 -10.811706946065073 16.610925977234729 0 16.610925977234729 66.209169970738003 0 0 0 0 -6.9162944580643284 26.606737043723115 0 26.606737043723115 89.787909785030934 0 0 0 0 38.463720524111039 -27.653781455068383 0 -27.653781455068383 115.03006863983319 0 0 0 0 0.12004859173624743 22.075501794279262 0 22.075501794279262 177.02377448064362 0 0 0 0 -17.320356961416906 -42.301153870135749 0 -42.301153870135749 330.37950031138462 0 0 0 0 61.468626463709299 -49.068278143575299 0 -49.068278143575299 115.25935885792023 0 0 0 0 -115.32878472670245 -10.368822354274016 0 -10.368822354274016 129.10226422461346 0 0 0 0 -38.525572169447244 60.496856159574236 0 60.496856159574236 193.4806122233349 0 0 0 0 -132.64021215618823 579.04625944027066 0 579.04625944027066 170.40238745576062 0 0 0 0 -110.62856012252769 486.66623798017099 0 486.66623798017099 309.11493439730754 0 0 0 0 5.3987828648993368 15.059030956664238 0 15.059030956664238 37.352811621792455 0 0 0 0 207.51017449594156 -366.67763627467502 0 -366.67763627467502 158.37828946414811 0 0 0 0 130.07951474274614 331.24729628731438 0 331.24729628731438 -177.49698749766685 0 0 0 0 -12.804369996749699 89.391465652232 0 89.391465652232 9.0727307496563299 0 0 0 0 -121.06750321218027 94.448685978153662 0 94.448685978153662 64.225515205915144 0 0 0 0 5.9030587628914066 18.546367188310121 0 18.546367188310121 55.925912386017899 0 0 0 0 -65.616160349040186 31.139621304129832 0 31.139621304129832 40.165237685607281 0 0 0 0 -431.84127382753377 28.345875649472873 0 28.345875649472873 261.83474689011928 0 0 0 0 -3.0303993927123249 -1.0429776022233312 0 -1.0429776022233312 0.52735614858912072 0 0 0 0 193.13725442627037 -227.88489532243693 0 -227.88489532243693 -30.910843680729158 0 0 0 0 -347.4677840270142 220.76390090052882 0 220.76390090052882 -82.624424657871714 0 0 0 0 -44.567426506486754 -29.685459153668489 0 -29.685459153668489 -8.9499120707914699 0 0 0 0 -229.20438077518338 -27.849915646551381 0 -27.849915646551381 202.50703786700615 0 0 0 0 -59.441230610627002 67.438125485910859 0 67.438125485910859 52.661850909833447 0 0 0 0 5.7571475685946689 24.540830578283675 0 24.540830578283675 63.256370186208244 0 0 0 0 -32.407170172461946 58.95761287795176 0 58.95761287795176 22.925349027238553 0 0 0 0 -37.210053615009741 57.964726208883803 0 57.964726208883803 43.78238407484605 0 0 0 0 -27.385288766285186 44.40709692031669 0 44.40709692031669 48.403894935530843 0 0 0 0 -14.615869515885883 50.214706829494389 0 50.214706829494389 36.644875912752468 0 0 0 0 8.8147658413471888 22.259113607116888 0 22.259113607116888 48.056764984125039 0 0 0 0 -18.340865916703081 65.17609179252031 0 65.17609179252031 43.310003699367371 0 0 0 0 -0.061808483405225004 33.659242396748596 0 33.659242396748596 60.123070102505153 0 0 0 0 -14.346086880281121 41.335809129588597 0 41.335809129588597 48.427733461678145 0 0 0 0 -0.013155235932306797 28.972990393533109 0 28.972990393533109 53.146660419559339 0 0 0 0 0.27459020160063219 26.491383762355831 0 26.491383762355831 62.874079288943904 0 0 0 0 -44.111425920000208 50.301008975526202 0 50.301008975526202 111.90235623749322 0 0 0 0 -47.076287661388498 68.33601993569755 0 68.33601993569755 60.760651036107447 0 0 0 0 -48.834327781266197 65.80469403504685 0 65.80469403504685 67.853211024215852 0 0 0 0 -52.183062030343663 50.794362703694787 0 50.794362703694787 69.849039510881994 0 0 0 0 -46.222658779414424 55.543480568998348 0 55.543480568998348 57.354131461237557 0 0 0 0 -19.853631205641562 36.055562583984283 0 36.055562583984283 66.126795140036847 0 0 0 0 -47.903837458315436 54.444686431044829 0 54.444686431044829 81.481824855771265 0 0 0 0 66.074148936599613 -40.81726640148554 0 -40.81726640148554 81.077300385688432 0 0 0 0 34.690950042477198 -18.901816285884706 0 -18.901816285884706 140.54608806438046 0 0 0 0 4.6658410051860768 25.932289059342139 0 25.932289059342139 59.461241226907134 0 0 0 0 -14.577710343477065 6.8602388368817628 0 6.8602388368817628 92.647313651948934 0 0 0 0 76.340352390426773 101.49410429428826 0 101.49410429428826 16.372105522132188 0 0 0 0 0.0050573913038601762 5.4505269623469896 0 5.4505269623469896 33.569353876053356 0 0 0 0 2.3197229426487547 4.3932064991490236 0 4.3932064991490236 2.1775517091624579 0 0 0 0 -0.0091722316982501169 5.4196791989234043 0 5.4196791989234043 33.765663710335502 0 0 0 0 50.758596641593613 -26.684337282869819 0 -26.684337282869819 107.00328250210441 0 0 0 0 8.2918989074748239 26.279349293364007 0 26.279349293364007 61.673389076102239 0 0 0 0 -6.5234137615307199 -8.6538143692340839 0 -8.6538143692340839 19.813718171192875 0 0 0 0 45.057546748557115 21.942823325282916 0 21.942823325282916 41.188684775406728 0 0 0 0 -34.030094606890771 25.372641878981085 0 25.372641878981085 90.06208088852145 0 0 0 0 30.437122731812565 24.614090887331258 0 24.614090887331258 48.588065180752892 0 0 0 0 -13.615807070263871 9.7047373869281728 0 9.7047373869281728 89.104209860786796 0 0 0 0 40.287847777148272 41.282166042110475 0 41.282166042110475 75.24565272172913 0 0 0 0 -2.5588923205665055 3.2582117839113529 0 3.2582117839113529 80.460497920343244 0 0 0 0 -106.02114838361558 -4.4897709377401043 0 -4.4897709377401043 36.792414244782776 0 0 0 0 -35.610195526402094 47.610491807394283 0 47.610491807394283 30.948512828690582 0 0 0 0 -104.71821248225342 16.404910293851572 0 16.404910293851572 67.315646395596559 0 0 0 0 -168.97756618730506 39.891415953298292 0 39.891415953298292 113.42147038396797 0 0 0 0 -195.21129974095925 35.795350050269917 0 35.795350050269917 76.391791872345493 0 0 0 0 -0.79156271996491578 1.036986998454168 0 1.036986998454168 37.650187796557077 0 0 0 0 -115.65271816474842 56.017031428607879 0 56.017031428607879 12.223843419415061 0 0 0 0 -62.748154871214865 8.6819095509781619 0 8.6819095509781619 -1.1729975302787352 0 0 0 0 -45.325379950777119 50.535853739931099 0 50.535853739931099 9.5077146331896074 0 0 0 0 -139.62700822046463 -33.911549434829794 0 -33.911549434829794 14.289703883776383 0 0 0 0 -2.872225492682468 4.4097408808147467 0 4.4097408808147467 40.335783150384628 0 0 0 0 -271.98102904484563 51.2533604528453 0 51.2533604528453 7.6081478340784088 0 0 0 0 -6.6737779931046362 16.931605667330587 0 16.931605667330587 22.635152625036426 0 0 0 0 -124.96108394829753 15.920585934320115 0 15.920585934320115 93.380763334193034 0 0 0 0 -52.631202672140716 4.4789313569199294 0 4.4789313569199294 47.14134417581954 0 0 0 0 -46.009746712228662 31.999246947401843 0 31.999246947401843 161.51237194056739 0 0 0 0 -142.43891263011528 36.789784073225746 0 36.789784073225746 71.315730229340261 0 0 0 0 -10.821216779949149 -7.4137691968670794 0 -7.4137691968670794 8.6724512901654123 0 0 0 0 -58.786881552387513 -15.696846913058835 0 -15.696846913058835 55.527633235309622 0 0 0 0 78.570864505314148 -121.75774499536783 0 -121.75774499536783 128.02926541070337 0 0 0 0 4.3383202761692194 12.154681510712813 0 12.154681510712813 -7.8326218897867932 0 0 0 0 -161.21521437342244 -54.693009452254046 0 -54.693009452254046 125.64184438473603 0 0 0 0 -250.49071841080104 -68.479922396065376 0 -68.479922396065376 113.68892454821616 0 0 0 0 25.621552398432733 52.756493310233964 0 52.756493310233964 52.925096613660571 0 0 0 0 -85.584446071361128 -40.043203627352341 0 -40.043203627352341 117.64396932247473 0 0 0 0 1.4137730887335536 6.1721233259903929 0 6.1721233259903929 1.270158478589849 0 0 0 0 -176.07343761190236 -9.1985225292610266 0 -9.1985225292610266 114.1877442310506 0 0 0 0 -148.18388085208085 33.261903038808668 0 33.261903038808668 137.49695531764883 0 0 0 0 2.138857253137521 6.5255613824237244 0 6.5255613824237244 3.6370445530603206 0 0 0 0 5.1878990114225871 -22.008917841394577 0 -22.008917841394577 -125.43312173020968 0 0 0 0 -286.88105750389695 289.36362246444332 0 289.36362246444332 -107.1391064104173 0 0 0 0 18.839385638527865 17.843135857510688 0 17.843135857510688 9.4200285458637438 0 0 0 0 -477.22033741930318 86.697512745646236 0 86.697512745646236 37.396622215474054 0 0 0 0 -430.32592594900848 169.85950000547018 0 169.85950000547018 175.9911805234442 0 0 0 0 56.470633355529003 79.26678946247921 0 79.26678946247921 -10.612254900479456 0 0 0 0 -0.67093197766315171 13.603503319335793 0 13.603503319335793 -5.3801809824105362 0 0 0 0 2.1636523219950403 16.692321533800026 0 16.692321533800026 22.853208877039506 0 0 0 0 6.8287972055154569 29.910189352522139 0 29.910189352522139 15.45789906236314 0 0 0 0 -48.443634961052283 88.364886797868166 0 88.364886797868166 30.167698011922766 0 0 0 0 -179.55454081817652 82.542995304058422 0 82.542995304058422 -9.7326308982883347 0 0 0 0 -3.1740772550262482 5.0260275023325001 0 5.0260275023325001 1.2524467746000028 0 0 0 0 -861.84605846633519 -153.85811297290456 0 -153.85811297290456 159.9323405357718 0 0 0 0 -233.71592577428282 303.13260436585915 0 303.13260436585915 -63.474563252140797 0 0 0 0 194.42501376046653 55.357134826728725 0 55.357134826728725 -6.1617027433094336 0 0 0 0 9.4497836932623613 158.71477182846138 0 158.71477182846138 11.426556381185947 0 0 0 0 580.30350759462476 -48.407145843990293 0 -48.407145843990293 59.184764016077679 0 0 0 0 340.49809044755398 -133.36122866543155 0 -133.36122866543155 -23.568080594108324 0 0 0 0 334.78458185727527 -146.33339335478377 0 -146.33339335478377 124.5883983374224 0 0 0 0 43.452440545350328 -178.2797139594586 0 -178.2797139594586 104.81855284856283 0 0 0 0 -195.32637839539893 112.97712042243802 0 112.97712042243802 430.47165367336129 0 0 0 0 307.08012666147624 -132.22864619617758 0 -132.22864619617758 26.60106150464344 0 0 0 0 308.12883298321327 -75.16369800688534 0 -75.16369800688534 159.09529389976524 0 0 0 0 836.80151396630004 -267.70019308938936 0 -267.70019308938936 180.5228203210645 0 0 0 0 119.89665717375897 97.851853661005407 0 97.851853661005407 940.8264382530615 0 0 0 0 -22.092504365617515 154.32229718253438 0 154.32229718253438 19.163942420578678 0 0 0 0 92.822387239239561 264.90241542698641 0 264.90241542698641 100.38191398090567 0 0 0 0 -309.01107062156007 209.57069958688226 0 209.57069958688226 67.365203162487887 0 0 0 0 1023.5693347936495 304.24512106846669 0 304.24512106846669 -140.19378216159748 0 0 0 0 387.64039474301001 375.66860194595074 0 375.66860194595074 -561.34907920156547 0 0 0 0 320.7711986045739 248.15633359347339 0 248.15633359347339 -54.578117703887983 0 0 0 0 204.82945096957019 21.002446458925988 0 21.002446458925988 -491.64209690548887 0 0 0 0 -112.78468035608489 233.12307413805684 0 233.12307413805684 1357.7491413788484 0 0 0 0 7.6032269550834837 4.9824068979578442 0 4.9824068979578442 3.0747804547408748 0 0 0 0 174.43249330888079 514.23580858872447 0 514.23580858872447 1185.4442486487969 0 0 0 0 893.88598319915786 359.71352034810843 0 359.71352034810843 237.13333894473908 0 0 0 0 -227.01896572537055 42.598714452462445 0 42.598714452462445 1100.6005061506003 0 0 0 0 -106.23611281327089 -74.505677544899299 0 -74.505677544899299 359.04580687776615 0 0 0 0 91.279150126042396 348.41906553390436 0 348.41906553390436 963.50594542408726 0 0 0 0 -65.948260854051568 602.53440114995101 0 602.53440114995101 -326.89519270550227 0 0 0 0 17.181282653449969 12.836407890929252 0 12.836407890929252 8.4107153006861211 0 0 0 0 124.55662864863564 393.16836990543379 0 393.16836990543379 -36.500240117151407 0 0 0 0 -28.073203662908544 19.9977203900944 0 19.9977203900944 204.77083800418768 0 0 0 0 253.3098108356252 -203.67365789919131 0 -203.67365789919131 -8.6302994196666987 0 0 0 0 91.149554397834436 -89.82827216466103 0 -89.82827216466103 4.5192941380519187 0 0 0 0 -447.87467172227207 -67.347154894494452 0 -67.347154894494452 180.92144080504659 0 0 0 0 0.32369502481878065 0.32310678039742413 0 0.32310678039742413 -0.1165754292752581 0 0 0 0 -345.91102778870322 1029.8650600235414 0 1029.8650600235414 369.67260441534745 0 0 0 0 -98.383505647116067 -285.63493488463428 0 -285.63493488463428 -193.48112228669925 0 0 0 0 17.024430644842667 -80.721752993002156 0 -80.721752993002156 149.23068540880922 0 0 0 0 -173.41640024841581 215.92236914157183 0 215.92236914157183 1203.2371227812255 0 0 0 0 1.2431661875353939 332.91442364222894 0 332.91442364222894 -377.69267682778445 0 0 0 0 28.920070145976524 377.61056086167446 0 377.61056086167446 1212.8204856561497 0 0 0 0 806.13529714731692 265.60578374260513 0 265.60578374260513 226.99177221608534 0 0 0 0 610.96557029156088 -288.49672915448173 0 -288.49672915448173 163.37024475887301 0 0 0 0 5.5614689052767057 5.5343425644025928 0 5.5343425644025928 5.8953870402178552 0 0 0 0 119.28051535571387 704.26185112051644 0 704.26185112051644 75.542945513618179 0 0 0 0 288.89505882025946 365.24935761572488 0 365.24935761572488 -236.67941981712647 0 0 0 0 158.92386756343103 900.99033994751517 0 900.99033994751517 862.77298859172879 0 0 0 0 -317.80690325122282 537.55168744857656 0 537.55168744857656 590.47143551884801 0 0 0 0 176.08326519026838 396.91484626067904 0 396.91484626067904 623.7806112083199 0 0 0 0 202.64567536193243 -336.69084379996821 0 -336.69084379996821 691.31265861832071 0 0 0 0 246.19296373507041 638.4598696223984 0 638.4598696223984 858.22711377577798 0 0 0 0 274.58624158137468 64.335104827012401 0 64.335104827012401 304.22277565739932 0 0 0 0 449.39574519563348 432.11921411554795 0 432.11921411554795 1066.0093542609611 0 0 0 0 45.674974524825075 553.34050366746669 0 553.34050366746669 -305.61069950384262 0 0 0 0 257.63298531882265 786.72654914124178 0 786.72654914124178 -931.21430788996804 0 0 0 0 179.12927595912652 -240.2994598381556 0 -240.2994598381556 821.67838096841024 0 0 0 0 3.0277205870823209 1.9105699254808002 0 1.9105699254808002 0.65750363438650083 0 0 0 0 232.17468566777984 -220.08109706619143 0 -220.08109706619143 -162.79492108624254 0 0 0 0 -353.87303821764363 -23.65781101603352 0 -23.65781101603352 336.75649743786289 0 0 0 0 166.66600930955227 -75.617503463119192 0 -75.617503463119192 31.74847014406987 0 0 0 0 11.594451805170507 13.730040950604547 0 13.730040950604547 13.432734646560817 0 0 0 0 -176.59962952742262 211.45846929837717 0 211.45846929837717 -18.666187634766175 0 0 0 0 166.63017395020654 -75.530764371877012 0 -75.530764371877012 32.742408191144932 0 0 0 0 377.77617306543374 25.831931235392403 0 25.831931235392403 54.148056893522153 0 0 0 0 159.32392513988736 -127.40481763967546 0 -127.40481763967546 156.58529258884664 0 0 0 0 -30.854644940427079 -73.695826882998517 0 -73.695826882998517 569.97285808405286 0 0 0 0 -35.754503791663751 -140.91962820956542 0 -140.91962820956542 1257.1495473827263 0 0 0 0 51.417749134114871 -40.103097870995043 0 -40.103097870995043 72.483901386338403 0 0 0 0 9.0126233694007603 -9.7419410586192186 0 -9.7419410586192186 68.683661280206138 0 0 0 0 42.694662177426267 -29.058584905025782 0 -29.058584905025782 87.616581483962364 0 0 0 0 28.180115138600968 -38.408765011823562 0 -38.408765011823562 81.892870858740935 0 0 0 0 -549.08497391656147 -357.66175446692432 0 -357.66175446692432 403.13018251243921 0 0 0 0 -706.49374403531738 -25.766483467115904 0 -25.766483467115904 263.40978043696668 0 0 0 0 2.1254116940094869 7.2282914791808786 0 7.2282914791808786 48.119537778978327 0 0 0 0 192.01025176344365 -140.84904224733691 0 -140.84904224733691 -58.985179825744126 0 0 0 0 -4.6925696142449267 2.6002740018640225 0 2.6002740018640225 20.356707050588028 0 0 0 0 -191.83429505909498 -184.75321372447434 0 -184.75321372447434 -227.37958290960523 0 0 0 0 -178.16240897703733 -122.23841999524302 0 -122.23841999524302 55.31415389481117 0 0 0 0 107.401941569477 -135.42672414741537 0 -135.42672414741537 -1.1590273817273555 0 0 0 0 20.116065182968441 -91.520258407566871 0 -91.520258407566871 175.25787659168418 0 0 0 0 -95.121841042910773 -191.12562918475305 0 -191.12562918475305 98.389127446353086 0 0 0 0 -128.63375727302378 -61.494161864480702 0 -61.494161864480702 169.20599981021951 0 0 0 0 5.3055294159524582 -13.732890939879169 0 -13.732890939879169 98.562897927566496 0 0 0 0 -5.3644043993185733 -17.114870455061464 0 -17.114870455061464 76.733545628034335 0 0 0 0 3.189597090273288 -19.630730672302544 0 -19.630730672302544 100.42634306934166 0 0 0 0 55.622872619904001 7.8992935040866996 0 7.8992935040866996 151.99647064671444 0 0 0 0 -29.416634891176159 -0.30093682342703687 0 -0.30093682342703687 174.00029496294155 0 0 0 0 52.916959584938468 -3.5196311946256174 0 -3.5196311946256174 138.00720855767213 0 0 0 0 21.67093157166164 -9.8507395507531328 0 -9.8507395507531328 156.48881949701899 0 0 0 0 -1.6771480309924982 -21.170444566632796 0 -21.170444566632796 142.12138977826544 0 0 0 0 6.7439773225228237 0.4734044221440854 0 0.4734044221440854 140.08518867081921 0 0 0 0 -21.947363911238881 -13.431073276096868 0 -13.431073276096868 147.18641699113141 0 0 0 0 21.044553413558788 -6.5734518712069985 0 -6.5734518712069985 140.08456973656939 0 0 0 0 12.802569196349111 -0.65073399746052019 0 -0.65073399746052019 114.13882161338915 0 0 0 0 21.295643928610843 18.876719350915664 0 18.876719350915664 154.36230388440254 0 0 0 0 24.054708019222971 -13.397094840622231 0 -13.397094840622231 148.89245324578224 0 0 0 0 6.0372013822810651 -24.641502339206909 0 -24.641502339206909 47.47380781781213 0 0 0 0 57.271934755453003 -59.900576957188605 0 -59.900576957188605 49.89602512086276 0 0 0 0 -2.6031895773368561 -23.316015846816299 0 -23.316015846816299 62.500426525301009 0 0 0 0 9.5654446378610363 -30.479922279989058 0 -30.479922279989058 64.621656930174851 0 0 0 0 1.2137806237448103 -73.671088882289041 0 -73.671088882289041 69.783068867400289 0 0 0 0 13.966999846449426 -7.6019909863298381 0 -7.6019909863298381 77.397790614435507 0 0 0 0 7.5176405096149264 -27.883362173396307 0 -27.883362173396307 38.702025974381471 0 0 0 0 1.1369319146200496 -26.33626579265092 0 -26.33626579265092 80.331347622395697 0 0 0 0 -3.8992199396680598 12.517179429949593 0 12.517179429949593 64.123614469549494 0 0 0 0 1.6777684033954088 -14.890722640526306 0 -14.890722640526306 76.879983503439547 0 0 0 0 -50.951423345879221 -37.401180617031059 0 -37.401180617031059 129.6071215483571 0 0 0 0 62.404189830299295 -28.897596042624627 0 -28.897596042624627 66.119835300065461 0 0 0 0 43.065022099319947 -47.777438928860647 0 -47.777438928860647 65.438518707102048 0 0 0 0 285.98315565474297 -614.19592780466155 0 -614.19592780466155 24.492016871430678 0 0 0 0 503.30885625168264 1047.5404587546536 0 1047.5404587546536 494.70599217522249 0 0 0 0 156.81467400192761 -80.300757882319886 0 -80.300757882319886 43.519747666359763 0 0 0 0 2.126244696424485 8.8057682844041416 0 8.8057682844041416 31.766459822946786 0 0 0 0 -141.7298186495434 456.54424759983522 0 456.54424759983522 -46.436363347325823 0 0 0 0 2.0424275354936681 3.7702946211875101 0 3.7702946211875101 10.194197838418802 0 0 0 0 375.46715721037634 -231.41598254678684 0 -231.41598254678684 148.09025732649752 0 0 0 0 -0.46586309511889112 -206.9605782325707 0 -206.9605782325707 220.39014805976331 0 0 0 0 167.72562862715847 -42.280291376868263 0 -42.280291376868263 71.290463389370416 0 0 0 0 0.47954984997025418 0.96361844097458516 0 0.96361844097458516 -2.8528600843189622 0 0 0 0 116.19633484074865 301.62767313734139 0 301.62767313734139 -102.78371215282823 0 0 0 0 68.583065449829121 -131.67727822967572 0 -131.67727822967572 595.62474513330653 0 0 0 0 108.19135760285644 316.45983008388794 0 316.45983008388794 1004.6695399111413 0 0 0 0 953.36231175875423 263.93432573999871 0 263.93432573999871 154.90244306904788 0 0 0 0 405.52122728007089 118.26263599430968 0 118.26263599430968 116.45514162736072 0 0 0 0 106.34665414269318 132.40392234291357 0 132.40392234291357 616.63995311069175 0 0 0 0 421.21344209732672 171.72560983756193 0 171.72560983756193 280.91524177981046 0 0 0 0 163.12056491598287 84.286431871634704 0 84.286431871634704 260.37054151266784 0 0 0 0 -24.608604478093298 53.4670478593398 0 53.4670478593398 239.11051106498053 0 0 0 0 40.710480316670441 102.22743043311493 0 102.22743043311493 204.03845487188664 0 0 0 0 34.343952065232088 104.99356605439971 0 104.99356605439971 242.41647429021214 0 0 0 0 97.462691759313458 160.68147783395762 0 160.68147783395762 276.92275908961165 0 0 0 0 15.081834337503238 61.989313146303175 0 61.989313146303175 308.62287846513937 0 0 0 0 104.5749843793058 107.07818678519016 0 107.07818678519016 318.07328185340157 0 0 0 0 -90.817572360472013 27.33521235884109 0 27.33521235884109 271.91538862170273 0 0 0 0 31.289434281474769 61.304127259136294 0 61.304127259136294 200.38750297382649 0 0 0 0 -31.068177801112171 -114.29444204770334 0 -114.29444204770334 135.02205554390821 0 0 0 0 50.123577389254422 -69.975326247757039 0 -69.975326247757039 108.03252968638481 0 0 0 0 63.74905369099605 -164.24564360109071 0 -164.24564360109071 377.58536499965976 0 0 0 0 -106.5715609868717 6.3952701138205157 0 6.3952701138205157 105.21735150864697 0 0 0 0 -4.1693436961112278 -10.646855151680782 0 -10.646855151680782 20.926016954096212 0 0 0 0 -27.427812390464425 -9.3852844715138417 0 -9.3852844715138417 157.68898385507418 0 0 0 0 -0.55458375313983743 -27.846873213894195 0 -27.846873213894195 132.50384131838402 0 0 0 0 -69.277608075863029 40.798442876265653 0 40.798442876265653 183.17548406760397 0 0 0 0 40.612119807601417 37.176593352198324 0 37.176593352198324 168.23206197370746 0 0 0 0 -58.835102832506664 11.247891029563107 0 11.247891029563107 158.70131520545692 0 0 0 0 -93.508190603164053 -30.340048854930501 0 -30.340048854930501 132.19961278021037 0 0 0 0 -17.533110823336955 -5.7219456266375346 0 -5.7219456266375346 138.72289136055406 0 0 0 0 -0.019637902451254741 -28.630409989930342 0 -28.630409989930342 125.57912223381969 0 0 0 0 -128.10312388357573 -72.16882288681245 0 -72.16882288681245 200.14126943178417 0 0 0 0 -257.08737915671043 32.289009934047499 0 32.289009934047499 117.86926331190625 0 0 0 0 -88.530174984427262 47.094081071798541 0 47.094081071798541 120.35218552574588 0 0 0 0 -21.179484482067096 -21.138249855484901 0 -21.138249855484901 76.332526490499731 0 0 0 0 69.422429322400035 -87.894327443049406 0 -87.894327443049406 125.49272502690292 0 0 0 0 -18.050300867774752 152.22780936759864 0 152.22780936759864 -195.64028309307469 0 0 0 0 388.54755493048162 -312.22466496004381 0 -312.22466496004381 -347.04230027970334 0 0 0 0 -184.06971214809752 -55.374463041771378 0 -55.374463041771378 576.26763073258189 0 0 0 0 -372.35041147997816 -475.83639580809722 0 -475.83639580809722 519.3404216296185 0 0 0 0 75.157136260462266 -432.22927990889366 0 -432.22927990889366 525.70961858623923 0 0 0 0 -64.863486676686961 -136.78760821837932 0 -136.78760821837932 108.14502795140288 0 0 0 0 40.483146258596435 79.906861948264122 0 79.906861948264122 174.31912296873634 0 0 0 0 21.096171308866133 16.057958840818173 0 16.057958840818173 104.43627915601246 0 0 0 0 -220.73161350063322 42.241519510511353 0 42.241519510511353 329.68977054073093 0 0 0 0 -314.5566001241524 -13.966368873603642 0 -13.966368873603642 306.90914716316547 0 0 0 0 -243.55896316397224 -7.9572811180150893 0 -7.9572811180150893 308.89236092491046 0 0 0 0 -210.79701091743323 -32.571369055956893 0 -32.571369055956893 290.4153460476191 0 0 0 0 -218.44151256108913 -29.695107313062181 0 -29.695107313062181 395.54933304408041 0 0 0 0 -199.85159990079768 16.40568750688908 0 16.40568750688908 320.37021840483067 0 0 0 0 -72.938327110724089 -151.61043420169426 0 -151.61043420169426 337.6801413284993 0 0 0 0 -157.60334826043112 -39.250925750802708 0 -39.250925750802708 196.70269662616192 0 0 0 0 -168.25993282562024 -37.516627452379907 0 -37.516627452379907 309.87868431910954 0 0 0 0 -123.9991323329732 18.897374245445462 0 18.897374245445462 164.45097343450107 0 0 0 0 -41.239997235330975 -42.388918890930654 0 -42.388918890930654 191.17386497457028 0 0 0 0 -251.86445124572208 95.468197787031386 0 95.468197787031386 238.69030062546517 0 0 0 0 -223.80432267332344 25.593386518177795 0 25.593386518177795 240.79972674022429 0 0 0 0 -194.91149605358703 16.826325034409365 0 16.826325034409365 114.71205758414726 0 0 0 0 -173.01970346938754 85.822973627413376 0 85.822973627413376 248.16233281114182 0 0 0 0 -45.654438719577229 44.470964800573711 0 44.470964800573711 161.76389355547531 0 0 0 0 -22.970910166925577 175.24973047155436 0 175.24973047155436 278.98111819251517 0 0 0 0 0.43078275914483788 -0.10316649651912968 0 -0.10316649651912968 -0.7760101176786236 0 0 0 0 -239.93184421130815 -113.8828783805634 0 -113.8828783805634 -42.459311760125274 0 0 0 0 -272.75184393249003 -31.204679881272114 0 -31.204679881272114 12.933195140743919 0 0 0 0 -295.45775222083785 -25.590629119295045 0 -25.590629119295045 14.121702742602793 0 0 0 0 -219.69623499414843 -69.035259934637907 0 -69.035259934637907 32.346858056691417 0 0 0 0 -236.86560978295302 -25.429712196100809 0 -25.429712196100809 19.615253248361114 0 0 0 0 -241.58376013411817 -34.802500794558 0 -34.802500794558 1.5157499431879842 0 0 0 0 -234.90844413702939 -34.295598876879012 0 -34.295598876879012 13.688881829570164 0 0 0 0 -226.90225823994524 -61.067354102542595 0 -61.067354102542595 38.118017923137813 0 0 0 0 -177.33533963129685 -77.839696247156098 0 -77.839696247156098 49.195783468681611 0 0 0 0 -202.17487119396696 -43.221411923381311 0 -43.221411923381311 47.534805472372682 0 0 0 0 -272.23712396810333 -40.139929719047359 0 -40.139929719047359 47.012066147239238 0 0 0 0 -232.6285487335233 -64.552410587610211 0 -64.552410587610211 34.895584691264958 0 0 0 0 -109.80391405448336 -75.505105368392833 0 -75.505105368392833 51.958166188474934 0 0 0 0 -77.785254896601714 -44.912667892641366 0 -44.912667892641366 72.792866839023191 0 0 0 0 -135.0591214831822 -50.762231307813636 0 -50.762231307813636 68.874924948599073 0 0 0 0 -139.74540258531829 -67.924239690713875 0 -67.924239690713875 18.109823366648925 0 0 0 0 -37.370771076009135 -20.711664468302843 0 -20.711664468302843 -8.6985416414790961 0 0 0 0 -98.913858484841001 -71.411825242537816 0 -71.411825242537816 -29.673316629132387 0 0 0 0 -0.70097681693312008 -0.26939067663521143 0 -0.26939067663521143 7.0795145709459604 0 0 0 0 0.72725708339794437 -9.9264530356249452 0 -9.9264530356249452 25.139358335389261 0 0 0 0 -12.383663969347595 39.859821495045253 0 39.859821495045253 178.53056309692602 0 0 0 0 -3.9443451222863928 6.2387804338868591 0 6.2387804338868591 150.8100118677994 0 0 0 0 5.3845332077328294 -8.8354371818804793 0 -8.8354371818804793 111.81098727785502 0 0 0 0 -0.50939569250426642 -4.1935918036118842 0 -4.1935918036118842 10.329567853819405 0 0 0 0 9.740333621400751 -22.405788077098805 0 -22.405788077098805 129.86448162221495 0 0 0 0 -3.3900475106079284 -5.7967526063148398 0 -5.7967526063148398 118.01965206984642 0 0 0 0 -41.350135243272902 9.8730969201095604 0 9.8730969201095604 68.324670089859865 0 0 0 0 -73.234659623930156 -68.612082878784349 0 -68.612082878784349 98.592309355128236 0 0 0 0 0.87454344005391249 -40.354025383689077 0 -40.354025383689077 86.205295297480916 0 0 0 0 -32.215232348137405 -31.595231773455453 0 -31.595231773455453 114.32991844321805 0 0 0 0 -58.996681685970252 -73.962327165887473 0 -73.962327165887473 91.395965734843685 0 0 0 0 -92.764209769468039 -54.80984872681438 0 -54.80984872681438 119.47384899250028 0 0 0 0 -1.1020177016523576 -0.039970449484826531 0 -0.039970449484826531 124.17722810296618 0 0 0 0 -5.122462658849372 -17.708506731141824 0 -17.708506731141824 103.88525573704828 0 0 0 0 -30.02348665242198 -33.808285362276365 0 -33.808285362276365 114.67728191828974 0 0 0 0 -11.257610985167162 -19.469057925695779 0 -19.469057925695779 127.43106627923407 0 0 0 0 -42.723452184357939 -31.601118623129878 0 -31.601118623129878 135.29469411687751 0 0 0 0 -15.526933305888065 -14.8298113747569 0 -14.8298113747569 123.93043032930291 0 0 0 0 -44.567409523144029 -51.222967897611738 0 -51.222967897611738 111.79521685829241 0 0 0 0 -26.587435376866551 -29.135479521191883 0 -29.135479521191883 132.01113052475193 0 0 0 0 -81.683763998469459 -47.284660025261473 0 -47.284660025261473 138.86039983141018 0 0 0 0 -96.796984315648672 -78.998498082917649 0 -78.998498082917649 114.06045850175769 0 0 0 0 -125.8524859267394 -66.729619183161049 0 -66.729619183161049 145.6022308808424 0 0 0 0 -150.43256872061647 -73.161337275418191 0 -73.161337275418191 120.92757272117706 0 0 0 0 -142.35540767663178 -93.501280152973777 0 -93.501280152973777 113.57877441772234 0 0 0 0 -173.51570323425528 -87.711116296511136 0 -87.711116296511136 149.79508951802563 0 0 0 0 -176.51752926140216 -98.68228256153634 0 -98.68228256153634 110.22911989660065 0 0 0 0 -190.34485335415411 -69.166160382032103 0 -69.166160382032103 108.5520586680077 0 0 0 0 -184.79096499834611 -74.22832602046401 0 -74.22832602046401 97.313750715045899 0 0 0 0 -214.09976610405511 -87.432421289953709 0 -87.432421289953709 96.1694121409746 0 0 0 0 -230.2706588219994 -53.734612054003264 0 -53.734612054003264 72.966590781783452 0 0 0 0 -181.95606315369105 -73.105246038623591 0 -73.105246038623591 61.364949012142461 0 0 0 0 -138.88793924665561 -81.896216287830612 0 -81.896216287830612 72.578520313461922 0 0 0 0 -163.86501145800617 -57.114786461357653 0 -57.114786461357653 81.082289062120253 0 0 0 0 -137.8196257012462 -74.590722456396179 0 -74.590722456396179 102.17000011524578 0 0 0 0 -106.40963438590643 -83.468689681864817 0 -83.468689681864817 86.581218546467426 0 0 0 0 -158.52474626263393 -89.559642824389812 0 -89.559642824389812 89.610174826011644 0 0 0 0 -180.87611965710039 -75.810575273440918 0 -75.810575273440918 208.86685435826803 0 0 0 0 -180.01266536187558 -65.919027839869727 0 -65.919027839869727 175.3274598691205 0 0 0 0 -223.16204063214491 -76.712141026193422 0 -76.712141026193422 217.86007017733391 0 0 0 0 -183.89383521332638 -131.84956320009314 0 -131.84956320009314 208.5607593226905 0 0 0 0 -224.39435298957321 -90.924780630364012 0 -90.924780630364012 264.96171188588414 0 0 0 0 -205.29489438465771 -90.887550339856716 0 -90.887550339856716 156.34712466130077 0 0 0 0 -184.6698329457885 -92.519161218256301 0 -92.519161218256301 154.29920331420726 0 0 0 0 -184.40689419017176 -99.238151697720355 0 -99.238151697720355 183.07257284273146 0 0 0 0 -153.48258341919927 -83.121799961279976 0 -83.121799961279976 150.27131924984496 0 0 0 0 -153.00495086040263 -85.382266622976431 0 -85.382266622976431 149.72682800139228 0 0 0 0 -66.52003841779856 -49.205738285920233 0 -49.205738285920233 135.55823139817767 0 0 0 0 -121.04980487966094 -52.431631842484421 0 -52.431631842484421 158.04549054801646 0 0 0 0 -120.33412757554163 -59.679411110950241 0 -59.679411110950241 168.53387511144683 0 0 0 0 -38.837221927324663 -20.843489689099442 0 -20.843489689099442 147.61162265144594 0 0 0 0 -68.400193613889087 -36.750405312452131 0 -36.750405312452131 147.31029770068562 0 0 0 0 -52.046272814249278 -36.082103918861321 0 -36.082103918861321 146.3086504349485 0 0 0 0 -98.850707707911965 -17.462289537528704 0 -17.462289537528704 152.05957443421721 0 0 0 0 -80.292696871692328 -23.034172895129814 0 -23.034172895129814 153.17843275306222 0 0 0 0 -70.125774857387114 -33.351068860940359 0 -33.351068860940359 147.27092358990831 0 0 0 0 -59.689717661817895 -16.264449151036388 0 -16.264449151036388 145.32081536054466 0 0 0 0 -148.29653797195101 -32.373624375071813 0 -32.373624375071813 167.7376583661644 0 0 0 0 -147.89831000357407 -44.481282900509541 0 -44.481282900509541 189.44755923619778 0 0 0 0 -92.986972149979522 -44.211388808779702 0 -44.211388808779702 159.74469444355054 0 0 0 0 -174.12763257192807 -12.582196837632637 0 -12.582196837632637 192.97943233278056 0 0 0 0 -151.96312377114771 20.683140931061644 0 20.683140931061644 137.25083157851441 0 0 0 0 -100.44240550571021 -15.387840322428019 0 -15.387840322428019 151.85085776721098 0 0 0 0 -66.065804868762939 5.1067092322919052 0 5.1067092322919052 106.9110448295578 0 0 0 0 -68.886408781130342 35.728040162975049 0 35.728040162975049 55.618126117708016 0 0 0 0 -0.69814601839993884 -20.934305293871148 0 -20.934305293871148 96.251166970148915 0 0 0 0 -117.12991099466467 13.691065869266822 0 13.691065869266822 133.03841468534119 0 0 0 0 -180.53614658009246 76.199925281227479 0 76.199925281227479 71.445871811461984 0 0 0 0 -206.8458109495898 45.291852950261273 0 45.291852950261273 183.32379829584897 0 0 0 0 -220.50577291103218 22.127068604733722 0 22.127068604733722 174.80449184484314 0 0 0 0 -301.39974378838315 130.85486587342893 0 130.85486587342893 115.5686032729518 0 0 0 0 -278.75874548352544 -12.142116454069765 0 -12.142116454069765 232.42852775737629 0 0 0 0 -210.4034736091173 -51.362738044936123 0 -51.362738044936123 248.06398138896111 0 0 0 0 -211.23849589924021 -27.514411144024052 0 -27.514411144024052 187.37343559046531 0 0 0 0 -258.41235053565242 -80.137269784991076 0 -80.137269784991076 262.0645485339428 0 0 0 0 -262.86210331986626 -50.276680187452257 0 -50.276680187452257 319.79380819309154 0 0 0 0 -279.83640664785025 50.307102874689008 0 50.307102874689008 199.29322641964609 0 0 0 0 -325.27459303573914 64.805931141359906 0 64.805931141359906 253.11920977817499 0 0 0 0 -340.8220500219154 252.29073025975595 0 252.29073025975595 -7.1356862930115312 0 0 0 0 -366.45558735455529 202.31618888212779 0 202.31618888212779 162.97414387554454 0 0 0 0 -283.15178196298939 123.27029141290132 0 123.27029141290132 -23.607660927082179 0 0 0 0 -135.84832473576603 87.80510290431539 0 87.80510290431539 -7.1590779684338486 0 0 0 0 -257.4222314003577 226.8523641007198 0 226.8523641007198 -83.588294912162382 0 0 0 0 -3.1158820538896208 13.42507434060812 0 13.42507434060812 18.273370552005041 0 0 0 0 10.136795638241438 -120.28669167711269 0 -120.28669167711269 140.81048553668916 0 0 0 0 -255.19759412334406 141.90906620856913 0 141.90906620856913 -174.56401050932982 0 0 0 0 -313.14755093502572 488.86135266045676 0 488.86135266045676 -469.01227761833252 0 0 0 0 119.1592735732828 -206.70344466998131 0 -206.70344466998131 603.87755745953109 0 0 0 0 -511.18035794935895 705.48558328098443 0 705.48558328098443 -401.65601253250179 0 0 0 0 0.70185381224123411 12.899216864989523 0 12.899216864989523 15.679353110598214 0 0 0 0 79.636188564132908 -81.151188147307039 0 -81.151188147307039 620.50074138870332 0 0 0 0 97.880958588878457 -255.70741166489097 0 -255.70741166489097 767.06715537657283 0 0 0 0 -30.609969256603563 76.538752953068979 0 76.538752953068979 106.61043953891067 0 0 0 0 44.622607599897492 75.917391728835355 0 75.917391728835355 -61.936560122012452 0 0 0 0 18.467368206192987 -106.3456807223647 0 -106.3456807223647 764.5235567047348 0 0 0 0 98.44787243344183 -67.063566289701157 0 -67.063566289701157 907.2127751682965 0 0 0 0 152.22942978101185 -202.07762921098265 0 -202.07762921098265 819.75042762391604 0 0 0 0 115.46333388155426 -85.110149757068939 0 -85.110149757068939 638.84068392817062 0 0 0 0 38.599413341812124 -161.66877975273019 0 -161.66877975273019 816.33148255935248 0 0 0 0 27.336555049275375 -139.39902371317567 0 -139.39902371317567 780.74820311873555 0 0 0 0 21.826208625654544 -99.779398066810245 0 -99.779398066810245 1048.1498064276329 0 0 0 0 154.07778426480854 -370.53872423520625 0 -370.53872423520625 849.36586510376219 0 0 0 0 -3.5815638648012396 -214.84848489117394 0 -214.84848489117394 535.9723507414401 0 0 0 0 13.711763328298268 -157.42277056054797 0 -157.42277056054797 605.31648655323806 0 0 0 0 36.924947573882037 -122.46568073858725 0 -122.46568073858725 600.93924638491808 0 0 0 0 99.129651406826724 -109.41968323479159 0 -109.41968323479159 602.1902662435059 0 0 0 0 53.844672805294067 -181.54347960222003 0 -181.54347960222003 819.57992754129373 0 0 0 0 10.983056072166391 -243.07379019310793 0 -243.07379019310793 780.21421404443754 0 0 0 0 85.744227091437551 -523.59548466030537 0 -523.59548466030537 1074.7733831663281 0 0 0 0 -0.33706583037195692 1.888606351569301 0 1.888606351569301 3.1300253819803459 0 0 0 0 88.367505835274869 -271.98116772187495 0 -271.98116772187495 731.58505321019038 0 0 0 0 -17.223555859671706 -273.45516332604893 0 -273.45516332604893 1136.2381993677554 0 0 0 0 87.09721819208562 -431.67526187140902 0 -431.67526187140902 679.05848581506143 0 0 0 0 92.832390429986845 -372.74482828864348 0 -372.74482828864348 817.97620658978849 0 0 0 0 25.786105750182514 -203.5995815172937 0 -203.5995815172937 841.62007404827455 0 0 0 0 -155.17172380691028 -328.80882092067623 0 -328.80882092067623 756.70194923964118 0 0 0 0 38.791261476587351 118.64585485959105 0 118.64585485959105 295.8203502824108 0 0 0 0 -0.86338643644620561 3.8317568355913849 0 3.8317568355913849 6.6370561599902587 0 0 0 0 -86.770667208159466 -144.77896964256979 0 -144.77896964256979 830.58979589179626 0 0 0 0 12.650360293341237 100.60665955723016 0 100.60665955723016 14.398011908995613 0 0 0 0 -0.48779632800002504 1.3218924442207864 0 1.3218924442207864 1.6988960495728591 0 0 0 0 81.107225997508522 -120.66636841286163 0 -120.66636841286163 -42.806593214263557 0 0 0 0 -99.474458940344562 38.463562267081215 0 38.463562267081215 58.590695763749864 0 0 0 0 -5.8214287165698968 12.916455318623065 0 12.916455318623065 19.676046187700951 0 0 0 0 -95.678205532256015 45.64922663161633 0 45.64922663161633 54.686284234851087 0 0 0 0 33.964599509624321 -137.9808797770261 0 -137.9808797770261 104.49900970804447 0 0 0 0 36.127136204114777 274.40948272720198 0 274.40948272720198 58.103147614529007 0 0 0 0 -0.33978296518196049 0.85697308056915489 0 0.85697308056915489 2.9677336396194391 0 0 0 0 -35.005394171252192 -4.0237821132905083 0 -4.0237821132905083 35.799661371638649 0 0 0 0 20.954569280084236 134.87039749064655 0 134.87039749064655 21.395360959475511 0 0 0 0 -1.6321997641894279 3.9693665925977939 0 3.9693665925977939 7.210083038896272 0 0 0 0 280.73169025391581 29.401303443279176 0 29.401303443279176 -156.41330226620175 0 0 0 0 1.1461181620617411 0.47954759211728515 0 0.47954759211728515 -0.0078645813674853571 0 0 0 0 49.757076838119531 -35.622271454089059 0 -35.622271454089059 -46.643659893728909 0 0 0 0 -230.58547925330413 -109.56592359543356 0 -109.56592359543356 274.02014069999132 0 0 0 0 214.93378648911471 -167.54439279267172 0 -167.54439279267172 -93.893860267970013 0 0 0 0 283.56374536789599 74.582126789580798 0 74.582126789580798 224.74893973191865 0 0 0 0 -81.668292084025325 -126.06251422689093 0 -126.06251422689093 1511.7318497593442 0 0 0 0 48.256766330636879 -130.13595655819336 0 -130.13595655819336 543.68224921229557 0 0 0 0 220.28453520279606 11.294238746770134 0 11.294238746770134 306.09864872497565 0 0 0 0 108.50207810684839 19.066578640833541 0 19.066578640833541 604.1157643490078 0 0 0 0 235.35663422427172 -44.438763873105927 0 -44.438763873105927 41.199968363438984 0 0 0 0 -65.161780353012432 -45.042276306088752 0 -45.042276306088752 705.17827196879807 0 0 0 0 243.78417675699257 -267.80799385296996 0 -267.80799385296996 633.83935401932558 0 0 0 0 67.296104566483336 90.101337947657157 0 90.101337947657157 976.73747409668795 0 0 0 0 -96.766493833408845 -240.82203137680972 0 -240.82203137680972 590.26323195904115 0 0 0 0 -136.65673892953043 -540.51717045857004 0 -540.51717045857004 631.57686282934083 0 0 0 0 -167.80209556513833 -271.04232169284819 0 -271.04232169284819 1169.6833653370995 0 0 0 0 -132.48812008622656 190.30693258789506 0 190.30693258789506 1590.2119474462897 0 0 0 0 2.2447807520935728 -3.1189554116815614 0 -3.1189554116815614 4.1147108124095482 0 0 0 0 -139.21068869210103 -496.12138194137879 0 -496.12138194137879 -116.85741305548436 0 0 0 0 -262.03206547633931 -7.2641854186440469 0 -7.2641854186440469 51.335735403169565 0 0 0 0 -278.09199065514554 -13.779696745004912 0 -13.779696745004912 117.1961291515654 0 0 0 0 -147.03572845978442 -150.71716708605345 0 -150.71716708605345 199.66936936117418 0 0 0 0 -37.401746817322902 -82.571725732697814 0 -82.571725732697814 192.93900520365241 0 0 0 0 173.81967043953114 253.85270619013318 0 253.85270619013318 267.82779387502524 0 0 0 0 378.23234526522765 372.51102533380981 0 372.51102533380981 335.99300588184269 0 0 0 0 108.83749083577868 -58.588663286980591 0 -58.588663286980591 193.60138796634692 0 0 0 0 -192.65334174774011 -111.89345359613799 0 -111.89345359613799 -16.749546363455011 0 0 0 0 52.525613565637286 60.313635403617809 0 60.313635403617809 -42.405415074455959 0 0 0 0 5.6777959464130348 -7.5170180214353444 0 -7.5170180214353444 7.6401198940699544 0 0 0 0 134.27674907322762 -149.68378879490228 0 -149.68378879490228 126.12457212500158 0 0 0 0 -131.14086849679137 187.34171368198145 0 187.34171368198145 1324.4070411556895 0 0 0 0 130.05877436534001 -205.46760000198992 0 -205.46760000198992 244.51551557631319 0 0 0 0 588.18171358235236 888.26795899917943 0 888.26795899917943 921.77868820512595 0 0 0 0 58.039648834303023 -267.56118157307719 0 -267.56118157307719 1131.2204986771681 0 0 0 0 -0.12851181309874626 -1.7502880963091094 0 -1.7502880963091094 11.436001777278491 0 0 0 0 -63.921359442489347 118.07592178672076 0 118.07592178672076 260.4622024199416 0 0 0 0 235.8669481168404 -458.74259913838523 0 -458.74259913838523 -69.428152432588831 0 0 0 0 775.44990151940215 -118.0155802854897 0 -118.0155802854897 333.08815474444054 0 0 0 0 42.734128452107903 -95.841348725569333 0 -95.841348725569333 360.24090865457038 0 0 0 0 229.70923398766899 317.69093401944338 0 317.69093401944338 1273.7053563134596 0 0 0 0 384.40019465984278 -84.780180638238562 0 -84.780180638238562 -13.439286557677406 0 0 0 0 179.89525130619535 -122.39751988041098 0 -122.39751988041098 -19.277615437895292 0 0 0 0 -542.58965783008591 -454.37120856223646 0 -454.37120856223646 101.77552468621252 0 0 0 0 55.227733716332693 -302.41249120840439 0 -302.41249120840439 -76.785546151895915 0 0 0 0 131.83845433873938 -209.94782334378397 0 -209.94782334378397 -84.097768591796921 0 0 0 0 -144.22181889865627 -295.92868055980762 0 -295.92868055980762 0.97746472455037292 0 0 0 0 -7.464137698249953 -44.064262346815937 0 -44.064262346815937 213.47688592215457 0 0 0 0 -200.12608054487282 -20.124026699586466 0 -20.124026699586466 280.89841530301783 0 0 0 0 -50.802154074985992 -29.342391030033468 0 -29.342391030033468 245.36313335999148 0 0 0 0 -24.672929178464983 98.252061640756438 0 98.252061640756438 331.17395635202411 0 0 0 0 -30.453738684327618 0.50449561223285855 0 0.50449561223285855 125.03779857467453 0 0 0 0 -10.268174350924754 24.695046335686854 0 24.695046335686854 156.33912202090571 0 0 0 0 -221.04491078830324 78.764699250066769 0 78.764699250066769 334.89602008421207 0 0 0 0 -210.13596293926821 9.1364273447106825 0 9.1364273447106825 392.95882718526991 0 0 0 0 72.200465160683734 -60.949781019637157 0 -60.949781019637157 174.27124345432094 0 0 0 0 -0.84828123140383127 9.2865997264024784 0 9.2865997264024784 42.352175225342776 0 0 0 0 -93.112828116739138 -140.76318974557762 0 -140.76318974557762 268.81640760690789 0 0 0 0 40.955656598960559 -34.69225432247913 0 -34.69225432247913 146.22461248416221 0 0 0 0 52.566350721135677 -25.385897735977778 0 -25.385897735977778 151.35774891822803 0 0 0 0 0.67571736554594075 11.065825034425302 0 11.065825034425302 127.04037709558821 0 0 0 0 -41.683194118615106 -114.61919388175465 0 -114.61919388175465 -28.473116048531665 0 0 0 0 -10.392177518516974 -22.027004057099845 0 -22.027004057099845 32.794959435777898 0 0 0 0 121.03849501161841 -84.405989469512861 0 -84.405989469512861 -22.958049002911139 0 0 0 0 274.95367746391724 -85.432663576038976 0 -85.432663576038976 -44.060880929624545 0 0 0 0 -54.924800332771767 -204.26225514760154 0 -204.26225514760154 49.476462435341091 0 0 0 0 125.88558095524075 -121.42557432523915 0 -121.42557432523915 30.64683251731185 0 0 0 0 86.91965786411788 -216.00885040792491 0 -216.00885040792491 21.702215776065714 0 0 0 0 26.274499666600832 -1.0205279160654754 0 -1.0205279160654754 64.367382916068891 0 0 0 0 26.116410525412675 47.292305342110922 0 47.292305342110922 28.30547756636588 0 0 0 0 15.855904674750263 53.491792045406328 0 53.491792045406328 87.111615259458631 0 0 0 0 167.71231364016148 108.01329342550525 0 108.01329342550525 -3.1539822162230848 0 0 0 0 -3.3623994424319879 0.64379223860033363 0 0.64379223860033363 0.13342766020649321 0 0 0 0 -5.1045843042486005 14.521539202523847 0 14.521539202523847 17.721485582596955 0 0 0 0 -50.344502280884853 -173.06099471878224 0 -173.06099471878224 187.83835981451921 0 0 0 0 -8.4023505757016892 -32.008681429978878 0 -32.008681429978878 107.83605603159594 0 0 0 0 14.132426420899264 -32.241110346090863 0 -32.241110346090863 107.65674222045527 0 0 0 0 -19.46444198014251 -24.269075852531387 0 -24.269075852531387 127.51392403544014 0 0 0 0 -23.312421570446773 -27.620429938558793 0 -27.620429938558793 141.49007656402682 0 0 0 0 4.1649541456081351 -28.46506982640858 0 -28.46506982640858 128.23162780975417 0 0 0 0 -21.769114229969546 -28.175353838132651 0 -28.175353838132651 129.22823221054205 0 0 0 0 -23.32113591850748 -20.800802560872398 0 -20.800802560872398 126.73873708165684 0 0 0 0 28.59300183342657 -44.247806455477075 0 -44.247806455477075 139.67949894713092 0 0 0 0 27.116740827337708 -48.567070007131406 0 -48.567070007131406 128.11158204441017 0 0 0 0 6.1494328289190889 -35.376242586153239 0 -35.376242586153239 140.93928317436803 0 0 0 0 25.537615502078552 -33.326736770701245 0 -33.326736770701245 130.06876687060867 0 0 0 0 27.617265852501532 -39.361578257521614 0 -39.361578257521614 145.08237134275987 0 0 0 0 39.355524184471506 -32.350126136749168 0 -32.350126136749168 142.99057928430011 0 0 0 0 40.507397715496154 -35.028273035077291 0 -35.028273035077291 147.71428349705093 0 0 0 0 38.618937085285211 -28.765229273823479 0 -28.765229273823479 155.94204942449869 0 0 0 0 56.468162837976706 -18.527704897220246 0 -18.527704897220246 162.79456234861573 0 0 0 0 52.161995015505454 -32.229979134666792 0 -32.229979134666792 156.05532740806666 0 0 0 0 36.224329738519373 -24.51827559350204 0 -24.51827559350204 149.97854890792769 0 0 0 0 38.997487545830154 -31.22378907071834 0 -31.22378907071834 143.40826262744486 0 0 0 0 19.417201775948115 -27.763470199708536 0 -27.763470199708536 139.79831215536979 0 0 0 0 22.667660024449106 -34.647558214470337 0 -34.647558214470337 153.56291071094165 0 0 0 0 -0.81974342684043222 -30.017412655677617 0 -30.017412655677617 153.4235626567388 0 0 0 0 14.542736627390696 -20.400719472523633 0 -20.400719472523633 146.37622010143605 0 0 0 0 14.777686243064636 -22.463855884390796 0 -22.463855884390796 163.87259876151074 0 0 0 0 31.291123102661686 -28.862237713521608 0 -28.862237713521608 159.89236929074104 0 0 0 0 53.428901185176073 -22.412809267159901 0 -22.412809267159901 165.21154499111253 0 0 0 0 37.217131166087711 -15.622157739362592 0 -15.622157739362592 167.64505732532416 0 0 0 0 39.370463280939475 -31.216361339054856 0 -31.216361339054856 164.15757979644695 0 0 0 0 -0.92555165020803543 -28.428583774537401 0 -28.428583774537401 136.99588278402734 0 0 0 0 -0.3840950618723582 -29.848636359680313 0 -29.848636359680313 151.59673628402015 0 0 0 0 -16.528207269397853 -17.845758340132306 0 -17.845758340132306 149.46928602601838 0 0 0 0 -23.111279442366595 -28.954560867869077 0 -28.954560867869077 142.13401203043759 0 0 0 0 -34.149742224863985 -16.64852396727656 0 -16.64852396727656 150.56203373181779 0 0 0 0 -2.1090754515885237 -11.962769405512518 0 -11.962769405512518 157.50202674081811 0 0 0 0 -12.325213449001694 -27.359751593203328 0 -27.359751593203328 145.47336093999911 0 0 0 0 -6.2157318344334271 -11.350026200869252 0 -11.350026200869252 148.80567251476896 0 0 0 0 -2.8178058354542372 -18.020792416753466 0 -18.020792416753466 155.8097488033527 0 0 0 0 -25.857801416302209 -30.074441031170863 0 -30.074441031170863 141.56483713400303 0 0 0 0 41.01942121574848 -11.996959257182425 0 -11.996959257182425 154.44540005147428 0 0 0 0 42.513537923831791 -6.3856226068455726 0 -6.3856226068455726 171.45012680627951 0 0 0 0 19.001439676122118 -12.945962879197396 0 -12.945962879197396 164.60357233683681 0 0 0 0 18.813750451354281 -16.571548385349161 0 -16.571548385349161 146.16269379470759 0 0 0 0 42.795497858002932 -5.5885271290901528 0 -5.5885271290901528 144.58784723804274 0 0 0 0 61.321057773476241 -35.824887318183755 0 -35.824887318183755 163.09202838002238 0 0 0 0 43.703574515190269 -13.000374357011879 0 -13.000374357011879 173.26985806933953 0 0 0 0 -1.4837617369957106 -4.8955460070976073 0 -4.8955460070976073 112.92267061655605 0 0 0 0 -45.556815019189344 -2.1500223145303607 0 -2.1500223145303607 121.14146169900778 0 0 0 0 75.742655701562398 -15.728105188420159 0 -15.728105188420159 163.32207571976323 0 0 0 0 63.872816475293348 -24.906589344353051 0 -24.906589344353051 158.50446426112467 0 0 0 0 3.611859198150063 5.707441356343864 0 5.707441356343864 115.0718127202783 0 0 0 0 -43.229636355777984 -14.373433311913686 0 -14.373433311913686 125.78045683298842 0 0 0 0 -34.950961069697769 101.74252256464388 0 101.74252256464388 125.03874430138967 0 0 0 0 55.417804364555195 -29.676430182691547 0 -29.676430182691547 174.34068803216724 0 0 0 0 12.946453433603679 12.388996541241681 0 12.388996541241681 28.054677385241064 0 0 0 0 -13.257331576276101 -119.40200163683039 0 -119.40200163683039 171.42125218725232 0 0 0 0 53.83773917191138 5.4469952645886224 0 5.4469952645886224 43.559916785918176 0 0 0 0 -10.124128648800252 -75.755407841366832 0 -75.755407841366832 44.036103445986328 0 0 0 0 -3.8925888275207399 -13.182397300886805 0 -13.182397300886805 118.25584394449834 0 0 0 0 2.366209811530271 -29.640583829035901 0 -29.640583829035901 105.47364058960284 0 0 0 0 -15.206756111940194 -42.609660170935967 0 -42.609660170935967 148.67416099860566 0 0 0 0 -11.769225985425516 10.948331689478636 0 10.948331689478636 59.770256015510313 0 0 0 0 -127.36276215657335 35.263873790558137 0 35.263873790558137 143.2050357463304 0 0 0 0 -6.7902779747728346 -5.3477574185235426 0 -5.3477574185235426 57.05389376624953 0 0 0 0 -2.8159887207608456 -24.675015356759772 0 -24.675015356759772 30.879240952497554 0 0 0 0 42.630036615813879 -48.560130420402857 0 -48.560130420402857 116.03812909167027 0 0 0 0 -23.504947053843352 -8.2253022344957571 0 -8.2253022344957571 119.64657898864243 0 0 0 0 -9.3712323601721437 -13.138045967061771 0 -13.138045967061771 125.73646588665724 0 0 0 0 -1.796704394890078 27.357453730044131 0 27.357453730044131 79.357779025111682 0 0 0 0 -15.467648470446131 22.982430137330788 0 22.982430137330788 24.025858843930621 0 0 0 0 -12.486338240783386 -11.264169555475078 0 -11.264169555475078 109.62921422974583 0 0 0 0 -2.4970061997179327 -16.957110834928034 0 -16.957110834928034 113.28504639711423 0 0 0 0 4.2889629368655733 -10.165421906393021 0 -10.165421906393021 173.25656411108503 0 0 0 0 -20.930932854548246 -24.920014495839496 0 -24.920014495839496 121.08304994806531 0 0 0 0 -20.414808668803744 -21.719759955740301 0 -21.719759955740301 132.92048169211193 0 0 0 0 51.499748521537185 -28.397978364599112 0 -28.397978364599112 154.74062590980247 0 0 0 0 54.271438680618303 -24.607477434758039 0 -24.607477434758039 151.34381005716568 0 0 0 0 54.972025338716776 -21.178875483034062 0 -21.178875483034062 155.66169907146832 0 0 0 0 51.932320110434375 -27.724587305216119 0 -27.724587305216119 149.02223850981318 0 0 0 0 53.034181828610599 -29.91223460474248 0 -29.91223460474248 152.25948892449378 0 0 0 0 50.883258321213361 -23.097206237824139 0 -23.097206237824139 183.699061524836 0 0 0 0 59.562490613887348 -23.193240863853134 0 -23.193240863853134 155.65357906913778 0 0 0 0 69.91033842061006 8.8407236106286291 0 8.8407236106286291 203.25964974267117 0 0 0 0 51.378417277304834 -28.517672735084489 0 -28.517672735084489 162.16591969037472 0 0 0 0 104.68906602658171 -5.7797366270824568 0 -5.7797366270824568 100.12491803849116 0 0 0 0 -4.9172013971415049 -18.077128276868194 0 -18.077128276868194 7.9510287160316295 0 0 0 0 127.31078148217239 41.268973282660227 0 41.268973282660227 141.66636902237951 0 0 0 0 54.999819078126166 -17.625842171255499 0 -17.625842171255499 163.67206756658561 0 0 0 0 105.93587212441344 -16.8395099650661 0 -16.8395099650661 159.50485214174842 0 0 0 0 53.279292575095155 -25.06757610253203 0 -25.06757610253203 173.5347203889396 0 0 0 0 72.381436391073294 -39.732828919601161 0 -39.732828919601161 179.86893164011417 0 0 0 0 158.12015198171866 -60.353431534007541 0 -60.353431534007541 127.1018307065533 0 0 0 0 -10.247562176769227 10.710538908456124 0 10.710538908456124 15.36093250952154 0 0 0 0 -5.6172892411777866 -18.815360651424271 0 -18.815360651424271 113.96974176651565 0 0 0 0 -16.590710557513376 -21.245399306768377 0 -21.245399306768377 118.62087665352738 0 0 0 0 -20.010047137227957 -14.845749696483836 0 -14.845749696483836 110.37654023857613 0 0 0 0 -307.15419651191587 73.760586381209578 0 73.760586381209578 98.495679623883916 0 0 0 0 -302.50086722415085 267.81320666606189 0 267.81320666606189 282.55442784038314 0 0 0 0 79.194880524845757 -151.73782185243181 0 -151.73782185243181 224.10232250245463 0 0 0 0 -349.60745020870763 36.367120437585982 0 36.367120437585982 251.68393863840174 0 0 0 0 -132.04475481270504 13.614612503501121 0 13.614612503501121 75.653664916113485 0 0 0 0 -317.42244948379175 129.48638631067297 0 129.48638631067297 200.07660769969516 0 0 0 0 -339.79062320327921 290.53007471494493 0 290.53007471494493 -69.531695042125648 0 0 0 0 0.97753230674952007 2.2378657022041182 0 2.2378657022041182 19.647846017091013 0 0 0 0 -439.77339928886613 177.10937242193904 0 177.10937242193904 195.44439244910245 0 0 0 0 -52.069291664881348 -46.880723336533265 0 -46.880723336533265 299.67462348299159 0 0 0 0 -121.90552569022657 44.721069992552657 0 44.721069992552657 297.3059542121191 0 0 0 0 205.26271245418684 -87.524215140889282 0 -87.524215140889282 -95.470900066153263 0 0 0 0 -425.75594859865942 630.1158561777047 0 630.1158561777047 -314.36909367630869 0 0 0 0 -78.232259263128981 -300.41383176753152 0 -300.41383176753152 322.66054686311463 0 0 0 0 0.48633685943429228 6.2007468548023326 0 6.2007468548023326 7.4541476031012337 0 0 0 0 432.43067867325419 290.94431149862794 0 290.94431149862794 -813.72069401742738 0 0 0 0 -495.63829176020772 340.28684960368628 0 340.28684960368628 488.57465690175013 0 0 0 0 1262.6992990088784 412.57957101246211 0 412.57957101246211 -43.432220777169277 0 0 0 0 288.76978269372944 20.307005987328012 0 20.307005987328012 -153.57126747000439 0 0 0 0 -172.07698490904193 400.87302592317792 0 400.87302592317792 1294.4779165580912 0 0 0 0 -221.13453609966109 0.37616048690688331 0 0.37616048690688331 260.30472106676461 0 0 0 0 170.83924430056027 -470.63134574891592 0 -470.63134574891592 749.84783971940124 0 0 0 0 781.04945904657984 -32.630444444828754 0 -32.630444444828754 343.00305886214483 0 0 0 0 147.6279859494436 -160.30215059701004 0 -160.30215059701004 321.61865388923616 0 0 0 0 -169.75823540975875 -62.584666995728185 0 -62.584666995728185 413.81360151046829 0 0 0 0 -400.55959481938635 29.942643883296114 0 29.942643883296114 592.04575495958125 0 0 0 0 -291.98259118236729 -128.52230547121144 0 -128.52230547121144 478.23332793456211 0 0 0 0 -337.43510966554913 29.752038584410911 0 29.752038584410911 386.77812175045256 0 0 0 0 -221.23323433291085 85.074769661080154 0 85.074769661080154 308.00790332557517 0 0 0 0 -214.65181399754783 32.195627970977512 0 32.195627970977512 279.5014357289765 0 0 0 0 -368.52241226499632 87.22964398062868 0 87.22964398062868 319.47945328173228 0 0 0 0 -206.96245874169352 -41.528845525437646 0 -41.528845525437646 239.19830431847367 0 0 0 0 -298.50183356189063 -66.588213869523315 0 -66.588213869523315 348.31127078455756 0 0 0 0 -10.547196151183458 -52.071949366571502 0 -52.071949366571502 209.82732970779466 0 0 0 0 -370.68482140202741 -230.68705075537582 0 -230.68705075537582 264.89217333338274 0 0 0 0 -251.18821908487274 -93.47579587389373 0 -93.47579587389373 170.02079777009203 0 0 0 0 -128.14628967161752 -247.82381281663402 0 -247.82381281663402 359.16996104773716 0 0 0 0 -409.32847000572497 -304.75931389537072 0 -304.75931389537072 158.83807105530286 0 0 0 0 -13.489429476625183 -48.047102689426652 0 -48.047102689426652 208.37286022768342 0 0 0 0 201.7262138573119 216.9002018322717 0 216.9002018322717 163.2796644916707 0 0 0 0 -731.99121242679757 -438.78454005830554 0 -438.78454005830554 384.61820690270906 0 0 0 0 -151.76397848752549 2.3045924514954095 0 2.3045924514954095 157.54906533676149 0 0 0 0 -427.49611048141287 29.054260185475869 0 29.054260185475869 530.54273245666263 0 0 0 0 -413.65562426010001 -320.71966732649162 0 -320.71966732649162 127.32319230132271 0 0 0 0 -17.881564732122548 -40.554348065869078 0 -40.554348065869078 195.80539836163172 0 0 0 0 -68.477974139298567 261.28625765172546 0 261.28625765172546 270.75732386802702 0 0 0 0 420.45869560784513 27.794337956889649 0 27.794337956889649 355.65946604897908 0 0 0 0 9.9723028027409555 -181.90272304065729 0 -181.90272304065729 383.24358975577343 0 0 0 0 -220.16244623642228 302.18937850192378 0 302.18937850192378 738.99157513226965 0 0 0 0 132.86845287503593 -285.59462013677694 0 -285.59462013677694 193.25006236853369 0 0 0 0 -508.50404355339026 -395.8837003513836 0 -395.8837003513836 97.750910464150365 0 0 0 0 140.33342888914785 -155.31709439780388 0 -155.31709439780388 21.362128869019216 0 0 0 0 134.24349125748418 -135.84335774884676 0 -135.84335774884676 237.60299554327503 0 0 0 0 165.04334047877069 -74.658149093163956 0 -74.658149093163956 45.699134291658993 0 0 0 0 -13.103849541780477 -169.70742189722478 0 -169.70742189722478 132.62627878731291 0 0 0 0 117.40332100296604 -85.494537021702854 0 -85.494537021702854 143.9612518116337 0 0 0 0 344.72378251868815 8.5342236164142378 0 8.5342236164142378 181.46475451613151 0 0 0 0 165.59780898046779 -86.674081451837992 0 -86.674081451837992 15.838091533543775 0 0 0 0 133.88575289805925 -88.48252111452166 0 -88.48252111452166 147.76898762464043 0 0 0 0 160.44752928874755 -61.372709759592908 0 -61.372709759592908 80.904801352415234 0 0 0 0 100.32492064844627 -53.276244863554894 0 -53.276244863554894 90.681751985670417 0 0 0 0 105.87553221868407 -11.58939621441823 0 -11.58939621441823 237.5131694797019 0 0 0 0 66.285250255545634 83.240578236574947 0 83.240578236574947 10.514416617515963 0 0 0 0 0.49436957304385387 0.64006245913977011 0 0.64006245913977011 1.1720070303341004 0 0 0 0 40.982308290932295 59.952928565449838 0 59.952928565449838 221.00106324622175 0 0 0 0 20.573664363692728 -63.659505254458054 0 -63.659505254458054 271.41642805379524 0 0 0 0 21.722676341390525 -63.800044090610754 0 -63.800044090610754 270.84562283363994 0 0 0 0 -3.0482234200004541 -121.36880044741702 0 -121.36880044741702 256.75801916031924 0 0 0 0 -0.069433270697762228 -11.773731987981591 0 -11.773731987981591 181.00627301057102 0 0 0 0 35.935859001915929 -110.92219248851325 0 -110.92219248851325 298.15193625356551 0 0 0 0 5.743320929922664 -34.752357003606448 0 -34.752357003606448 107.09417702742212 0 0 0 0 0.016066994099401759 -14.162221444137685 0 -14.162221444137685 110.64518997068808 0 0 0 0 -3.1270913405898071 -36.700472744734725 0 -36.700472744734725 164.45603069151548 0 0 0 0 16.076561657699294 -34.713177283898403 0 -34.713177283898403 56.138860256964108 0 0 0 0 15.13345213472453 -31.180189490158227 0 -31.180189490158227 105.86199161898367 0 0 0 0 -15.284971812553991 76.753499468737573 0 76.753499468737573 150.61476559903531 0 0 0 0 0.5576963064172713 1.3338971348699857 0 1.3338971348699857 2.7839077970561448 0 0 0 0 31.887953490242836 -143.72202443995047 0 -143.72202443995047 241.98464907033485 0 0 0 0 0.073996832749423147 0.45847840207181889 0 0.45847840207181889 1.9858002636759124 0 0 0 0 0.030668141645972882 -1.8144036418234464 0 -1.8144036418234464 23.885570604783425 0 0 0 0 -33.533264644582374 -134.85542873769737 0 -134.85542873769737 740.88484749451163 0 0 0 0 -73.187409891873443 68.960347600106616 0 68.960347600106616 735.92633811479027 0 0 0 0 0.15189113748595978 62.10421790185724 0 62.10421790185724 661.6959174258227 0 0 0 0 -75.977334361653021 22.801760308560915 0 22.801760308560915 683.92375583957983 0 0 0 0 -80.471790898496792 44.350804684849209 0 44.350804684849209 701.38195927377092 0 0 0 0 69.758098982897877 85.496558594350063 0 85.496558594350063 537.86253756408405 0 0 0 0 54.017775659540661 32.828858203916752 0 32.828858203916752 490.77812412231287 0 0 0 0 439.5258655123144 405.28795527455077 0 405.28795527455077 835.44902229096624 0 0 0 0 300.98690892800823 187.25072954150528 0 187.25072954150528 557.73221820255276 0 0 0 0 -98.043576180291183 78.341401673525979 0 78.341401673525979 950.58415849221637 0 0 0 0 20.830790217164008 -375.69568152633292 0 -375.69568152633292 888.21166430622725 0 0 0 0 66.400635075133977 261.60242459282745 0 261.60242459282745 1139.2274813721087 0 0 0 0 3.2828340979745065 5.86781871494901 0 5.86781871494901 12.728450804286865 0 0 0 0 112.63143649250509 -110.15049998174072 0 -110.15049998174072 189.24796108593 0 0 0 0 -45.357186623035403 -126.33852103142635 0 -126.33852103142635 628.40908580194809 0 0 0 0 16.312817553302814 -84.512693315955403 0 -84.512693315955403 337.21176434612062 0 0 0 0 -0.15937625028204525 22.952817423389206 0 22.952817423389206 532.75926028846879 0 0 0 0 -65.54831553746358 -5.8534986450831639 0 -5.8534986450831639 612.25460355469841 0 0 0 0 -64.731028334618784 25.044081577187171 0 25.044081577187171 672.64377103559673 0 0 0 0 147.51115013200013 -85.627350418762717 0 -85.627350418762717 206.8466486523298 0 0 0 0 2.0537391496342905 -0.55306163532113128 0 -0.55306163532113128 0.63054848468450642 0 0 0 0 322.90070150596756 12.190607044182011 0 12.190607044182011 258.62256291853919 0 0 0 0 347.32532294295504 -63.895076367909724 0 -63.895076367909724 301.46706358433994 0 0 0 0 183.1334195672477 115.08815788038794 0 115.08815788038794 478.81940468489393 0 0 0 0 63.77814802451644 122.45189796483965 0 122.45189796483965 304.79008412133271 0 0 0 0 190.8165385917514 73.759166122908482 0 73.759166122908482 267.1002997835094 0 0 0 0 37.137874339608743 141.92174612376311 0 141.92174612376311 248.26396782460915 0 0 0 0 82.517154693727207 137.70866045315972 0 137.70866045315972 227.08580993422174 0 0 0 0 58.248838808299638 154.83645071483193 0 154.83645071483193 232.42029360696688 0 0 0 0 70.93538221663232 168.84149457820808 0 168.84149457820808 250.71524644400188 0 0 0 0 87.456846769189099 141.95015430394005 0 141.95015430394005 202.96555699090959 0 0 0 0 3.8422012479956473 -0.7477574165939842 0 -0.7477574165939842 0.71382258856302983 0 0 0 0 154.68711743912479 34.692968060719295 0 34.692968060719295 189.38612557204442 0 0 0 0 54.061555740813802 -54.231835519076412 0 -54.231835519076412 425.13851143655575 0 0 0 0 121.57771307453817 142.65709447743393 0 142.65709447743393 373.75986388001365 0 0 0 0 114.6490093727287 194.91715139984166 0 194.91715139984166 401.53389013880087 0 0 0 0 336.87257255270652 274.65322942525154 0 274.65322942525154 344.0086371089152 0 0 0 0 190.81700215007845 154.6453623480711 0 154.6453623480711 395.06929389522372 0 0 0 0 169.86585742259524 152.0333770010941 0 152.0333770010941 365.35151028085988 0 0 0 0 112.14075029232572 74.758935969480717 0 74.758935969480717 396.39737206213022 0 0 0 0 366.36917656963794 120.64170272633422 0 120.64170272633422 357.54556646323044 0 0 0 0 45.459000285330603 47.536026158936238 0 47.536026158936238 302.33896793472559 0 0 0 0 97.452194386117526 104.39403285313438 0 104.39403285313438 336.73569536544005 0 0 0 0 62.343555514917853 53.036013191843153 0 53.036013191843153 283.34030440187007 0 0 0 0 71.291279005256456 155.00128489055146 0 155.00128489055146 335.27636020189675 0 0 0 0 78.438116865120492 156.75646661221754 0 156.75646661221754 328.53240137086073 0 0 0 0 49.63281394725368 202.19052629038174 0 202.19052629038174 375.10044725890043 0 0 0 0 48.910993214448808 197.03639842656042 0 197.03639842656042 376.91598620552526 0 0 0 0 320.38468249482401 145.01754287234465 0 145.01754287234465 373.6502816703719 0 0 0 0 178.96068347052142 102.29100113480968 0 102.29100113480968 436.93618554256523 0 0 0 0 79.611597235483117 138.06198147862455 0 138.06198147862455 404.53892391194586 0 0 0 0 142.50646490336294 173.66952236363863 0 173.66952236363863 368.29248083117807 0 0 0 0 125.45089433733654 81.785991381627582 0 81.785991381627582 375.99075092674286 0 0 0 0 146.87558844145519 109.03372350374252 0 109.03372350374252 337.1745371882605 0 0 0 0 80.088432183793245 98.509091891921472 0 98.509091891921472 344.43752253800972 0 0 0 0 36.683886605062753 128.73623801482663 0 128.73623801482663 353.06236254284522 0 0 0 0 47.787337668945838 95.758421482704676 0 95.758421482704676 250.34903566050713 0 0 0 0 90.709797258711973 161.64523626984283 0 161.64523626984283 285.95173562056709 0 0 0 0 142.4372633520783 148.26604321612979 0 148.26604321612979 178.19261237141393 0 0 0 0 48.540869093611832 185.65446563724808 0 185.65446563724808 395.42930330358337 0 0 0 0 53.390160872093134 85.568723255100878 0 85.568723255100878 187.19512200324363 0 0 0 0 5.1034038962461636 123.71370419217496 0 123.71370419217496 339.96221529479328 0 0 0 0 17.10488018358069 127.6205336182249 0 127.6205336182249 332.79008392145829 0 0 0 0 12.816760664719595 158.25777228446611 0 158.25777228446611 509.32714789148378 0 0 0 0 -53.05975498009343 -73.041332560878544 0 -73.041332560878544 78.550001107699245 0 0 0 0 -9.9864311012597682 20.485657318080428 0 20.485657318080428 281.61257040277883 0 0 0 0 67.5786292218516 25.382304632945448 0 25.382304632945448 47.558071284074231 0 0 0 0 152.68117714007531 84.530408612457052 0 84.530408612457052 75.117340701727699 0 0 0 0 50.639544059525178 -58.733369386695074 0 -58.733369386695074 -13.532088388555877 0 0 0 0 -135.63942994005697 13.638925233243135 0 13.638925233243135 116.76612410896496 0 0 0 0 91.879180986969317 126.78906321123995 0 126.78906321123995 155.15646164147938 0 0 0 0 71.967152901991867 46.117331919756438 0 46.117331919756438 131.82925751983828 0 0 0 0 78.563998542104855 47.827619748209997 0 47.827619748209997 88.073309321730619 0 0 0 0 70.695566387386634 71.916359675390652 0 71.916359675390652 182.69318960401054 0 0 0 0 28.10181451876123 -15.658583066707621 0 -15.658583066707621 -8.7866233386107524 0 0 0 0 57.846194702153156 65.853565616314853 0 65.853565616314853 73.714679936119524 0 0 0 0 30.574575661175913 -11.64081624089283 0 -11.64081624089283 9.262965515029892 0 0 0 0 22.184642511945867 -15.344942666091214 0 -15.344942666091214 8.9590168898890852 0 0 0 0 9.584976323097635 -22.30589298199726 0 -22.30589298199726 16.679747332839952 0 0 0 0 17.207640090397717 -13.516453657494367 0 -13.516453657494367 12.987619600640755 0 0 0 0 -69.914051510013337 34.407477438219594 0 34.407477438219594 40.209376142937387 0 0 0 0 -17.628673053123748 -40.300021838165947 0 -40.300021838165947 120.40860131841305 0 0 0 0 14.028689546395299 -33.882198726322201 0 -33.882198726322201 19.518090682851437 0 0 0 0 112.72566316497171 -48.938272393406578 0 -48.938272393406578 17.423043845278983 0 0 0 0 40.607209236878475 77.894174440487689 0 77.894174440487689 100.45536734626288 0 0 0 0 -0.20422783308463971 0.76241085593208446 0 0.76241085593208446 0.51086179301616619 0 0 0 0 95.934584399207864 118.15556218290465 0 118.15556218290465 374.24553625997737 0 0 0 0 146.63196881111946 154.18455475319956 0 154.18455475319956 22.55483885240011 0 0 0 0 0.91981839724391179 1.0611451042585465 0 1.0611451042585465 2.5226075215078776 0 0 0 0 300.90565789534639 -290.25611974154515 0 -290.25611974154515 569.96249262984293 0 0 0 0 189.98430377442136 -30.065654708950206 0 -30.065654708950206 457.61460615052329 0 0 0 0 36.687486458195053 -65.301188431375294 0 -65.301188431375294 190.99358057322979 0 0 0 0 97.801488944081598 33.437011725995177 0 33.437011725995177 76.074137524148682 0 0 0 0 101.76742898934455 -3.1811428179134964 0 -3.1811428179134964 413.92171562432804 0 0 0 0 249.90580873862268 -141.23300639662989 0 -141.23300639662989 165.79170233422929 0 0 0 0 186.89907034417524 -122.54824595530545 0 -122.54824595530545 167.1230933777274 0 0 0 0 122.43058531077577 -139.733676675894 0 -139.733676675894 105.11865807232971 0 0 0 0 185.22705487931916 -103.86225795329881 0 -103.86225795329881 65.374395693363113 0 0 0 0 226.01126929794145 -141.61066852945578 0 -141.61066852945578 63.787848530438623 0 0 0 0 244.65786873326215 -161.56661556757444 0 -161.56661556757444 80.424492610737502 0 0 0 0 150.77178613958768 -126.85111009473076 0 -126.85111009473076 85.044572450718078 0 0 0 0 164.19476283616689 -92.529737367232656 0 -92.529737367232656 51.475036364419793 0 0 0 0 274.4671029674264 -195.59650593017113 0 -195.59650593017113 109.86721232755599 0 0 0 0 1.1103011232100122 2.5858500562276667 0 2.5858500562276667 7.3084767588419934 0 0 0 0 222.46058039834736 -143.92785202118 0 -143.92785202118 77.357559682248393 0 0 0 0 -26.250105786404447 -2.8962618773084046 0 -2.8962618773084046 22.957835013872227 0 0 0 0 1.0725477378450896 2.8528111005501304 0 2.8528111005501304 11.799064401087925 0 0 0 0 93.183654198788645 -128.02645519516454 0 -128.02645519516454 203.5895996111044 0 0 0 0 -6.8716157337983077 -4.5207784165216367 0 -4.5207784165216367 17.85875711941344 0 0 0 0 -19.242796640252891 -20.207596084250213 0 -20.207596084250213 19.785352410335008 0 0 0 0 143.6366922947941 -77.758150666172241 0 -77.758150666172241 182.13584702835124 0 0 0 0 265.97693118002462 -95.973467134085695 0 -95.973467134085695 85.275582627305994 0 0 0 0 -0.24082700008734825 1.5081862465282443 0 1.5081862465282443 2.6376215565049055 0 0 0 0 343.06975506237222 -119.22486375113931 0 -119.22486375113931 5.0125814388275103 0 0 0 0 191.48438170987038 -207.52159255151923 0 -207.52159255151923 163.08310098841503 0 0 0 0 109.68082664660915 -113.61987723745824 0 -113.61987723745824 93.526696932934556 0 0 0 0 77.538255526897046 -161.52133308297175 0 -161.52133308297175 102.4192657586018 0 0 0 0 21.474900239255476 -82.589940678133644 0 -82.589940678133644 120.63531935342149 0 0 0 0 83.746891037730165 -144.85184013177764 0 -144.85184013177764 110.26595681248091 0 0 0 0 56.523759607423813 -56.197045185955631 0 -56.197045185955631 87.556740054669262 0 0 0 0 -131.67759962189393 17.681659774098534 0 17.681659774098534 42.152185530453494 0 0 0 0 -203.50348913075948 -44.122563339829412 0 -44.122563339829412 59.094843600764762 0 0 0 0 -121.10037344489626 -196.18560279259555 0 -196.18560279259555 113.56383944474646 0 0 0 0 78.978737171462853 111.7177934660217 0 111.7177934660217 146.93017395842253 0 0 0 0 0.62068238996549896 -0.93979389523596435 0 -0.93979389523596435 1.0459334118539179 0 0 0 0 15.581566429849204 -118.51365472975465 0 -118.51365472975465 -24.313544263714448 0 0 0 0 -7.9441993572302181 6.6330654204789425 0 6.6330654204789425 25.698496636333402 0 0 0 0 -13.998786265206531 6.1929390044716861 0 6.1929390044716861 59.126393584460736 0 0 0 0 -81.447570871290964 73.456330042226455 0 73.456330042226455 115.80560743747299 0 0 0 0 -17.303698255102745 -48.469214357380906 0 -48.469214357380906 95.962373342463252 0 0 0 0 140.66359581995948 -161.40109288493841 0 -161.40109288493841 170.80952706791049 0 0 0 0 -19.501074777699841 48.204400758659176 0 48.204400758659176 17.288692305738721 0 0 0 0 -4.4127609137300432 2.3676616862595319 0 2.3676616862595319 5.8722497812310017 0 0 0 0 -14.195056125553322 -5.0331479081304424 0 -5.0331479081304424 50.824342346536127 0 0 0 0 246.50733580805172 -73.499093042495588 0 -73.499093042495588 69.419764678998945 0 0 0 0 108.75636811290133 -80.102782497559019 0 -80.102782497559019 73.285928834829974 0 0 0 0 0.028202860745143887 -7.7116163011213406 0 -7.7116163011213406 2.1831328419755263 0 0 0 0 140.99292441764965 -206.35274374012715 0 -206.35274374012715 26.985385107032926 0 0 0 0 252.92693485789459 -90.607137699608302 0 -90.607137699608302 -4.3871706370991888 0 0 0 0 334.20903468434426 -183.7072462101878 0 -183.7072462101878 2.1798312864957552 0 0 0 0 24.315191074942049 -16.262282796797535 0 -16.262282796797535 -7.0625248502585691 0 0 0 0 2.3728810758564824 -18.991053299904117 0 -18.991053299904117 45.13287076212896 0 0 0 0 -17.794287386646374 -66.50277037969272 0 -66.50277037969272 32.215049624636322 0 0 0 0 -317.37947849730972 159.84170126021763 0 159.84170126021763 -32.010762985301881 0 0 0 0 0.45417489164784008 -0.20046404717825839 0 -0.20046404717825839 -2.1697373981868324 0 0 0 0 -216.35489732323163 -37.850163597463506 0 -37.850163597463506 132.05759813412988 0 0 0 0 28.446593377221461 -16.422027680525616 0 -16.422027680525616 11.394049783569244 0 0 0 0 28.301714187456355 -95.245935537470018 0 -95.245935537470018 55.336049604590698 0 0 0 0 -134.52953266211171 -11.158794537962876 0 -11.158794537962876 89.10508904678818 0 0 0 0 -208.50668479446131 48.676113348652848 0 48.676113348652848 28.195494857889571 0 0 0 0 -140.49580232172093 -24.535664012115376 0 -24.535664012115376 61.157181794517101 0 0 0 0 -256.18660638033748 42.312632482215122 0 42.312632482215122 18.483149023819351 0 0 0 0 -270.54640871381002 106.09034099920973 0 106.09034099920973 233.64992417662688 0 0 0 0 -380.41616783978338 -179.19027645070673 0 -179.19027645070673 312.15395433655431 0 0 0 0 -337.41223006061614 140.75149398219583 0 140.75149398219583 464.64346522389678 0 0 0 0 -314.60237126199155 -26.934797938876837 0 -26.934797938876837 506.94130577738179 0 0 0 0 -362.25062132611367 274.27001872269466 0 274.27001872269466 625.52766263234116 0 0 0 0 -372.66506216092034 -253.50539754942633 0 -253.50539754942633 888.36196091537568 0 0 0 0 -302.47595199582952 186.68036962105361 0 186.68036962105361 175.97712560938453 0 0 0 0 0.079470345901002104 -2.872514252128203 0 -2.872514252128203 10.589312624546011 0 0 0 0 226.83495208693995 -220.32547106485208 0 -220.32547106485208 120.25934296045307 0 0 0 0 58.748893157437351 -169.17280905512553 0 -169.17280905512553 120.08823620549083 0 0 0 0 477.89759771813078 -582.35651083550511 0 -582.35651083550511 619.46563941912768 0 0 0 0 -26.917305784631026 -145.73673450521892 0 -145.73673450521892 822.53975353632995 0 0 0 0 -0.60235130792659675 -149.5584715657983 0 -149.5584715657983 297.74265778400149 0 0 0 0 -24.922221311867816 -42.963286916190555 0 -42.963286916190555 80.545326247009598 0 0 0 0 120.82233602530823 -267.43602667769755 0 -267.43602667769755 111.78244333451767 0 0 0 0 5.4240079105193217 -261.52333616899159 0 -261.52333616899159 64.449093154609727 0 0 0 0 157.53963990578222 -237.5094394383118 0 -237.5094394383118 59.391298226637446 0 0 0 0 201.47061182563448 -314.73714977227655 0 -314.73714977227655 -16.304019275434257 0 0 0 0 168.31487420169287 -245.940364498073 0 -245.940364498073 0.5152872262699475 0 0 0 0 -335.33765852472743 -69.079828817324596 0 -69.079828817324596 -32.880748049289991 0 0 0 0 11.192402324543167 -247.78336437592111 0 -247.78336437592111 -19.315130867185871 0 0 0 0 -128.92128720377855 -227.19899467067899 0 -227.19899467067899 106.97731546412433 0 0 0 0 -0.4412995384295294 -5.3746741842758663 0 -5.3746741842758663 29.051030585137887 0 0 0 0 -515.83889504722856 18.923166023459743 0 18.923166023459743 76.698872855176887 0 0 0 0 -432.53201265277676 -74.192464929008565 0 -74.192464929008565 35.819930901589032 0 0 0 0 -313.0517382800449 -48.224901764479 0 -48.224901764479 67.394379907153962 0 0 0 0 -353.36071238403701 -29.39715830012824 0 -29.39715830012824 17.874928473909677 0 0 0 0 -351.71568587813999 -10.652981688586806 0 -10.652981688586806 32.674802534296759 0 0 0 0 -305.92902211827436 80.107354033631054 0 80.107354033631054 117.14295909266093 0 0 0 0 -381.34691934527768 -69.541090111646554 0 -69.541090111646554 77.310120740363345 0 0 0 0 -305.31730536999294 -17.276732010981505 0 -17.276732010981505 23.855295088782441 0 0 0 0 -312.28856819784505 -46.660350661506527 0 -46.660350661506527 41.921693557500475 0 0 0 0 -318.06317524325277 -2.1724098889644665 0 -2.1724098889644665 26.76105727693357 0 0 0 0 -388.95544548339058 0.43369779437489342 0 0.43369779437489342 24.370319690788165 0 0 0 0 -342.83535060000878 -38.428721264530623 0 -38.428721264530623 18.519879656043486 0 0 0 0 -341.08227588846364 -20.184847722564427 0 -20.184847722564427 2.7317153515759856 0 0 0 0 -385.14991369502786 -16.610262208640052 0 -16.610262208640052 -5.0758792793785688 0 0 0 0 -367.22343724003076 -0.29548813249130035 0 -0.29548813249130035 3.4800285861147131 0 0 0 0 -361.28252781456854 -20.461771169490021 0 -20.461771169490021 20.366239841750939 0 0 0 0 -309.47969704393927 -25.821229764562304 0 -25.821229764562304 -5.4248741977789905 0 0 0 0 -304.39036030546504 -14.930328778158582 0 -14.930328778158582 13.729928211377228 0 0 0 0 -281.05839452185364 -45.288667681681545 0 -45.288667681681545 22.87443179037291 0 0 0 0 -275.53950149350976 -49.723324565838993 0 -49.723324565838993 19.201661866885843 0 0 0 0 -296.37000557980491 -29.634677499266218 0 -29.634677499266218 -2.9060998710774584 0 0 0 0 -363.90728623223094 -6.4938179644486809 0 -6.4938179644486809 15.7483929471382 0 0 0 0 -365.72314622394856 -15.260375526660027 0 -15.260375526660027 -8.5191830809417297 0 0 0 0 -461.01041878867272 4.7716184970231552 0 4.7716184970231552 11.059748581086751 0 0 0 0 -507.36512276901431 -48.293128389761478 0 -48.293128389761478 65.338331644714344 0 0 0 0 -1.5408201499149967 -4.1310009770309142 0 -4.1310009770309142 42.364014004398015 0 0 0 0 -501.93077399094591 -67.730700693251492 0 -67.730700693251492 59.742732828657608 0 0 0 0 -802.69976696637968 -230.34177261983965 0 -230.34177261983965 239.53109404251882 0 0 0 0 -461.06495017150144 -19.709737855554522 0 -19.709737855554522 30.572380490106298 0 0 0 0 -457.53250992779067 21.578787053374981 0 21.578787053374981 -9.4520803133636946 0 0 0 0 -634.36444738121645 -40.54844357080583 0 -40.54844357080583 30.495925237780398 0 0 0 0 -460.17164620385938 -24.283249065450946 0 -24.283249065450946 32.618652721117542 0 0 0 0 -2.0636384889151218 -10.941266580922036 0 -10.941266580922036 5.1908048919723058 0 0 0 0 -727.57050835293285 111.80437291723138 0 111.80437291723138 73.081503405264812 0 0 0 0 -515.76365105171135 114.77931680627808 0 114.77931680627808 -17.952852135480498 0 0 0 0 -427.65063759971963 75.618089183008124 0 75.618089183008124 -5.0285397514817305 0 0 0 0 -494.77242703738011 122.55993469913665 0 122.55993469913665 -24.18198631129053 0 0 0 0 -610.32438712541261 143.8083701817086 0 143.8083701817086 -1.7716287123039365 0 0 0 0 -573.19011432223147 21.2015202212242 0 21.2015202212242 2.6469112347986083 0 0 0 0 -443.31690762145081 16.761292787618004 0 16.761292787618004 -13.454222379165003 0 0 0 0 -399.90489220262316 -12.426606378430733 0 -12.426606378430733 9.4976917750531129 0 0 0 0 -456.13613702169641 11.634519543724309 0 11.634519543724309 9.8801994238892803 0 0 0 0 -461.1249580677686 28.161290680443926 0 28.161290680443926 21.113787452544784 0 0 0 0 -571.90863497835016 76.846625910045987 0 76.846625910045987 -3.1758724716928555 0 0 0 0 -412.67196948315905 43.601325096722576 0 43.601325096722576 1.4165747377628577 0 0 0 0 -424.49422070248505 8.5146846420002475 0 8.5146846420002475 31.251611221581697 0 0 0 0 -400.09361697094027 18.886032130016247 0 18.886032130016247 35.644564979680581 0 0 0 0 -380.30324010412369 -15.408252266373893 0 -15.408252266373893 29.86777963536224 0 0 0 0 -397.8562713580377 5.7793152206359082 0 5.7793152206359082 47.433478816456045 0 0 0 0 -398.14369334862204 46.464849312716979 0 46.464849312716979 16.922268221547711 0 0 0 0 -1245.5148741706589 107.09573796949053 0 107.09573796949053 371.74083752880279 0 0 0 0 -203.86566981147371 -103.29474430926939 0 -103.29474430926939 9.1775226454919903 0 0 0 0 -309.81130945671703 -207.1344129489953 0 -207.1344129489953 -65.497508625203409 0 0 0 0 -601.04187127006389 -341.85175352651822 0 -341.85175352651822 11.832640901117884 0 0 0 0 -365.40853238748969 -154.74548055912055 0 -154.74548055912055 101.67965072267543 0 0 0 0 -735.99209224286051 -145.01608008132825 0 -145.01608008132825 225.61432052058444 0 0 0 0 48.180994114465648 -422.3395297379202 0 -422.3395297379202 93.888041516707744 0 0 0 0 -368.59410010488131 -202.88682115242079 0 -202.88682115242079 226.00271600438282 0 0 0 0 503.70086001033269 -357.30004916678627 0 -357.30004916678627 -70.919154013716252 0 0 0 0 743.10466768790593 -270.4914980765534 0 -270.4914980765534 -55.233010475352785 0 0 0 0 163.43048339868255 -28.385575633022199 0 -28.385575633022199 110.20057909742536 0 0 0 0 -55.345064942233421 -492.59011568518781 0 -492.59011568518781 581.07830918211039 0 0 0 0 175.10266498227588 473.40182179677026 0 473.40182179677026 570.53312966603607 0 0 0 0 126.64444697455519 301.87106419220811 0 301.87106419220811 -29.741770516789074 0 0 0 0 436.02474943625475 -634.40157281815959 0 -634.40157281815959 1285.7767102676935 0 0 0 0 -970.69885829078066 281.0992789639422 0 281.0992789639422 178.40321580700629 0 0 0 0 -1.5412244041636058 5.1664896536716265 0 5.1664896536716265 44.485128155790854 0 0 0 0 -445.23872298881861 -333.4704741546841 0 -333.4704741546841 292.17922327330962 0 0 0 0 -406.15107001995443 51.079678827823955 0 51.079678827823955 54.806008335181104 0 0 0 0 -2.7141450717672462 1.8745928999102748 0 1.8745928999102748 48.509257311503674 0 0 0 0 -280.38806589804062 32.410421416787358 0 32.410421416787358 30.871704326016697 0 0 0 0 -371.69172236786562 14.169666720561509 0 14.169666720561509 47.469938672820717 0 0 0 0 -312.09813578183093 -4.9321228714325116 0 -4.9321228714325116 53.229382816090947 0 0 0 0 -378.3068107096019 65.191910589775944 0 65.191910589775944 46.056029552204564 0 0 0 0 -202.36123547342459 -20.334243722234532 0 -20.334243722234532 64.770286253859013 0 0 0 0 -257.61212844435522 41.82224607507851 0 41.82224607507851 58.973873990446009 0 0 0 0 -255.43916394261305 -54.115903607627843 0 -54.115903607627843 101.32736210806752 0 0 0 0 -189.21467222014144 -81.341226828029903 0 -81.341226828029903 97.262152102129221 0 0 0 0 -219.07027237703926 -49.189147749539643 0 -49.189147749539643 64.293240390448773 0 0 0 0 -298.47664279190485 -1.9455651155476517 0 -1.9455651155476517 42.341844245471293 0 0 0 0 -235.88511432727842 -49.863814431519131 0 -49.863814431519131 63.014577000227291 0 0 0 0 -261.59445247869644 -61.733459788812979 0 -61.733459788812979 68.289730398439133 0 0 0 0 -269.4525787374796 -25.267807790834013 0 -25.267807790834013 49.069310399667302 0 0 0 0 203.99614529499672 61.574440126748868 0 61.574440126748868 282.39047167591423 0 0 0 0 49.422938779465909 60.048118546143712 0 60.048118546143712 -43.055771523277144 0 0 0 0 -168.07596727218424 129.54028179105467 0 129.54028179105467 270.1228603862063 0 0 0 0 59.616781970798456 -66.058036557474452 0 -66.058036557474452 -1.2421026892761802 0 0 0 0 73.712323973526964 -60.15266072873419 0 -60.15266072873419 -4.5694814863691136 0 0 0 0 7.3524996136123235 -14.225803704442665 0 -14.225803704442665 26.54265384447411 0 0 0 0 -102.30158428193408 -89.8140936174334 0 -89.8140936174334 56.407659240519934 0 0 0 0 15.51582941183392 -119.03167292372291 0 -119.03167292372291 58.273325763187131 0 0 0 0 451.99355416871367 -135.13275622224501 0 -135.13275622224501 55.52864452572976 0 0 0 0 625.45694179659586 -19.789215531964146 0 -19.789215531964146 -8.9689382641147404 0 0 0 0 636.20635896461863 -40.234971492280238 0 -40.234971492280238 97.961121667467523 0 0 0 0 3.1598854517161268 -4.8256039179497634 0 -4.8256039179497634 9.4013244821135658 0 0 0 0 -179.00091908101558 3.636587488704663 0 3.636587488704663 904.28765481003575 0 0 0 0 1872.2076309268068 -194.43873220857358 0 -194.43873220857358 8.4556255533352669 0 0 0 0 54.33970126917211 78.780413120503908 0 78.780413120503908 208.3345589176497 0 0 0 0 147.72410216573559 -188.3825791015839 0 -188.3825791015839 532.8868083403886 0 0 0 0 208.6920419184562 -528.83181132201935 0 -528.83181132201935 843.24453849984491 0 0 0 0 357.53030613203146 40.059109312348028 0 40.059109312348028 35.386810231877462 0 0 0 0 936.82467118069462 -339.06802917454456 0 -339.06802917454456 169.38420978529211 0 0 0 0 268.6879410844208 -101.25143068939269 0 -101.25143068939269 452.46154636890969 0 0 0 0 -50.124189613046383 -68.934881926562412 0 -68.934881926562412 652.20160313269798 0 0 0 0 20.575064945513873 190.68922624805566 0 190.68922624805566 445.30429912421187 0 0 0 0 1.4846596436472739 -0.80895982972356784 0 -0.80895982972356784 0.87539368127035466 0 0 0 0 162.37940918527283 -115.48917594510203 0 -115.48917594510203 326.0346818928781 0 0 0 0 238.29019265587681 -41.977408520588597 0 -41.977408520588597 382.63342645596094 0 0 0 0 200.91677077339554 -10.27762150567662 0 -10.27762150567662 361.70062681528179 0 0 0 0 288.58336296306379 94.763785100239602 0 94.763785100239602 487.33359379039666 0 0 0 0 421.87457432815154 -120.12015036033154 0 -120.12015036033154 246.11708705312776 0 0 0 0 121.2729322944665 -24.04813473660306 0 -24.04813473660306 99.88099377926028 0 0 0 0 209.32650314967168 337.50543805722373 0 337.50543805722373 -74.427064859015445 0 0 0 0 255.38547531787708 172.92490088057548 0 172.92490088057548 378.95091843908176 0 0 0 0 298.56834797414626 130.42402894917632 0 130.42402894917632 133.97851884768829 0 0 0 0 389.93347092353724 288.3034526649235 0 288.3034526649235 318.06073514519358 0 0 0 0 218.4625741193654 345.64542969182867 0 345.64542969182867 687.24639077788925 0 0 0 0 2.7659872148422995 -2.1211772843664143 0 -2.1211772843664143 2.8043756114457743 0 0 0 0 -209.19242619994748 36.959578131545641 0 36.959578131545641 871.52047357221659 0 0 0 0 -165.48733369085218 332.32139939197998 0 332.32139939197998 902.89357811728405 0 0 0 0 77.797352532545574 181.75277846340487 0 181.75277846340487 764.73316106230322 0 0 0 0 85.410640328449517 137.08637163396361 0 137.08637163396361 616.20083571108808 0 0 0 0 108.20788899111085 232.90776233827 0 232.90776233827 650.50898228132155 0 0 0 0 62.339224878453862 199.96751527180913 0 199.96751527180913 620.12221226511247 0 0 0 0 101.36994628818638 192.26236515397932 0 192.26236515397932 549.71275104511005 0 0 0 0 116.52620287263788 102.09769249779595 0 102.09769249779595 675.08630392623672 0 0 0 0 166.35507675546614 193.95844434675473 0 193.95844434675473 449.39459471233386 0 0 0 0 173.318279747063 244.30375074693666 0 244.30375074693666 512.39522098825546 0 0 0 0 -187.84363364436206 -103.99260268048943 0 -103.99260268048943 195.54307478959163 0 0 0 0 -232.72707969797784 -36.563722690229042 0 -36.563722690229042 97.86400680692168 0 0 0 0 -130.17269303661124 -120.30532071136804 0 -120.30532071136804 135.52996203812836 0 0 0 0 -106.48154367657662 -18.239842955637641 0 -18.239842955637641 47.805039122795279 0 0 0 0 -130.9648507587508 -36.388940469750196 0 -36.388940469750196 129.83842513374293 0 0 0 0 -830.81995760983455 369.54061398844919 0 369.54061398844919 90.762179527117041 0 0 0 0 -0.62905178281294116 4.6365732557621602 0 4.6365732557621602 33.013724522716018 0 0 0 0 19.759956080223674 348.88872708569761 0 348.88872708569761 -160.31232997361394 0 0 0 0 7.0815196830117202 21.751510275600594 0 21.751510275600594 -129.61520671768812 0 0 0 0 -18.195841858707354 708.51329387570604 0 708.51329387570604 399.08373524238777 0 0 0 0 -174.55092706764719 421.69546691445282 0 421.69546691445282 1218.0790688937814 0 0 0 0 1046.5204061468812 517.80417588080672 0 517.80417588080672 335.31797262337568 0 0 0 0 -294.23582561997137 52.73529289576436 0 52.73529289576436 1325.0681146442425 0 0 0 0 -84.016961336998975 43.383497276723574 0 43.383497276723574 1522.6324939761143 0 0 0 0 -78.784374147494418 -30.519399746860472 0 -30.519399746860472 551.13744551867603 0 0 0 0 145.9395835984169 -135.33303971024452 0 -135.33303971024452 28.256586165436602 0 0 0 0 0.39880917575864139 2.2527323452356542 0 2.2527323452356542 12.67834456477798 0 0 0 0 333.49585357005799 -478.58999761964196 0 -478.58999761964196 649.1168783023677 0 0 0 0 -98.739815038375582 -257.57473516694517 0 -257.57473516694517 485.06044757541895 0 0 0 0 -129.10947462057447 -9.0010652491382643 0 -9.0010652491382643 587.1409915659433 0 0 0 0 -165.78762569711307 134.52851423708671 0 134.52851423708671 494.56990533027124 0 0 0 0 -196.95839440100963 -90.654942717982522 0 -90.654942717982522 497.99563681895961 0 0 0 0 -221.49415187265004 -29.921893920531147 0 -29.921893920531147 351.65496841979257 0 0 0 0 -304.9551380824231 -23.318162613860522 0 -23.318162613860522 413.53584692775985 0 0 0 0 -248.02548829068883 -125.12775915465045 0 -125.12775915465045 417.98320787297052 0 0 0 0 -124.60079522382148 -176.60636680866992 0 -176.60636680866992 232.96406219161781 0 0 0 0 -56.127092959966831 278.58137721581988 0 278.58137721581988 45.671883740390513 0 0 0 0 -401.29609652587908 130.98651322890782 0 130.98651322890782 6.4957780744844058 0 0 0 0 -360.01712725473681 119.40565923031534 0 119.40565923031534 311.54941525380127 0 0 0 0 -194.42201934737113 52.142892840669447 0 52.142892840669447 264.71390546011753 0 0 0 0 180.2818527179852 383.61844123778246 0 383.61844123778246 388.88100873171243 0 0 0 0 -159.75054785884367 71.235902348300442 0 71.235902348300442 701.51786150221596 0 0 0 0 2.6476605810014213 -1.0339717300873446 0 -1.0339717300873446 0.9320740987911158 0 0 0 0 212.56618138170688 164.16607458929684 0 164.16607458929684 -84.462438944432506 0 0 0 0 -60.359807303346429 258.34911764391632 0 258.34911764391632 324.82445124087462 0 0 0 0 88.888765788183719 195.34897169229316 0 195.34897169229316 501.65220778899857 0 0 0 0 259.25523152830158 18.536542974938925 0 18.536542974938925 189.75847006125878 0 0 0 0 6.1875781999709059 -2.8646938113106621 0 -2.8646938113106621 2.3376409294785816 0 0 0 0 183.76010781528475 219.66071728916813 0 219.66071728916813 347.13508035989798 0 0 0 0 267.03203609898401 277.27355608068774 0 277.27355608068774 371.49982102552622 0 0 0 0 -88.869079130171343 133.21247206624969 0 133.21247206624969 50.616187199972046 0 0 0 0 -98.21302731152204 18.243352874655443 0 18.243352874655443 -95.595355532968824 0 0 0 0 225.98985507884572 162.061788620078 0 162.061788620078 -968.04978141876745 0 0 0 0 -180.59017288624773 260.2395290646582 0 260.2395290646582 223.70797222702822 0 0 0 0 -66.725330179281627 14.408802600693889 0 14.408802600693889 678.76159929686037 0 0 0 0 75.554380790801133 697.58822913332006 0 697.58822913332006 -350.14261524512949 0 0 0 0 169.65862387344532 889.75786388875895 0 889.75786388875895 1022.968125196815 0 0 0 0 0.80436433346840985 1.8426228967370726 0 1.8426228967370726 -0.45960164313690655 0 0 0 0 -51.255028340168792 408.13094693265703 0 408.13094693265703 5.4381276586327658 0 0 0 0 17.217594494461991 1091.3127161699431 0 1091.3127161699431 -996.71260775093106 0 0 0 0 207.63433251815695 635.50041708995741 0 635.50041708995741 -611.61645117514854 0 0 0 0 1.9151340453063295 5.5788229058334267 0 5.5788229058334267 6.381582680994569 0 0 0 0 -409.61386587848756 978.31994229931297 0 978.31994229931297 124.08997453240227 0 0 0 0 -345.15323324710334 667.37230379250104 0 667.37230379250104 1365.6909634137992 0 0 0 0 757.00853056400774 502.56279199598066 0 502.56279199598066 782.09124252626498 0 0 0 0 711.19404795258197 16.865009468445351 0 16.865009468445351 292.28767644655818 0 0 0 0 159.45028250552969 277.7398897543826 0 277.7398897543826 1830.8509587416593 0 0 0 0 53.629200554268664 -468.97321406843912 0 -468.97321406843912 1909.319563312531 0 0 0 0 225.28445547308229 23.399703515646252 0 23.399703515646252 945.58844706180389 0 0 0 0 84.313534736908878 5.887891055932414 0 5.887891055932414 1265.8299184508021 0 0 0 0 88.768414953368392 -51.440863435184838 0 -51.440863435184838 847.30851061249268 0 0 0 0 184.19982626380988 -478.34699735410322 0 -478.34699735410322 1216.5692055997997 0 0 0 0 41.133017558725896 217.42178055476961 0 217.42178055476961 -994.2273948850634 0 0 0 0 -828.27556375205222 417.93928132085966 0 417.93928132085966 24.092478505590066 0 0 0 0 53.597453829039949 0.09332690053679471 0 0.09332690053679471 200.78492253152035 0 0 0 0 -11.724500870872021 155.7321999519404 0 155.7321999519404 317.45797440338356 0 0 0 0 -5.3026169699885788 13.664089527601266 0 13.664089527601266 -4.4576347957445002 0 0 0 0 -2.8307022209255592 24.710333508646727 0 24.710333508646727 25.262009844371278 0 0 0 0 0.66783000515033564 -41.584054931681749 0 -41.584054931681749 63.511516685147399 0 0 0 0 3.8452329688194293 -5.669504352722976 0 -5.669504352722976 12.28921208055899 0 0 0 0 -7.486552244773975 17.4088842876954 0 17.4088842876954 23.071023630309355 0 0 0 0 -24.30510904975722 17.268810046309227 0 17.268810046309227 28.729873569302072 0 0 0 0 -8.7097027386578532 13.039781690504082 0 13.039781690504082 -0.44106420056352391 0 0 0 0 -133.0539745289791 133.27478801437564 0 133.27478801437564 75.965510321540933 0 0 0 0 100.9735487524149 174.64796021795155 0 174.64796021795155 225.85061031909436 0 0 0 0 41.43213464672408 199.59967584196738 0 199.59967584196738 403.22623621170351 0 0 0 0 76.357223661794251 142.11630052374767 0 142.11630052374767 460.74121085503975 0 0 0 0 54.986819668563101 222.41563655331788 0 222.41563655331788 498.70770568234002 0 0 0 0 37.195761673246125 84.896243105052235 0 84.896243105052235 451.85229995480586 0 0 0 0 174.65408805965217 144.32457318475463 0 144.32457318475463 306.61085607521818 0 0 0 0 101.85211487960078 190.13981232522019 0 190.13981232522019 424.75059503817283 0 0 0 0 311.18652623890921 101.60246459307928 0 101.60246459307928 462.1489161469126 0 0 0 0 206.96342711339616 295.95167628143599 0 295.95167628143599 422.92138936982883 0 0 0 0 239.69666689978976 334.52846375035733 0 334.52846375035733 460.5960405588321 0 0 0 0 315.63761507103715 285.86144498337416 0 285.86144498337416 406.91715770004157 0 0 0 0 145.6008573208137 255.038365187811 0 255.038365187811 406.02258886679067 0 0 0 0 212.1896347127913 300.9928094091465 0 300.9928094091465 393.07884801081673 0 0 0 0 99.656088830736735 243.94061968199094 0 243.94061968199094 420.3789091761937 0 0 0 0 155.44441274321957 117.55010326270167 0 117.55010326270167 166.69470722695314 0 0 0 0 235.65436785479733 212.69343765233589 0 212.69343765233589 321.80054725302762 0 0 0 0 63.541991900317498 107.1343436468851 0 107.1343436468851 324.15231070442258 0 0 0 0 -0.93845839192855562 1.6055170463096999 0 1.6055170463096999 5.6581812966952896 0 0 0 0 -37.262065942846448 31.321102639269156 0 31.321102639269156 -5.6469045217709208 0 0 0 0 2.6258322815498234 6.3905807567147122 0 6.3905807567147122 -1.6057247675103401 0 0 0 0 6.8812300446086283 46.649783103292066 0 46.649783103292066 -16.78658487489156 0 0 0 0 -28.883002163252968 37.274818393983878 0 37.274818393983878 25.275053688441403 0 0 0 0 29.071772362836782 17.372208030039474 0 17.372208030039474 -26.428635698655853 0 0 0 0 28.90838729276993 23.002741282974966 0 23.002741282974966 -143.78233548145818 0 0 0 0 2.7040907997484709 5.5991228166144253 0 5.5991228166144253 -2.4256540333198977 0 0 0 0 174.59018925904365 336.3146383511048 0 336.3146383511048 517.52421848609083 0 0 0 0 -3.9312022256176533 107.4631639547315 0 107.4631639547315 -99.269773530604652 0 0 0 0 -23.122773023157379 65.402035956947657 0 65.402035956947657 58.385241843159747 0 0 0 0 -1.2086965810344736 55.901345737829615 0 55.901345737829615 -2.2242036730085601 0 0 0 0 -7.4239127763692068 34.943585606773922 0 34.943585606773922 50.480327314368424 0 0 0 0 -9.2612235990548015 31.242004811083461 0 31.242004811083461 39.301669854823558 0 0 0 0 -1.4404110719863183 40.946332996380988 0 40.946332996380988 27.084391374177358 0 0 0 0 -18.613398394316505 51.541577117337511 0 51.541577117337511 47.104119814532169 0 0 0 0 -0.81304455411100207 42.346625979964301 0 42.346625979964301 9.2689000350001152 0 0 0 0 3.2961681662709452 34.826677967652358 0 34.826677967652358 10.580522232452495 0 0 0 0 6.8601405940105451 19.521009719772337 0 19.521009719772337 -15.750663817769237 0 0 0 0 2.0888326429046629 33.194815614692743 0 33.194815614692743 9.202559417590237 0 0 0 0 2.0971062122839612 26.620994159424299 0 26.620994159424299 7.7441433740132197 0 0 0 0 6.8841716668832511 18.308848783127416 0 18.308848783127416 16.321850470871141 0 0 0 0 -22.88313182557431 27.623560057132636 0 27.623560057132636 20.817979979354277 0 0 0 0 -0.44981287153132143 22.771865602087928 0 22.771865602087928 17.31285071828097 0 0 0 0 -1.2815935689326352 25.817590560989629 0 25.817590560989629 18.412865467711526 0 0 0 0 -3.3483320709865438 30.974831927380365 0 30.974831927380365 18.464388428215898 0 0 0 0 -3.3642468481991727 31.240989205613005 0 31.240989205613005 14.833039787037706 0 0 0 0 -12.751384997615332 24.314948896948408 0 24.314948896948408 18.497581891897426 0 0 0 0 -11.559566496299112 27.406127715539697 0 27.406127715539697 17.114434055631136 0 0 0 0 -14.28000177570766 26.322960965833772 0 26.322960965833772 26.074845413619187 0 0 0 0 -16.58600006909262 29.984116700969025 0 29.984116700969025 32.000829819095088 0 0 0 0 -9.2493941609118338 32.898740063021251 0 32.898740063021251 32.502894108405599 0 0 0 0 -23.099124811606089 18.463254557120308 0 18.463254557120308 31.496265855562797 0 0 0 0 -21.4444585398046 24.824631695219978 0 24.824631695219978 54.063069985866605 0 0 0 0 -23.138215300066122 20.357946019468727 0 20.357946019468727 18.12759702555195 0 0 0 0 -34.078665440620512 27.819847238756665 0 27.819847238756665 36.388295740296599 0 0 0 0 -49.436179099992955 10.231871239802786 0 10.231871239802786 19.050333456620137 0 0 0 0 -38.654609253780563 13.295931583086713 0 13.295931583086713 33.10203512362159 0 0 0 0 278.00472643848389 81.623476394741829 0 81.623476394741829 65.936869350033476 0 0 0 0 -67.109074220521762 30.539461365383431 0 30.539461365383431 38.836939386204904 0 0 0 0 -6.152477537387794 1.1108568238821039 0 1.1108568238821039 35.259392961101753 0 0 0 0 299.62699503309761 -100.73926320148939 0 -100.73926320148939 -129.55484877685922 0 0 0 0 209.60939120597868 -248.39525064980717 0 -248.39525064980717 5.7470733309487514 0 0 0 0 227.43484925315715 -56.556790316251863 0 -56.556790316251863 -153.33245066652671 0 0 0 0 -37.304530736741867 33.345606763974502 0 33.345606763974502 23.341341203089542 0 0 0 0 -7.4026123964406931 1.863016359689162 0 1.863016359689162 30.390908896884081 0 0 0 0 -30.051975752050794 -15.238417022787644 0 -15.238417022787644 54.278944450731615 0 0 0 0 -24.290123410051592 30.245180901449203 0 30.245180901449203 21.919826853512859 0 0 0 0 -26.129045217035809 25.361887763039704 0 25.361887763039704 10.048242462220514 0 0 0 0 -12.174812010953019 -2.0554145849930592 0 -2.0554145849930592 64.526100475963176 0 0 0 0 24.142223888059107 -130.40092890952928 0 -130.40092890952928 205.60482887054468 0 0 0 0 209.5056207568 -170.59945194493139 0 -170.59945194493139 102.0426416835794 0 0 0 0 2.4294948357712123 -1.1725518106841548 0 -1.1725518106841548 0.26901371219380366 0 0 0 0 390.19644623913518 -119.36633051178615 0 -119.36633051178615 -315.89915035074 0 0 0 0 -25.791356304713176 -221.31204286555246 0 -221.31204286555246 23.073003105385396 0 0 0 0 -55.217638410966373 56.847911201008458 0 56.847911201008458 -38.441155835926111 0 0 0 0 353.59533546285593 -268.59152064743193 0 -268.59152064743193 208.75990658192404 0 0 0 0 55.544724530261419 6.2883630440437628 0 6.2883630440437628 297.74194011171028 0 0 0 0 21.028063684147412 -155.61916264707872 0 -155.61916264707872 266.60700397493565 0 0 0 0 30.881846278917692 64.997237919476902 0 64.997237919476902 101.79723566656321 0 0 0 0 2.3155386806542628 2.4529892613556878 0 2.4529892613556878 -2.5144833433613378 0 0 0 0 -33.679719130520084 21.697637544304598 0 21.697637544304598 30.718854394741356 0 0 0 0 3.7500792228310598 -1.1373293641791395 0 -1.1373293641791395 3.6522190088641455 0 0 0 0 207.06407788467095 126.49016399999164 0 126.49016399999164 83.616747383678103 0 0 0 0 153.40377722891571 58.516059169897744 0 58.516059169897744 48.969399512496238 0 0 0 0 402.66289955351016 73.28824031773263 0 73.28824031773263 -90.724325761435466 0 0 0 0 473.37264068304466 -141.57547959375461 0 -141.57547959375461 -67.191831877156801 0 0 0 0 -79.476635059835644 13.149672842942891 0 13.149672842942891 240.86844372388259 0 0 0 0 82.664332926357957 117.08111363827879 0 117.08111363827879 406.11144453694214 0 0 0 0 117.19135889652307 -135.21378481927241 0 -135.21378481927241 -17.681639879890326 0 0 0 0 4.2991994708573245 -6.0454414309133533 0 -6.0454414309133533 6.3261280528163439 0 0 0 0 22.003115680376823 -102.36858853590002 0 -102.36858853590002 140.35020210412586 0 0 0 0 470.31234439251944 83.82774913433002 0 83.82774913433002 577.96224290829196 0 0 0 0 129.38100312090623 195.07391261795692 0 195.07391261795692 443.64235134177216 0 0 0 0 163.40522631524837 105.25355372398826 0 105.25355372398826 598.11524571338578 0 0 0 0 275.3708325885915 -44.495327053195524 0 -44.495327053195524 741.22509048671645 0 0 0 0 1.561691666397345 -2.4795401060687627 0 -2.4795401060687627 3.4449356486803779 0 0 0 0 99.018701158286717 188.21050383201987 0 188.21050383201987 908.74681356230485 0 0 0 0 381.53965556070307 315.9047013720924 0 315.9047013720924 353.2439842634281 0 0 0 0 424.94312138264485 -304.6729545956336 0 -304.6729545956336 435.375203282847 0 0 0 0 -110.43865933798975 15.272683470612265 0 15.272683470612265 515.23110551482478 0 0 0 0 231.27496259909697 26.305368075863953 0 26.305368075863953 -178.8026364120492 0 0 0 0 240.05192482176153 292.69336260099851 0 292.69336260099851 688.01755663538097 0 0 0 0 374.28791642767015 258.22467561969688 0 258.22467561969688 398.44581845681802 0 0 0 0 2.4680249575979811 1.9742751785156525 0 1.9742751785156525 2.1115809982441363 0 0 0 0 32.186611656607283 -64.482827408812682 0 -64.482827408812682 889.95140884742068 0 0 0 0 265.53332080649284 24.232775205908979 0 24.232775205908979 471.16402950112024 0 0 0 0 187.69611993454996 45.626622263435479 0 45.626622263435479 491.91075572361842 0 0 0 0 199.18326199521454 -0.56572075350686646 0 -0.56572075350686646 569.45488177651168 0 0 0 0 223.40267672599276 99.382150825039389 0 99.382150825039389 595.46500699296666 0 0 0 0 -10.729335890183393 -24.02434488556878 0 -24.02434488556878 330.63825656018435 0 0 0 0 -25.012320822744869 -80.79996189561848 0 -80.79996189561848 275.78706648305479 0 0 0 0 -24.612047449709507 -77.421433054223826 0 -77.421433054223826 263.88503790366576 0 0 0 0 -34.181538415981322 -71.4561829703282 0 -71.4561829703282 289.41922625784809 0 0 0 0 23.248775870244572 -20.006542328491605 0 -20.006542328491605 243.86356010448321 0 0 0 0 46.081408321919071 -19.625064181953576 0 -19.625064181953576 309.89057565394796 0 0 0 0 34.433614128952058 35.719739916470417 0 35.719739916470417 383.47480240300933 0 0 0 0 54.435709407619015 70.237318786085552 0 70.237318786085552 525.60256537370651 0 0 0 0 150.64840552079113 123.35589793448162 0 123.35589793448162 381.80244995301769 0 0 0 0 59.951055698083195 -113.53957962718232 0 -113.53957962718232 346.31425829922546 0 0 0 0 39.871448455123982 -46.560580067494584 0 -46.560580067494584 289.00264096952765 0 0 0 0 4.2270513679140329 4.7739071887916893 0 4.7739071887916893 4.6071322166150814 0 0 0 0 -68.342826134190545 29.681645855670013 0 29.681645855670013 100.10382952832515 0 0 0 0 3.8739323237300152 4.8857921364840493 0 4.8857921364840493 4.8163076982426745 0 0 0 0 -10.396545095640477 -31.248253305360322 0 -31.248253305360322 167.08777014217753 0 0 0 0 40.495792415313659 -109.47116545900005 0 -109.47116545900005 236.4649151798294 0 0 0 0 -8.5100605269058178 -67.490935365446148 0 -67.490935365446148 188.98530337294096 0 0 0 0 2.8540617984125296 3.9111033741007724 0 3.9111033741007724 3.931724783771843 0 0 0 0 125.10664801818984 -190.76157554565634 0 -190.76157554565634 238.0910780201657 0 0 0 0 24.353977197455151 -65.386129614437323 0 -65.386129614437323 167.84732726643779 0 0 0 0 1.6775528265840975 -1.1799747939881069 0 -1.1799747939881069 0.65325572988074043 0 0 0 0 66.545408075188334 -54.305242794426704 0 -54.305242794426704 259.85152603821143 0 0 0 0 28.177029317298548 -99.387857117814747 0 -99.387857117814747 281.46763215176748 0 0 0 0 -64.94863665304365 -88.648341479457031 0 -88.648341479457031 309.92461575043308 0 0 0 0 0.21853173238150703 -112.88685489209274 0 -112.88685489209274 283.52562506391951 0 0 0 0 -43.573695651698927 -146.24320902564432 0 -146.24320902564432 450.91398950609073 0 0 0 0 -42.225315542756334 -77.017882581264985 0 -77.017882581264985 174.74689270628369 0 0 0 0 10.782475342180533 -74.374378475105914 0 -74.374378475105914 -41.879708516501523 0 0 0 0 4.0190864837635214 -2.524606221743765 0 -2.524606221743765 0.90209058755262106 0 0 0 0 -22.138479199105348 6.8531221361488406 0 6.8531221361488406 40.376900326346913 0 0 0 0 70.50150013072107 -19.636122610503207 0 -19.636122610503207 47.567876771079 0 0 0 0 113.7072351878619 -137.43402182345835 0 -137.43402182345835 184.14061565770771 0 0 0 0 72.627184285033877 -30.119319785351763 0 -30.119319785351763 60.670548073003374 0 0 0 0 97.923311921949335 -61.467604500003745 0 -61.467604500003745 -107.52169064857185 0 0 0 0 48.040611780825202 -7.7006264241904319 0 -7.7006264241904319 67.56044571062364 0 0 0 0 58.51578340223864 -3.5956895054687266 0 -3.5956895054687266 50.924552221271369 0 0 0 0 7.7830508124793889 -13.026378503963363 0 -13.026378503963363 13.323471849018713 0 0 0 0 34.573121259873517 -40.186047975097836 0 -40.186047975097836 81.16069002491713 0 0 0 0 54.866085800680594 -66.682201669086226 0 -66.682201669086226 64.59980862447037 0 0 0 0 30.533204557432455 -50.857562838759769 0 -50.857562838759769 49.193976797906458 0 0 0 0 55.09919473907587 -55.066791734440244 0 -55.066791734440244 -23.978721961826523 0 0 0 0 49.607484811297127 -81.605481462746866 0 -81.605481462746866 93.685756546174844 0 0 0 0 -10.50205619658891 -26.264124333176824 0 -26.264124333176824 98.73629500551715 0 0 0 0 31.815465161765133 -28.664204508641376 0 -28.664204508641376 95.664594919173396 0 0 0 0 47.856843875713366 -39.357093617506962 0 -39.357093617506962 100.49521518551853 0 0 0 0 54.957577295786905 -39.388304165460795 0 -39.388304165460795 86.759278184741561 0 0 0 0 163.84394324242112 -31.015690320690737 0 -31.015690320690737 86.736123516479893 0 0 0 0 21.359641900532552 11.495436713803429 0 11.495436713803429 167.35158849102118 0 0 0 0 -53.620402229702449 -99.829999705999398 0 -99.829999705999398 215.71496310249404 0 0 0 0 20.749354484075411 -44.606056980609537 0 -44.606056980609537 95.812230349308123 0 0 0 0 -15.114963111461293 -157.33850108718525 0 -157.33850108718525 39.441198503836631 0 0 0 0 34.827521554801308 -51.595336596828986 0 -51.595336596828986 66.405439575103628 0 0 0 0 -25.750461959112727 129.82509327514344 0 129.82509327514344 -14.305936469037988 0 0 0 0 464.352808201269 -1108.5855905614067 0 -1108.5855905614067 -982.84724129857568 0 0 0 0 53.096105843223576 -62.080916314864261 0 -62.080916314864261 50.426693851883265 0 0 0 0 201.02712622765193 -115.04966466074006 0 -115.04966466074006 -90.959723318568194 0 0 0 0 -358.55148085188921 -789.95718070551811 0 -789.95718070551811 -233.41368899682857 0 0 0 0 47.706802370467727 -61.233124036393562 0 -61.233124036393562 55.158888299470235 0 0 0 0 -195.21059921297092 -33.057358208804544 0 -33.057358208804544 119.51345107732777 0 0 0 0 8.2757189403144551 -6.5050339787846454 0 -6.5050339787846454 27.036546454131724 0 0 0 0 -45.852229010666633 -126.72550853303073 0 -126.72550853303073 57.811264311554623 0 0 0 0 24.719517703498923 -56.647162695810607 0 -56.647162695810607 72.931475761907677 0 0 0 0 49.251867052046606 -54.858398009749003 0 -54.858398009749003 48.043307218001203 0 0 0 0 323.65832510764449 -80.55699413331422 0 -80.55699413331422 -787.24235719647186 0 0 0 0 -97.01773924970621 51.493056837732638 0 51.493056837732638 -8.5169053581921617 0 0 0 0 -67.591616090658135 -78.298881157243159 0 -78.298881157243159 37.772680239370402 0 0 0 0 -26.203576826841982 475.03476159952561 0 475.03476159952561 -60.100917942338128 0 0 0 0 -82.790845664683729 -860.28260056984436 0 -860.28260056984436 43.579540169503161 0 0 0 0 -433.79851478365617 32.172870728240014 0 32.172870728240014 1587.8369823799621 0 0 0 0 -364.03195008231677 -40.317412406568678 0 -40.317412406568678 1566.6485187150938 0 0 0 0 -348.78662885383892 -187.09970006300682 0 -187.09970006300682 1964.9439940182165 0 0 0 0 306.77161607829112 796.99406833635112 0 796.99406833635112 1828.6741811187239 0 0 0 0 1588.5056688943623 -52.871195461792013 0 -52.871195461792013 -19.779118492433554 0 0 0 0 -348.48908988879339 846.83169916102088 0 846.83169916102088 3065.2572440269669 0 0 0 0 421.97398231724947 -1092.5803314581744 0 -1092.5803314581744 1890.7463466811496 0 0 0 0 -789.99539950663166 -86.973919084428417 0 -86.973919084428417 1173.301478838388 0 0 0 0 -479.1034663072478 -880.08383123897784 0 -880.08383123897784 514.53849203096615 0 0 0 0 284.87197297036528 180.12600532885062 0 180.12600532885062 786.76692147080757 0 0 0 0 508.3651051040415 562.37038376876899 0 562.37038376876899 867.21882129955338 0 0 0 0 -195.63028915206087 646.11243888560421 0 646.11243888560421 1573.5551996751747 0 0 0 0 1754.2616914494974 1984.0173041865964 0 1984.0173041865964 1849.0371930376632 0 0 0 0 5.0242707760666647 -10.283456628159897 0 -10.283456628159897 27.074815885952546 0 0 0 0 405.72654971173324 666.73984807499073 0 666.73984807499073 909.41855278528055 0 0 0 0 -700.74873373266746 -1118.8655241853976 0 -1118.8655241853976 -149.21870878970367 0 0 0 0 9.0133164973771471 -30.925254499987744 0 -30.925254499987744 76.704027871130336 0 0 0 0 -512.69908004778972 -192.37752928816008 0 -192.37752928816008 -30.668884421225812 0 0 0 0 183.89863393858013 158.04872747144145 0 158.04872747144145 -36.072669353863603 0 0 0 0 194.34621325407716 175.27865208101684 0 175.27865208101684 -104.74485034582904 0 0 0 0 197.68882533865508 275.11675653543898 0 275.11675653543898 753.73994361709447 0 0 0 0 16.355492878664336 287.84461064554353 0 287.84461064554353 790.50356651073344 0 0 0 0 76.851122709765605 239.33361202688025 0 239.33361202688025 597.04850502565114 0 0 0 0 55.564587508024488 282.72438731201328 0 282.72438731201328 819.45000189779648 0 0 0 0 173.01834760916245 231.8063189606205 0 231.8063189606205 476.26871870357263 0 0 0 0 -32.496921714418932 337.81780428345428 0 337.81780428345428 1073.4234864289356 0 0 0 0 345.92122040691356 434.36593224689568 0 434.36593224689568 701.27563376925173 0 0 0 0 -49.407387034212661 227.40170538591883 0 227.40170538591883 810.65625153149631 0 0 0 0 78.811192595512694 204.35394135965362 0 204.35394135965362 731.61162060104652 0 0 0 0 -293.08623206218545 51.559253442706904 0 51.559253442706904 815.23480720240514 0 0 0 0 28.07024217766957 -43.317426019350023 0 -43.317426019350023 808.73071583512501 0 0 0 0 7.1523235167892167 -23.042384044048077 0 -23.042384044048077 17.275020175967271 0 0 0 0 -696.14815141033068 138.17377391608716 0 138.17377391608716 106.33038135271636 0 0 0 0 16.547805457524223 -62.597064307935568 0 -62.597064307935568 69.57880641095349 0 0 0 0 19.255542507409864 -18.540402372048433 0 -18.540402372048433 19.899224475034309 0 0 0 0 23.622446500888145 14.265466272800495 0 14.265466272800495 545.26339876930797 0 0 0 0 -56.005655921340349 -14.433983874450178 0 -14.433983874450178 313.87519955014795 0 0 0 0 44.197583727655001 -7.4577562611721078 0 -7.4577562611721078 141.53693977830062 0 0 0 0 -69.720938478384255 -24.449890052300361 0 -24.449890052300361 41.379837174597924 0 0 0 0 -32.693539159848569 18.754277543624994 0 18.754277543624994 -18.973657190004815 0 0 0 0 14.519344495234092 -63.068518988727135 0 -63.068518988727135 66.730660502317335 0 0 0 0 57.138218604601548 270.4320898801285 0 270.4320898801285 818.20351292501073 0 0 0 0 354.13886345697983 158.53797794276034 0 158.53797794276034 172.75548466916734 0 0 0 0 136.25907499189748 -126.21010684926296 0 -126.21010684926296 -12.806285109109012 0 0 0 0 5.4224274682529634 -6.3784331616408636 0 -6.3784331616408636 6.5771359118518191 0 0 0 0 -945.63951857095662 543.39870807014086 0 543.39870807014086 830.53854141608463 0 0 0 0 237.70375367241627 -266.00833276820049 0 -266.00833276820049 98.938573006511433 0 0 0 0 92.602431179903988 -164.97326312256337 0 -164.97326312256337 37.375078185154052 0 0 0 0 77.078773478671337 -49.751030571151205 0 -49.751030571151205 -51.793588849504886 0 0 0 0 143.89014057310555 -150.10477522553992 0 -150.10477522553992 41.248787796830584 0 0 0 0 76.402959208993707 -100.63982950035643 0 -100.63982950035643 5.9976838245784165 0 0 0 0 37.886390267097568 -65.550004507413178 0 -65.550004507413178 46.88900173095135 0 0 0 0 6.8227710709401208 -47.862728814357979 0 -47.862728814357979 37.125694881066011 0 0 0 0 1.1595711070191328 -41.653135435980403 0 -41.653135435980403 67.153421428156435 0 0 0 0 32.472555210473445 -30.263568093090043 0 -30.263568093090043 17.888288243073475 0 0 0 0 -33.187599366347058 -22.977775441202539 0 -22.977775441202539 41.102382280785605 0 0 0 0 -38.320499103888466 -26.153701658136697 0 -26.153701658136697 49.926118274899636 0 0 0 0 -35.160933346355023 -8.2475738157645537 0 -8.2475738157645537 36.601217260453268 0 0 0 0 -23.842169082132898 -11.959841064484863 0 -11.959841064484863 57.928864985356086 0 0 0 0 -32.524691081905189 -5.8103113496345031 0 -5.8103113496345031 53.903280368362175 0 0 0 0 -33.900682931364599 -13.68921711180883 0 -13.68921711180883 77.483299887968315 0 0 0 0 56.823869124708381 18.854285128676111 0 18.854285128676111 26.687992999386552 0 0 0 0 1.7247107865491635 2.9328436682738861 0 2.9328436682738861 9.4719244271022163 0 0 0 0 28.078482169629652 -19.617015812663773 0 -19.617015812663773 39.560043387464859 0 0 0 0 -35.008910207686313 -45.582243069457036 0 -45.582243069457036 34.687605190758404 0 0 0 0 -46.03825515567496 -44.706391470583185 0 -44.706391470583185 35.050121009662689 0 0 0 0 -7.1281284915186234 -33.262373827708871 0 -33.262373827708871 38.124571509389625 0 0 0 0 -1.702791822887316 -0.4234874907739119 0 -0.4234874907739119 37.994784569064457 0 0 0 0 79.469282917244982 -97.351293700882707 0 -97.351293700882707 176.4618079259817 0 0 0 0 58.001419724587322 -45.802879313253015 0 -45.802879313253015 94.16669671784166 0 0 0 0 105.25068276056481 -83.991881764541176 0 -83.991881764541176 99.328051773491325 0 0 0 0 105.7745653482807 -87.824046310288168 0 -87.824046310288168 86.42469695116506 0 0 0 0 -6.9649496849762409 1.6616861601604231 0 1.6616861601604231 36.263926413814453 0 0 0 0 137.1678971818269 -114.8292119192572 0 -114.8292119192572 77.87409674778246 0 0 0 0 91.508406304304799 -120.05709118281561 0 -120.05709118281561 80.393686712968702 0 0 0 0 75.243142827036991 -74.715746636195036 0 -74.715746636195036 84.6891268375457 0 0 0 0 -24.795437886978526 -10.661092896207492 0 -10.661092896207492 62.131759152325685 0 0 0 0 -42.285313814440087 5.8072118491363653 0 5.8072118491363653 81.338797044398234 0 0 0 0 -48.611132049256355 7.7130346733774786 0 7.7130346733774786 58.467296790180626 0 0 0 0 -43.810085528697982 34.215424880498176 0 34.215424880498176 31.404909720589785 0 0 0 0 -38.459653098732304 0.76296945679223427 0 0.76296945679223427 36.384828248177655 0 0 0 0 -30.204413631833518 5.0793522439462322 0 5.0793522439462322 42.939427445773617 0 0 0 0 -33.1973596647764 23.899833603567458 0 23.899833603567458 53.311385190772853 0 0 0 0 -32.100332696409055 11.029738364204604 0 11.029738364204604 82.759148050768999 0 0 0 0 -19.896310531730705 20.84330364285961 0 20.84330364285961 50.695026244387918 0 0 0 0 -22.441053754107841 -28.901033777414796 0 -28.901033777414796 105.99717576155308 0 0 0 0 -24.752082864834165 -0.44083505692469771 0 -0.44083505692469771 71.918394052121585 0 0 0 0 -29.565792676935189 -6.3252308656637979 0 -6.3252308656637979 133.65632887124957 0 0 0 0 -30.516539556546206 9.6768431478999446 0 9.6768431478999446 159.3196115032224 0 0 0 0 -20.799951710365349 -33.507687024164625 0 -33.507687024164625 116.64921526572834 0 0 0 0 -23.651808968901378 16.667431914195731 0 16.667431914195731 87.753481236459265 0 0 0 0 -14.123138061352847 45.218918120628587 0 45.218918120628587 58.255967694643914 0 0 0 0 -21.832073541353196 16.941483353914691 0 16.941483353914691 87.612578681571904 0 0 0 0 -30.07500299661092 57.408240628550629 0 57.408240628550629 109.66591017377323 0 0 0 0 -18.061659600655503 12.872630124369607 0 12.872630124369607 124.10974008484345 0 0 0 0 -14.42907777318328 54.591273191574146 0 54.591273191574146 57.682674575088754 0 0 0 0 -17.477418378228776 23.728148768524989 0 23.728148768524989 161.99230251627796 0 0 0 0 -33.830686159360084 48.156380940101371 0 48.156380940101371 79.874258194105096 0 0 0 0 -57.862132948422868 62.130321835460563 0 62.130321835460563 174.04557832427963 0 0 0 0 -47.30671236168746 17.026159996318711 0 17.026159996318711 225.09302585845217 0 0 0 0 -14.305751693542106 -28.113715724803114 0 -28.113715724803114 153.54863584967529 0 0 0 0 -14.23223820749854 -63.493181475203528 0 -63.493181475203528 230.52736608763098 0 0 0 0 -6.6558807559813431 -25.709604072027105 0 -25.709604072027105 292.29310032694775 0 0 0 0 28.284946407653877 -177.11486366794725 0 -177.11486366794725 300.63955796017763 0 0 0 0 240.8499895921226 -171.44542196424572 0 -171.44542196424572 97.772887228624313 0 0 0 0 1.2108981863925692 -110.30628096165583 0 -110.30628096165583 153.96261240427339 0 0 0 0 15.323786634619125 -91.443804520091021 0 -91.443804520091021 107.25254160270197 0 0 0 0 -15.139331577739767 -72.774806616816932 0 -72.774806616816932 95.818186633372534 0 0 0 0 -28.269641966768404 -28.271665400587153 0 -28.271665400587153 119.02634101896547 0 0 0 0 -30.363389652512865 -29.418140325075001 0 -29.418140325075001 174.58688764033468 0 0 0 0 -7.9115488589791312 -99.225326568111996 0 -99.225326568111996 180.11640112808527 0 0 0 0 153.53787774251941 -92.014395722313566 0 -92.014395722313566 307.45255501908105 0 0 0 0 153.52743908368075 24.87837268484418 0 24.87837268484418 747.64094618411764 0 0 0 0 182.77755147788923 94.924065981047079 0 94.924065981047079 611.41915181285731 0 0 0 0 212.64912188260587 154.2816862261152 0 154.2816862261152 926.43130820033912 0 0 0 0 296.54162684101129 -66.718847160953374 0 -66.718847160953374 521.77733302104389 0 0 0 0 426.29838723146122 109.12504520712355 0 109.12504520712355 585.74001421649518 0 0 0 0 239.22578655600137 10.619781181172584 0 10.619781181172584 850.52655100614538 0 0 0 0 403.60455648166931 -90.997005686171178 0 -90.997005686171178 485.20451072823926 0 0 0 0 153.29286149223969 -195.32638785240988 0 -195.32638785240988 424.22998251017634 0 0 0 0 244.15141154366756 43.633752033032579 0 43.633752033032579 421.89702172967191 0 0 0 0 100.9671017904875 -124.66696289305401 0 -124.66696289305401 328.92207604473242 0 0 0 0 -3.7880604481933915 -143.75431319568997 0 -143.75431319568997 410.46933423410883 0 0 0 0 49.145706629487449 -66.90051487672099 0 -66.90051487672099 557.62727808542877 0 0 0 0 -12.057555464249162 57.036877220249153 0 57.036877220249153 591.14753330066378 0 0 0 0 51.970408849729779 -56.678901279959518 0 -56.678901279959518 353.83848264741391 0 0 0 0 -58.932741980625792 -52.870701289929912 0 -52.870701289929912 326.98320946142849 0 0 0 0 -82.013132109448634 -46.488385458906123 0 -46.488385458906123 448.34708197874897 0 0 0 0 -133.72014979089931 85.640793042113728 0 85.640793042113728 230.50300667822739 0 0 0 0 -25.018682776337755 -85.50138158712798 0 -85.50138158712798 277.47173058806675 0 0 0 0 74.272453332250279 -144.49378091530525 0 -144.49378091530525 299.26745155746903 0 0 0 0 7.5179223697653015 -175.27874183205768 0 -175.27874183205768 292.48804923324496 0 0 0 0 0.63150286328847183 -0.94887889789294988 0 -0.94887889789294988 2.0968565324590855 0 0 0 0 -189.31198817502013 -33.31438477888787 0 -33.31438477888787 225.1082511997156 0 0 0 0 -2.1360011335102627 3.0350391643869443 0 3.0350391643869443 20.463257364079254 0 0 0 0 -27.328079095318117 -124.54436176991294 0 -124.54436176991294 329.16492155230628 0 0 0 0 110.24839361915906 4.1133506531339208 0 4.1133506531339208 182.72780015475655 0 0 0 0 134.53371661008441 -82.241904122514825 0 -82.241904122514825 154.13128559707184 0 0 0 0 15.845321568954205 -13.094648764392332 0 -13.094648764392332 179.6468030345045 0 0 0 0 43.927363072760272 -97.00253547648208 0 -97.00253547648208 151.91706025944677 0 0 0 0 24.24370079442815 69.11672208424261 0 69.11672208424261 107.73568307581445 0 0 0 0 102.06731660577623 -4.8100757414149484 0 -4.8100757414149484 2.8286602894258976 0 0 0 0 171.52521075685851 79.591910945675409 0 79.591910945675409 233.13089234735162 0 0 0 0 -49.76046428365396 8.0010554360163724 0 8.0010554360163724 3.4291140602908854 0 0 0 0 -43.909591230818066 17.469254642032801 0 17.469254642032801 8.3325147416292715 0 0 0 0 -187.54429110714409 -27.886428373611125 0 -27.886428373611125 250.17108992718386 0 0 0 0 31.640346255510849 12.989187603236132 0 12.989187603236132 -170.61909483833188 0 0 0 0 -16.927384450414138 -44.446744504082744 0 -44.446744504082744 -60.489768272633228 0 0 0 0 -27.462111534437781 -39.717242630160399 0 -39.717242630160399 -14.981806660623988 0 0 0 0 -6.20201256544253 -48.579582162718623 0 -48.579582162718623 -13.697976847764949 0 0 0 0 -57.159094423226634 -57.038757333051763 0 -57.038757333051763 -12.062002881755689 0 0 0 0 -39.745284119791449 -26.397380850281479 0 -26.397380850281479 -73.729102259254432 0 0 0 0 -3.784440648227346 0.30057360783615339 0 0.30057360783615339 5.0207987266561247 0 0 0 0 -77.82172422196868 -35.649226794531387 0 -35.649226794531387 -34.142973625277591 0 0 0 0 -53.457532537791849 -84.320407343275292 0 -84.320407343275292 181.13750960109792 0 0 0 0 -42.300534929741012 12.365992760879593 0 12.365992760879593 15.538314467199246 0 0 0 0 26.816930571619665 -38.309055649735171 0 -38.309055649735171 82.764543710545695 0 0 0 0 -8.0752075389073923 -15.224996143082457 0 -15.224996143082457 49.228258757367669 0 0 0 0 93.564128210793569 -65.542374196280434 0 -65.542374196280434 47.008701387952897 0 0 0 0 0.13865250399744106 -40.066108338382293 0 -40.066108338382293 50.102178404559851 0 0 0 0 -32.36459045763695 -58.143182468484156 0 -58.143182468484156 76.165726228275162 0 0 0 0 -134.0797597555993 33.284662175461563 0 33.284662175461563 35.170604446502693 0 0 0 0 -33.294097769480686 -60.115076021400455 0 -60.115076021400455 85.665400574063824 0 0 0 0 -228.89181068491598 -20.79223619903496 0 -20.79223619903496 92.92580611572248 0 0 0 0 -84.322819160024665 89.427952548865505 0 89.427952548865505 74.56605140564352 0 0 0 0 -8.5399525084831112 -103.21895772404605 0 -103.21895772404605 75.588444913541025 0 0 0 0 -248.57412743310852 114.9279516319275 0 114.9279516319275 156.90443348193367 0 0 0 0 2.7371012385979157 -20.04085779301181 0 -20.04085779301181 -57.210839740750089 0 0 0 0 -127.02511178432906 171.49999268664396 0 171.49999268664396 -80.993241457392287 0 0 0 0 -230.8917728736451 76.184425925158394 0 76.184425925158394 31.217716801889765 0 0 0 0 -3.3617417183627083 0.89094268303035307 0 0.89094268303035307 7.1071917544953997 0 0 0 0 -60.08709777306467 -13.290656994160599 0 -13.290656994160599 45.033582001953619 0 0 0 0 3.1223979987496655 9.9112698224012732 0 9.9112698224012732 19.386149971602478 0 0 0 0 28.86919324786686 18.650947731330234 0 18.650947731330234 -49.501013952740323 0 0 0 0 -54.179107503842715 175.51480537663429 0 175.51480537663429 -171.53437379588649 0 0 0 0 -72.967287151043593 -134.00651335948714 0 -134.00651335948714 146.21260465145679 0 0 0 0 -63.608071963402722 -28.801809569125908 0 -28.801809569125908 64.517587759102753 0 0 0 0 -82.551492588870815 -114.69000793345731 0 -114.69000793345731 191.93672494976636 0 0 0 0 30.437560487641804 -300.64066260826803 0 -300.64066260826803 298.67943353710757 0 0 0 0 -43.584704730642443 -227.99531694632242 0 -227.99531694632242 229.06170519063744 0 0 0 0 28.039179115262641 -137.3819070658592 0 -137.3819070658592 75.168121964300553 0 0 0 0 81.303261539008759 -166.43813683518977 0 -166.43813683518977 77.028487784024037 0 0 0 0 137.23415185988279 -217.6762971621738 0 -217.6762971621738 88.627225372212706 0 0 0 0 3.069118205331506 -149.89549933099534 0 -149.89549933099534 144.78704112508058 0 0 0 0 -18.565149312816175 -131.24662891760818 0 -131.24662891760818 159.00325230001999 0 0 0 0 60.304921571800605 -128.32877461379394 0 -128.32877461379394 97.974753879130731 0 0 0 0 5.099004070267938 -16.042220531269777 0 -16.042220531269777 44.292605036396708 0 0 0 0 58.452408992749724 -52.54312653280067 0 -52.54312653280067 22.050399188352458 0 0 0 0 7.1428370176530969 -18.886605262113349 0 -18.886605262113349 31.230959102580528 0 0 0 0 -25.438013450603421 -67.31011546186528 0 -67.31011546186528 96.38826920287562 0 0 0 0 17.52973488265593 -22.995058935436646 0 -22.995058935436646 29.830933785608067 0 0 0 0 -0.49531128960620663 -20.755634424764139 0 -20.755634424764139 31.586161784801334 0 0 0 0 -59.671094260908831 -40.521350123854972 0 -40.521350123854972 56.271808818324644 0 0 0 0 -27.468609126526758 -0.99521566556359176 0 -0.99521566556359176 26.7142111465364 0 0 0 0 32.605926164502307 -68.558553710028718 0 -68.558553710028718 -111.80301756324388 0 0 0 0 -0.50438242969076263 0.15703605657039077 0 0.15703605657039077 0.38601629263362547 0 0 0 0 0.57777374779923374 -4.7908478569714887 0 -4.7908478569714887 6.0900037671499998 0 0 0 0 6.1894790635863046 -8.1754312578304962 0 -8.1754312578304962 10.412690818833653 0 0 0 0 -13.2598740397857 -40.080733570301163 0 -40.080733570301163 12.843746056631971 0 0 0 0 -49.83599599183799 -40.138854427148544 0 -40.138854427148544 40.147420743279326 0 0 0 0 -31.728598904174078 -54.063382676529727 0 -54.063382676529727 35.82879461099219 0 0 0 0 -18.381880297129268 -35.088608468759773 0 -35.088608468759773 52.840393750011366 0 0 0 0 -14.22386633971805 -32.215888205079651 0 -32.215888205079651 37.555722601624439 0 0 0 0 -3.0973140432354285 -55.381041843608728 0 -55.381041843608728 33.45991208192936 0 0 0 0 -1.6263913045961207 -45.012125456899184 0 -45.012125456899184 51.073706096621642 0 0 0 0 226.81476038459698 500.09420825684538 0 500.09420825684538 828.54828204886007 0 0 0 0 -51.16777470445993 -11.308561789228406 0 -11.308561789228406 -80.227792377743754 0 0 0 0 -61.998562579012741 4.5178486134682316 0 4.5178486134682316 -84.483616341291963 0 0 0 0 -205.81295755408757 28.968389580166331 0 28.968389580166331 88.745997765028733 0 0 0 0 1363.7808157951979 -501.92800655477822 0 -501.92800655477822 -221.62434467830099 0 0 0 0 9.5046006112326786 -55.931284810752899 0 -55.931284810752899 60.705442917462065 0 0 0 0 -151.57563364138014 -127.86370538467963 0 -127.86370538467963 286.68891424009928 0 0 0 0 131.54058622349331 381.01081081595453 0 381.01081081595453 913.45352304143853 0 0 0 0 259.42022817888073 351.41565580535917 0 351.41565580535917 752.35730882333883 0 0 0 0 80.480126048741568 302.14154178497984 0 302.14154178497984 730.76331936979295 0 0 0 0 45.264255945459809 324.56527181019283 0 324.56527181019283 779.82766022217743 0 0 0 0 -25.693306502134902 315.29868614986162 0 315.29868614986162 853.15968653708524 0 0 0 0 1.3804119384002433 156.59091740953721 0 156.59091740953721 588.42373881697768 0 0 0 0 -1.1113931963107007 211.07271598765033 0 211.07271598765033 690.13371655931485 0 0 0 0 144.57394656245788 438.967431199271 0 438.967431199271 799.45522464589305 0 0 0 0 170.1520392631387 414.4407662786607 0 414.4407662786607 789.44900884580557 0 0 0 0 259.85765675761377 578.8426483758991 0 578.8426483758991 926.11631102226295 0 0 0 0 432.5398278745929 339.90936528323044 0 339.90936528323044 427.20653484697186 0 0 0 0 1033.1039642069545 932.3926283294702 0 932.3926283294702 913.59800745111875 0 0 0 0 194.86004494456165 675.39857181768582 0 675.39857181768582 1779.1773422742187 0 0 0 0 -15.078168967758756 355.25099404521291 0 355.25099404521291 1090.4205314103283 0 0 0 0 117.13355944011346 398.83340611999711 0 398.83340611999711 910.61038211770369 0 0 0 0 180.96372765143241 -48.541352700535015 0 -48.541352700535015 802.10309836725764 0 0 0 0 1.0349641454563425 77.653566925346013 0 77.653566925346013 719.97620704768269 0 0 0 0 115.77255336114604 -102.29514055544735 0 -102.29514055544735 1601.7216624852258 0 0 0 0 1097.5539094017231 128.81384381148428 0 128.81384381148428 630.29823663603929 0 0 0 0 113.56059170573553 -133.01554046666251 0 -133.01554046666251 586.16564285830259 0 0 0 0 354.46492381259395 144.30354912894018 0 144.30354912894018 -190.44710130603653 0 0 0 0 -11.234025280647984 -220.05996916423283 0 -220.05996916423283 509.15777645595381 0 0 0 0 -71.884691155380779 -43.631214688883119 0 -43.631214688883119 411.50624656353625 0 0 0 0 -42.841936974815781 -225.96137333546358 0 -225.96137333546358 261.6714076342414 0 0 0 0 -177.72319468170281 -111.70201392447598 0 -111.70201392447598 214.50246612738465 0 0 0 0 -53.870679290468161 -129.84700720742484 0 -129.84700720742484 187.39246323815041 0 0 0 0 -308.94230755043918 -19.99293470169232 0 -19.99293470169232 437.36389149977094 0 0 0 0 -82.360028733989907 -3.06982467432249 0 -3.06982467432249 392.7101444919067 0 0 0 0 -104.77483644901234 151.98263811232499 0 151.98263811232499 763.3750166676989 0 0 0 0 8.7361168134536911 -95.781397895405917 0 -95.781397895405917 444.49034821220312 0 0 0 0 -296.0202561073238 101.37136594985486 0 101.37136594985486 261.16504965531931 0 0 0 0 -372.58757019021868 -428.3270404726245 0 -428.3270404726245 784.88364195292343 0 0 0 0 0.91333122790213395 2.4810093793732264 0 2.4810093793732264 7.0482921012468154 0 0 0 0 377.33851825892907 -835.34878673372214 0 -835.34878673372214 518.469854290699 0 0 0 0 329.16797716368524 -189.50939541063099 0 -189.50939541063099 383.51532132412103 0 0 0 0 -60.070013644141 111.3754830873404 0 111.3754830873404 32.422554857779005 0 0 0 0 -143.82557719693796 224.81694712099397 0 224.81694712099397 127.09098874971096 0 0 0 0 26.319473772808657 -48.114583865656371 0 -48.114583865656371 45.339294540084907 0 0 0 0 10.982297022209877 464.13425817014877 0 464.13425817014877 1228.4189282709985 0 0 0 0 495.05817016493711 -765.65744816097867 0 -765.65744816097867 -317.1853053802206 0 0 0 0 32.620833271060292 390.24923169426302 0 390.24923169426302 1475.4304816984927 0 0 0 0 -293.08652380392323 -105.95473675636867 0 -105.95473675636867 83.318189630299457 0 0 0 0 -448.46396635369092 214.21868039651235 0 214.21868039651235 244.9177865407255 0 0 0 0 -245.62980479801627 132.73321376735839 0 132.73321376735839 62.982357556233183 0 0 0 0 21.988471356157085 -51.997374041468419 0 -51.997374041468419 57.59029799467168 0 0 0 0 -57.642553420355398 -89.284058035094858 0 -89.284058035094858 82.722657570448064 0 0 0 0 -64.71898478658477 -236.89879135950355 0 -236.89879135950355 1755.3337472750072 0 0 0 0 136.03566803137437 -44.337751677884626 0 -44.337751677884626 524.64515528163656 0 0 0 0 0.79425007804997783 -10.866120809519058 0 -10.866120809519058 14.142607281200295 0 0 0 0 73.156546149798487 505.64394253903242 0 505.64394253903242 956.4282797729602 0 0 0 0 536.87214335325643 976.62469401357748 0 976.62469401357748 1364.5421036307907 0 0 0 0 15.673055713707072 542.0335103731918 0 542.0335103731918 943.22101874699888 0 0 0 0 152.38387997787913 368.61017215256493 0 368.61017215256493 318.03318639880672 0 0 0 0 -62.641308204276811 599.65514890827649 0 599.65514890827649 1331.9344402014813 0 0 0 0 376.58264677327952 693.18481574909924 0 693.18481574909924 1346.9484596894654 0 0 0 0 299.07712278118743 506.50312798990035 0 506.50312798990035 1315.7917089086209 0 0 0 0 82.810909312727745 575.40469479575768 0 575.40469479575768 1072.2078984943555 0 0 0 0 183.50659235373132 452.48798378440279 0 452.48798378440279 1222.2131020652541 0 0 0 0 -76.109577306193387 273.06282543808493 0 273.06282543808493 1162.0019373268892 0 0 0 0 60.867965616086167 -45.78879508288901 0 -45.78879508288901 394.05607210258768 0 0 0 0 148.75663236785022 539.10799357427936 0 539.10799357427936 1382.0779591940618 0 0 0 0 2.0349991715302735 1.493315377637856 0 1.493315377637856 1.2726449398531865 0 0 0 0 61.200471852285318 22.439940413295801 0 22.439940413295801 211.94372824672246 0 0 0 0 48.330778291905972 -59.68818337123048 0 -59.68818337123048 156.80327565619882 0 0 0 0 4.4367635469372004 2.1585192773368078 0 2.1585192773368078 0.7917109005719225 0 0 0 0 14.139775466443098 91.502343705704334 0 91.502343705704334 459.22718903024355 0 0 0 0 148.89375805890313 -78.326764842006355 0 -78.326764842006355 6.7680851204322607 0 0 0 0 57.333062661471558 -135.48038822395984 0 -135.48038822395984 -20.945684660879124 0 0 0 0 50.659111649602892 -108.448496830983 0 -108.448496830983 -26.726631860557063 0 0 0 0 -20.439115344392121 -32.247279303557661 0 -32.247279303557661 -24.327154702607146 0 0 0 0 49.38401457446713 -33.366623417015461 0 -33.366623417015461 130.04759476555591 0 0 0 0 -16.84146705847229 -79.037584281649742 0 -79.037584281649742 217.42739466755484 0 0 0 0 109.42275457345522 -169.19620017975876 0 -169.19620017975876 -103.68779180570345 0 0 0 0 -32.614269254807049 -25.228459444216622 0 -25.228459444216622 21.559241698067407 0 0 0 0 19.918137098102306 -57.965033850741747 0 -57.965033850741747 -143.42516693705056 0 0 0 0 35.463989168705666 -116.70933200883746 0 -116.70933200883746 -198.76024969473838 0 0 0 0 -58.546245801764513 -149.27782610986742 0 -149.27782610986742 79.530532271904121 0 0 0 0 -44.910017710176362 -135.98952908268029 0 -135.98952908268029 1.5944142175885645 0 0 0 0 -115.71180147777 58.16321541128309 0 58.16321541128309 228.64748173326461 0 0 0 0 -27.068868389698611 -30.593318562036426 0 -30.593318562036426 16.75827443539589 0 0 0 0 -42.832909430798679 -149.14043306222175 0 -149.14043306222175 78.762944377549502 0 0 0 0 -90.929620458046429 -179.18303779236567 0 -179.18303779236567 176.63432536994696 0 0 0 0 32.559907799267194 -100.25727755067965 0 -100.25727755067965 256.529041877704 0 0 0 0 -10.950625998920714 -273.07323551842364 0 -273.07323551842364 159.0621933645516 0 0 0 0 128.08202301890151 -320.64109151930325 0 -320.64109151930325 -381.8618746805405 0 0 0 0 -347.55050947429754 373.225882043811 0 373.225882043811 697.97281757727114 0 0 0 0 2.339614427183843 -0.28789489650746702 0 -0.28789489650746702 0.46354678845300845 0 0 0 0 -194.91357802211496 -182.33804675168722 0 -182.33804675168722 74.763495925504685 0 0 0 0 -202.80311412951414 -129.99322215872826 0 -129.99322215872826 -64.287986604109392 0 0 0 0 -4.7672092061419367 -4.7777162985833179 0 -4.7777162985833179 2.4671586374568903 0 0 0 0 -43.1269883404334 106.73224556880632 0 106.73224556880632 -362.49993867222497 0 0 0 0 -1.1807042569470934 1.0854926304172956 0 1.0854926304172956 6.2413257791893244 0 0 0 0 -26.511330768432799 -7.2195272500689498 0 -7.2195272500689498 172.73120171998698 0 0 0 0 -128.29991796957893 -112.67978475612381 0 -112.67978475612381 89.116615972998261 0 0 0 0 11.756364050139837 -48.188886590977518 0 -48.188886590977518 154.09610065931702 0 0 0 0 19.032512448638954 -36.902330081259606 0 -36.902330081259606 144.08091086246168 0 0 0 0 117.83652184350376 -206.57495751336319 0 -206.57495751336319 285.94436349924217 0 0 0 0 11.584468539894957 13.626106354949147 0 13.626106354949147 17.01821962600668 0 0 0 0 -24.47396074066819 61.145103194875901 0 61.145103194875901 111.97098173234895 0 0 0 0 10.55616559945733 21.558327799975814 0 21.558327799975814 35.519715938150242 0 0 0 0 14.319563927551485 25.302041759619812 0 25.302041759619812 43.271904713770027 0 0 0 0 29.74502731618486 62.775484285681614 0 62.775484285681614 17.746084409600826 0 0 0 0 -5.9906289914542299 31.780178207884092 0 31.780178207884092 -69.769840129864406 0 0 0 0 22.882117191430552 80.648922052066609 0 80.648922052066609 -26.674798310455117 0 0 0 0 -303.09823712514969 195.80237697178347 0 195.80237697178347 82.523862776825808 0 0 0 0 -427.35724349762631 232.29111955843587 0 232.29111955843587 520.64358590699976 0 0 0 0 1.9980540106735223 6.8791101649860886 0 6.8791101649860886 6.8344987083132391 0 0 0 0 84.730173970221813 252.95719135952777 0 252.95719135952777 68.830620024044038 0 0 0 0 1.8137674865132729 4.8052216401223369 0 4.8052216401223369 2.8371297147804047 0 0 0 0 -167.70930802637986 -217.49571841755346 0 -217.49571841755346 335.5532257186951 0 0 0 0 -181.69704175593682 -202.50272862418751 0 -202.50272862418751 397.12877956355442 0 0 0 0 9.7828731033656595 184.16467815257874 0 184.16467815257874 12.278373205167782 0 0 0 0 -183.86578926554739 185.44877786338384 0 185.44877786338384 191.69639336235377 0 0 0 0 -117.29926533105049 337.32518662248435 0 337.32518662248435 383.19276310074929 0 0 0 0 -10.385783034247652 -15.054839318263475 0 -15.054839318263475 160.58998449316641 0 0 0 0 -22.385896046057333 -30.262669649506904 0 -30.262669649506904 40.064514268898222 0 0 0 0 562.33871006628669 -171.88024818932172 0 -171.88024818932172 234.4587278950512 0 0 0 0 -173.73784360641821 -140.74368225824946 0 -140.74368225824946 455.90941887785721 0 0 0 0 -160.33626951608858 189.00437439719099 0 189.00437439719099 230.55830645441893 0 0 0 0 -57.227270231767761 47.029365623919148 0 47.029365623919148 256.52172390746819 0 0 0 0 -43.387734597864466 23.81796703943963 0 23.81796703943963 169.13956934338233 0 0 0 0 18.813563401552528 -63.158647989260317 0 -63.158647989260317 90.782541000762649 0 0 0 0 -29.366161139484237 22.319622341054412 0 22.319622341054412 38.702413560763567 0 0 0 0 -111.91832204178536 -101.03666259379133 0 -101.03666259379133 152.29357965605232 0 0 0 0 -81.23517412462752 -63.681128976139917 0 -63.681128976139917 108.35376789713519 0 0 0 0 -139.15083128153583 -130.54818631615854 0 -130.54818631615854 134.38699552702201 0 0 0 0 -93.526246766854456 -9.9212793013657574 0 -9.9212793013657574 217.58569753966731 0 0 0 0 -152.9772481167638 -94.316513469053461 0 -94.316513469053461 227.57033349966514 0 0 0 0 -41.050337549017414 48.037977554148668 0 48.037977554148668 18.392666596928066 0 0 0 0 -218.86948613931236 197.45067441340143 0 197.45067441340143 581.25699169577092 0 0 0 0 -3.2576199183918817 -2.1308992498471895 0 -2.1308992498471895 9.7370410586250102 0 0 0 0 -128.37068003417062 153.56979916333239 0 153.56979916333239 -57.57654010503029 0 0 0 0 -126.69475003926345 -198.73218131471003 0 -198.73218131471003 636.8290739682343 0 0 0 0 -2.2007442826040204 7.289883785498354 0 7.289883785498354 -8.8208747900560667 0 0 0 0 -80.626408613541074 51.711561929290951 0 51.711561929290951 25.853107098249517 0 0 0 0 -172.64246418662697 -11.893474371569027 0 -11.893474371569027 -7.9230337463504839 0 0 0 0 -162.81428135150873 54.751461179913349 0 54.751461179913349 46.961650779497177 0 0 0 0 0.58577524024563488 13.096586677091473 0 13.096586677091473 14.814035573368486 0 0 0 0 -230.89022173063495 4.4494654454929332 0 4.4494654454929332 94.134016798230732 0 0 0 0 -171.3509027086356 -166.20183735427011 0 -166.20183735427011 391.05308266794418 0 0 0 0 -176.11940337418855 101.05600368566138 0 101.05600368566138 137.49713962266514 0 0 0 0 -102.67448920805964 109.42306474315865 0 109.42306474315865 40.734316342613965 0 0 0 0 285.21561331638077 77.372260017269582 0 77.372260017269582 -150.83593053827281 0 0 0 0 -184.42266085486062 122.76734356281395 0 122.76734356281395 208.8222647860166 0 0 0 0 109.7127434733593 286.58976750054899 0 286.58976750054899 168.78805221589346 0 0 0 0 249.65030726595523 265.71025360973226 0 265.71025360973226 -20.701594526364715 0 0 0 0 163.63376518785026 398.93129672433179 0 398.93129672433179 23.072460441020667 0 0 0 0 397.90277949351548 279.33650484653231 0 279.33650484653231 -49.510133557567087 0 0 0 0 7.1691636734537472 5.5977166948098862 0 5.5977166948098862 1.3116727885496964 0 0 0 0 366.63073097518736 326.20679961146402 0 326.20679961146402 43.334169795705748 0 0 0 0 155.09940091638077 -405.18364079834839 0 -405.18364079834839 748.90618738740568 0 0 0 0 57.772877291619807 10.260341261961258 0 10.260341261961258 -183.89657147043886 0 0 0 0 41.377600887745757 -424.35928512090823 0 -424.35928512090823 568.69761497489299 0 0 0 0 4.6596393381197831 -17.238722269643944 0 -17.238722269643944 62.907484814411589 0 0 0 0 292.38652218619427 413.96467078720025 0 413.96467078720025 -11.865833793962338 0 0 0 0 -248.32059836896042 40.738935496122394 0 40.738935496122394 23.740459647593525 0 0 0 0 -157.02134597414624 -10.742257352540037 0 -10.742257352540037 -132.17101361111418 0 0 0 0 -134.37461311540392 70.664344265574982 0 70.664344265574982 13.414198276463139 0 0 0 0 -108.18480395928418 54.264705561192386 0 54.264705561192386 -29.516043794687675 0 0 0 0 -49.702009676140733 103.4485249975296 0 103.4485249975296 10.364863886006788 0 0 0 0 -242.85413428052925 76.278775090981526 0 76.278775090981526 16.846992371738452 0 0 0 0 -36.241506761623896 373.54393165528199 0 373.54393165528199 367.73150565380274 0 0 0 0 -250.58063024544117 56.384334850280084 0 56.384334850280084 457.57940418030194 0 0 0 0 -368.58684386868845 -267.85596156223619 0 -267.85596156223619 422.97309933748329 0 0 0 0 -0.60320135544038322 -3.3197030378851515 0 -3.3197030378851515 25.079261484196063 0 0 0 0 -608.0556432528756 -76.844347602043854 0 -76.844347602043854 433.73577750371805 0 0 0 0 204.07489737182823 483.46626586350385 0 483.46626586350385 181.78609415630672 0 0 0 0 -291.71896931300944 -190.127241917633 0 -190.127241917633 -49.81634109528386 0 0 0 0 -283.27979223760485 -118.83561401431325 0 -118.83561401431325 78.522892827433679 0 0 0 0 9.5847898304393127 16.210886074418319 0 16.210886074418319 21.770118702347546 0 0 0 0 -97.69764610221273 150.14120980631668 0 150.14120980631668 -105.71274200122207 0 0 0 0 43.198779669693977 -207.53921456798344 0 -207.53921456798344 470.23801852074757 0 0 0 0 -107.65373471292514 52.508986287852167 0 52.508986287852167 -58.421940609619924 0 0 0 0 -49.12336107626885 86.014496009448749 0 86.014496009448749 -129.10255469540061 0 0 0 0 -77.333274250016984 218.20767473490559 0 218.20767473490559 -80.722018842032412 0 0 0 0 1.540932709023501 5.0382593146911336 0 5.0382593146911336 8.8883396756503146 0 0 0 0 -553.67423072805286 -904.15945710876895 0 -904.15945710876895 1087.4343613710735 0 0 0 0 22.919098380340074 -158.49231553833852 0 -158.49231553833852 489.2081839668158 0 0 0 0 295.48164575875262 -52.61573424452672 0 -52.61573424452672 250.02052497644399 0 0 0 0 -154.47869576741505 52.721230410505086 0 52.721230410505086 -13.868118115042307 0 0 0 0 -48.827558920740977 48.035603803959653 0 48.035603803959653 45.747371078374627 0 0 0 0 -213.78549029765827 47.14365801132044 0 47.14365801132044 16.299574077624129 0 0 0 0 245.67474495911665 155.34786067314417 0 155.34786067314417 1807.6472648826602 0 0 0 0 1.2157180519162729 38.429034957871082 0 38.429034957871082 49.239738075662729 0 0 0 0 0.5214909106362029 31.832772289024433 0 31.832772289024433 -29.772603086996241 0 0 0 0 -10.282314716354449 48.623619203293856 0 48.623619203293856 -10.558792648575036 0 0 0 0 55.847791576088639 105.01049546396098 0 105.01049546396098 -4.9033778852262913 0 0 0 0 137.16474354896491 126.36159317789861 0 126.36159317789861 -17.693714518398338 0 0 0 0 214.39904203701735 211.73032417865033 0 211.73032417865033 -25.422307483589975 0 0 0 0 112.02599896588799 237.68753128176468 0 237.68753128176468 199.77122574356326 0 0 0 0 137.86407653806236 78.128190752504452 0 78.128190752504452 -107.59215862716246 0 0 0 0 32.986145886740815 -31.811867245507528 0 -31.811867245507528 -123.61780043992621 0 0 0 0 690.0230684874092 -429.87239651483424 0 -429.87239651483424 25.120737602337613 0 0 0 0 -2.7612469315191426 0.14776620916622818 0 0.14776620916622818 15.04710659627176 0 0 0 0 165.52652790487446 294.14109188702787 0 294.14109188702787 217.4865560366743 0 0 0 0 -185.19024413283842 -35.82768334683351 0 -35.82768334683351 -21.609331081599521 0 0 0 0 -1216.8933603362675 -997.70462105101615 0 -997.70462105101615 2139.6426728455262 0 0 0 0 -2522.2782277481165 -451.48742495523766 0 -451.48742495523766 2962.7357095214466 0 0 0 0 -2387.1179394036881 228.60274784092326 0 228.60274784092326 2274.9031326491386 0 0 0 0 1349.8503951513267 -1879.5253621683732 0 -1879.5253621683732 730.62528435211607 0 0 0 0 8.1111076752622466 326.74047604905627 0 326.74047604905627 478.81663666704844 0 0 0 0 -560.10116274053871 -230.07373105821716 0 -230.07373105821716 652.0417325024755 0 0 0 0 -359.54141662450047 -572.4483617719701 0 -572.4483617719701 976.30528156702348 0 0 0 0 -1136.3371430995685 -231.82580870379752 0 -231.82580870379752 1296.0245695898702 0 0 0 0 -1110.8752693156857 -302.09546401987609 0 -302.09546401987609 1413.2884951930537 0 0 0 0 -28.185562838390929 49.176667522414036 0 49.176667522414036 31.855771670816004 0 0 0 0 31.966861212960794 585.93107217620854 0 585.93107217620854 11.932541931913875 0 0 0 0 44.858453887616633 110.57667000393849 0 110.57667000393849 59.046717581080884 0 0 0 0 1570.9209466953034 48.048959742533043 0 48.048959742533043 44.313547618607572 0 0 0 0 -507.33713500629528 92.442936211868073 0 92.442936211868073 690.20042405014101 0 0 0 0 -997.05472376788748 171.52095984725929 0 171.52095984725929 683.83886643459118 0 0 0 0 -545.69643869575884 253.81717044500056 0 253.81717044500056 629.85077890420507 0 0 0 0 -1702.8930438318785 539.24049290224866 0 539.24049290224866 1302.1555406984335 0 0 0 0 -1.6689260741477483 135.00360703046317 0 135.00360703046317 52.971572321726853 0 0 0 0 71.07252893774421 166.46706163030103 0 166.46706163030103 62.635407604408101 0 0 0 0 122.11651941035961 179.47221543097112 0 179.47221543097112 58.549284290995274 0 0 0 0 -22.311137538963521 250.97554937599125 0 250.97554937599125 242.36307092472271 0 0 0 0 -137.14661254279054 -56.606732737447601 0 -56.606732737447601 85.890555549987766 0 0 0 0 -119.23070135879971 -65.24768654620857 0 -65.24768654620857 85.822289046809601 0 0 0 0 -1.2548162007151404 88.851960851672629 0 88.851960851672629 133.2360937475969 0 0 0 0 -310.62801539446082 51.861266215990327 0 51.861266215990327 133.62279920373112 0 0 0 0 -215.37321685671759 87.463467891482651 0 87.463467891482651 434.19114752509631 0 0 0 0 -192.99550605456261 165.5567817801566 0 165.5567817801566 570.14379033203295 0 0 0 0 -18.150546592143655 203.89412903403718 0 203.89412903403718 251.90376107889824 0 0 0 0 26.720853228998749 333.42830456751108 0 333.42830456751108 619.30901581191574 0 0 0 0 -27.036497644414339 239.11435200144115 0 239.11435200144115 617.43766978524218 0 0 0 0 -165.01378790697709 162.68960032456744 0 162.68960032456744 1050.4129259074543 0 0 0 0 -186.43004694771662 42.164893414315884 0 42.164893414315884 424.36581616773765 0 0 0 0 624.55279839974537 25.361371379367483 0 25.361371379367483 -978.65686467379783 0 0 0 0 -86.850399844626736 -496.19767949832112 0 -496.19767949832112 1775.5480602819298 0 0 0 0 -44.011013320130587 -434.21059199429146 0 -434.21059199429146 604.11618712430209 0 0 0 0 -8.127431072480249 -138.16638554569727 0 -138.16638554569727 8.9845368432361283 0 0 0 0 527.56091869862576 -18.936970155969902 0 -18.936970155969902 33.753303746791062 0 0 0 0 -357.00695635253942 90.37039813886804 0 90.37039813886804 448.88051112963512 0 0 0 0 -135.66615272760828 64.005462780700327 0 64.005462780700327 169.69819181689672 0 0 0 0 -79.934123928163899 -73.499739352657343 0 -73.499739352657343 489.50157239065084 0 0 0 0 -141.94043073395733 -149.60576401489743 0 -149.60576401489743 124.31332909390039 0 0 0 0 -118.5372357596716 22.529716431221459 0 22.529716431221459 68.748285425448557 0 0 0 0 712.79326525564124 -651.19532944943967 0 -651.19532944943967 -367.01016879913368 0 0 0 0 -0.65482639377887608 -215.73156638896944 0 -215.73156638896944 86.011652552086161 0 0 0 0 -90.690971442227237 -193.93239012340564 0 -193.93239012340564 104.2689579349244 0 0 0 0 80.170834158445359 -21.063557968984242 0 -21.063557968984242 -81.315085006179288 0 0 0 0 169.51040993351126 295.86164348470265 0 295.86164348470265 192.47729830417666 0 0 0 0 -1.0859900434751069 6.1977838046649083 0 6.1977838046649083 30.226188661517767 0 0 0 0 -468.79920118351583 261.46193714056062 0 261.46193714056062 2619.4981230999183 0 0 0 0 2.5281327938902152 4.7215304659202104 0 4.7215304659202104 25.854920761189334 0 0 0 0 194.96468946363893 495.75513855137979 0 495.75513855137979 689.32344471532269 0 0 0 0 213.14377034611971 240.63373484168915 0 240.63373484168915 196.32870005197765 0 0 0 0 -52.369975837118545 349.5460503226368 0 349.5460503226368 1514.2927996842336 0 0 0 0 877.80797791600344 -1642.7806183651046 0 -1642.7806183651046 -541.88545202493697 0 0 0 0 604.07412194753852 -727.43858747418562 0 -727.43858747418562 112.28457449191046 0 0 0 0 -17.990864942561529 -301.03313211265049 0 -301.03313211265049 400.00516026463447 0 0 0 0 150.08735068199712 -289.98778229755408 0 -289.98778229755408 176.10660956325592 0 0 0 0 220.88163800598704 -61.240807079229853 0 -61.240807079229853 -288.68479653097165 0 0 0 0 -21.817191270885814 -92.321957263477088 0 -92.321957263477088 48.213320438197115 0 0 0 0 -122.82350196367042 59.545535446293798 0 59.545535446293798 1011.7274646695087 0 0 0 0 9.186440407007467 -655.95761031156871 0 -655.95761031156871 903.62786092730676 0 0 0 0 0.12044865989234665 3.8221416109179778 0 3.8221416109179778 17.725570517800037 0 0 0 0 481.15832336401263 -366.75753272451857 0 -366.75753272451857 1010.7813721534985 0 0 0 0 412.8061570149257 402.38533668808304 0 402.38533668808304 739.13513718117611 0 0 0 0 109.65205952526878 -476.13141803223107 0 -476.13141803223107 1157.8842957337692 0 0 0 0 386.98176842926387 217.55209419270432 0 217.55209419270432 -104.77729309129063 0 0 0 0 6.2355996400777798 -3.2749519286543745 0 -3.2749519286543745 -0.032665180726823451 0 0 0 0 110.71396389235531 -509.98847660054429 0 -509.98847660054429 242.74836165791203 0 0 0 0 -323.57668187841955 -76.817632090228471 0 -76.817632090228471 200.08757503792003 0 0 0 0 249.86315246776576 646.185138607525 0 646.185138607525 486.40109774118901 0 0 0 0 421.47110302791771 457.11421698989579 0 457.11421698989579 -440.38274134117091 0 0 0 0 -166.71051589308263 224.30762400264575 0 224.30762400264575 75.764845771118416 0 0 0 0 956.41122884061406 22.660769845118921 0 22.660769845118921 -210.96723830781957 0 0 0 0 -216.89759742844944 -668.28728113521174 0 -668.28728113521174 1119.2132953758919 0 0 0 0 -547.67167309233992 -1.6141304830089211 0 -1.6141304830089211 -216.65131080036849 0 0 0 0 -1104.2704554105148 -680.89549623854964 0 -680.89549623854964 309.61760421213694 0 0 0 0 95.423456885588166 171.31683889333044 0 171.31683889333044 494.43969096074034 0 0 0 0 13.28437870162977 -46.979326707726464 0 -46.979326707726464 114.71827309851119 0 0 0 0 -295.39029855875924 -31.303791215446836 0 -31.303791215446836 -58.97077386109595 0 0 0 0 -87.371814790378266 -68.942327237366499 0 -68.942327237366499 315.67683347116406 0 0 0 0 134.9126892957629 133.81378583672313 0 133.81378583672313 272.19933006942802 0 0 0 0 5.8849664006702369 151.44861758159641 0 151.44861758159641 612.54944466491588 0 0 0 0 8.8820531053561353 161.77853179189492 0 161.77853179189492 667.44630825271497 0 0 0 0 -115.26904592249321 151.48716342440787 0 151.48716342440787 610.51237604928497 0 0 0 0 -0.66680678174634522 15.81478688781101 0 15.81478688781101 465.47629701858688 0 0 0 0 44.067702720139096 181.64390299564957 0 181.64390299564957 509.05588166263419 0 0 0 0 30.847853127186681 32.642678661797504 0 32.642678661797504 256.37336871229445 0 0 0 0 128.74217061394074 -153.76208724251376 0 -153.76208724251376 99.69916789977151 0 0 0 0 -74.829350849723596 -54.175309031557958 0 -54.175309031557958 414.04891695099332 0 0 0 0 158.45188215705275 -254.40259616227922 0 -254.40259616227922 433.00405282565077 0 0 0 0 4.9293365727501826 2.6112671576094915 0 2.6112671576094915 -5.2427213110937565 0 0 0 0 -443.93698448864552 203.47160411906748 0 203.47160411906748 118.73326510156585 0 0 0 0 -195.88873923484061 -109.94763710969846 0 -109.94763710969846 151.62161803665026 0 0 0 0 -154.80384441259321 -89.090776346292387 0 -89.090776346292387 73.70089163677585 0 0 0 0 -174.83139930722245 -248.63112950583673 0 -248.63112950583673 199.50347717230011 0 0 0 0 18.164697626402095 -65.196392683920337 0 -65.196392683920337 164.86523567020126 0 0 0 0 -22.880596760801382 -168.20370490960522 0 -168.20370490960522 133.15235053789343 0 0 0 0 -211.50121923141342 -5.6488598454016028 0 -5.6488598454016028 133.16017285025532 0 0 0 0 5.7813370104730559 -20.238855054713071 0 -20.238855054713071 18.112576613511671 0 0 0 0 -143.74986293982511 130.29248325403751 0 130.29248325403751 269.48731267050971 0 0 0 0 -306.54593204858611 -35.397885432339535 0 -35.397885432339535 489.92228889844409 0 0 0 0 29.068811520175586 3.775246278852137 0 3.775246278852137 341.79619732658466 0 0 0 0 -662.48959374167862 -230.24988660368581 0 -230.24988660368581 194.10997474972464 0 0 0 0 -225.25363145907522 -123.34287567996853 0 -123.34287567996853 67.067031638020126 0 0 0 0 20.611497548056132 -60.092790679614431 0 -60.092790679614431 138.70121467356239 0 0 0 0 140.45441807057952 150.28636366771298 0 150.28636366771298 421.44826356241538 0 0 0 0 -0.37254789158086482 -0.71017836762982256 0 -0.71017836762982256 3.4385553380112128 0 0 0 0 0.069513965820031581 -4.6460271769683459 0 -4.6460271769683459 -8.3785400816996116 0 0 0 0 227.72340665355517 553.48253451636992 0 553.48253451636992 717.36231227185635 0 0 0 0 -0.0080788863782572662 182.58018263190024 0 182.58018263190024 458.49971630725486 0 0 0 0 -63.121463994021269 45.94496751245606 0 45.94496751245606 252.86187076318311 0 0 0 0 -33.031605766374696 5.3380001089317375 0 5.3380001089317375 295.21458972770051 0 0 0 0 -37.114830394929911 130.44110889214835 0 130.44110889214835 412.32940796794719 0 0 0 0 118.9177991597976 318.48994054508876 0 318.48994054508876 540.48679191815972 0 0 0 0 -1.0101139375425638 -4.399468995515349 0 -4.399468995515349 6.0690635853733852 0 0 0 0 4.4302588486652326 -62.849485764731071 0 -62.849485764731071 62.55429677227221 0 0 0 0 143.70782957955777 163.84528298025543 0 163.84528298025543 312.69340658110741 0 0 0 0 36.263450502357955 118.82373882542743 0 118.82373882542743 334.15201505018922 0 0 0 0 79.333041553707517 200.69844558973273 0 200.69844558973273 344.32089021477441 0 0 0 0 19.260125678018994 25.915500960567442 0 25.915500960567442 103.12496506824391 0 0 0 0 3.4157404354583392 -0.75561234645306286 0 -0.75561234645306286 20.841883242158616 0 0 0 0 4.1349140876322394 28.968546718235302 0 28.968546718235302 126.78568232926773 0 0 0 0 -10.090487096336513 60.893179481503466 0 60.893179481503466 104.43205447148648 0 0 0 0 10.561599778379321 15.125210542779655 0 15.125210542779655 4.3367386239209935 0 0 0 0 56.015319490290111 58.956435992688057 0 58.956435992688057 36.708540362378699 0 0 0 0 1.8197303652434003 2.5974501578039337 0 2.5974501578039337 4.5220320604618678 0 0 0 0 0.073621240677356523 1.7101477549886681 0 1.7101477549886681 5.8839767787453212 0 0 0 0 21.441051006647847 -3.503180427593179 0 -3.503180427593179 28.207130297276308 0 0 0 0 2.7094082344397989 -8.8643742819986073 0 -8.8643742819986073 4.8677270413390943 0 0 0 0 47.984335552768741 100.96844759434862 0 100.96844759434862 150.10555994923925 0 0 0 0 -33.687997270013952 -37.489877141073521 0 -37.489877141073521 177.85084384502261 0 0 0 0 41.830513837598659 85.720927663212933 0 85.720927663212933 50.123593953365344 0 0 0 0 -15.166860809800777 -5.0934084393447847 0 -5.0934084393447847 135.43235447769985 0 0 0 0 -0.060025189913697985 -2.763378821167862 0 -2.763378821167862 46.401215479447274 0 0 0 0 0.00088483325872545059 -4.7604951426474145 0 -4.7604951426474145 28.212519314707606 0 0 0 0 0.13455257169560589 -5.081783476180135 0 -5.081783476180135 25.483625656634104 0 0 0 0 -3.5301210871167319 -11.345255960462964 0 -11.345255960462964 40.439174369486864 0 0 0 0 -3.5333470050007203 -13.214780887134111 0 -13.214780887134111 25.383085060719168 0 0 0 0 -2.4117676564485606 -1.6821028474078048 0 -1.6821028474078048 28.538761096278904 0 0 0 0 -0.67202459975179885 -3.6712482147850096 0 -3.6712482147850096 23.559431731031509 0 0 0 0 -5.145000849020839 -0.22033767474931665 0 -0.22033767474931665 20.431792118455633 0 0 0 0 -2.7824184700979746 -8.1731364060251508 0 -8.1731364060251508 30.719867479754612 0 0 0 0 12.382068764734413 12.080781094526174 0 12.080781094526174 -46.976941575405363 0 0 0 0 -4.9018083331990647 -12.708002896360995 0 -12.708002896360995 50.31016913028725 0 0 0 0 -0.20938024630760343 0.012309680859374339 0 0.012309680859374339 -0.090373061756878315 0 0 0 0 -0.52149994455496085 -2.2253765218338231 0 -2.2253765218338231 34.946449353374192 0 0 0 0 -1.80829764412921 -7.7275075788229515 0 -7.7275075788229515 21.948216116754338 0 0 0 0 -1.6726608483519136 -6.2143428014678648 0 -6.2143428014678648 34.05030858668033 0 0 0 0 0.33923924293311458 -14.236293176509207 0 -14.236293176509207 26.290640629304107 0 0 0 0 0.83205688543363665 -14.16586382524838 0 -14.16586382524838 16.2316591750714 0 0 0 0 0.047026565813077063 -4.996860276987718 0 -4.996860276987718 10.71224494911803 0 0 0 0 -14.619469298134343 -0.51858388972323155 0 -0.51858388972323155 80.460453328734729 0 0 0 0 24.120505528549785 29.909833693491237 0 29.909833693491237 72.712818378226075 0 0 0 0 10.199041521538042 -12.717019952651754 0 -12.717019952651754 -19.713909691825393 0 0 0 0 -6.5095546338896213 13.500152647167852 0 13.500152647167852 1.9907029124442488 0 0 0 0 -0.45344084660924011 -22.446037671346858 0 -22.446037671346858 15.214541928726248 0 0 0 0 13.04127068691654 -10.984873841806348 0 -10.984873841806348 100.79416199069237 0 0 0 0 9.0500229033690953 29.604248631631435 0 29.604248631631435 93.163560423781746 0 0 0 0 -10.180544145947351 37.592456341488287 0 37.592456341488287 66.400786456550122 0 0 0 0 90.36295516325653 -14.097099869588419 0 -14.097099869588419 93.435824436339317 0 0 0 0 24.190182350785676 5.0503045362274861 0 5.0503045362274861 90.586675877106245 0 0 0 0 -0.34698173238109575 -13.177588540631405 0 -13.177588540631405 -0.88230314370957785 0 0 0 0 42.558652398851663 -26.840111674668151 0 -26.840111674668151 3.3304555512149818 0 0 0 0 0.20539649364826262 -69.911675696068357 0 -69.911675696068357 -25.062567724758992 0 0 0 0 56.916842087982445 -13.790282827954798 0 -13.790282827954798 -47.915819143556291 0 0 0 0 9.4401754417947554 -15.094563293116877 0 -15.094563293116877 17.731634987974246 0 0 0 0 -1.0772825523522727 18.813321157522296 0 18.813321157522296 82.120134661250631 0 0 0 0 -25.2915039736449 -3.8420396585955814 0 -3.8420396585955814 35.548398278237613 0 0 0 0 -62.635114855494066 -53.037212094095594 0 -53.037212094095594 29.634539891821987 0 0 0 0 1.4273638421152537 -15.387884083066183 0 -15.387884083066183 34.068968292340287 0 0 0 0 20.649754881241137 -12.856743040407309 0 -12.856743040407309 -32.661843239984591 0 0 0 0 0.29185624112495867 -3.2675936631790421 0 -3.2675936631790421 8.4872636914192583 0 0 0 0 -3.27910776760109 12.673343351671065 0 12.673343351671065 65.063698342011776 0 0 0 0 -7.7252500774497701 -11.284152297614128 0 -11.284152297614128 32.238546805238002 0 0 0 0 -8.9394052459028721 -7.1831800641419932 0 -7.1831800641419932 30.965568994269717 0 0 0 0 6.2625883163213985 17.249372848556959 0 17.249372848556959 56.371169742917118 0 0 0 0 -7.3561863825854985 10.753431069899548 0 10.753431069899548 49.122479335249182 0 0 0 0 5.681314841333176 27.037688164644351 0 27.037688164644351 72.407375695533119 0 0 0 0 4.7690123452197213 21.045466313367797 0 21.045466313367797 54.87276911502704 0 0 0 0 9.3685312755798833 21.957991386628578 0 21.957991386628578 16.059285539782067 0 0 0 0 26.370215944643885 30.878718815803552 0 30.878718815803552 -4.1512988980940584 0 0 0 0 21.052153545078909 43.741511171720049 0 43.741511171720049 76.005508024216397 0 0 0 0 38.269386276196165 43.286358471353282 0 43.286358471353282 40.851756921576836 0 0 0 0 24.016157361149052 28.548078002348092 0 28.548078002348092 -0.16664176699453037 0 0 0 0 19.016992277921418 32.990543738291308 0 32.990543738291308 61.558222082036082 0 0 0 0 23.656241185020008 42.418386446530349 0 42.418386446530349 106.5660974267048 0 0 0 0 4.1224618511172615 14.538700163548796 0 14.538700163548796 42.836039884490276 0 0 0 0 17.460538158682503 25.039078240448418 0 25.039078240448418 20.228509253528259 0 0 0 0 16.10393987155096 31.337571843500911 0 31.337571843500911 13.06384141513368 0 0 0 0 21.03113973070441 36.708871771903432 0 36.708871771903432 96.387532934706542 0 0 0 0 359.13985799027978 171.46514575183392 0 171.46514575183392 49.423784854487167 0 0 0 0 6.6281199555195673 -0.28326889279058776 0 -0.28326889279058776 23.528552539973518 0 0 0 0 71.840561073441677 59.60798694019195 0 59.60798694019195 70.401184263173491 0 0 0 0 59.26765995378355 99.077582852938576 0 99.077582852938576 137.8408365912328 0 0 0 0 -68.299183867296961 75.809559352888755 0 75.809559352888755 198.16677456382604 0 0 0 0 -30.814915567794923 -5.4827353722835426 0 -5.4827353722835426 138.17533224093225 0 0 0 0 -70.838161363591595 -119.3287991564348 0 -119.3287991564348 12.200543945553363 0 0 0 0 -319.87719462103178 -35.029380516956735 0 -35.029380516956735 105.44812224643829 0 0 0 0 -8.0449911440073265 176.58154290039602 0 176.58154290039602 331.62181781522668 0 0 0 0 99.155398260640141 -127.20722981159633 0 -127.20722981159633 122.74048012085404 0 0 0 0 238.87962081687692 194.16152134143704 0 194.16152134143704 317.4863981140079 0 0 0 0 -247.52742502092224 -161.85799744822361 0 -161.85799744822361 297.30822361923492 0 0 0 0 -24.207659315579559 -27.955583754776526 0 -27.955583754776526 169.54559180524197 0 0 0 0 -306.45289618231743 -580.50693555541886 0 -580.50693555541886 -179.27110609732335 0 0 0 0 -275.78945903248427 83.065249630958533 0 83.065249630958533 352.57663722906727 0 0 0 0 -16.236240885436928 15.925585319433594 0 15.925585319433594 193.12788059769082 0 0 0 0 451.49403748915859 -548.66797517740633 0 -548.66797517740633 -563.71433426055592 0 0 0 0 4.7246322254200246 -4.8015958534442973 0 -4.8015958534442973 5.4772304522953164 0 0 0 0 -36.330172881200383 -19.337440712297393 0 -19.337440712297393 328.94156353978724 0 0 0 0 260.62312998678772 48.14888084786071 0 48.14888084786071 -215.5277349560638 0 0 0 0 78.032076293297109 8.9664294600115682 0 8.9664294600115682 -26.279352258789004 0 0 0 0 564.45912727384439 398.65251185272791 0 398.65251185272791 268.73532358158263 0 0 0 0 3.6775021994598989 0.52322936211396254 0 0.52322936211396254 4.433546834497605 0 0 0 0 270.40484228728565 318.56966187412036 0 318.56966187412036 337.62484706149553 0 0 0 0 284.3144222246051 280.91582591958104 0 280.91582591958104 329.13521205820143 0 0 0 0 323.56238940874755 228.95292801655887 0 228.95292801655887 365.71544309001183 0 0 0 0 222.20109674041669 310.12498076002521 0 310.12498076002521 354.25475299373647 0 0 0 0 409.85594045542894 328.70351864345139 0 328.70351864345139 323.56635614540573 0 0 0 0 110.3261472618824 350.15407212845821 0 350.15407212845821 772.43606727050064 0 0 0 0 467.7411085729982 467.41326555785054 0 467.41326555785054 343.04178343337844 0 0 0 0 124.03059678081075 128.57141836444748 0 128.57141836444748 177.17477422807133 0 0 0 0 62.292124081048314 302.25247718673199 0 302.25247718673199 417.73866008744517 0 0 0 0 -126.83925791691581 177.89271629400173 0 177.89271629400173 188.97279150854865 0 0 0 0 -13.180994504902628 97.065663782123011 0 97.065663782123011 226.97598215400649 0 0 0 0 -1.8077184104440676 237.22316634075105 0 237.22316634075105 368.0991541216863 0 0 0 0 -44.20051136335951 173.75373407281222 0 173.75373407281222 389.2192879581853 0 0 0 0 119.21975692381238 282.33099194176611 0 282.33099194176611 352.79266364742216 0 0 0 0 19.675171680373751 256.4663808101177 0 256.4663808101177 402.31592262812774 0 0 0 0 150.82379554270574 239.24623600801715 0 239.24623600801715 387.33351852465421 0 0 0 0 -0.053828738449777092 -5.2847725462369226 0 -5.2847725462369226 10.128263680561659 0 0 0 0 110.37510407060472 264.30762532251538 0 264.30762532251538 415.5866599787405 0 0 0 0 12.029601720320793 -9.335060703194884 0 -9.335060703194884 15.297018361057241 0 0 0 0 186.61526519074323 284.10890893137548 0 284.10890893137548 383.3175045082462 0 0 0 0 138.2742695033694 276.92822321978019 0 276.92822321978019 407.23330174818693 0 0 0 0 -34.129397467890158 -11.083675210284127 0 -11.083675210284127 93.025988318302552 0 0 0 0 104.23157165463817 279.65125155111309 0 279.65125155111309 382.61820763285505 0 0 0 0 56.056475156274246 237.61668563702551 0 237.61668563702551 361.69557605205046 0 0 0 0 142.31814565946843 299.17339427235129 0 299.17339427235129 378.80329988909943 0 0 0 0 15.942330093948613 218.07905069344542 0 218.07905069344542 386.11405798213673 0 0 0 0 6.3936097645660084 -10.228569835115195 0 -10.228569835115195 21.910330190150489 0 0 0 0 47.580168694913709 3.6045331868326684 0 3.6045331868326684 55.792459919081011 0 0 0 0 -13.056115256570138 -7.3128665038584586 0 -7.3128665038584586 88.444879303322523 0 0 0 0 3.1396675692795588 -5.2438952180609881 0 -5.2438952180609881 37.305243488241345 0 0 0 0 7.4121250128745153 -3.3397425607271884 0 -3.3397425607271884 28.979340182410084 0 0 0 0 499.78727451785062 216.40022902567944 0 216.40022902567944 327.14503060656716 0 0 0 0 227.07075407500997 252.54805660895363 0 252.54805660895363 410.34532001279877 0 0 0 0 324.70479398009775 230.58446220494807 0 230.58446220494807 407.31694646359756 0 0 0 0 404.37326357974598 218.11526448468794 0 218.11526448468794 388.22766827332089 0 0 0 0 300.18473934183567 259.87231502711074 0 259.87231502711074 382.53853301634081 0 0 0 0 213.38054465046935 243.8904123229222 0 243.8904123229222 410.50669083668618 0 0 0 0 9.696501985360154 -13.698219681543904 0 -13.698219681543904 23.19668662076171 0 0 0 0 -6.7783906382355781 -15.351258255104767 0 -15.351258255104767 19.839664087048732 0 0 0 0 6.7657550048215116 -7.0563767538785029 0 -7.0563767538785029 36.015102750426209 0 0 0 0 -3.6146162925016583 -1.974411429694257 0 -1.974411429694257 61.185262770682016 0 0 0 0 31.40336939557983 -24.029594089617603 0 -24.029594089617603 94.313157008262351 0 0 0 0 11.315087758230888 47.11491187516387 0 47.11491187516387 141.11831098438779 0 0 0 0 -2.0301755261373806 10.486679127420599 0 10.486679127420599 82.496553369163777 0 0 0 0 1.889151040078664 10.706032782368421 0 10.706032782368421 42.578101915172624 0 0 0 0 25.792103462341515 31.140737855723273 0 31.140737855723273 64.74946536031257 0 0 0 0 21.880097618215245 24.116340994405618 0 24.116340994405618 72.080920564629196 0 0 0 0 11.393045326785796 24.299642125726677 0 24.299642125726677 88.279652419747435 0 0 0 0 45.730309703265448 -15.414497117919382 0 -15.414497117919382 306.70215194891716 0 0 0 0 31.96140638968609 27.306912264182756 0 27.306912264182756 46.547544833389111 0 0 0 0 2.9687345098352562 -1.5373719427895338 0 -1.5373719427895338 97.922077125817452 0 0 0 0 59.1920316331707 91.917621811153367 0 91.917621811153367 -3.3822811725221982 0 0 0 0 3.3746422908427576 20.803961631259881 0 20.803961631259881 94.554731463256758 0 0 0 0 22.915818111623324 86.336146473203485 0 86.336146473203485 96.104419415718354 0 0 0 0 0.7825156998084406 46.142523996561408 0 46.142523996561408 84.800464108963666 0 0 0 0 -20.047861428414762 27.614713210976333 0 27.614713210976333 115.01949484736542 0 0 0 0 -10.480288690870795 42.382103156044849 0 42.382103156044849 106.22370954800547 0 0 0 0 -5.9342855623175259 27.667121118867101 0 27.667121118867101 30.52290220103464 0 0 0 0 251.52952729001527 154.89513226181953 0 154.89513226181953 -86.162893096377957 0 0 0 0 10.50531994634639 12.678057631354022 0 12.678057631354022 165.39412076365261 0 0 0 0 1.4830829611686269 4.7579064490047713 0 4.7579064490047713 35.47191288062384 0 0 0 0 15.510727603571922 1.0880800422582979 0 1.0880800422582979 236.33537693176686 0 0 0 0 -212.64101369194123 -60.187230801390797 0 -60.187230801390797 146.77601282692922 0 0 0 0 9.3059602752668127 14.07741970384383 0 14.07741970384383 117.22685295014273 0 0 0 0 -198.64681853265938 -193.09559839626309 0 -193.09559839626309 -199.78696822544771 0 0 0 0 -3.0354249045849429 19.006366158952005 0 19.006366158952005 115.01969286159147 0 0 0 0 14.064421251915499 44.08403453650233 0 44.08403453650233 70.190148983669914 0 0 0 0 44.468150229142339 -129.92984905524645 0 -129.92984905524645 360.23498205818032 0 0 0 0 -190.21780277970902 48.236946164877736 0 48.236946164877736 230.5308132164937 0 0 0 0 -128.44880920135984 -34.647536941418366 0 -34.647536941418366 68.229437136062188 0 0 0 0 -37.080550519600365 70.49408338527428 0 70.49408338527428 408.73281159474391 0 0 0 0 181.72317791906244 123.89179680742018 0 123.89179680742018 190.07298480047029 0 0 0 0 48.02480029866274 0.46641096686289529 0 0.46641096686289529 122.65939016336051 0 0 0 0 -6.7543066632476441 18.343177491303223 0 18.343177491303223 11.970154015191099 0 0 0 0 -250.86694944975261 -140.52296696485428 0 -140.52296696485428 187.46657850177144 0 0 0 0 -89.962909779040274 3.8131785411205783 0 3.8131785411205783 174.56272509539849 0 0 0 0 -242.39172650075216 -97.331344248290407 0 -97.331344248290407 292.43416654827888 0 0 0 0 -0.73155432359453698 61.553506913176534 0 61.553506913176534 170.42277019760513 0 0 0 0 -84.637591688065186 -70.18099297934441 0 -70.18099297934441 174.75583404507779 0 0 0 0 -48.558843676219112 48.222318357118638 0 48.222318357118638 -42.330160052151768 0 0 0 0 -462.58564171769603 6.1382111219754734 0 6.1382111219754734 -1.2645400320761837 0 0 0 0 0.45468098818889968 -23.680459787361315 0 -23.680459787361315 1.6821845640890274 0 0 0 0 -126.08484463813949 -32.158599382446482 0 -32.158599382446482 154.3739193456131 0 0 0 0 -124.37634408413214 -70.044297883054242 0 -70.044297883054242 -77.866558774228906 0 0 0 0 -73.058625200989809 55.511329822431435 0 55.511329822431435 71.909246547613293 0 0 0 0 -89.461813246101883 117.78910887501843 0 117.78910887501843 90.251900296949316 0 0 0 0 -100.71164571396366 -38.59427802771097 0 -38.59427802771097 169.40820363583043 0 0 0 0 -144.49001253167762 -66.709080572064522 0 -66.709080572064522 262.7141020596755 0 0 0 0 4.808151857733999 -14.685159172844017 0 -14.685159172844017 155.98313846000335 0 0 0 0 -131.80397838648059 -12.649625896963698 0 -12.649625896963698 355.77168404235272 0 0 0 0 -110.10152520599422 120.02130579552613 0 120.02130579552613 232.30688798736082 0 0 0 0 -83.736443375280942 -81.358225551230134 0 -81.358225551230134 449.90146977570839 0 0 0 0 19.459204607417632 71.59962843847461 0 71.59962843847461 245.43924132414395 0 0 0 0 -75.419981717023802 108.92451936064754 0 108.92451936064754 455.75773285320611 0 0 0 0 4.9530478108390525 115.37956246273825 0 115.37956246273825 271.7213680822897 0 0 0 0 -60.281659357560784 87.073895698325941 0 87.073895698325941 266.76847815688961 0 0 0 0 81.285911686881946 120.3355072236227 0 120.3355072236227 266.83341423147067 0 0 0 0 0.53004845808891332 110.35548978477891 0 110.35548978477891 319.69656144381952 0 0 0 0 1.1992290719272205 125.60671925518545 0 125.60671925518545 293.79685284689185 0 0 0 0 -17.181968509488797 65.701001950088539 0 65.701001950088539 268.31273411925213 0 0 0 0 -21.496994840236766 67.280017731172848 0 67.280017731172848 272.92918689880753 0 0 0 0 38.826954023558756 126.03374058959162 0 126.03374058959162 296.16795134582208 0 0 0 0 -35.215888021785531 141.60602334919531 0 141.60602334919531 100.96436024541617 0 0 0 0 -83.754134008890105 -37.873423392855329 0 -37.873423392855329 108.18462380199435 0 0 0 0 -64.937417549851489 20.877318735831068 0 20.877318735831068 231.19701557452936 0 0 0 0 7.8942782044230171 92.150089729051615 0 92.150089729051615 205.13865924437414 0 0 0 0 -120.40408856490649 -39.564724601368653 0 -39.564724601368653 256.05096597279771 0 0 0 0 -46.848714752155502 12.105381015499006 0 12.105381015499006 167.57357372588012 0 0 0 0 -127.71335472640931 -78.123120216157986 0 -78.123120216157986 126.54984587860235 0 0 0 0 -201.73004233181018 -28.577983888942981 0 -28.577983888942981 403.20619057517615 0 0 0 0 -136.55268173999411 -43.975193734557251 0 -43.975193734557251 255.00603526533814 0 0 0 0 -103.41858355487898 7.8423188296619628 0 7.8423188296619628 293.30473056982737 0 0 0 0 -136.59400366737793 55.65325214711811 0 55.65325214711811 265.64521578676067 0 0 0 0 -134.36851266596636 74.779925956587249 0 74.779925956587249 386.41569305004668 0 0 0 0 -62.608228175442491 71.326292057907267 0 71.326292057907267 328.85808585249833 0 0 0 0 -44.235565692138451 35.562248053535768 0 35.562248053535768 276.77133385528577 0 0 0 0 -89.28064091949318 3.3591905766224954 0 3.3591905766224954 273.51910605412695 0 0 0 0 -115.47788965086147 -44.175031836326525 0 -44.175031836326525 216.10187513362325 0 0 0 0 -78.929995284650886 -38.084682818815054 0 -38.084682818815054 125.25709931703022 0 0 0 0 -116.04573927161346 43.090590445513953 0 43.090590445513953 289.42503334108915 0 0 0 0 -163.32854921448961 14.214829668722814 0 14.214829668722814 196.34218896825041 0 0 0 0 -97.636293519260107 -14.647701023313857 0 -14.647701023313857 208.5549680966069 0 0 0 0 -113.90355928409372 -76.966758743499668 0 -76.966758743499668 156.60432573172147 0 0 0 0 -16.279888844516964 -3.0721619527517205 0 -3.0721619527517205 180.63652737715074 0 0 0 0 -108.30860303029385 2.1589132817643986 0 2.1589132817643986 252.30601387959905 0 0 0 0 -180.30660002519608 -107.37612908688607 0 -107.37612908688607 172.51341945132299 0 0 0 0 -169.72197687940206 -89.910032035935728 0 -89.910032035935728 201.32225387821381 0 0 0 0 -122.9136210365632 -16.964903368956584 0 -16.964903368956584 307.2090177819191 0 0 0 0 -146.93974760369474 -117.59147867252614 0 -117.59147867252614 106.99481746602396 0 0 0 0 -37.267526944525343 14.034488590643377 0 14.034488590643377 136.82246991716966 0 0 0 0 -82.195122159983839 -57.471398590365425 0 -57.471398590365425 388.47077972475381 0 0 0 0 -84.049903499057109 19.381953045500268 0 19.381953045500268 395.63780357104588 0 0 0 0 63.270452363308777 -73.142820527063122 0 -73.142820527063122 182.17460284549452 0 0 0 0 32.405894736016307 -92.739648277813103 0 -92.739648277813103 183.27211401297245 0 0 0 0 22.477028127668746 -102.59778474085033 0 -102.59778474085033 271.19215518093552 0 0 0 0 -20.921867456469045 -29.5848414826105 0 -29.5848414826105 214.58034379198943 0 0 0 0 55.39864249353559 -47.612462434219196 0 -47.612462434219196 133.4995139848761 0 0 0 0 17.152496035214426 -36.421323121423484 0 -36.421323121423484 131.66861349748797 0 0 0 0 120.40704382200056 -90.102096101756615 0 -90.102096101756615 108.16814565015738 0 0 0 0 125.84165658091206 -63.692879181566241 0 -63.692879181566241 90.322226687494549 0 0 0 0 18.933792155781703 5.0209222687990405 0 5.0209222687990405 122.65342340490488 0 0 0 0 111.99372708848387 -28.179905879840589 0 -28.179905879840589 102.71405667813087 0 0 0 0 -8.4180625330609473 -59.13276812553886 0 -59.13276812553886 129.88968640417443 0 0 0 0 2.0442825674840082 -15.853109981592368 0 -15.853109981592368 168.18863073442708 0 0 0 0 -310.27915409378647 124.84091913632437 0 124.84091913632437 499.78724783475627 0 0 0 0 57.732700738229141 116.34465366962831 0 116.34465366962831 -42.160718122730032 0 0 0 0 17.212149294650544 -33.493854309723929 0 -33.493854309723929 97.705126237255172 0 0 0 0 100.83064281304996 -38.962932494974666 0 -38.962932494974666 46.644086370871264 0 0 0 0 -30.82009834610335 11.915007208295719 0 11.915007208295719 59.802832913032034 0 0 0 0 3.2197944790514441 5.9739320126651307 0 5.9739320126651307 10.349119611998333 0 0 0 0 129.54469482754939 -75.54188264808181 0 -75.54188264808181 57.146789407423057 0 0 0 0 117.62427512749127 -85.4234778739592 0 -85.4234778739592 81.857537974759907 0 0 0 0 117.75363888907486 -81.606637557357317 0 -81.606637557357317 87.369175836982322 0 0 0 0 65.368571859538861 -147.38061252831176 0 -147.38061252831176 271.25660547705047 0 0 0 0 158.29597475338778 -165.83568451742758 0 -165.83568451742758 139.2347963051543 0 0 0 0 141.60485436929321 -213.21259513404948 0 -213.21259513404948 175.15782331172159 0 0 0 0 157.08906259456046 -111.85318373411727 0 -111.85318373411727 27.160489907859301 0 0 0 0 87.801642625980094 179.85404785362334 0 179.85404785362334 -393.14928461713134 0 0 0 0 -48.782782498166398 55.438901456869644 0 55.438901456869644 28.114694863673094 0 0 0 0 5.3773470762651296 9.4954884108924134 0 9.4954884108924134 15.038219720726772 0 0 0 0 310.88701325164629 267.44565318618334 0 267.44565318618334 192.14485336452344 0 0 0 0 123.60799720638181 -129.04156800143301 0 -129.04156800143301 -62.696147170579934 0 0 0 0 27.227294368712705 41.934415833627099 0 41.934415833627099 22.099593476574228 0 0 0 0 33.852148099617125 17.551782952328722 0 17.551782952328722 43.90049341887061 0 0 0 0 -5.3938062303491279 -13.538446829425084 0 -13.538446829425084 31.767841033745754 0 0 0 0 -10.717266501064842 35.201998470916806 0 35.201998470916806 91.840665164978418 0 0 0 0 1.9885298268761744 22.5262692127435 0 22.5262692127435 43.323696344377822 0 0 0 0 -4.2839023599919184 50.077930634195042 0 50.077930634195042 21.770996575124798 0 0 0 0 -14.907403272928036 113.85076553766248 0 113.85076553766248 56.1589887699065 0 0 0 0 1.4587285894788238 29.672431273878829 0 29.672431273878829 67.311375935802062 0 0 0 0 -35.807492529658703 71.161854939902696 0 71.161854939902696 62.366650413780008 0 0 0 0 6.9231882903638713 52.826116835754505 0 52.826116835754505 22.282092075797447 0 0 0 0 -45.675864563338109 2.0391593170988926 0 2.0391593170988926 61.061763755915308 0 0 0 0 279.81200071355033 -41.08215083325922 0 -41.08215083325922 53.211618774468661 0 0 0 0 25.696948333323235 -94.774098776284518 0 -94.774098776284518 191.78750553803548 0 0 0 0 0.088724850455040638 1.6450725917955253 0 1.6450725917955253 4.9038601971988669 0 0 0 0 484.35066208272974 90.236981087384265 0 90.236981087384265 -72.778218026571267 0 0 0 0 -141.17022582736536 42.30082017908353 0 42.30082017908353 249.06362124066982 0 0 0 0 17.426841967911457 52.353062931742414 0 52.353062931742414 28.770281144813232 0 0 0 0 68.610709149083959 43.029970481868077 0 43.029970481868077 293.161208938448 0 0 0 0 52.587523062191394 102.99492197928339 0 102.99492197928339 199.212228285327 0 0 0 0 -30.432093088502995 49.029879503038046 0 49.029879503038046 186.6478861108335 0 0 0 0 -16.072947021057871 5.2817427228947054 0 5.2817427228947054 317.77443951863825 0 0 0 0 -44.91616516755721 82.829199927592981 0 82.829199927592981 167.98247266109684 0 0 0 0 -33.703378643955148 48.496678368384892 0 48.496678368384892 172.63159381799051 0 0 0 0 14.758209048004574 59.573877678096324 0 59.573877678096324 131.75363473556354 0 0 0 0 -98.860299391683157 64.213204003965075 0 64.213204003965075 162.76168944033998 0 0 0 0 93.828491491917703 41.394468410653644 0 41.394468410653644 134.75878137122345 0 0 0 0 29.582773093599826 12.418949871378572 0 12.418949871378572 123.97226971387681 0 0 0 0 26.51360293354719 32.225244974233647 0 32.225244974233647 97.071925732045202 0 0 0 0 17.276431916149249 18.407688059479369 0 18.407688059479369 53.00226878642934 0 0 0 0 6.8255648822182593 -10.71033422921937 0 -10.71033422921937 34.405099663157671 0 0 0 0 -7.0464038488335063 2.6880056394038547 0 2.6880056394038547 85.02272144636845 0 0 0 0 1.6430132116767027 24.833956974649936 0 24.833956974649936 83.831329205149814 0 0 0 0 -64.512153320266407 15.971408643043105 0 15.971408643043105 115.41068310446099 0 0 0 0 -30.524448859790482 5.959980791712951 0 5.959980791712951 80.649794197780921 0 0 0 0 -191.11379372926763 109.77348767908734 0 109.77348767908734 219.06622345430151 0 0 0 0 -79.806660041012833 -68.845207606172153 0 -68.845207606172153 -31.991710986647377 0 0 0 0 -0.94829228729686665 1.0146863822788958 0 1.0146863822788958 -1.3973903160147465 0 0 0 0 67.449893829465964 64.854165812766951 0 64.854165812766951 -67.179541637400689 0 0 0 0 -3.2470700797499656 2.2949295971125352 0 2.2949295971125352 9.6845299743952324 0 0 0 0 99.561446677055756 139.8095793454886 0 139.8095793454886 620.92648371057658 0 0 0 0 -8.0045055580512781 38.429052872214015 0 38.429052872214015 90.212294196713628 0 0 0 0 5.3411897161807911 -10.045712273925041 0 -10.045712273925041 25.690726446311345 0 0 0 0 -58.107385169201052 38.977368759307865 0 38.977368759307865 30.118241560230672 0 0 0 0 -13.201296919019114 -78.703397600365861 0 -78.703397600365861 124.95601592020648 0 0 0 0 5.0168347824589858 -6.503786324239158 0 -6.503786324239158 18.034781391626652 0 0 0 0 -138.77606878588614 143.84655640518213 0 143.84655640518213 107.50177423409104 0 0 0 0 -66.333078635441495 41.211380997156084 0 41.211380997156084 241.32413456519862 0 0 0 0 -281.31510881044721 3.1567188965445894 0 3.1567188965445894 183.9666743785383 0 0 0 0 -82.004007507548977 76.698826483474477 0 76.698826483474477 156.49065076967781 0 0 0 0 -57.602365017530246 141.40180323995082 0 141.40180323995082 167.47327372054133 0 0 0 0 -111.20025657853296 163.14567994609388 0 163.14567994609388 198.27213744820438 0 0 0 0 -54.979382330230806 137.19731164356745 0 137.19731164356745 174.86152913935803 0 0 0 0 -51.05713019386701 158.75310350465134 0 158.75310350465134 171.35664798593643 0 0 0 0 -52.648921002394673 102.59366168121232 0 102.59366168121232 177.95358476713636 0 0 0 0 -73.77859919138325 73.964637260074596 0 73.964637260074596 201.44202574226802 0 0 0 0 -141.90972098467273 99.219847470190871 0 99.219847470190871 177.87419751857669 0 0 0 0 -37.892450721786872 44.444701115036878 0 44.444701115036878 192.85817852369837 0 0 0 0 -70.607704217252092 132.71311555981538 0 132.71311555981538 137.33898232542742 0 0 0 0 -13.409124865655997 69.964634093964833 0 69.964634093964833 120.35832568846126 0 0 0 0 -37.590459810020548 191.60628437040032 0 191.60628437040032 65.928024116292363 0 0 0 0 -110.11187929924631 101.30885222868346 0 101.30885222868346 119.96769188789403 0 0 0 0 25.321583482662618 128.13326634699206 0 128.13326634699206 124.93117826529851 0 0 0 0 -54.622905867557165 174.18643711745062 0 174.18643711745062 213.3444351057442 0 0 0 0 -22.250212623333709 137.18930024469046 0 137.18930024469046 109.49854451474857 0 0 0 0 -39.722206920870349 164.37350169150341 0 164.37350169150341 214.0254785889847 0 0 0 0 -35.59070045883675 86.563828274924163 0 86.563828274924163 272.61498885108631 0 0 0 0 11.812470343350242 90.968431568695451 0 90.968431568695451 250.30074094604515 0 0 0 0 23.085070496594426 118.64296969554016 0 118.64296969554016 288.87852749354897 0 0 0 0 12.656369373234838 26.036380350200488 0 26.036380350200488 443.66719982644645 0 0 0 0 59.86617714081396 14.7883944041414 0 14.7883944041414 431.84206417757741 0 0 0 0 -66.411756266992711 63.063434184634389 0 63.063434184634389 362.37435488434494 0 0 0 0 51.56265155673691 -32.426206913674832 0 -32.426206913674832 300.07109267592932 0 0 0 0 13.154378110255418 94.051842539229497 0 94.051842539229497 268.61278470451361 0 0 0 0 57.768143794006392 -39.405727694302186 0 -39.405727694302186 857.16084946552292 0 0 0 0 35.653104731367648 23.542143029166255 0 23.542143029166255 743.71235807906851 0 0 0 0 52.282629436592742 48.052314784183181 0 48.052314784183181 473.87803152964989 0 0 0 0 77.400466882738783 -50.431265756515131 0 -50.431265756515131 611.7997047652625 0 0 0 0 79.37336572955968 -102.45673096611745 0 -102.45673096611745 631.51002143591177 0 0 0 0 30.327935250002156 19.042607732743932 0 19.042607732743932 444.4061885578667 0 0 0 0 70.917119500340505 106.03163017831139 0 106.03163017831139 250.29851063470778 0 0 0 0 34.316923727009453 45.106612149373177 0 45.106612149373177 433.16285727002014 0 0 0 0 84.197785301174463 49.272199732859008 0 49.272199732859008 455.53637966031329 0 0 0 0 130.59665543967094 -26.518438687215166 0 -26.518438687215166 491.55791474836406 0 0 0 0 103.61769445125174 92.509950326548278 0 92.509950326548278 457.92809930512703 0 0 0 0 88.829646060150935 -20.761525719612109 0 -20.761525719612109 169.4569747591413 0 0 0 0 105.49745058559381 78.565452894717964 0 78.565452894717964 225.42131849690122 0 0 0 0 20.194355204175281 93.153062307550499 0 93.153062307550499 227.17963214870178 0 0 0 0 -37.228408353703799 96.616897648140366 0 96.616897648140366 253.8015899192942 0 0 0 0 73.679024761541314 88.361715241553611 0 88.361715241553611 83.390366736141004 0 0 0 0 30.846808738457185 115.08035420140732 0 115.08035420140732 -72.615780813548554 0 0 0 0 -51.882595370056606 118.31696118665423 0 118.31696118665423 90.044709681229051 0 0 0 0 58.893472388375358 18.285578504463047 0 18.285578504463047 -33.353521267428732 0 0 0 0 8.8057337392215231 83.199041815357305 0 83.199041815357305 -199.42260884914867 0 0 0 0 -22.617628533596587 125.95493272316776 0 125.95493272316776 -69.152051536566432 0 0 0 0 -85.43507061757191 48.460469885798375 0 48.460469885798375 66.293562591939917 0 0 0 0 -43.0626840271064 19.762193500193291 0 19.762193500193291 13.789858347688225 0 0 0 0 -18.06667226101672 50.132936780022646 0 50.132936780022646 43.430284208159719 0 0 0 0 1.5200472534880163 31.316853830332395 0 31.316853830332395 20.715921661674429 0 0 0 0 -151.47061301442773 184.35716812372993 0 184.35716812372993 -45.074818177690304 0 0 0 0 -5.5832244319751156 8.765525902009319 0 8.765525902009319 -11.359927404151442 0 0 0 0 -16.296134418222195 47.659638086393365 0 47.659638086393365 26.345148900239366 0 0 0 0 37.200417848345069 80.735871789947851 0 80.735871789947851 -69.584081055074421 0 0 0 0 -33.149257749768367 80.075339168670325 0 80.075339168670325 -4.3768376042035015 0 0 0 0 -7.823024677329613 42.704091043335211 0 42.704091043335211 53.798549336417636 0 0 0 0 -16.251890494871986 61.381669546011835 0 61.381669546011835 121.29447145789891 0 0 0 0 5.0973239134691539 -0.26489414650131948 0 -0.26489414650131948 95.099179827306216 0 0 0 0 18.938618254913308 51.03075954655651 0 51.03075954655651 39.90836148017479 0 0 0 0 -28.710656311712228 11.567419841470837 0 11.567419841470837 182.95733062785439 0 0 0 0 -1.6438091429995225 2.60615158994365 0 2.60615158994365 0.33710529831113689 0 0 0 0 -16.988653674398847 102.36844914732319 0 102.36844914732319 2.1747129129580571 0 0 0 0 56.373918059012738 248.3300644630076 0 248.3300644630076 237.16786266338022 0 0 0 0 30.104823930156272 45.006689392432236 0 45.006689392432236 15.940257197566098 0 0 0 0 -42.606923032310078 61.2295134654305 0 61.2295134654305 338.4614210174268 0 0 0 0 -195.58880584847248 76.493421566970937 0 76.493421566970937 336.94811426410024 0 0 0 0 -64.901553929013062 9.1757754360187391 0 9.1757754360187391 233.98308088935664 0 0 0 0 16.68955773864036 -81.739777044924267 0 -81.739777044924267 317.26327559616766 0 0 0 0 49.70337546632436 -229.64213272979759 0 -229.64213272979759 406.80131426436856 0 0 0 0 -58.2587949106628 118.62956759819372 0 118.62956759819372 6.6947998171744985 0 0 0 0 4.0652575240266486 14.999287855011822 0 14.999287855011822 29.707528574293249 0 0 0 0 -3.5749231136514439 3.7761107958407081 0 3.7761107958407081 7.6842635912033757 0 0 0 0 -26.51804831559366 8.9643236672472995 0 8.9643236672472995 90.305466919016908 0 0 0 0 -391.85945540345529 -193.01815694222387 0 -193.01815694222387 130.07400819288523 0 0 0 0 -334.6745445885274 62.046285989056742 0 62.046285989056742 478.23353972048062 0 0 0 0 -388.72026612332593 -157.142384002369 0 -157.142384002369 292.10113180167173 0 0 0 0 -105.11170911353838 10.142721491283737 0 10.142721491283737 -223.71058161217934 0 0 0 0 -172.20670749624969 9.4321882473552705 0 9.4321882473552705 409.77606770463171 0 0 0 0 -228.55592852600057 -294.65871339458317 0 -294.65871339458317 532.4908543386955 0 0 0 0 -178.6403554687804 -40.115433270584617 0 -40.115433270584617 451.25670090674248 0 0 0 0 -189.10575890102882 119.13391796598444 0 119.13391796598444 402.14289241881488 0 0 0 0 -188.00565168598951 155.90319051470942 0 155.90319051470942 313.32643957250548 0 0 0 0 4.7825614656344442 263.694557835252 0 263.694557835252 377.77494214259787 0 0 0 0 20.92666410599486 360.65918815886471 0 360.65918815886471 510.32782190061698 0 0 0 0 -91.63788165436182 -584.94091910272073 0 -584.94091910272073 1585.2615089591127 0 0 0 0 572.17549569642551 944.19892707560575 0 944.19892707560575 1154.2924143545051 0 0 0 0 -437.5087749668146 -12.780354536313098 0 -12.780354536313098 957.34700376735782 0 0 0 0 -485.41789869907188 -343.36093396393699 0 -343.36093396393699 180.95254971863596 0 0 0 0 190.02960499714595 -236.07633373970202 0 -236.07633373970202 -745.86952479195861 0 0 0 0 -107.0804935523704 -355.46588609599894 0 -355.46588609599894 134.33314928672553 0 0 0 0 -382.91157219064553 -764.2283479387188 0 -764.2283479387188 -661.65685509848663 0 0 0 0 280.45682248133653 834.75501048564911 0 834.75501048564911 1918.7891525660434 0 0 0 0 13.452238264979041 -23.288956250457659 0 -23.288956250457659 23.133843455183388 0 0 0 0 -314.73844963817646 -140.22047113062399 0 -140.22047113062399 99.234508933053803 0 0 0 0 -381.51846871132147 -491.91586200780876 0 -491.91586200780876 -396.52225745293617 0 0 0 0 21.040470266690598 -37.566709366615726 0 -37.566709366615726 36.611526766034139 0 0 0 0 467.34784602697846 599.70339999227417 0 599.70339999227417 1244.9817160698713 0 0 0 0 199.51686384125605 62.707243966219721 0 62.707243966219721 1177.8349083046578 0 0 0 0 116.11851074847658 348.31902105934466 0 348.31902105934466 1701.5473002948493 0 0 0 0 197.23474912828431 374.15102884183204 0 374.15102884183204 642.01131635862112 0 0 0 0 12.914742399126226 -253.69227002121261 0 -253.69227002121261 199.32760009384583 0 0 0 0 94.630963817283373 98.765124307554288 0 98.765124307554288 -477.08872358964891 0 0 0 0 -21.2504573656772 363.06653662890653 0 363.06653662890653 703.81936645912538 0 0 0 0 349.71835272583689 -91.226759632519133 0 -91.226759632519133 -772.87902554856328 0 0 0 0 -44.588334780753939 -16.789734262158163 0 -16.789734262158163 397.8614595494073 0 0 0 0 -4.6858889802297607 58.714654128876447 0 58.714654128876447 25.195564969097596 0 0 0 0 222.08052719396971 733.66609428911909 0 733.66609428911909 -383.7563371635888 0 0 0 0 -101.48478669091807 804.97691348251647 0 804.97691348251647 2902.9837959413071 0 0 0 0 420.21894379130799 234.43826863056893 0 234.43826863056893 739.71928114762545 0 0 0 0 -279.91969722587601 -952.14356630057046 0 -952.14356630057046 -995.11695574015903 0 0 0 0 6.9342850554859368 -6.4346046558258614 0 -6.4346046558258614 6.3346635623470675 0 0 0 0 -284.46961536667891 -735.90355733944307 0 -735.90355733944307 621.04991183826019 0 0 0 0 -411.24054163821984 369.62569746293684 0 369.62569746293684 596.05146227789373 0 0 0 0 652.47875560208149 23.546789145035291 0 23.546789145035291 412.84731688962802 0 0 0 0 -248.2827534363887 163.3541644419638 0 163.3541644419638 454.30303585476111 0 0 0 0 -187.32491711732496 343.8516060180898 0 343.8516060180898 73.499592131524878 0 0 0 0 -7.524080184324248 13.794198272331414 0 13.794198272331414 280.20151303985404 0 0 0 0 12.749225258020942 -9.3146427564497571 0 -9.3146427564497571 257.12472932412493 0 0 0 0 -34.145697565031696 8.7344049390740111 0 8.7344049390740111 338.81032805463838 0 0 0 0 -16.285641876194653 61.59536319695097 0 61.59536319695097 20.114158975526649 0 0 0 0 -19.469851035571931 -7.0092982876024692 0 -7.0092982876024692 187.11897228714218 0 0 0 0 23.562289448176671 -34.387280603172258 0 -34.387280603172258 372.91866359337291 0 0 0 0 7.7951379001351597 18.590875854075421 0 18.590875854075421 227.29649492989847 0 0 0 0 -4.9827811989627051 3.7203994957228304 0 3.7203994957228304 16.317659827234962 0 0 0 0 66.467750378071287 -177.41887373890495 0 -177.41887373890495 575.95616905350471 0 0 0 0 57.847997408587617 -205.02781482102 0 -205.02781482102 818.26124771000468 0 0 0 0 334.15037830742949 -386.59045067994157 0 -386.59045067994157 388.91862216944264 0 0 0 0 -10.028861723548074 33.781681473615933 0 33.781681473615933 21.021518007437066 0 0 0 0 387.15814068176041 9.7565919038315769 0 9.7565919038315769 129.4075279837416 0 0 0 0 13.967974305299322 5.046381002810449 0 5.046381002810449 582.72189200238063 0 0 0 0 -13.817588766138442 -5.4990507178226835 0 -5.4990507178226835 287.01203451474612 0 0 0 0 -2.8671806555857984 4.7751977222651476 0 4.7751977222651476 259.57750786143106 0 0 0 0 -17.984237963388942 73.899005308921318 0 73.899005308921318 69.023793596044101 0 0 0 0 -30.958471206119412 50.662939272542509 0 50.662939272542509 66.681178517582907 0 0 0 0 -8.7740710340112855 -21.563132642237179 0 -21.563132642237179 262.19887278472197 0 0 0 0 90.940082852855539 -110.28139417206694 0 -110.28139417206694 449.72421569580911 0 0 0 0 17.2420098896837 3.1126357827469064 0 3.1126357827469064 53.502665994883827 0 0 0 0 -331.86095644281085 -181.21335090863067 0 -181.21335090863067 432.17368896164407 0 0 0 0 -140.03326172594279 178.25622831276632 0 178.25622831276632 1063.6735318125429 0 0 0 0 -726.27935565720782 174.62531518342803 0 174.62531518342803 487.37594831197839 0 0 0 0 2.5266205805757709 -46.59336003103715 0 -46.59336003103715 233.83057588860999 0 0 0 0 5.417888174565773 -30.388249552474907 0 -30.388249552474907 147.83228266362698 0 0 0 0 234.7333586211098 393.19101296512963 0 393.19101296512963 386.60280808772245 0 0 0 0 149.87064895779713 483.61244128235012 0 483.61244128235012 864.4866922354995 0 0 0 0 1258.1003127089803 871.44530263313936 0 871.44530263313936 756.74263656784387 0 0 0 0 630.6687308380242 296.60850457223751 0 296.60850457223751 385.70452733060665 0 0 0 0 148.9769193394086 338.13070881787644 0 338.13070881787644 391.28823824504798 0 0 0 0 -908.09327491215311 -142.52850089182766 0 -142.52850089182766 79.411166899342788 0 0 0 0 80.369276939546126 -235.83963536876399 0 -235.83963536876399 -184.44962414396286 0 0 0 0 576.92145684658817 -276.64072003144611 0 -276.64072003144611 101.75736338056959 0 0 0 0 28.367031662375211 -543.85161251255158 0 -543.85161251255158 34.173679074239772 0 0 0 0 -639.15381324629652 -685.84301857260834 0 -685.84301857260834 566.8546040569272 0 0 0 0 1.3735156742958479 -8.4021976029886041 0 -8.4021976029886041 52.265978311624224 0 0 0 0 473.46522751994416 2968.9982385385083 0 2968.9982385385083 2232.984065807279 0 0 0 0 -862.49691693652676 -3393.7879760509095 0 -3393.7879760509095 5095.4092742141147 0 0 0 0 272.87213726940081 941.55229285103269 0 941.55229285103269 2407.395565293813 0 0 0 0 -338.2688392321968 -31.255297021947626 0 -31.255297021947626 1986.3321465253393 0 0 0 0 0.53185075793380954 4.6021888653515006 0 4.6021888653515006 11.473958524988134 0 0 0 0 552.47330000884938 250.84379078245837 0 250.84379078245837 117.18172889907146 0 0 0 0 650.74487502206193 -928.94720324158698 0 -928.94720324158698 -651.80118889021833 0 0 0 0 1422.8906991724234 -1739.9126944068103 0 -1739.9126944068103 196.70001383911585 0 0 0 0 26.922922933241352 -374.91959962307737 0 -374.91959962307737 818.54658147871487 0 0 0 0 217.44747051045442 -226.65588503000617 0 -226.65588503000617 161.70569790511217 0 0 0 0 11.24193534135884 -146.36897530601709 0 -146.36897530601709 271.74406262029242 0 0 0 0 85.225320298699444 -305.26667836443266 0 -305.26667836443266 500.72819515143783 0 0 0 0 -52.373959534380418 -20.524406181108063 0 -20.524406181108063 -8.2574629689259069 0 0 0 0 -0.80884965406403353 -0.90547493197300355 0 -0.90547493197300355 566.79633212260887 0 0 0 0 86.437844552715887 -26.271483772659849 0 -26.271483772659849 554.23712206335767 0 0 0 0 267.82731421780454 579.74773131365146 0 579.74773131365146 1815.6823738149033 0 0 0 0 -681.60072968097688 -594.34723525945412 0 -594.34723525945412 928.4608122356658 0 0 0 0 -17.358152830936366 -7.2282772728727309 0 -7.2282772728727309 -0.89027586555937432 0 0 0 0 -20.154771521061342 13.79360742477698 0 13.79360742477698 215.18487572691808 0 0 0 0 -331.54608576307146 -11.634303030796218 0 -11.634303030796218 407.51336257297226 0 0 0 0 -269.55102160823117 162.56391989891199 0 162.56391989891199 270.91871419456584 0 0 0 0 -256.1658454152639 -98.368665858590248 0 -98.368665858590248 460.56826239439397 0 0 0 0 -33.286534077757096 -105.94927890750114 0 -105.94927890750114 328.43119260307503 0 0 0 0 -93.122428544368915 -31.561911345525402 0 -31.561911345525402 35.978384662333028 0 0 0 0 -34.102013711489235 -196.50302452020696 0 -196.50302452020696 259.63041618989519 0 0 0 0 -197.91579762752008 -27.067316081560421 0 -27.067316081560421 293.63711046926255 0 0 0 0 -18.679047786677472 -6.6402596627908181 0 -6.6402596627908181 45.316548572663365 0 0 0 0 15.108452281507198 41.024587622261606 0 41.024587622261606 137.12802190915681 0 0 0 0 -5.5000455134919779 1.2711550559855311 0 1.2711550559855311 47.739466828935647 0 0 0 0 -55.312309868662851 6.2866731235117186 0 6.2866731235117186 -42.969095909094904 0 0 0 0 -53.232672636874938 7.3974476260756745 0 7.3974476260756745 176.66854370144802 0 0 0 0 -42.440171509029369 -6.6079889384327544 0 -6.6079889384327544 83.503253376344219 0 0 0 0 -105.32363901733044 23.247056920539059 0 23.247056920539059 115.47889795800515 0 0 0 0 -89.079432396042932 -25.506935437494278 0 -25.506935437494278 191.75982841143292 0 0 0 0 -98.435330630949466 -33.995635355793638 0 -33.995635355793638 38.834428337344434 0 0 0 0 -60.582785917010362 38.145683104815078 0 38.145683104815078 29.187334726920966 0 0 0 0 -158.94766947636754 67.819769534267834 0 67.819769534267834 181.14118004785269 0 0 0 0 -122.22600843539607 -30.016891303479497 0 -30.016891303479497 123.96977493587474 0 0 0 0 -79.275385952902752 -97.766644589726639 0 -97.766644589726639 9.8585527039540466 0 0 0 0 -38.628785153629423 19.937697643591321 0 19.937697643591321 -14.440300462335586 0 0 0 0 4.0168646483264752 202.00198684451698 0 202.00198684451698 170.2070867154398 0 0 0 0 6.3215893689754239 184.22140955605209 0 184.22140955605209 111.42629826585471 0 0 0 0 -92.198552557994844 205.12083721544332 0 205.12083721544332 426.70941737901012 0 0 0 0 -176.38832849238497 19.412980039982358 0 19.412980039982358 134.9462400488992 0 0 0 0 97.830697735083959 215.45094393773616 0 215.45094393773616 161.80408149337745 0 0 0 0 5.3462959452717769 113.48353007365222 0 113.48353007365222 375.75360670476948 0 0 0 0 4.6644602420446972 176.31772043822275 0 176.31772043822275 857.73936512868386 0 0 0 0 -210.61774970131955 -17.768839645490516 0 -17.768839645490516 163.08209742156032 0 0 0 0 3.2240164541999645 12.445286039492949 0 12.445286039492949 137.18300525327595 0 0 0 0 -590.55192893197272 127.8326969097543 0 127.8326969097543 405.57576232419524 0 0 0 0 88.660383754756822 247.86541982105564 0 247.86541982105564 253.14936195029441 0 0 0 0 19.978226768898821 344.87920774924714 0 344.87920774924714 437.39788576202955 0 0 0 0 234.99235339181359 391.6572721575003 0 391.6572721575003 394.0592339850773 0 0 0 0 313.32465728528405 366.15417872996477 0 366.15417872996477 324.18493011917599 0 0 0 0 1.3411392446878105 5.4704194689188093 0 5.4704194689188093 47.835118901140504 0 0 0 0 422.42034359808758 -1049.435615153498 0 -1049.435615153498 710.50372621865245 0 0 0 0 -249.99358604294684 -482.40945855268365 0 -482.40945855268365 582.99035464297049 0 0 0 0 -804.16382453119149 -1177.6186225364945 0 -1177.6186225364945 1252.3250333356918 0 0 0 0 1729.2538077839215 2031.6961038473146 0 2031.6961038473146 1710.2633521210664 0 0 0 0 -2078.1027637354455 -11.543688877362001 0 -11.543688877362001 2888.8251467654554 0 0 0 0 -744.46863541189305 -1118.1636819055711 0 -1118.1636819055711 -704.44316346380219 0 0 0 0 2.1584323257338838 -68.659946623738506 0 -68.659946623738506 528.51126184913301 0 0 0 0 4090.3737128177509 2360.7200608495114 0 2360.7200608495114 -679.32518590969266 0 0 0 0 41.93069523091544 25.825775427986372 0 25.825775427986372 1.5758798504584135 0 0 0 0 32.008809429204121 -95.64967533377785 0 -95.64967533377785 547.33815303067968 0 0 0 0 28.305160099917885 -109.40033530786604 0 -109.40033530786604 505.21557122790546 0 0 0 0 -5.1131445315020301 27.413925282162381 0 27.413925282162381 464.53946046664714 0 0 0 0 -2.9561777512928415 -23.738457191653652 0 -23.738457191653652 522.36907540830725 0 0 0 0 14.76195248115755 -52.637989342361834 0 -52.637989342361834 540.32985082533196 0 0 0 0 -468.92683964688922 116.56176875976234 0 116.56176875976234 502.98112322407542 0 0 0 0 246.95001914544628 -564.4715098139277 0 -564.4715098139277 1021.8783569090374 0 0 0 0 28.219762830514419 27.675754195889567 0 27.675754195889567 11.612780941650286 0 0 0 0 -1471.6644013887453 -358.9769971341957 0 -358.9769971341957 1299.4966671968286 0 0 0 0 -434.98518283752855 -460.40999936808657 0 -460.40999936808657 1298.0026681253048 0 0 0 0 -216.70142147571869 -61.644463190745682 0 -61.644463190745682 930.12033869125298 0 0 0 0 -523.85238248608766 -210.9715905706762 0 -210.9715905706762 864.14617272125906 0 0 0 0 478.18910758763923 82.394752496220462 0 82.394752496220462 796.95534398082236 0 0 0 0 -300.57278654589209 303.54720109719347 0 303.54720109719347 1363.6022551330425 0 0 0 0 -215.412180721813 190.70813335820276 0 190.70813335820276 2170.3015891288014 0 0 0 0 63.95649973450827 282.50038416743882 0 282.50038416743882 970.60704293761228 0 0 0 0 184.67818634218202 -316.91312119720533 0 -316.91312119720533 1624.6914218660459 0 0 0 0 142.89501626835181 258.01002533287101 0 258.01002533287101 1498.3596724734089 0 0 0 0 -73.042458052645998 -27.230202596241725 0 -27.230202596241725 1428.4010733971809 0 0 0 0 56.13747369961493 82.337788136872405 0 82.337788136872405 234.83855602963376 0 0 0 0 10.756565217567111 -0.35064098381010922 0 -0.35064098381010922 6.7210642551687414 0 0 0 0 56.955152479325989 -41.287252356734825 0 -41.287252356734825 73.078439337223244 0 0 0 0 1.1966544840825897 20.96081357074587 0 20.96081357074587 10.573184313747376 0 0 0 0 19.766418684179826 -26.502933472096629 0 -26.502933472096629 372.24531140247564 0 0 0 0 -30.798535950445284 30.996753638195514 0 30.996753638195514 375.06130282246158 0 0 0 0 -19.948057881530985 62.216663168528612 0 62.216663168528612 569.62636337852746 0 0 0 0 65.86007126845908 49.946455790326581 0 49.946455790326581 378.71827954197943 0 0 0 0 29.402214461466883 -15.742988017678726 0 -15.742988017678726 571.30881021099162 0 0 0 0 1.9728958196778965 93.145984441747714 0 93.145984441747714 1299.3706204312766 0 0 0 0 50.562761054413556 -183.03641854568195 0 -183.03641854568195 755.04848796829174 0 0 0 0 131.91975291849624 26.523537107619632 0 26.523537107619632 587.32205219712341 0 0 0 0 -17.09531570322531 -42.542037750521558 0 -42.542037750521558 555.4304251705762 0 0 0 0 24.147607657720215 111.81872788705368 0 111.81872788705368 355.43166769234085 0 0 0 0 -0.53015704921232243 127.53054156804137 0 127.53054156804137 535.94027683822424 0 0 0 0 25.334988435257145 -43.27151743396098 0 -43.27151743396098 223.62646701102494 0 0 0 0 0.65056316140247716 2.9099642058037603 0 2.9099642058037603 3.9462541774028352 0 0 0 0 9.6410457136694134 16.739975459960988 0 16.739975459960988 12.579550909504178 0 0 0 0 -8.6569285023163616 16.409752537307213 0 16.409752537307213 57.721983913652366 0 0 0 0 -0.24535843406646995 0.28057220222660817 0 0.28057220222660817 0.18132973729457547 0 0 0 0 1.8634308706495233 -12.511060066433856 0 -12.511060066433856 35.087355918760295 0 0 0 0 0.0018209427152205693 24.170763338792312 0 24.170763338792312 35.416462229419267 0 0 0 0 -1.5017559054304281 1.1361014225068402 0 1.1361014225068402 8.4669837601616678 0 0 0 0 1.8634308706851073 13.499975456899847 0 13.499975456899847 57.54848154883075 0 0 0 0 5.1892103942217771 6.6692456965322151 0 6.6692456965322151 8.5233881620254408 0 0 0 0 50.723251511055253 -29.956934431254922 0 -29.956934431254922 75.077746637063683 0 0 0 0 -137.5063542914495 -113.95304862091871 0 -113.95304862091871 2101.8620897340043 0 0 0 0 16.040626514450906 103.90850321090693 0 103.90850321090693 1447.910282065699 0 0 0 0 0.31403447561813919 152.94738964180578 0 152.94738964180578 1288.4867584202584 0 0 0 0 -266.04949356386709 -424.84632599473298 0 -424.84632599473298 2680.9717399942019 0 0 0 0 60.426474669094404 -344.69895568819993 0 -344.69895568819993 -10.842824468505569 0 0 0 0 0.12478299724456128 95.16274148994853 0 95.16274148994853 -16.12085813844169 0 0 0 0 -186.54179888022492 218.05613752477802 0 218.05613752477802 -61.798451473019668 0 0 0 0 -450.67460784841478 -230.11215499753598 0 -230.11215499753598 -177.99622782112419 0 0 0 0 -136.9494066607931 499.55860414623021 0 499.55860414623021 712.20757334760856 0 0 0 0 -580.54117104186321 0.28740412886691047 0 0.28740412886691047 1432.4635128163427 0 0 0 0 54.552127621037926 -49.994209673430305 0 -49.994209673430305 136.04964105840918 0 0 0 0 91.871080324149716 258.69835031084949 0 258.69835031084949 426.59957934106933 0 0 0 0 109.29804777543723 33.40826933603239 0 33.40826933603239 817.30385349757853 0 0 0 0 284.44863834207172 197.4627967782726 0 197.4627967782726 350.10782369131994 0 0 0 0 197.4846328429503 70.524483512916049 0 70.524483512916049 -34.327016402588924 0 0 0 0 56.37437868088 180.15884384341916 0 180.15884384341916 349.05630127047743 0 0 0 0 -21.871674225890278 10.730798546678017 0 10.730798546678017 -5.1393509945292806 0 0 0 0 -5.8943618682445704 3.66985317879886 0 3.66985317879886 -2.5709528156028796 0 0 0 0 -171.92086521858766 -57.12908128451636 0 -57.12908128451636 50.528435778469429 0 0 0 0 -94.782342798965203 -174.6632524443412 0 -174.6632524443412 -186.27359570386761 0 0 0 0 -107.77897063563341 -1.9158621302849497 0 -1.9158621302849497 22.411870504700346 0 0 0 0 -81.70675779746216 -113.36036192186293 0 -113.36036192186293 168.53619603623156 0 0 0 0 -43.42540425928717 46.607651337172683 0 46.607651337172683 64.383275446103653 0 0 0 0 -28.295899521895535 -81.911149910672975 0 -81.911149910672975 329.08351939148997 0 0 0 0 68.272567855309489 184.97257706156961 0 184.97257706156961 128.35731695283903 0 0 0 0 0.42445368083478519 5.7244528285227716 0 5.7244528285227716 577.80012804056241 0 0 0 0 -294.82377966662176 107.68619837747974 0 107.68619837747974 151.00241148787609 0 0 0 0 -7.9320036393012003 33.276442286078236 0 33.276442286078236 -77.335408389470103 0 0 0 0 1.1249049750650713 -46.592399226443376 0 -46.592399226443376 115.61684475689981 0 0 0 0 0.030579158793652823 -16.136492194207676 0 -16.136492194207676 59.259843686224485 0 0 0 0 -15.98117406294212 -7.7197510705009336 0 -7.7197510705009336 121.02588899382135 0 0 0 0 8.797359769649006 15.492936596972868 0 15.492936596972868 67.422863937714283 0 0 0 0 -24.219748681753359 29.209671138152771 0 29.209671138152771 256.55455217871349 0 0 0 0 238.19742599341549 -101.74973627017607 0 -101.74973627017607 -21.829055845802941 0 0 0 0 -0.024188392892440735 0.40353678394731674 0 0.40353678394731674 -0.76524879299298476 0 0 0 0 -221.73556735323837 231.20868072388839 0 231.20868072388839 -28.507427509626723 0 0 0 0 -362.03703190776332 -222.25062350025837 0 -222.25062350025837 767.75306255208852 0 0 0 0 620.21568421660584 -530.50961752590956 0 -530.50961752590956 377.70678042309009 0 0 0 0 -180.33159848132198 299.21433023332793 0 299.21433023332793 60.823044317017775 0 0 0 0 -2.9309249251284371 1.9987452470013523 0 1.9987452470013523 46.354933118127519 0 0 0 0 -5.0704867664126141 9.1630192857264774 0 9.1630192857264774 55.624560840470338 0 0 0 0 -5.2344919514972226 10.5995068975908 0 10.5995068975908 46.750087454536697 0 0 0 0 -1.7944923161454938 -1.4507580171703012 0 -1.4507580171703012 55.587224103597691 0 0 0 0 -1.7754989962508319 7.2507802891341271 0 7.2507802891341271 55.855457347555785 0 0 0 0 52.788831016547121 13.448740530442592 0 13.448740530442592 47.612553097060299 0 0 0 0 0.077944142904987329 0.071505184354151652 0 0.071505184354151652 0.11648753550568358 0 0 0 0 32.441941400293587 19.664125858136686 0 19.664125858136686 57.787878892602748 0 0 0 0 25.311176021326808 25.242518169965479 0 25.242518169965479 45.249077006668813 0 0 0 0 10.291967244453712 -7.6870036109266948 0 -7.6870036109266948 39.449727050348883 0 0 0 0 -1.6836706065932958 5.0402622352921753 0 5.0402622352921753 30.201441872151918 0 0 0 0 1.7328672843388062 10.228980103628857 0 10.228980103628857 23.09816508594065 0 0 0 0 -1.667012798909667 2.4498126643520663 0 2.4498126643520663 30.690754158953496 0 0 0 0 -0.89820077452945668 21.359101490274043 0 21.359101490274043 20.380876652721781 0 0 0 0 0.79270898361862763 2.6549053692506277 0 2.6549053692506277 30.073139585569152 0 0 0 0 -2.4130855127729278 -6.5969793612721332 0 -6.5969793612721332 64.764349803197547 0 0 0 0 0.11434997726587329 0.017529379338839135 0 0.017529379338839135 0.13425292647367826 0 0 0 0 0.017988346872406538 10.376367673517962 0 10.376367673517962 34.615005219435261 0 0 0 0 -0.49459051505771612 2.051815995873767 0 2.051815995873767 25.224164568404376 0 0 0 0 -0.00025695192224884159 10.123183713083563 0 10.123183713083563 14.285905659984564 0 0 0 0 2.7389126330202345 11.322608635766301 0 11.322608635766301 12.871618815916008 0 0 0 0 -7.0320200752574209 14.734579141304494 0 14.734579141304494 14.406244332712959 0 0 0 0 -0.21419256486671745 5.7040484787157197 0 5.7040484787157197 15.877366632418841 0 0 0 0 -2.4823672400619348 4.7950544329069089 0 4.7950544329069089 5.8258396593591897 0 0 0 0 -0.01248514180197976 8.6153260707433219 0 8.6153260707433219 4.5813516779708152 0 0 0 0 -0.3810666105155901 1.0407430623375262 0 1.0407430623375262 6.9313861108468018 0 0 0 0 328.1723727495318 -320.18362787267642 0 -320.18362787267642 542.78128389183257 0 0 0 0 415.16806264548416 -854.51214008745228 0 -854.51214008745228 1383.9304739200161 0 0 0 0 -23.415167962440819 -54.091546594168904 0 -54.091546594168904 753.74524811748415 0 0 0 0 -18.251977281377663 10.658707533275447 0 10.658707533275447 917.08766544691753 0 0 0 0 109.80252354779304 -312.38541657810129 0 -312.38541657810129 902.53283487651174 0 0 0 0 89.19550831264425 -178.27387484517385 0 -178.27387484517385 557.34314233047189 0 0 0 0 76.48845921415591 -172.72692969579293 0 -172.72692969579293 555.79372610781866 0 0 0 0 192.77954518674721 -193.76347342468534 0 -193.76347342468534 265.25048685379443 0 0 0 0 266.76363234080048 -325.89171276664274 0 -325.89171276664274 543.50814851940822 0 0 0 0 260.71594071717328 -266.41411580903878 0 -266.41411580903878 320.38014248787658 0 0 0 0 193.19995764377981 -197.94219776382988 0 -197.94219776382988 217.5390489197307 0 0 0 0 23.653048204761944 -97.022843849588753 0 -97.022843849588753 472.10961441464315 0 0 0 0 45.609497416712657 -76.210748239253007 0 -76.210748239253007 347.59457421574189 0 0 0 0 78.901770438295983 -145.39557382779185 0 -145.39557382779185 459.35209094459424 0 0 0 0 -11.638105094661228 -41.40139698558778 0 -41.40139698558778 446.46275528662954 0 0 0 0 -50.005585020031958 -32.378459348969045 0 -32.378459348969045 535.01982145289367 0 0 0 0 -8.428054657098528 -63.872921765658248 0 -63.872921765658248 601.87424791574449 0 0 0 0 -16.847169741554808 -18.669723639504809 0 -18.669723639504809 531.76004492802167 0 0 0 0 8.4657154849737708 -111.54310708116827 0 -111.54310708116827 558.24077504739398 0 0 0 0 -33.603918906897889 -73.400222747921362 0 -73.400222747921362 552.18901778655345 0 0 0 0 -23.854546918587403 -58.752649380236107 0 -58.752649380236107 548.59116061894747 0 0 0 0 -31.956747520727731 -74.661997516126576 0 -74.661997516126576 545.26164047661587 0 0 0 0 -79.713596596417574 -19.505857634823769 0 -19.505857634823769 495.46034111118206 0 0 0 0 -66.175950898627434 -88.788936764360187 0 -88.788936764360187 527.62075736565748 0 0 0 0 -23.296390008560593 28.314736358875962 0 28.314736358875962 236.15496783547496 0 0 0 0 7.7580320942392973 -32.807468240343951 0 -32.807468240343951 254.54974934396159 0 0 0 0 19.111835060771227 -98.553337057921453 0 -98.553337057921453 304.16327798190468 0 0 0 0 -27.37100425679273 42.159788579567248 0 42.159788579567248 -48.102206517549348 0 0 0 0 3.5423898370667359 -3.5210008691560688 0 -3.5210008691560688 3.0353626615666656 0 0 0 0 -107.93024984837768 -151.45004934636017 0 -151.45004934636017 121.47592430231452 0 0 0 0 -31.140893829402557 9.8616874326944526 0 9.8616874326944526 151.59781745246437 0 0 0 0 -50.969677148670826 -0.07653956194735656 0 -0.07653956194735656 303.67336876050103 0 0 0 0 -6.2624911510183665 -114.50249701862776 0 -114.50249701862776 594.24397713188227 0 0 0 0 233.60347810776182 -242.88781096747152 0 -242.88781096747152 242.79911730979802 0 0 0 0 111.65044671790429 -305.45074621658569 0 -305.45074621658569 -119.01778615358307 0 0 0 0 2.2310753059819994 -1.5679917961152228 0 -1.5679917961152228 0.99811008727851913 0 0 0 0 140.61919200716443 -157.81383648207338 0 -157.81383648207338 24.101753561757505 0 0 0 0 96.77728029606169 -310.89095168952917 0 -310.89095168952917 294.02249853349349 0 0 0 0 134.17598489038937 -160.80738824603759 0 -160.80738824603759 202.85707544679462 0 0 0 0 4.4262687710274031 14.50550974527907 0 14.50550974527907 29.211906459895147 0 0 0 0 -0.89013768724143816 23.925068113706743 0 23.925068113706743 39.233689744927688 0 0 0 0 58.770480064182266 -128.74301333814947 0 -128.74301333814947 225.57966511067934 0 0 0 0 59.521883693540531 -120.70201087484747 0 -120.70201087484747 311.01297153234191 0 0 0 0 65.105277310271049 -77.028993842672207 0 -77.028993842672207 414.38516930137848 0 0 0 0 202.61026736661734 -35.495742514445737 0 -35.495742514445737 253.3792149911169 0 0 0 0 164.61086667907239 -123.06836811836547 0 -123.06836811836547 92.168869869288756 0 0 0 0 1.5253991635699711 5.2632304553638818 0 5.2632304553638818 21.408288888050578 0 0 0 0 -1.7889398048306475 4.3040057953130599 0 4.3040057953130599 17.711188899556873 0 0 0 0 -6.2434522776693484 70.858242046102532 0 70.858242046102532 67.650993079225373 0 0 0 0 -1.3751497480208172 5.3619804913323605 0 5.3619804913323605 34.645947309953044 0 0 0 0 -1.9699715201726917 -0.55146099216653965 0 -0.55146099216653965 42.909052816350595 0 0 0 0 2.3948218214063419 3.9061246348512286 0 3.9061246348512286 23.086392100957596 0 0 0 0 -5.676615968999954 1.9287384313793154 0 1.9287384313793154 47.240000845602481 0 0 0 0 -2.0447640194048446 -3.8706403671377814 0 -3.8706403671377814 14.879319401313481 0 0 0 0 -106.58080113286042 142.1865174130071 0 142.1865174130071 5.6654877808032325 0 0 0 0 -2.9630965323597693 1.2572569636708693 0 1.2572569636708693 6.9193050943909817 0 0 0 0 -0.76583367086550425 -28.120139381368062 0 -28.120139381368062 87.00859718828724 0 0 0 0 0.91203977790260637 -10.14483901363341 0 -10.14483901363341 38.842746758468309 0 0 0 0 0.96715899618323764 1.7847533311607293 0 1.7847533311607293 9.25253885335934 0 0 0 0 13.040879293033186 -10.31010024290299 0 -10.31010024290299 27.361329294013558 0 0 0 0 16.813050838764866 -14.536710460597533 0 -14.536710460597533 31.584230001288233 0 0 0 0 4.9360767708304483 0.70808895222816659 0 0.70808895222816659 23.776602793051723 0 0 0 0 5.9055748628949303 -10.68024428373792 0 -10.68024428373792 35.883412400726229 0 0 0 0 11.468362493588756 -19.124493289862585 0 -19.124493289862585 42.626540740893688 0 0 0 0 8.2458256730010362 -13.484293707406323 0 -13.484293707406323 38.475985527096782 0 0 0 0 12.810849368266645 -20.869754604776972 0 -20.869754604776972 32.409947904838191 0 0 0 0 16.451382280469375 -16.795172035353062 0 -16.795172035353062 34.3294524908124 0 0 0 0 125.22280473513365 -38.813718645367771 0 -38.813718645367771 -13.016109517910081 0 0 0 0 16.211200941351763 15.425496670472057 0 15.425496670472057 32.019005192662007 0 0 0 0 125.08101564787648 -128.42550800137542 0 -128.42550800137542 69.001762692525517 0 0 0 0 8.4873483800795384 -122.3206903851933 0 -122.3206903851933 268.60186317349144 0 0 0 0 -24.847035718841425 -60.696477831763332 0 -60.696477831763332 260.76295582042076 0 0 0 0 91.520627438566407 -175.82971575872944 0 -175.82971575872944 359.02234452002449 0 0 0 0 1.4046840795351887 1.4990329391423529 0 1.4990329391423529 4.2921491849910645 0 0 0 0 89.064039706820836 -135.2343241896051 0 -135.2343241896051 220.23396300971217 0 0 0 0 131.00894265340048 -145.16214343140018 0 -145.16214343140018 197.68425052738166 0 0 0 0 -29.373921058502674 -26.128876933384163 0 -26.128876933384163 247.02968470220367 0 0 0 0 -29.371111892920453 -36.997058191664109 0 -36.997058191664109 256.29324354819255 0 0 0 0 -45.247710421937882 -45.954476993509161 0 -45.954476993509161 251.24071225565422 0 0 0 0 -45.027802564251033 -46.47121916920878 0 -46.47121916920878 234.55454569080757 0 0 0 0 -28.597669065536593 -68.595828780886222 0 -68.595828780886222 261.12337652806309 0 0 0 0 -4.2005644212531479 -36.483244237009785 0 -36.483244237009785 130.86031125031877 0 0 0 0 -1.1228685797448179 -89.791589753371227 0 -89.791589753371227 159.28029821717064 0 0 0 0 -29.643038378981146 10.620536594469741 0 10.620536594469741 214.47781473741634 0 0 0 0 -11.706337061966224 -50.196357998880558 0 -50.196357998880558 211.16055996243085 0 0 0 0 30.75865978048023 56.254515222164628 0 56.254515222164628 115.62239903949376 0 0 0 0 15.46773307391959 -0.50510020548244938 0 -0.50510020548244938 250.7364000105008 0 0 0 0 0.917593971961562 -1.2152570388578567 0 -1.2152570388578567 5.4166600672008798 0 0 0 0 22.61131998721612 -8.2144926484907046 0 -8.2144926484907046 254.7697029970841 0 0 0 0 6.7328482941957191 -6.0049740687682061 0 -6.0049740687682061 262.06991642495268 0 0 0 0 24.170810051461558 -25.071775769989472 0 -25.071775769989472 163.48956089858257 0 0 0 0 48.218078832931496 -24.224569561014505 0 -24.224569561014505 311.05595456578885 0 0 0 0 48.544965159137064 -32.013001029772568 0 -32.013001029772568 243.6874482665371 0 0 0 0 14.703053681627352 -14.330403513355122 0 -14.330403513355122 267.38718863532267 0 0 0 0 28.654630735452884 -11.319840819349338 0 -11.319840819349338 238.15290879394161 0 0 0 0 21.040808960264258 -30.95755943318909 0 -30.95755943318909 268.78524609126907 0 0 0 0 22.140429177677561 -34.416225178136301 0 -34.416225178136301 217.92146360702463 0 0 0 0 81.964535748998856 -106.60674797845422 0 -106.60674797845422 281.55577001643542 0 0 0 0 67.964077159331282 -67.374778442026582 0 -67.374778442026582 253.65389149075054 0 0 0 0 77.654851585111828 -76.953544060292188 0 -76.953544060292188 202.85584174371616 0 0 0 0 41.080841759717259 -60.427313208601845 0 -60.427313208601845 198.08231928890018 0 0 0 0 41.332119228111878 -62.129425077961059 0 -62.129425077961059 166.21946484963519 0 0 0 0 -22.297476997739068 4.0401918974639557 0 4.0401918974639557 185.60641317795671 0 0 0 0 -73.134472131423536 -43.223989679514489 0 -43.223989679514489 281.76620195017676 0 0 0 0 -79.495853491212983 -11.703403512452496 0 -11.703403512452496 243.67834044879419 0 0 0 0 -96.206325345688128 -114.25686605984083 0 -114.25686605984083 78.431516931206716 0 0 0 0 -67.863872833823052 35.123538073363761 0 35.123538073363761 79.607081114532775 0 0 0 0 136.39490813163957 -224.87811909942684 0 -224.87811909942684 -118.48498993620888 0 0 0 0 2.1910015380579573 -1.6249827100841117 0 -1.6249827100841117 1.3083993411254937 0 0 0 0 -73.540671580231901 -87.119506900993656 0 -87.119506900993656 741.36364882471389 0 0 0 0 -104.05712915776644 -24.539488104255724 0 -24.539488104255724 646.48337014402205 0 0 0 0 26.945003717122745 -126.47311438609177 0 -126.47311438609177 494.03393098415108 0 0 0 0 38.611014641881411 -180.98514032248204 0 -180.98514032248204 519.85621323851956 0 0 0 0 85.467936977444424 -234.35023831953004 0 -234.35023831953004 679.03822660997685 0 0 0 0 138.94772959197689 -158.5416268795434 0 -158.5416268795434 527.14235833838757 0 0 0 0 120.08346086091206 -165.48040440994373 0 -165.48040440994373 532.07154081535555 0 0 0 0 140.80030966737468 -150.40192942124122 0 -150.40192942124122 526.53311859050882 0 0 0 0 80.235446391845471 -170.05782799764711 0 -170.05782799764711 541.16478708019713 0 0 0 0 172.0185133110881 -86.630576787149039 0 -86.630576787149039 613.49466506877798 0 0 0 0 33.277538640060811 -71.059062608954264 0 -71.059062608954264 618.91535285342252 0 0 0 0 1.4925017191899315 50.56766992172561 0 50.56766992172561 240.86397984624091 0 0 0 0 -18.911017220463286 79.493654294631412 0 79.493654294631412 59.348946653874783 0 0 0 0 73.553692187025263 -94.985887967133749 0 -94.985887967133749 446.58411401837657 0 0 0 0 40.815035941901442 -115.13493803000529 0 -115.13493803000529 512.05450787104201 0 0 0 0 251.67145258864366 -152.56017919039732 0 -152.56017919039732 478.98903103713383 0 0 0 0 54.622316611669248 -178.38663551101854 0 -178.38663551101854 345.81105562768062 0 0 0 0 45.336456703133081 -182.42489896545158 0 -182.42489896545158 562.91655443911441 0 0 0 0 140.21737072178439 -298.18943613725423 0 -298.18943613725423 323.66016587611375 0 0 0 0 144.22698270860883 -180.83049670815308 0 -180.83049670815308 120.746238202526 0 0 0 0 93.86560056986491 -171.8125296333601 0 -171.8125296333601 275.14841003926267 0 0 0 0 98.660382509746341 -194.58666158148117 0 -194.58666158148117 348.79351296443201 0 0 0 0 95.484204099073395 -150.72061203706107 0 -150.72061203706107 289.96766126817965 0 0 0 0 88.474211288212246 -172.53805972822011 0 -172.53805972822011 308.48409444310528 0 0 0 0 91.841301278200262 -123.3909021911968 0 -123.3909021911968 290.64160090591758 0 0 0 0 70.443216549798308 -140.02688579557434 0 -140.02688579557434 335.28371097533818 0 0 0 0 55.321569676801118 -159.98231049211972 0 -159.98231049211972 398.03933892255009 0 0 0 0 42.303853183987485 -79.234905301167601 0 -79.234905301167601 370.87400287968921 0 0 0 0 34.259962792555598 -70.141644567949697 0 -70.141644567949697 439.93122894925182 0 0 0 0 29.285676996392795 -45.982453132804949 0 -45.982453132804949 326.3203065722555 0 0 0 0 -60.123271709444907 89.78096921992983 0 89.78096921992983 319.84668964998127 0 0 0 0 31.711853019833598 90.693453092631898 0 90.693453092631898 159.86963587138598 0 0 0 0 -17.724037562201481 78.027466692376152 0 78.027466692376152 59.556249262154395 0 0 0 0 45.999960315232329 -22.927227931833841 0 -22.927227931833841 208.88525121570274 0 0 0 0 -40.022802736233643 58.829834561951429 0 58.829834561951429 310.94900430541747 0 0 0 0 -0.32438405272860038 55.848826683145418 0 55.848826683145418 23.135013477439607 0 0 0 0 -69.417054881359036 54.779737466276856 0 54.779737466276856 324.3689455754793 0 0 0 0 -119.92456246354959 -49.339945658859506 0 -49.339945658859506 441.10073574405396 0 0 0 0 82.523426183935953 -45.067800755792632 0 -45.067800755792632 210.53944400243199 0 0 0 0 -34.901326166471335 115.62296899869762 0 115.62296899869762 125.36775635907179 0 0 0 0 60.538118641083202 -30.628500543993141 0 -30.628500543993141 260.08496301377454 0 0 0 0 -18.912958731261376 76.646815796199832 0 76.646815796199832 59.403658731130463 0 0 0 0 -120.34084509489662 -12.814175779196376 0 -12.814175779196376 279.05872038998496 0 0 0 0 21.834029010394261 40.562804019176838 0 40.562804019176838 131.77302754827542 0 0 0 0 39.572516831363828 -4.571480807455373 0 -4.571480807455373 241.2037481260777 0 0 0 0 104.33716053407807 -48.910353266943275 0 -48.910353266943275 56.439076931506861 0 0 0 0 87.603160414494596 -115.76630690853926 0 -115.76630690853926 279.22849107028742 0 0 0 0 129.45100568036469 -100.94162443774258 0 -100.94162443774258 164.12211999236024 0 0 0 0 141.63003309582564 -137.31600904354127 0 -137.31600904354127 278.30501013632102 0 0 0 0 194.79835623458894 -122.35743050043675 0 -122.35743050043675 211.50900851545157 0 0 0 0 2.4640059941752313 1.5102530381286385 0 1.5102530381286385 -2.6308148069484929 0 0 0 0 20.292730815443065 31.598502316322993 0 31.598502316322993 331.15677576471353 0 0 0 0 105.9499791369235 -67.315560423041461 0 -67.315560423041461 178.05536491251405 0 0 0 0 248.08389005817025 -139.18686230962339 0 -139.18686230962339 116.18316591068287 0 0 0 0 362.66616096735197 -268.02094857131306 0 -268.02094857131306 205.89779803588317 0 0 0 0 245.9918306665968 -310.78306043311022 0 -310.78306043311022 379.72720944521279 0 0 0 0 243.60437729814464 -245.47931071444737 0 -245.47931071444737 309.10727984635741 0 0 0 0 149.69580094059893 -207.86923951392964 0 -207.86923951392964 285.98478015818546 0 0 0 0 97.195357961650188 -214.45634458068525 0 -214.45634458068525 414.53965926513774 0 0 0 0 42.154525716905482 -187.52722971580079 0 -187.52722971580079 401.3751372951956 0 0 0 0 55.40435564478139 -274.19513904679479 0 -274.19513904679479 569.87831518234452 0 0 0 0 207.81138355134271 -213.53716644788256 0 -213.53716644788256 272.63723456732987 0 0 0 0 175.52933443804477 -150.62598513886951 0 -150.62598513886951 234.13685100356815 0 0 0 0 103.74122526145129 -163.47510065836468 0 -163.47510065836468 308.70107906051271 0 0 0 0 78.798739760090029 -138.72569643987663 0 -138.72569643987663 311.09650094589142 0 0 0 0 101.18203151065245 -151.42225191248144 0 -151.42225191248144 254.50731251589605 0 0 0 0 76.719029871630482 -111.97730394067912 0 -111.97730394067912 277.14303477388967 0 0 0 0 30.790577396221124 -82.725929126158007 0 -82.725929126158007 345.27335919225879 0 0 0 0 84.080844126772718 -131.01039205382403 0 -131.01039205382403 316.34845938034414 0 0 0 0 51.218596309580789 -86.26654495378898 0 -86.26654495378898 331.28347695300181 0 0 0 0 68.185167165358507 -74.774917792012275 0 -74.774917792012275 323.77083769769524 0 0 0 0 26.62344091284649 -112.68436500751704 0 -112.68436500751704 405.81732395332801 0 0 0 0 85.015304431532059 -159.71752831943013 0 -159.71752831943013 344.04140132501198 0 0 0 0 -11.571862704269734 -84.25094144976174 0 -84.25094144976174 384.95724633702775 0 0 0 0 7.1622514141909051 -73.302631933453085 0 -73.302631933453085 389.91680065108085 0 0 0 0 17.306295281276107 -40.723014752729796 0 -40.723014752729796 383.50131493807567 0 0 0 0 34.429560415475862 -52.633476468137815 0 -52.633476468137815 316.65967449630261 0 0 0 0 36.25133061386623 -63.146845765673788 0 -63.146845765673788 374.91548217789386 0 0 0 0 0.2526970973067364 -54.761769658420235 0 -54.761769658420235 373.81762458047888 0 0 0 0 38.293742671035034 -26.830504758916504 0 -26.830504758916504 365.0652860403643 0 0 0 0 53.72410958078126 -25.604222502344783 0 -25.604222502344783 107.87353333333158 0 0 0 0 -0.094918201619137221 1.0697813595768082 0 1.0697813595768082 0.73705257903865373 0 0 0 0 1.9054082180756851 0.32160264999529886 0 0.32160264999529886 -0.14332084744778939 0 0 0 0 -198.82428585703929 -92.38432208904851 0 -92.38432208904851 475.27373446752608 0 0 0 0 -2.0409039468699675 2.2539939975953018 0 2.2539939975953018 0.81457433262738732 0 0 0 0 75.083121852747354 -27.524933391803643 0 -27.524933391803643 -44.31585194408035 0 0 0 0 -12.005359157190469 -73.432287418218039 0 -73.432287418218039 108.9481875324127 0 0 0 0 168.69913109800746 107.53040402345869 0 107.53040402345869 17.684220077004284 0 0 0 0 -3.2444974354293663 -34.766668229320203 0 -34.766668229320203 343.34705867042794 0 0 0 0 129.00372977965526 58.323283003133838 0 58.323283003133838 181.39876823976374 0 0 0 0 -6.580499777800739 -0.053285176818491209 0 -0.053285176818491209 4.4402378417321842 0 0 0 0 -25.443408485531108 -9.1737510058592306 0 -9.1737510058592306 31.431556236475444 0 0 0 0 0.26500497988776672 -2.9223246048706315 0 -2.9223246048706315 4.7736177883067512 0 0 0 0 -39.283443275404352 207.89638999603631 0 207.89638999603631 783.83325492044969 0 0 0 0 644.11138115496033 -502.50958494409861 0 -502.50958494409861 460.75546663507703 0 0 0 0 54.252525001970525 -421.89386552389169 0 -421.89386552389169 1026.2745414901001 0 0 0 0 15.976828023790631 -188.71617862113726 0 -188.71617862113726 499.58792777397321 0 0 0 0 -81.316488647542428 -40.559341582156776 0 -40.559341582156776 430.15606849783217 0 0 0 0 -63.055774327009203 -145.90994345278159 0 -145.90994345278159 594.74336869672698 0 0 0 0 4.2796605930984697 -146.47591574217586 0 -146.47591574217586 497.76076655834913 0 0 0 0 5.2183876370202498 -14.019078865959926 0 -14.019078865959926 -11.149962852927985 0 0 0 0 -2.2733390044368207 -15.392941374762813 0 -15.392941374762813 38.802644795956439 0 0 0 0 4.8880562447284319 -33.943597716279328 0 -33.943597716279328 27.182461535885523 0 0 0 0 3.2583563163165357 -16.455368790000215 0 -16.455368790000215 21.733429040286296 0 0 0 0 3.2442054874317909 -12.898170469507711 0 -12.898170469507711 16.92289421606074 0 0 0 0 -10.888243647002128 -16.319270795072953 0 -16.319270795072953 34.44161134272872 0 0 0 0 12.002224707639471 -46.725118108741299 0 -46.725118108741299 42.544410827555112 0 0 0 0 -8.1847960205050185 -25.188701681094244 0 -25.188701681094244 22.618130487368035 0 0 0 0 -39.758918173974052 -24.824247304961318 0 -24.824247304961318 40.504006379211205 0 0 0 0 12.23788889028566 -41.5407750866068 0 -41.5407750866068 16.100873539908207 0 0 0 0 70.434350216806706 -83.660853020308423 0 -83.660853020308423 18.860786692617694 0 0 0 0 44.858340071201383 -27.460148048630799 0 -27.460148048630799 -5.0277805966325104 0 0 0 0 -5.8921698000249307 -10.848357658222085 0 -10.848357658222085 -7.6024110326397931 0 0 0 0 5.0378587987437591 -14.531106621638941 0 -14.531106621638941 -7.8969956254775866 0 0 0 0 -3.0628873641858263 -10.012669753501541 0 -10.012669753501541 -17.917624779118341 0 0 0 0 5.9573584234647114 -25.19136123345379 0 -25.19136123345379 6.1333838074642699 0 0 0 0 2.3785867274073098 -23.546199980482925 0 -23.546199980482925 5.9074313607561635 0 0 0 0 14.000005644273187 -15.349222887183714 0 -15.349222887183714 -7.9124869830047828 0 0 0 0 3.9476362794846906 -12.014530818023147 0 -12.014530818023147 -13.082073740007345 0 0 0 0 18.258539573640519 -24.342739571280617 0 -24.342739571280617 2.8374599157687044 0 0 0 0 8.3117901595296644 -31.466437410777871 0 -31.466437410777871 24.077429661374481 0 0 0 0 19.454170271914791 -22.692282614800206 0 -22.692282614800206 5.6302688886280521 0 0 0 0 39.89418931384057 -104.94879112764102 0 -104.94879112764102 28.62914820343758 0 0 0 0 9.7030179063007012 -16.168553655120704 0 -16.168553655120704 -13.77224012206706 0 0 0 0 9.4637076471554984 -18.345412780455646 0 -18.345412780455646 -15.269306104537421 0 0 0 0 15.843023426765285 -14.699168064911646 0 -14.699168064911646 -30.70715858132462 0 0 0 0 6.1365096396621084 -26.025327599862067 0 -26.025327599862067 20.876110381512262 0 0 0 0 10.737823536179803 -10.659098136628018 0 -10.659098136628018 -10.445482199720573 0 0 0 0 80.254686656013973 -26.067713893675318 0 -26.067713893675318 -98.480804570383043 0 0 0 0 12.126621569691451 -26.413293778565276 0 -26.413293778565276 1.806724301441136 0 0 0 0 6.2789479657352052 -15.441528417458912 0 -15.441528417458912 -4.4570661974620975 0 0 0 0 121.81450117767963 2.1360208704281831 0 2.1360208704281831 -5.8123024799424456 0 0 0 0 3.2339873641200398 -3.5435735504337345 0 -3.5435735504337345 3.8117445339609191 0 0 0 0 111.87026496535691 104.22786768671358 0 104.22786768671358 111.82489845750388 0 0 0 0 21.670236139036206 -49.60234054405737 0 -49.60234054405737 20.619265760593407 0 0 0 0 8.2198304896082846 -52.614956195786363 0 -52.614956195786363 22.766044810468884 0 0 0 0 14.360573024695569 -19.267127979997085 0 -19.267127979997085 -2.4810098350332908 0 0 0 0 38.78568732271242 -45.760575128268101 0 -45.760575128268101 -24.729974402181142 0 0 0 0 13.199022336457837 -18.458411459473314 0 -18.458411459473314 -8.4342883463604892 0 0 0 0 17.6782772507662 -26.270035699319578 0 -26.270035699319578 1.9306951378894155 0 0 0 0 16.667663034093586 -16.129615817356466 0 -16.129615817356466 6.4124666059681488 0 0 0 0 -5.7983471513355198 -32.245769144033147 0 -32.245769144033147 -5.0488372333056759 0 0 0 0 -6.262813075512895 -56.278033585171215 0 -56.278033585171215 -35.347741143850726 0 0 0 0 20.475858399690985 -12.12514399541233 0 -12.12514399541233 4.740553598449992 0 0 0 0 31.076820272976818 -66.049006537934474 0 -66.049006537934474 504.02106977552467 0 0 0 0 -68.473033772586689 -80.008642646786029 0 -80.008642646786029 857.2520650744118 0 0 0 0 138.20663270431373 -69.390530158154434 0 -69.390530158154434 502.76391613999749 0 0 0 0 -39.74073957556493 -59.275444571234402 0 -59.275444571234402 827.38576380506856 0 0 0 0 167.97574306854756 -87.553260180422512 0 -87.553260180422512 -23.210734788845002 0 0 0 0 -179.65233054253503 38.354077996377782 0 38.354077996377782 395.70895827257482 0 0 0 0 6.4900574599275815 -5.2293080995774002 0 -5.2293080995774002 -2.234051758670148 0 0 0 0 41.28201807942655 113.78454501070519 0 113.78454501070519 723.83406226189982 0 0 0 0 89.535932625055125 -85.863121010203031 0 -85.863121010203031 415.33197615003337 0 0 0 0 -118.56865690499981 133.00819602673437 0 133.00819602673437 1152.5560233787692 0 0 0 0 -81.078988726825287 -99.523682973136602 0 -99.523682973136602 880.44688610002049 0 0 0 0 59.362048196883961 69.592173141474632 0 69.592173141474632 666.15122584304481 0 0 0 0 45.901225314415179 141.20785242281818 0 141.20785242281818 1137.0177910661441 0 0 0 0 -82.076999555791957 379.94339381997088 0 379.94339381997088 1708.6157210510282 0 0 0 0 -34.810110986308985 183.45932351974261 0 183.45932351974261 1512.4934307869262 0 0 0 0 311.96996320855874 169.8682968623034 0 169.8682968623034 925.84882577499411 0 0 0 0 163.84805078724787 -159.02437401032694 0 -159.02437401032694 876.20485728845233 0 0 0 0 180.9412113425733 -43.567970290714584 0 -43.567970290714584 983.44644985591731 0 0 0 0 1154.3434535840124 1026.4038045578691 0 1026.4038045578691 -96.70645891703316 0 0 0 0 626.26588032959364 1506.3482003767858 0 1506.3482003767858 1833.5377981173651 0 0 0 0 -402.50866351411906 945.08244509696306 0 945.08244509696306 3491.5263640085977 0 0 0 0 454.20805174009968 321.18021302387933 0 321.18021302387933 254.16027220609249 0 0 0 0 -6.942725224302194 806.06623997584393 0 806.06623997584393 -1028.5833323408697 0 0 0 0 9.0544974214451095 10.170721820543235 0 10.170721820543235 18.64514411201327 0 0 0 0 1263.9160896162459 -2159.8611567019834 0 -2159.8611567019834 3496.8238592287889 0 0 0 0 3.5027323295789934 1.7706090755920769 0 1.7706090755920769 10.340973268655603 0 0 0 0 6.3509616565117524 4.885465952699704 0 4.885465952699704 4.32258413032514 0 0 0 0 -424.03726951954019 -313.78050913321204 0 -313.78050913321204 3492.9148514362259 0 0 0 0 936.33489878453338 488.85401804464345 0 488.85401804464345 -1407.0705085270019 0 0 0 0 -483.68585296289393 -51.867011187125172 0 -51.867011187125172 39.329224167304346 0 0 0 0 210.85078546610157 139.25780999416747 0 139.25780999416747 63.821338607609505 0 0 0 0 280.89259202083713 -637.8648015119652 0 -637.8648015119652 729.12681968174729 0 0 0 0 519.27408542145258 587.67563921168039 0 587.67563921168039 229.23547642452468 0 0 0 0 -367.69063466495345 12.263253060125862 0 12.263253060125862 -138.79179718716114 0 0 0 0 -231.17211336994205 -35.689539489001618 0 -35.689539489001618 1251.5416955811961 0 0 0 0 569.69089409702565 -560.99896694172639 0 -560.99896694172639 366.57965789541413 0 0 0 0 7.8506275603865774 -3.4460725174817952 0 -3.4460725174817952 2.3181420162426889 0 0 0 0 373.78316021075534 -6.6952642116229981 0 -6.6952642116229981 -105.0881470063614 0 0 0 0 -55.178314141542387 -82.564730352108199 0 -82.564730352108199 1608.8146637190512 0 0 0 0 37.347799341381915 18.391926978592892 0 18.391926978592892 11.895075620894204 0 0 0 0 -18.192636805001484 -40.761945842593377 0 -40.761945842593377 51.425811446133594 0 0 0 0 38.172369886086244 -145.65935280652411 0 -145.65935280652411 47.357545179973386 0 0 0 0 154.44219641082748 -142.07354207062144 0 -142.07354207062144 34.260050410259282 0 0 0 0 -313.72637758402567 27.909434503577359 0 27.909434503577359 110.03457167249144 0 0 0 0 -8.3757444722039196 -86.01329792731849 0 -86.01329792731849 145.82649016266259 0 0 0 0 75.512365309490406 -152.55446617907683 0 -152.55446617907683 557.50466721966222 0 0 0 0 -3.8750397489024921 21.162435461817886 0 21.162435461817886 57.080034868050888 0 0 0 0 -194.97776821874768 186.07881659654299 0 186.07881659654299 -154.29315495016635 0 0 0 0 -72.987652232453854 -283.54111004402057 0 -283.54111004402057 294.15288115152362 0 0 0 0 -520.2879603086426 776.20865163490862 0 776.20865163490862 146.24671406912967 0 0 0 0 862.35799202992689 -190.2596471626166 0 -190.2596471626166 132.07468308712123 0 0 0 0 -1.7832070904233293 19.95094163909927 0 19.95094163909927 49.617911036204617 0 0 0 0 2.0845237520399165 -1.1249027926473048 0 -1.1249027926473048 14.182047888167062 0 0 0 0 315.17183373344358 -1172.9882327805244 0 -1172.9882327805244 1557.8994422875403 0 0 0 0 501.33279083222891 -810.29359471134376 0 -810.29359471134376 534.18365613312699 0 0 0 0 45.161815053160751 -678.52028900931691 0 -678.52028900931691 1647.000515660402 0 0 0 0 296.95444736418051 -1070.2109871956436 0 -1070.2109871956436 1838.8439855239849 0 0 0 0 131.88173021839376 -700.11428885056375 0 -700.11428885056375 2031.3333016053657 0 0 0 0 -241.04715619266511 -1237.5814644030288 0 -1237.5814644030288 3500.0268189473136 0 0 0 0 938.29238615930171 -1650.9487210408588 0 -1650.9487210408588 2866.6939309800946 0 0 0 0 771.67113840476907 -1126.0502266761105 0 -1126.0502266761105 2285.5487528183585 0 0 0 0 -758.1968224916352 -257.32099870549064 0 -257.32099870549064 3498.5140459264076 0 0 0 0 -445.81054323349429 -720.48493556091125 0 -720.48493556091125 2839.0600856378951 0 0 0 0 -511.44354782086907 -516.98580291654253 0 -516.98580291654253 2208.2315120176208 0 0 0 0 -217.00317049981209 -410.21016724892979 0 -410.21016724892979 2175.483798744428 0 0 0 0 61.361657133529775 -551.80643782616607 0 -551.80643782616607 1014.3780504537717 0 0 0 0 -257.20475663421979 -120.10422298146295 0 -120.10422298146295 2139.8252196311078 0 0 0 0 -156.8413527057055 -215.05620864611046 0 -215.05620864611046 1225.8957464228879 0 0 0 0 -27.678618317482233 -70.424389961823181 0 -70.424389961823181 1209.6651680952191 0 0 0 0 42.341943523021051 -451.54844806951178 0 -451.54844806951178 1051.8430021742533 0 0 0 0 243.82978362452604 -256.37033158145277 0 -256.37033158145277 347.89029339031549 0 0 0 0 -6.3449744404510984 18.158566830886357 0 18.158566830886357 53.444474330173477 0 0 0 0 -57.09382206577186 23.422903855687764 0 23.422903855687764 376.89835157793823 0 0 0 0 233.8601431546669 -63.435303320506137 0 -63.435303320506137 46.213109542826714 0 0 0 0 5.4600360097238081 25.736286304247187 0 25.736286304247187 88.493242194963386 0 0 0 0 31.461295402340511 -45.371300608530873 0 -45.371300608530873 94.5135589240017 0 0 0 0 -10.836892767900659 13.529581256263214 0 13.529581256263214 46.533272882420249 0 0 0 0 7.0532038565638686 -25.094947623951157 0 -25.094947623951157 100.21232110241181 0 0 0 0 9.0659597221312964 -49.928035225330291 0 -49.928035225330291 122.73061824903562 0 0 0 0 23.767673658569947 -70.233696918978239 0 -70.233696918978239 129.89462491719314 0 0 0 0 -88.189226645671326 -8.5594888277537393 0 -8.5594888277537393 108.79061076726794 0 0 0 0 27.511644675170373 -50.370576968263777 0 -50.370576968263777 107.73796493703776 0 0 0 0 32.805061514652259 -89.155348479270287 0 -89.155348479270287 114.16108453775814 0 0 0 0 11.52441773092621 -15.821507902616915 0 -15.821507902616915 -13.482080678892359 0 0 0 0 11.677217807083252 -30.385354962723795 0 -30.385354962723795 22.595544517316739 0 0 0 0 10.026915541579001 -91.899078685059067 0 -91.899078685059067 126.34513236322164 0 0 0 0 19.285556981802529 -19.909156392299337 0 -19.909156392299337 2.3633517445305188 0 0 0 0 14.532521531296311 -28.335517581401291 0 -28.335517581401291 -6.0162252137743053 0 0 0 0 19.043862412420822 -19.497933695478423 0 -19.497933695478423 -3.6384677272726549 0 0 0 0 5.5399802114721517 -0.30212444161406893 0 -0.30212444161406893 -4.0522221421897697 0 0 0 0 27.331821192963616 -24.711399741543573 0 -24.711399741543573 30.976582100782252 0 0 0 0 14.443775824967071 -18.957714524036504 0 -18.957714524036504 3.02744008433055 0 0 0 0 24.653680081484708 -23.526953372631397 0 -23.526953372631397 -11.998147084577795 0 0 0 0 18.26676083773615 -20.832633449601673 0 -20.832633449601673 8.8183851429400875 0 0 0 0 42.77548164581458 -16.231065052568738 0 -16.231065052568738 13.650404895481188 0 0 0 0 -5.8801146555078958 -37.772945677803364 0 -37.772945677803364 123.78307417613541 0 0 0 0 49.283864505728161 -50.091596408521582 0 -50.091596408521582 -0.65625519319291925 0 0 0 0 23.496594853039223 -19.280566832525125 0 -19.280566832525125 -0.39658662118456789 0 0 0 0 -6.0948911188501711 -9.5604776533109543 0 -9.5604776533109543 68.654196466784924 0 0 0 0 42.36731174291981 -55.395203147287248 0 -55.395203147287248 103.48087713656787 0 0 0 0 17.937009194648319 -17.953375298491579 0 -17.953375298491579 -3.0696786564383132 0 0 0 0 18.483533424665723 -29.447072771430612 0 -29.447072771430612 12.356128744177113 0 0 0 0 13.028705354404821 -13.949921456403928 0 -13.949921456403928 -13.932354260844235 0 0 0 0 11.908970999600996 -29.113996218267857 0 -29.113996218267857 18.011340995653882 0 0 0 0 3.9840609557007105 -1.4953715455948782 0 -1.4953715455948782 4.8533781264131406 0 0 0 0 -401.75960665691127 -10.236422518675681 0 -10.236422518675681 183.64678431401262 0 0 0 0 45.827790982236593 -2.624977542218403 0 -2.624977542218403 12.043786237500171 0 0 0 0 28.785383965018411 -12.378324253855681 0 -12.378324253855681 147.90674547033268 0 0 0 0 -51.808769266935087 -91.170052320812829 0 -91.170052320812829 86.158413621807995 0 0 0 0 45.563708117759234 -54.710399232586497 0 -54.710399232586497 91.080975856923033 0 0 0 0 82.675321485503787 -37.02022216959449 0 -37.02022216959449 59.887042810500134 0 0 0 0 -11.385683163127846 2.8598311380127939 0 2.8598311380127939 43.293793307686315 0 0 0 0 84.38295702293567 -18.32442650385201 0 -18.32442650385201 33.176064298997517 0 0 0 0 44.85322503453898 -30.651698033245339 0 -30.651698033245339 -14.20448135319748 0 0 0 0 9.8694446218009944 -18.444507309934124 0 -18.444507309934124 25.15816179234389 0 0 0 0 46.216020294372356 -70.381321300788841 0 -70.381321300788841 47.761665858357446 0 0 0 0 17.379700403533825 -18.059740236699241 0 -18.059740236699241 3.7443290803183658 0 0 0 0 28.230740821295814 -27.600980485148142 0 -27.600980485148142 0.14176770274173123 0 0 0 0 30.124863174322854 -46.127109059874783 0 -46.127109059874783 40.586040745591163 0 0 0 0 21.785845050953867 28.574388722496224 0 28.574388722496224 6.1321438630948251 0 0 0 0 -11.799995928930798 -15.03054307212733 0 -15.03054307212733 9.3755220160528552 0 0 0 0 9.7319123750669743 -20.328072464036183 0 -20.328072464036183 20.758829145879275 0 0 0 0 56.905194190761691 -11.697703688434558 0 -11.697703688434558 2.211611922706652 0 0 0 0 11.474524791999704 -11.760081618106142 0 -11.760081618106142 -7.7307101572416599 0 0 0 0 0.78139884901894519 -7.1456553025588647 0 -7.1456553025588647 9.8077415626268873 0 0 0 0 26.250162837139669 -36.299246552043769 0 -36.299246552043769 46.95784367894521 0 0 0 0 4.8422625870018692 -15.96998696356809 0 -15.96998696356809 7.7477126873009468 0 0 0 0 -0.5135782882298372 -62.499694620026276 0 -62.499694620026276 52.092986208233924 0 0 0 0 105.58503375540204 -106.37953366959118 0 -106.37953366959118 -37.674880512036907 0 0 0 0 -84.686050161396679 -129.76535491024697 0 -129.76535491024697 19.948485556218657 0 0 0 0 113.60337240243098 -14.769087044034677 0 -14.769087044034677 -13.921252825293777 0 0 0 0 31.058360277725114 -40.75713732298027 0 -40.75713732298027 -21.596748205280164 0 0 0 0 -104.75698012408461 -29.626956614600658 0 -29.626956614600658 143.61063387921604 0 0 0 0 35.37759488693132 -70.632952604486491 0 -70.632952604486491 69.081043584767031 0 0 0 0 -2.1138703849499612 -12.305893240301844 0 -12.305893240301844 73.428766939831007 0 0 0 0 27.247527042540497 -43.028690446739347 0 -43.028690446739347 49.82876590021624 0 0 0 0 -52.266192239477277 -45.93731509585632 0 -45.93731509585632 73.33955895373947 0 0 0 0 -0.97503879952403427 -14.517346829180589 0 -14.517346829180589 70.399472772464151 0 0 0 0 -382.27856315358963 -36.112134534363577 0 -36.112134534363577 412.37756331950368 0 0 0 0 -4.3662226860465259 0.3408652510686494 0 0.3408652510686494 10.812796117505712 0 0 0 0 670.00167325744314 -365.0430655033997 0 -365.0430655033997 122.43217600408934 0 0 0 0 -85.552063970912513 -141.31796258898976 0 -141.31796258898976 26.037321217532735 0 0 0 0 -63.516864654800202 -154.84375598035695 0 -154.84375598035695 -52.503479018545477 0 0 0 0 -159.13330740504477 -28.540846951938875 0 -28.540846951938875 57.829849792316963 0 0 0 0 -47.773842290355105 -56.06688854029926 0 -56.06688854029926 49.452657523168455 0 0 0 0 2.82961235165837 -6.2008704456653865 0 -6.2008704456653865 0.5135277191188834 0 0 0 0 -56.114320344172711 -94.12363406692748 0 -94.12363406692748 -51.996539570944719 0 0 0 0 -72.012385291823719 -40.704728021640221 0 -40.704728021640221 106.82514656052808 0 0 0 0 -81.634863898356826 -103.24557470561285 0 -103.24557470561285 124.31917724700179 0 0 0 0 43.458328224239267 -84.721662294255793 0 -84.721662294255793 68.097788249629957 0 0 0 0 6.995905913689537 -24.528525537024663 0 -24.528525537024663 43.614664913336611 0 0 0 0 -92.131379192289359 -20.961348523986089 0 -20.961348523986089 125.29355476354249 0 0 0 0 -62.744792678605592 -45.32679348478996 0 -45.32679348478996 196.42355432927434 0 0 0 0 -32.413794269044843 -109.0434493907087 0 -109.0434493907087 123.80577150646423 0 0 0 0 42.023879894118636 -114.16210215050523 0 -114.16210215050523 180.84297980369593 0 0 0 0 82.300758951316766 -47.407134464854607 0 -47.407134464854607 105.47461511818256 0 0 0 0 -6.6109177025280985 -51.268376124797214 0 -51.268376124797214 106.96382526108937 0 0 0 0 55.029263108958389 -48.59952098206486 0 -48.59952098206486 57.445458902511746 0 0 0 0 39.315699234216481 -19.634834610449616 0 -19.634834610449616 59.446132816068712 0 0 0 0 0.28064551165027751 -72.334615237756225 0 -72.334615237756225 37.645111164223636 0 0 0 0 94.443814968833749 -78.635080476829899 0 -78.635080476829899 80.289360213144391 0 0 0 0 126.22586024688724 -43.027472583737108 0 -43.027472583737108 30.911760583936029 0 0 0 0 65.821543254069979 -123.16836904206866 0 -123.16836904206866 343.92411432784866 0 0 0 0 107.39900690832133 54.238046872436826 0 54.238046872436826 444.26163159823045 0 0 0 0 10.466156757433851 -78.866762627727439 0 -78.866762627727439 552.02329921857745 0 0 0 0 -58.341402779094608 -70.701951594564889 0 -70.701951594564889 268.6946945435775 0 0 0 0 -11.971542644604057 38.436935222078318 0 38.436935222078318 204.82397565824795 0 0 0 0 75.395144992930796 453.14464283518464 0 453.14464283518464 675.79479444707613 0 0 0 0 -117.82797813560467 246.21263064861705 0 246.21263064861705 1206.8027670979827 0 0 0 0 15.166925188575505 -198.27482611862888 0 -198.27482611862888 824.21466770730331 0 0 0 0 -160.12010456285896 829.64776802858978 0 829.64776802858978 1726.5010740750222 0 0 0 0 -206.0216829321929 866.90272226912384 0 866.90272226912384 2331.837118978845 0 0 0 0 -140.75289223555217 194.43305843240523 0 194.43305843240523 1274.3616808338847 0 0 0 0 -707.49111215925711 819.9064910429297 0 819.9064910429297 3500.3601994896671 0 0 0 0 -643.42810200064105 302.53575814276701 0 302.53575814276701 2684.8212913801326 0 0 0 0 -675.06432041223627 185.49089191918029 0 185.49089191918029 2289.212480995644 0 0 0 0 2344.3309734850518 2153.9242082204937 0 2153.9242082204937 1277.753199336963 0 0 0 0 3.6982508325487737 2.1728913855199927 0 2.1728913855199927 17.884919508793871 0 0 0 0 -412.84334682810919 1036.4517664973173 0 1036.4517664973173 2320.0672694970417 0 0 0 0 -22.510171649419618 1805.9768783933614 0 1805.9768783933614 3494.4533269820299 0 0 0 0 334.28549753358658 923.610459771975 0 923.610459771975 1684.1710047140368 0 0 0 0 -0.4940342193267096 0.61034393135665255 0 0.61034393135665255 0.60883913429458403 0 0 0 0 215.68838773674651 184.79007190187986 0 184.79007190187986 657.70479722874006 0 0 0 0 258.23314812267608 299.83049965107057 0 299.83049965107057 411.05647261951526 0 0 0 0 -4.7403392418425776 1.8906762145845164 0 1.8906762145845164 20.856468166149167 0 0 0 0 -0.22522577453461268 3.4620373981691586 0 3.4620373981691586 45.188521036347765 0 0 0 0 -89.751503546717061 54.289383257761074 0 54.289383257761074 91.655090239451965 0 0 0 0 -81.342735464267889 83.706891359295696 0 83.706891359295696 -5.6315516118620508 0 0 0 0 -103.73574660519355 92.653294516145252 0 92.653294516145252 93.503809196161455 0 0 0 0 60.052523200678031 326.41330850483973 0 326.41330850483973 -313.75579170830315 0 0 0 0 -89.841828390450289 33.334942009212682 0 33.334942009212682 255.4539955422515 0 0 0 0 -123.54379542843574 67.261524330486282 0 67.261524330486282 151.22165781455988 0 0 0 0 -54.898797201988344 -38.172525022847367 0 -38.172525022847367 124.4146504208984 0 0 0 0 -354.92832973639605 -1109.0657911258786 0 -1109.0657911258786 3494.1725452496867 0 0 0 0 11.466140441805379 34.180981016346777 0 34.180981016346777 86.839552147790528 0 0 0 0 0.30714945973706453 -6.5160029706636351 0 -6.5160029706636351 0.082074885113044616 0 0 0 0 -6.4409300178031117 -18.949042798063601 0 -18.949042798063601 110.96784929134446 0 0 0 0 0.9623251067749834 -8.2254258961584128 0 -8.2254258961584128 121.84468283502792 0 0 0 0 -3.8190526381131424 -8.0378369074347802 0 -8.0378369074347802 16.195519492509064 0 0 0 0 -31.112221585995933 -1.9571802902701165 0 -1.9571802902701165 112.73947799985763 0 0 0 0 -1.419992213556764 7.8107032886967858 0 7.8107032886967858 80.900694864204866 0 0 0 0 139.07017552100001 -596.69790391687457 0 -596.69790391687457 1371.1558826948894 0 0 0 0 266.71020442750319 -104.55770565072453 0 -104.55770565072453 720.71598267956779 0 0 0 0 168.4241075855669 -698.58361653710881 0 -698.58361653710881 1757.5072776605957 0 0 0 0 1878.0826017164909 -1883.9063611972406 0 -1883.9063611972406 954.6696540426492 0 0 0 0 -150.89587142338621 -159.68103420519765 0 -159.68103420519765 2630.7341188330356 0 0 0 0 2.0250300169220492 -166.22950994861384 0 -166.22950994861384 2260.4346246669593 0 0 0 0 0.50969690894341957 -2.6267897585764501 0 -2.6267897585764501 2.072890386890748 0 0 0 0 26.255728388569835 7.4330022333233501 0 7.4330022333233501 119.26652455702424 0 0 0 0 0.10812415430012537 -39.692885495867813 0 -39.692885495867813 221.1548352548416 0 0 0 0 -8.8091175182365333 -20.029479684351827 0 -20.029479684351827 175.93240619375138 0 0 0 0 9.2875686171694269 35.346978722060157 0 35.346978722060157 143.68907787026546 0 0 0 0 28.653747866707249 45.928692527399107 0 45.928692527399107 148.53845623245434 0 0 0 0 -0.050990767849971343 -0.39172357830113924 0 -0.39172357830113924 0.86780726921082874 0 0 0 0 0.36902803057829203 81.643736592872301 0 81.643736592872301 298.7318079480392 0 0 0 0 -3.9004508881587601 4.4681017803377472 0 4.4681017803377472 27.519905672457753 0 0 0 0 0.014479786222899634 -6.9501904197659163 0 -6.9501904197659163 1.8638889173453208 0 0 0 0 8.5331791187682562 8.4635633446159773 0 8.4635633446159773 27.406334145644905 0 0 0 0 4.7574516410536027 -8.3234540511621162 0 -8.3234540511621162 38.698124669157551 0 0 0 0 -0.49724354814756477 -9.6740517810821984 0 -9.6740517810821984 13.008968962953077 0 0 0 0 0.86456714929270018 -0.96429231066096577 0 -0.96429231066096577 -0.0065330548720794468 0 0 0 0 0.36979914326148267 1.5082453839659422 0 1.5082453839659422 14.606886519410779 0 0 0 0 0.027469822672381433 4.1960660264645995 0 4.1960660264645995 82.587427933801564 0 0 0 0 -23.558076432800931 26.27788611788128 0 26.27788611788128 93.560204743567738 0 0 0 0 -1.2245104268705873 -9.434480028161488 0 -9.434480028161488 42.684374294236477 0 0 0 0 -1.8786843671392077 3.5029369748881436 0 3.5029369748881436 25.990306941377639 0 0 0 0 15.53068312579175 -6.7888336459072889 0 -6.7888336459072889 14.307621145628218 0 0 0 0 33.217907346319279 -49.565553843658563 0 -49.565553843658563 52.057609382667579 0 0 0 0 0.62188989479673629 -4.0440252600181203 0 -4.0440252600181203 21.213321907341992 0 0 0 0 -6.9146298226474272 -10.837124238329125 0 -10.837124238329125 42.677564075725968 0 0 0 0 64.969793573279503 -22.095492090506013 0 -22.095492090506013 64.154863046580431 0 0 0 0 351.73717446325031 -262.21409557170591 0 -262.21409557170591 104.84135799473734 0 0 0 0 0.098906685028117003 0.44521227900808213 0 0.44521227900808213 6.6675498146581162 0 0 0 0 52.282335826987747 72.696129571350866 0 72.696129571350866 90.032487524571479 0 0 0 0 -29.106165235314307 41.782139133531018 0 41.782139133531018 224.23336982592446 0 0 0 0 -26.823244540421264 3.6337257280792983 0 3.6337257280792983 109.4163389102614 0 0 0 0 -7.7195598231226406 9.682249660269008 0 9.682249660269008 110.96485381981438 0 0 0 0 -0.037597605204479925 -8.6918482685978233 0 -8.6918482685978233 100.92757722745591 0 0 0 0 -7.2367426735797231 10.625905822496861 0 10.625905822496861 79.645890604173474 0 0 0 0 0.0006244943134442461 -4.6185015412021757 0 -4.6185015412021757 62.459798970739939 0 0 0 0 20.914451881365938 21.336280980021911 0 21.336280980021911 59.092983471447951 0 0 0 0 1.0821208005288554 -13.684334584058206 0 -13.684334584058206 106.80401225583319 0 0 0 0 5.6099357338521258 -4.438361199577912 0 -4.438361199577912 125.29460893197484 0 0 0 0 0.95292315274014072 7.7778283066804761 0 7.7778283066804761 108.76413830209685 0 0 0 0 -13.764595476580666 -11.051341430914135 0 -11.051341430914135 123.60482269357226 0 0 0 0 -2.6187840259567565 -24.431537137686973 0 -24.431537137686973 139.60311505538209 0 0 0 0 -1.2449790021341376 -22.088125056837598 0 -22.088125056837598 111.94606533805003 0 0 0 0 -336.12384721428953 73.753228940882764 0 73.753228940882764 142.62743583250995 0 0 0 0 -2.6187840259553923 -24.431537137685154 0 -24.431537137685154 139.60311505538414 0 0 0 0 -2.6187840259561881 -24.431537137686519 0 -24.431537137686519 139.60311505537538 0 0 0 0 -0.8178326345964706 -22.380718693333847 0 -22.380718693333847 120.20692297581991 0 0 0 0 -79.096996717666116 103.64755881366 0 103.64755881366 -101.40508486103499 0 0 0 0 -287.76965626379706 174.93758776177128 0 174.93758776177128 240.26234946116165 0 0 0 0 225.96866947074523 290.40637251123189 0 290.40637251123189 8.3195499196226592 0 0 0 0 -65.516192899747011 -49.693710887298948 0 -49.693710887298948 63.177341113914736 0 0 0 0 20.106789687615219 -177.15911243697883 0 -177.15911243697883 546.4380608950305 0 0 0 0 623.84753715446459 -166.40031370381621 0 -166.40031370381621 80.131518513042465 0 0 0 0 84.791046664137184 436.01259987587218 0 436.01259987587218 415.27257778769854 0 0 0 0 -0.22151943410858621 -19.812377790892242 0 -19.812377790892242 103.52711896541587 0 0 0 0 -156.08880658866178 -427.51192176181939 0 -427.51192176181939 255.8050012213962 0 0 0 0 -0.81916874950049579 -15.759819264920724 0 -15.759819264920724 105.03543251229257 0 0 0 0 2.2620855381133707 -3.059220878800474 0 -3.059220878800474 7.8600413335175006 0 0 0 0 121.06689967223951 9.4399787526272121 0 9.4399787526272121 -9.2858789135680126 0 0 0 0 91.649157684412558 189.63161652007784 0 189.63161652007784 353.01839826805372 0 0 0 0 6.5020910457533319 -78.895177953851089 0 -78.895177953851089 -40.559707121890824 0 0 0 0 -3.6662311625523216 -12.930033045118762 0 -12.930033045118762 97.446578756550934 0 0 0 0 16.946061773079236 -15.696353503998125 0 -15.696353503998125 93.972576141138234 0 0 0 0 17.610887709350749 -6.9172383602478931 0 -6.9172383602478931 102.49352409779931 0 0 0 0 8.4632715433954218 -9.6722124248908585 0 -9.6722124248908585 108.64870575027498 0 0 0 0 24.827629144437878 4.0944505163344047 0 4.0944505163344047 105.05165917047634 0 0 0 0 17.957615436603646 -10.516811114808661 0 -10.516811114808661 100.31098627214305 0 0 0 0 31.87382209844327 -3.3283121805543487 0 -3.3283121805543487 89.204602705560319 0 0 0 0 44.173726595591233 34.072896408330962 0 34.072896408330962 124.45235621838128 0 0 0 0 67.924862239981394 56.084019568474105 0 56.084019568474105 91.532756227169557 0 0 0 0 49.500851643896866 -104.11089654110492 0 -104.11089654110492 209.04887700300878 0 0 0 0 55.530523461307439 204.67423603654743 0 204.67423603654743 296.59959750502617 0 0 0 0 -106.57205644608899 176.47033609592836 0 176.47033609592836 -49.779960021615807 0 0 0 0 2.8436871292180967 8.9480038745582533 0 8.9480038745582533 115.60669021428589 0 0 0 0 2.3647444295586695 4.8743397469565934 0 4.8743397469565934 103.34510928832242 0 0 0 0 -110.76896003173889 35.522954812211538 0 35.522954812211538 193.64697541190799 0 0 0 0 116.40776561486804 346.17805110883182 0 346.17805110883182 332.6730757621786 0 0 0 0 266.71862978274419 185.71301569657771 0 185.71301569657771 -408.61074279262175 0 0 0 0 -113.00598459399909 12.280513937582782 0 12.280513937582782 -95.215440160203798 0 0 0 0 -27.283125575457994 104.91815271059659 0 104.91815271059659 -122.22934750577861 0 0 0 0 -4.867165157718631 0.66311538717977747 0 0.66311538717977747 5.9971672301730052 0 0 0 0 -96.561556345710756 140.9811613420834 0 140.9811613420834 35.528240524414286 0 0 0 0 95.578579063789448 105.78188257601255 0 105.78188257601255 138.12893600931238 0 0 0 0 -73.877523828630558 28.439648483031078 0 28.439648483031078 477.92721525709749 0 0 0 0 -0.9832804465739835 0.75828880532071175 0 0.75828880532071175 -0.45832229823636705 0 0 0 0 -98.589947942604738 18.164803185046821 0 18.164803185046821 547.11819570285616 0 0 0 0 -42.739612139843814 41.248717681873359 0 41.248717681873359 186.92449498648671 0 0 0 0 -26.270130231972985 -52.973761363908807 0 -52.973761363908807 123.19111170965834 0 0 0 0 52.856444275050308 -123.0411499614379 0 -123.0411499614379 320.06326454959344 0 0 0 0 -30.6291049539916 -27.575045529672025 0 -27.575045529672025 166.43662411867399 0 0 0 0 197.95119323266624 67.154640822023566 0 67.154640822023566 203.83662323605222 0 0 0 0 2.3482056908226809 20.592006449467448 0 20.592006449467448 92.729014202597682 0 0 0 0 -10.380786287328931 117.73279512982026 0 117.73279512982026 280.84322686914493 0 0 0 0 -19.895810201849599 58.599580156746924 0 58.599580156746924 139.85040903653908 0 0 0 0 -69.369450194580111 -1.7558986316453229 0 -1.7558986316453229 274.52848091006877 0 0 0 0 -33.371347400232601 -12.876487752138473 0 -12.876487752138473 133.48639873789489 0 0 0 0 -45.516665667265443 2.8750716011745681 0 2.8750716011745681 178.59160848487113 0 0 0 0 -27.26225830906094 -12.699340207549767 0 -12.699340207549767 139.8349428607612 0 0 0 0 -36.403047088586391 -19.651610970555225 0 -19.651610970555225 102.88556642456342 0 0 0 0 -37.76262327297809 39.546182431346097 0 39.546182431346097 239.2796941679735 0 0 0 0 -34.572985377634836 -6.1275893297430146 0 -6.1275893297430146 21.745980686266844 0 0 0 0 -32.820706459316433 36.60263351194137 0 36.60263351194137 15.922097450596386 0 0 0 0 -67.935501206559366 5.2258024736963762 0 5.2258024736963762 131.15489353293714 0 0 0 0 -4.1683300880932848 24.199391510703776 0 24.199391510703776 6.6411361262353239 0 0 0 0 -39.882243524130899 34.140405914714393 0 34.140405914714393 165.85454593507893 0 0 0 0 -24.117863960428934 3.8887341549488283 0 3.8887341549488283 19.775212707331626 0 0 0 0 -66.706819147155329 21.687900089538743 0 21.687900089538743 279.16280834356667 0 0 0 0 -67.208962368851644 -5.179136739247042 0 -5.179136739247042 251.82291563043555 0 0 0 0 -23.9417171163077 9.3659828460877179 0 9.3659828460877179 147.43144799829679 0 0 0 0 -29.074829453176818 43.162923907592777 0 43.162923907592777 17.142368549097473 0 0 0 0 -45.600066691044958 -4.41124175132245 0 -4.41124175132245 156.58472640086802 0 0 0 0 88.88388479986736 27.563755848030496 0 27.563755848030496 -83.157659272527326 0 0 0 0 -21.079214646203916 35.738560259791832 0 35.738560259791832 16.255165016848192 0 0 0 0 -35.585940994547855 -13.776828540201677 0 -13.776828540201677 187.99299224884089 0 0 0 0 -7.0396777703554108 76.691545313742608 0 76.691545313742608 166.62360478830669 0 0 0 0 13.434260278357215 23.505290433474784 0 23.505290433474784 82.528372381690133 0 0 0 0 -69.50271857118787 55.649730412922509 0 55.649730412922509 303.33846596280455 0 0 0 0 -24.54771275638581 9.0013050688677119 0 9.0013050688677119 -3.5692501252804885 0 0 0 0 -23.345342860002347 95.789239872816324 0 95.789239872816324 232.42043981748793 0 0 0 0 -14.507706233780482 26.55557466647133 0 26.55557466647133 48.995634336646617 0 0 0 0 -49.65161293208439 98.879742885661926 0 98.879742885661926 67.562229119663243 0 0 0 0 12.18223269853479 0.89223090698578744 0 0.89223090698578744 160.82648181246259 0 0 0 0 -50.430385522385222 71.07114336150039 0 71.07114336150039 73.622021627343202 0 0 0 0 -73.167048370250996 22.319128045863181 0 22.319128045863181 162.4928910842234 0 0 0 0 -54.340600703214477 81.424854293442877 0 81.424854293442877 -44.131540123515151 0 0 0 0 -49.034853215944167 22.779135502029021 0 22.779135502029021 17.887545852219773 0 0 0 0 -31.156330814641478 64.326823589701235 0 64.326823589701235 -95.851481256300758 0 0 0 0 -75.163753462162276 88.624012791092355 0 88.624012791092355 6.1937265718261187 0 0 0 0 -78.83455444025094 29.428392367426568 0 29.428392367426568 144.01412524793705 0 0 0 0 -59.111551679205604 -15.58345696658921 0 -15.58345696658921 69.527296944619593 0 0 0 0 -108.00968333867058 40.369693275695681 0 40.369693275695681 165.32683476013199 0 0 0 0 -69.752257417585042 44.480867309848691 0 44.480867309848691 38.68656371078032 0 0 0 0 -39.409888959730779 28.155513469272137 0 28.155513469272137 43.178953041566274 0 0 0 0 -74.208613388251251 73.202729697997711 0 73.202729697997711 -31.260620010689308 0 0 0 0 -170.25103762188064 -19.921728281557535 0 -19.921728281557535 70.426867272184609 0 0 0 0 29.823959473568607 41.493505594062867 0 41.493505594062867 -267.0238458316162 0 0 0 0 56.256992502794674 137.4921657834052 0 137.4921657834052 -49.162460325479515 0 0 0 0 158.9598572381974 214.63580625488021 0 214.63580625488021 -73.144827370439998 0 0 0 0 -163.11022062974735 102.4973809364792 0 102.4973809364792 37.752407507927273 0 0 0 0 -1.7288459491523618 -19.293366945435704 0 -19.293366945435704 100.74199649168496 0 0 0 0 -113.34714601435553 -19.387886323300791 0 -19.387886323300791 185.33441327584296 0 0 0 0 -42.136356076920336 27.433177416493294 0 27.433177416493294 47.098017060060663 0 0 0 0 -60.131826224274846 -55.007440164101354 0 -55.007440164101354 208.95425894363871 0 0 0 0 1.0792055061046995 1.41117674893394 0 1.41117674893394 110.62859072646143 0 0 0 0 -22.196749673572839 32.438953933233392 0 32.438953933233392 40.600768714801688 0 0 0 0 -54.133349249598723 363.83021206147396 0 363.83021206147396 535.8576914647274 0 0 0 0 536.21201251403818 173.79045639648393 0 173.79045639648393 331.48929670161306 0 0 0 0 -24.616962911605469 19.767212421898876 0 19.767212421898876 216.59732048075239 0 0 0 0 -14.285003222752282 -8.1182446659209031 0 -8.1182446659209031 120.04121619119536 0 0 0 0 -7.5521291084519362 50.353767817759035 0 50.353767817759035 211.10445787230128 0 0 0 0 -3.2707126657533081 -18.709798536709968 0 -18.709798536709968 145.3637431740226 0 0 0 0 -10.858042862123792 -8.3765664361493357 0 -8.3765664361493357 124.46236016245186 0 0 0 0 -33.547302788895195 -1.2167819782384868 0 -1.2167819782384868 138.14823817185027 0 0 0 0 -20.064666518900527 -3.9178236289609885 0 -3.9178236289609885 36.064999814629076 0 0 0 0 -42.857375975580908 21.089923723399124 0 21.089923723399124 162.09520740174867 0 0 0 0 -24.492583133246853 -16.558259571321514 0 -16.558259571321514 164.03041276560134 0 0 0 0 -50.083676718234983 -14.446404437450838 0 -14.446404437450838 213.84723620201112 0 0 0 0 18.127724337954987 30.022924778486413 0 30.022924778486413 67.794642366679909 0 0 0 0 -20.155428454687353 -61.238223521198961 0 -61.238223521198961 220.88267562024703 0 0 0 0 30.909084750593138 -52.402158389544638 0 -52.402158389544638 112.72785837340052 0 0 0 0 19.931134996393666 -70.693056131814956 0 -70.693056131814956 215.17967464034155 0 0 0 0 -0.8615037989502401 -0.043189964142001713 0 -0.043189964142001713 26.395022986786127 0 0 0 0 0.0062628783062503857 -0.39828951375116617 0 -0.39828951375116617 17.419986105584872 0 0 0 0 -15.746643132953977 -56.777880975798325 0 -56.777880975798325 196.26215260838217 0 0 0 0 38.882179973199527 -54.21622351422775 0 -54.21622351422775 191.28352999124945 0 0 0 0 -22.189868786962506 -58.70651190209901 0 -58.70651190209901 278.5671399613002 0 0 0 0 27.542277427452063 -0.86257340566953644 0 -0.86257340566953644 215.75240821781699 0 0 0 0 -31.104488856944499 -52.701108704517537 0 -52.701108704517537 375.63011167690274 0 0 0 0 -9.7558484208695191 42.426297543497874 0 42.426297543497874 14.910065138336725 0 0 0 0 -414.47703097989029 -13.039680282857262 0 -13.039680282857262 573.38697146287814 0 0 0 0 1093.4282077851558 104.02572232591592 0 104.02572232591592 -182.21441578566009 0 0 0 0 -473.37402763145849 -357.48542937385901 0 -357.48542937385901 232.3853837763229 0 0 0 0 -205.46638835451449 -187.14572689136685 0 -187.14572689136685 315.46224428521782 0 0 0 0 2.0756872981315997 5.2784084777528255 0 5.2784084777528255 2.4810685475902119 0 0 0 0 -171.60214428942703 43.30182661966046 0 43.30182661966046 -55.886218338364415 0 0 0 0 335.4112636009063 49.393613644322841 0 49.393613644322841 -24.351279792973401 0 0 0 0 -21.395109984206556 334.73803964299668 0 334.73803964299668 463.72835458671045 0 0 0 0 5.1018413051209706 4.5195493029537062 0 4.5195493029537062 4.7463862470817482 0 0 0 0 434.77584149116046 -508.01168900752555 0 -508.01168900752555 472.795147664252 0 0 0 0 -861.72552700084634 -161.07826888873024 0 -161.07826888873024 711.93665795606557 0 0 0 0 -6.0648085115165031 45.300193667853051 0 45.300193667853051 20.05137372760635 0 0 0 0 -11.102025073557343 -82.284258307834534 0 -82.284258307834534 444.07157773797189 0 0 0 0 91.901197989248431 171.7045393751082 0 171.7045393751082 8.8477768545999425 0 0 0 0 -17.338194167959045 -20.560705080811658 0 -20.560705080811658 142.28144574926409 0 0 0 0 -147.16231287239725 -49.182613569845671 0 -49.182613569845671 283.24373903682681 0 0 0 0 -62.999707690089963 6.6746699192735832 0 6.6746699192735832 199.68839781988663 0 0 0 0 -52.121880999648511 10.163851608115465 0 10.163851608115465 114.26173790174744 0 0 0 0 -7.2768265906461842 46.967313576979386 0 46.967313576979386 20.547965965646128 0 0 0 0 -59.067651302304512 -2.1516757101271651 0 -2.1516757101271651 440.74903905457541 0 0 0 0 -45.887165049753094 -217.73063214349168 0 -217.73063214349168 540.35319287463062 0 0 0 0 74.98706555674778 -76.287585290093375 0 -76.287585290093375 220.86318162710813 0 0 0 0 50.040075788868535 47.902576914834299 0 47.902576914834299 190.58935430251586 0 0 0 0 17.473696686390213 8.0037412801430037 0 8.0037412801430037 108.60334290606261 0 0 0 0 1.6665698263950617 119.02821585456422 0 119.02821585456422 -86.241159264616726 0 0 0 0 -104.39307366370667 31.871623258772161 0 31.871623258772161 195.67773719858087 0 0 0 0 -0.060384931445589984 0.17157223934730581 0 0.17157223934730581 -2.5599543701475298 0 0 0 0 -53.837087476653323 -135.33881924256275 0 -135.33881924256275 303.54133800326235 0 0 0 0 -12.434986082122123 -25.819570071751514 0 -25.819570071751514 60.519003387220437 0 0 0 0 -8.6819125345145949 25.014846287645923 0 25.014846287645923 180.36478059071669 0 0 0 0 -27.631723841339408 32.014361549419846 0 32.014361549419846 81.922794343729038 0 0 0 0 49.870657067043794 -59.528923781421327 0 -59.528923781421327 134.4375230558544 0 0 0 0 -7.3123097792586123 2.407636837404425 0 2.407636837404425 186.86627526219672 0 0 0 0 11.877663671829396 -63.179823170765303 0 -63.179823170765303 84.694350130321254 0 0 0 0 46.276365085081125 -66.74344868062326 0 -66.74344868062326 213.46297550639429 0 0 0 0 28.210852854193149 19.628556501975254 0 19.628556501975254 239.47470237530797 0 0 0 0 -19.239531696110134 149.41488490788106 0 149.41488490788106 147.55718105673805 0 0 0 0 88.502152767964617 173.0136846991154 0 173.0136846991154 -24.347496467351448 0 0 0 0 110.28850738670008 290.78762930614903 0 290.78762930614903 249.3390762133713 0 0 0 0 -91.108234064382941 36.323428821095149 0 36.323428821095149 698.51185871550842 0 0 0 0 123.22331541970016 21.7492761256417 0 21.7492761256417 -370.0120338134866 0 0 0 0 -0.79407161082403022 52.723407310068254 0 52.723407310068254 22.286510183442825 0 0 0 0 399.25324063857624 36.56905429049948 0 36.56905429049948 609.50155665364582 0 0 0 0 -57.228343567168849 -212.52308945106779 0 -212.52308945106779 636.7168346729477 0 0 0 0 174.32571935662236 -269.70498884693734 0 -269.70498884693734 401.91405284250504 0 0 0 0 126.76348625206145 106.04157140226266 0 106.04157140226266 74.872761520266067 0 0 0 0 0.62725202644590183 4.2116140702671743 0 4.2116140702671743 0.96785896763773849 0 0 0 0 -51.115491501073166 -37.29105412555964 0 -37.29105412555964 381.08631105559471 0 0 0 0 -105.95740144371939 43.437905926046369 0 43.437905926046369 704.35873959750461 0 0 0 0 109.55090891141845 -126.73344499514133 0 -126.73344499514133 258.97319733516269 0 0 0 0 -2.4919768943747975 3.1356150974714581 0 3.1356150974714581 9.9432096799767464 0 0 0 0 -4.6636093773885676 49.635526019158988 0 49.635526019158988 21.550714234377555 0 0 0 0 -3.2542588027617967 -39.232514419176823 0 -39.232514419176823 -28.424011518713087 0 0 0 0 -7.1522712015639627 -12.078024931867731 0 -12.078024931867731 113.48564316712782 0 0 0 0 154.58486310915032 -113.29605518632161 0 -113.29605518632161 165.07327085526777 0 0 0 0 67.607242693586159 99.336423053609906 0 99.336423053609906 548.68625776185945 0 0 0 0 -42.000131802775286 4.1782925776788034 0 4.1782925776788034 60.212192952222722 0 0 0 0 -19.514343552669743 -126.22503980080364 0 -126.22503980080364 36.45026587133907 0 0 0 0 -0.59431104713341298 0.33153819948483942 0 0.33153819948483942 0.38347720292880183 0 0 0 0 -37.700808579647855 -21.915562611968198 0 -21.915562611968198 218.08804853675247 0 0 0 0 -14.780882629145708 -158.27377892516233 0 -158.27377892516233 252.13249754760182 0 0 0 0 -35.67604195637432 22.474994146621611 0 22.474994146621611 83.037555932271061 0 0 0 0 -60.299131583402982 47.909789652693462 0 47.909789652693462 75.553699557982327 0 0 0 0 -54.797821214473515 -7.3748067517408344 0 -7.3748067517408344 106.05454306083629 0 0 0 0 50.140005559445171 -115.16699943226467 0 -115.16699943226467 114.99721618751209 0 0 0 0 1.2977789734650287 30.718544600909809 0 30.718544600909809 112.23406529916974 0 0 0 0 -25.073899844386268 18.479066895609996 0 18.479066895609996 134.07331221813536 0 0 0 0 96.864953500220508 10.030636379709904 0 10.030636379709904 254.74423038077657 0 0 0 0 -53.900079771151468 -35.065140126729602 0 -35.065140126729602 233.42411184436787 0 0 0 0 -0.5892150302809398 -4.0146943107632183 0 -4.0146943107632183 24.567765230992421 0 0 0 0 -34.581580800444499 47.102972332228092 0 47.102972332228092 44.302089805474679 0 0 0 0 -35.730268662438164 23.671206872777134 0 23.671206872777134 63.350604705927253 0 0 0 0 3.5476777702624531 22.57501294141548 0 22.57501294141548 58.652329966735124 0 0 0 0 -12.810797396592534 13.869540813731874 0 13.869540813731874 80.10509116447065 0 0 0 0 -11.720995406431065 29.746560058813163 0 29.746560058813163 45.200775537883089 0 0 0 0 -17.805172214565353 37.535415519554377 0 37.535415519554377 53.495868028981185 0 0 0 0 -27.581536305700865 -74.000939228531934 0 -74.000939228531934 -114.55203980248189 0 0 0 0 -1084.3504756248876 1255.8299878969265 0 1255.8299878969265 968.11684280468035 0 0 0 0 -19.220956646076239 37.022820581479365 0 37.022820581479365 66.889265779608436 0 0 0 0 -186.71405286125082 380.344627819999 0 380.344627819999 -77.516022895346396 0 0 0 0 218.9418825849134 -487.01053121544828 0 -487.01053121544828 485.58735401846207 0 0 0 0 -0.45721835597244009 4.0837206314002259 0 4.0837206314002259 13.714462660845527 0 0 0 0 -79.767709279232804 259.18434633023571 0 259.18434633023571 -289.50287530036439 0 0 0 0 8.1192236239730846 75.387209136402817 0 75.387209136402817 -168.33036686020205 0 0 0 0 -100.35101257029419 257.16396232559418 0 257.16396232559418 -24.618643198657082 0 0 0 0 -213.28812607899999 339.61800495556963 0 339.61800495556963 73.424705137847923 0 0 0 0 -39.388671698190592 198.75859889520507 0 198.75859889520507 31.273173322872026 0 0 0 0 -68.797034669583809 272.28892862176872 0 272.28892862176872 -64.187827004483552 0 0 0 0 -47.904734588108113 191.21623446181184 0 191.21623446181184 65.243917903615511 0 0 0 0 -4.0538409278087784 158.82546494797862 0 158.82546494797862 88.544446220199461 0 0 0 0 -1.5348885077758325 4.0396504124806825 0 4.0396504124806825 33.650647793926709 0 0 0 0 -139.80726482638056 239.91352045003441 0 239.91352045003441 159.58086997889041 0 0 0 0 -30.435837467799502 2.9621101536540664 0 2.9621101536540664 195.70370610013197 0 0 0 0 579.06390082291455 -984.59542726643485 0 -984.59542726643485 732.72230477108678 0 0 0 0 -22.934664080610915 76.775319085539834 0 76.775319085539834 50.953237153861039 0 0 0 0 -194.15923875212502 292.09269753228727 0 292.09269753228727 110.26469853729941 0 0 0 0 246.9409668927874 20.811258848305442 0 20.811258848305442 190.36555618603234 0 0 0 0 239.52268382154034 -232.75178749718179 0 -232.75178749718179 329.2247573195491 0 0 0 0 172.53963972006204 -19.723618854855886 0 -19.723618854855886 65.097492667871165 0 0 0 0 38.41043730031015 139.15448643775744 0 139.15448643775744 -37.767921340535395 0 0 0 0 190.29526990154955 -78.818947986546846 0 -78.818947986546846 28.316772642123397 0 0 0 0 -41.232393569098349 33.264048718905542 0 33.264048718905542 84.610873901292507 0 0 0 0 18.378399303785045 98.275694756077428 0 98.275694756077428 -114.36410831593093 0 0 0 0 -145.71163023719237 145.32922356956988 0 145.32922356956988 -53.172792731347727 0 0 0 0 -247.8904647644049 5.7639853679138469 0 5.7639853679138469 -236.8340274709808 0 0 0 0 -282.22058226765876 142.08014214632567 0 142.08014214632567 16.118709611313534 0 0 0 0 24.263093085850414 94.179316072404617 0 94.179316072404617 -40.569423282810021 0 0 0 0 -153.37212706197533 110.97482400324225 0 110.97482400324225 91.323056845198153 0 0 0 0 -19.775293912754933 94.319532112589513 0 94.319532112589513 125.39861280872719 0 0 0 0 281.01146853633327 -9.7308491363946814 0 -9.7308491363946814 168.8715882171964 0 0 0 0 59.182915686011256 -74.90573020921147 0 -74.90573020921147 183.16193669554923 0 0 0 0 41.860961665882087 108.02532458675159 0 108.02532458675159 47.918804689717945 0 0 0 0 -49.698298114130012 -86.112601619250199 0 -86.112601619250199 237.15892577778141 0 0 0 0 -378.33419664802932 66.492856137032504 0 66.492856137032504 83.848297963122604 0 0 0 0 -107.13109544558483 131.75737235211272 0 131.75737235211272 -193.10286909640126 0 0 0 0 -145.61483934315402 308.94903237174367 0 308.94903237174367 -171.54966079679434 0 0 0 0 -24.55093689960075 -2.3439872093115515 0 -2.3439872093115515 119.31787637998542 0 0 0 0 -444.0881002699407 332.70028732147875 0 332.70028732147875 -49.356690976972459 0 0 0 0 194.52939409879764 -199.89575582896941 0 -199.89575582896941 197.65558347019032 0 0 0 0 3.9641015342523929 16.272738801123005 0 16.272738801123005 31.123791914946196 0 0 0 0 223.13901447635362 -118.37752327291309 0 -118.37752327291309 161.04059934787801 0 0 0 0 -109.18279841803087 -127.62700797673824 0 -127.62700797673824 222.49266726139467 0 0 0 0 -189.92462346621141 25.157498356355063 0 25.157498356355063 152.71313847965212 0 0 0 0 -100.22126463387917 -76.196570215542124 0 -76.196570215542124 106.41364500805503 0 0 0 0 -114.56048347912497 -61.403591806591066 0 -61.403591806591066 220.60143659517053 0 0 0 0 19.20015666129747 9.4606002912230593 0 9.4606002912230593 64.846648149802746 0 0 0 0 -26.285718165640901 157.33348716684122 0 157.33348716684122 -12.566372913812302 0 0 0 0 262.23890580731313 -137.95489631399687 0 -137.95489631399687 155.19462953410221 0 0 0 0 -362.03152697487531 321.6929858337171 0 321.6929858337171 77.997310263308464 0 0 0 0 -22.256542463293005 -6.296070162209741 0 -6.296070162209741 86.351771765704541 0 0 0 0 -73.603990378405797 104.84955095896294 0 104.84955095896294 -89.895469769107876 0 0 0 0 -371.95530786814925 226.44932102946768 0 226.44932102946768 212.57130172435427 0 0 0 0 186.7078268241803 80.36077344214209 0 80.36077344214209 70.177790665919019 0 0 0 0 -18.385605886503718 6.0184672445674501 0 6.0184672445674501 116.22136159644873 0 0 0 0 347.34305015494101 -344.05552317586262 0 -344.05552317586262 259.61084451164425 0 0 0 0 81.06390485841257 6.8199598558130674 0 6.8199598558130674 196.45654830607782 0 0 0 0 -115.98157303959033 -60.277317823144585 0 -60.277317823144585 265.41747453321295 0 0 0 0 -62.290973040566314 129.87635212067835 0 129.87635212067835 35.934096930068335 0 0 0 0 135.2708488494402 -297.95825905745733 0 -297.95825905745733 394.8024363181321 0 0 0 0 5.0414685331597866 29.7464223728457 0 29.7464223728457 425.75664833240444 0 0 0 0 161.01746793206985 -216.2057918656792 0 -216.2057918656792 542.18442566505109 0 0 0 0 212.25367849380382 -424.48288185946149 0 -424.48288185946149 462.96275110587158 0 0 0 0 581.62900491129039 -487.82751920381997 0 -487.82751920381997 426.48666968319594 0 0 0 0 63.67990693392494 27.130094754029415 0 27.130094754029415 12.340447527159995 0 0 0 0 463.48383570873557 -557.11090592370601 0 -557.11090592370601 586.17536316359474 0 0 0 0 2.5102277006325551 0.18849428942479562 0 0.18849428942479562 3.9733068922521824 0 0 0 0 703.92104832209225 -658.31763586582383 0 -658.31763586582383 625.2664104048381 0 0 0 0 553.49352590985836 35.753035857233044 0 35.753035857233044 554.88160988633899 0 0 0 0 345.02687478549888 -539.24150902833935 0 -539.24150902833935 927.21452997936285 0 0 0 0 -55.696472960731626 7.9192195631512732 0 7.9192195631512732 250.53163423024853 0 0 0 0 -94.849526004900781 -24.346292784983234 0 -24.346292784983234 232.45005533553194 0 0 0 0 -58.231160300755164 38.71787466727983 0 38.71787466727983 166.5563914829072 0 0 0 0 52.333803083934072 -35.262578043912072 0 -35.262578043912072 9.870253819739446 0 0 0 0 4.3137322589169607 -3.3785984367379598 0 -3.3785984367379598 -1.3468123413956263 0 0 0 0 219.20695077269284 -203.94111443558359 0 -203.94111443558359 -85.998800325556658 0 0 0 0 3.415895854035579 -3.1974569288445025 0 -3.1974569288445025 1.4631449654564435 0 0 0 0 -41.615462323941756 -46.195755916171038 0 -46.195755916171038 188.48769013657875 0 0 0 0 33.575566228643765 -17.357396743940626 0 -17.357396743940626 -28.891076964508102 0 0 0 0 -56.674644756136331 7.3442993335120264 0 7.3442993335120264 51.387535040425973 0 0 0 0 44.146914105200267 -86.870568816339073 0 -86.870568816339073 -68.014679809764857 0 0 0 0 1.0068584960799853 -1.5061203985734863 0 -1.5061203985734863 0.65184285238190753 0 0 0 0 -21.104399855355496 84.351729777121363 0 84.351729777121363 104.20838574695517 0 0 0 0 -79.366939028113848 50.293573954346357 0 50.293573954346357 330.73062833023505 0 0 0 0 -20.903926920967933 19.287799885794811 0 19.287799885794811 173.89841382946724 0 0 0 0 12.314346731856858 -23.535667932996148 0 -23.535667932996148 194.00167458372744 0 0 0 0 34.827389080411194 29.831244473294646 0 29.831244473294646 175.29200807958114 0 0 0 0 -47.491298956602805 -0.2226758992219402 0 -0.2226758992219402 185.23865039707744 0 0 0 0 -34.738078140237121 54.515527582771028 0 54.515527582771028 148.63960678114722 0 0 0 0 -2.1934709319739341 11.870718936545018 0 11.870718936545018 146.55996449857048 0 0 0 0 -9.3030759373712044 62.276788271940859 0 62.276788271940859 125.56657718695351 0 0 0 0 -19.415472989996488 92.230901479983004 0 92.230901479983004 53.386655396996503 0 0 0 0 5.6825922935950075 3.7237186599049892 0 3.7237186599049892 41.749173096533923 0 0 0 0 696.31809397700999 42.209441309809336 0 42.209441309809336 83.269213288436731 0 0 0 0 149.39725708610422 -553.09989929748554 0 -553.09989929748554 517.20546352714882 0 0 0 0 10.406015195116781 -11.173545723826585 0 -11.173545723826585 20.750231083348922 0 0 0 0 -57.411559901034707 119.04550174446922 0 119.04550174446922 104.68415884974092 0 0 0 0 -50.975709318262489 93.514924529408745 0 93.514924529408745 196.90360997864627 0 0 0 0 -1685.5247997313418 -323.9359342532407 0 -323.9359342532407 640.23982295169117 0 0 0 0 -60.42978813411537 43.513885830954678 0 43.513885830954678 201.29183703675517 0 0 0 0 -76.133308250467962 47.723552067021956 0 47.723552067021956 228.86374429807256 0 0 0 0 -44.103321074609994 69.740195121026773 0 69.740195121026773 129.86054923644406 0 0 0 0 -82.331214931063187 -6.521718368789152 0 -6.521718368789152 126.57393843079717 0 0 0 0 -21.296000861850189 42.629504356877078 0 42.629504356877078 137.60223085560574 0 0 0 0 -26.264376025665115 62.759953419506928 0 62.759953419506928 196.41348740369722 0 0 0 0 12.06508632074565 38.913876563341546 0 38.913876563341546 70.813971747022151 0 0 0 0 -13.160087803179977 -1.3162035403656773 0 -1.3162035403656773 87.552032772181519 0 0 0 0 -0.32127767966751808 -10.486703537061761 0 -10.486703537061761 23.234396130320249 0 0 0 0 32.371033797371183 -22.05757982747491 0 -22.05757982747491 6.9084549092513043 0 0 0 0 -3.7455412507724262 -8.8817137257126788 0 -8.8817137257126788 17.795104630879223 0 0 0 0 13.790592802424726 41.963848382411015 0 41.963848382411015 75.529388497794571 0 0 0 0 -20.184927517840606 6.5139321790293252 0 6.5139321790293252 86.268810613859387 0 0 0 0 -48.404543557687248 -97.49804857568779 0 -97.49804857568779 -8.3476782637262659 0 0 0 0 23.383670482107846 -41.927691006803798 0 -41.927691006803798 33.810646438378171 0 0 0 0 -15.913632851327179 -7.1976400760030685 0 -7.1976400760030685 4.5116154368099899 0 0 0 0 -36.074962493757994 -43.151980670332705 0 -43.151980670332705 47.853669800420903 0 0 0 0 -9.4949236689230929 -9.3365635834852583 0 -9.3365635834852583 37.479636218828091 0 0 0 0 -68.566545490189128 36.332720880807756 0 36.332720880807756 41.494108698270793 0 0 0 0 -5.7378436186563171 -1.0393501297897387 0 -1.0393501297897387 -0.79358312784444962 0 0 0 0 -23.564280215260169 -8.0777133213209709 0 -8.0777133213209709 83.82790840358939 0 0 0 0 51.586523687721638 175.43706823884349 0 175.43706823884349 -75.138425686265691 0 0 0 0 -257.2527887157994 101.07055659956131 0 101.07055659956131 150.68505748020834 0 0 0 0 -25.877831604690684 -4.1534438684542678 0 -4.1534438684542678 111.8265816545493 0 0 0 0 10.321853231414934 -239.96857939904294 0 -239.96857939904294 279.89848643580626 0 0 0 0 -156.44733379777244 -31.420952552489325 0 -31.420952552489325 181.80186662377673 0 0 0 0 -117.13084515399896 -48.946657649754343 0 -48.946657649754343 72.20690092004952 0 0 0 0 -27.637601389348639 -9.7797083042318835 0 -9.7797083042318835 98.211165809153783 0 0 0 0 119.40825371620667 -85.954801617066551 0 -85.954801617066551 72.196115913589892 0 0 0 0 37.372957973449957 -60.595469705840515 0 -60.595469705840515 64.362699158918986 0 0 0 0 312.67225017272904 -189.89022366941572 0 -189.89022366941572 92.891403853529482 0 0 0 0 184.46251606466103 -257.55687664353172 0 -257.55687664353172 352.62482637070934 0 0 0 0 -2.4766825860350252 2.7824006097003178 0 2.7824006097003178 4.0092633009325169 0 0 0 0 30.697099555043678 -58.929495454323842 0 -58.929495454323842 98.501357542394544 0 0 0 0 -33.896048644712344 -14.369330114614108 0 -14.369330114614108 80.496390565330302 0 0 0 0 -254.73748725674704 327.65301454479777 0 327.65301454479777 811.0637923219183 0 0 0 0 124.40413419758261 -143.12876138207503 0 -143.12876138207503 151.26250014640391 0 0 0 0 103.34441147697362 -152.77821141877212 0 -152.77821141877212 198.90491432574345 0 0 0 0 7.0116244727138195 -7.8637108257640591 0 -7.8637108257640591 20.763751651761837 0 0 0 0 95.761269962461483 -130.76048545870617 0 -130.76048545870617 -832.27524868208275 0 0 0 0 -169.2736792462656 -74.274118705972796 0 -74.274118705972796 545.56342991672864 0 0 0 0 -31.203378997859545 -434.34515450906838 0 -434.34515450906838 213.28852268440824 0 0 0 0 -213.52469294348384 -66.448007099228562 0 -66.448007099228562 186.59053376602242 0 0 0 0 -17.902547727416543 -12.011209626201349 0 -12.011209626201349 32.678623048084425 0 0 0 0 83.179776544207925 -284.48512534958354 0 -284.48512534958354 -228.17925400877357 0 0 0 0 -95.677604546081056 1.3833714033280557 0 1.3833714033280557 30.468264721464948 0 0 0 0 -25.298403382513698 39.47355460426661 0 39.47355460426661 71.159163102332968 0 0 0 0 -16.169797155680499 22.998617578585254 0 22.998617578585254 92.807844989336445 0 0 0 0 1.3995299054023906 -1.9188768787930854 0 -1.9188768787930854 6.268446007852134 0 0 0 0 161.11446818324293 -6.099456667285267 0 -6.099456667285267 -114.7328338551124 0 0 0 0 167.41208945090602 248.74579656104834 0 248.74579656104834 296.20527459530422 0 0 0 0 53.822924131733089 40.016734111901314 0 40.016734111901314 64.651005015381088 0 0 0 0 101.61314949071493 48.345021299166547 0 48.345021299166547 20.911899466213072 0 0 0 0 -22.323092849814202 -22.046211807120926 0 -22.046211807120926 44.893712501710979 0 0 0 0 158.06719390096441 9.1859304268600681 0 9.1859304268600681 -12.900287656637374 0 0 0 0 80.285201904178393 -39.667133905109949 0 -39.667133905109949 22.246568625945656 0 0 0 0 292.50590195191558 -447.15863966994493 0 -447.15863966994493 412.21749631872808 0 0 0 0 119.85638209207355 -78.939384188277472 0 -78.939384188277472 -95.242449520359514 0 0 0 0 -150.14556000388438 -73.781603441711923 0 -73.781603441711923 241.52969179209322 0 0 0 0 667.41482324719891 -99.718376925216944 0 -99.718376925216944 -18.150867511525576 0 0 0 0 5.854322422261717 -5.0210108893032981 0 -5.0210108893032981 1.2102654201382279 0 0 0 0 -102.99860225894008 -228.62703867967866 0 -228.62703867967866 576.48975382847129 0 0 0 0 174.84690306326229 -240.31693415244081 0 -240.31693415244081 102.66624496933946 0 0 0 0 421.86869973396824 -436.34104577235121 0 -436.34104577235121 162.52883612678852 0 0 0 0 235.25746522384361 -260.80608643483538 0 -260.80608643483538 106.73737720825739 0 0 0 0 258.74301856448437 -213.16157334423042 0 -213.16157334423042 164.55657407639228 0 0 0 0 234.43826268258817 -123.37154135722085 0 -123.37154135722085 59.210165358308586 0 0 0 0 245.6782206148946 -98.754756240807183 0 -98.754756240807183 103.13410186447436 0 0 0 0 115.26149688441365 -42.136557462217752 0 -42.136557462217752 63.940558031230466 0 0 0 0 50.528810796618927 -10.030182668480847 0 -10.030182668480847 45.249681148390664 0 0 0 0 104.27325848787586 -62.094540770442109 0 -62.094540770442109 28.125291116224616 0 0 0 0 65.525278238244937 -18.026681940285926 0 -18.026681940285926 28.846322678378783 0 0 0 0 135.08337507865235 -27.619237931059615 0 -27.619237931059615 -9.4537763350090245 0 0 0 0 51.851535584399244 -62.506290193683526 0 -62.506290193683526 63.083720019742032 0 0 0 0 279.24105218677641 -131.61166776067512 0 -131.61166776067512 36.349112264855648 0 0 0 0 -13.140636446200006 -128.63952963080374 0 -128.63952963080374 -81.895486885667196 0 0 0 0 10.253531578432792 -10.724586196198416 0 -10.724586196198416 7.7274985213533682 0 0 0 0 49.777126326706366 -32.949492454908977 0 -32.949492454908977 24.862915800636983 0 0 0 0 29.237761374994079 -44.774130674013577 0 -44.774130674013577 12.481117191899102 0 0 0 0 -7.1724414243471983 16.41884573490097 0 16.41884573490097 -0.53049261352862231 0 0 0 0 2.1511502101857332 8.6434474815760041 0 8.6434474815760041 -17.761721297865734 0 0 0 0 10.775849236485168 -14.308858022205307 0 -14.308858022205307 10.048238367315918 0 0 0 0 3.9124414297075418 -33.065195195427805 0 -33.065195195427805 24.653424844613255 0 0 0 0 0.52191906977063596 -4.8766545280713132 0 -4.8766545280713132 5.8401800159091977 0 0 0 0 33.260352012155636 -30.064700029710366 0 -30.064700029710366 23.211420214553073 0 0 0 0 21.807376218608628 -23.194641270101599 0 -23.194641270101599 8.8209389236646416 0 0 0 0 -3.3518013458105997 -50.076020952634281 0 -50.076020952634281 -188.93264178084792 0 0 0 0 -107.04971563905929 -123.28449318332423 0 -123.28449318332423 91.616596373860375 0 0 0 0 98.989657774591251 55.39439123939519 0 55.39439123939519 33.569418158105691 0 0 0 0 -88.199899903756773 -182.70457721141793 0 -182.70457721141793 1180.2556608508603 0 0 0 0 63.126092804903124 116.12406988029397 0 116.12406988029397 982.18689356049799 0 0 0 0 24.834844694547428 -308.40343504039993 0 -308.40343504039993 835.44938476384414 0 0 0 0 95.899189485660258 10.270552238340315 0 10.270552238340315 14.077368771002511 0 0 0 0 -197.34122331745084 -240.92487751930457 0 -240.92487751930457 561.75384760891029 0 0 0 0 -116.23151155196911 -218.94800630342797 0 -218.94800630342797 -27.773142437297793 0 0 0 0 7.2850147185527021 -16.941512308636447 0 -16.941512308636447 13.427116635342827 0 0 0 0 10.426878366000107 -4.6333686270436516 0 -4.6333686270436516 -10.948655885504536 0 0 0 0 12.877478075046383 -16.881946964917006 0 -16.881946964917006 -30.575067640922498 0 0 0 0 18.855742010987377 -12.752731235080716 0 -12.752731235080716 -5.3298000547263342 0 0 0 0 37.522078342922555 -16.929544391607372 0 -16.929544391607372 -24.788964097329426 0 0 0 0 14.766371853540228 -35.292008289564521 0 -35.292008289564521 37.281555756126295 0 0 0 0 26.58254283644132 -16.896259863784977 0 -16.896259863784977 0.91611233130477387 0 0 0 0 15.279258983187901 -13.504743227851577 0 -13.504743227851577 -12.090563814970665 0 0 0 0 18.358322046496141 -18.149938780297816 0 -18.149938780297816 -6.2999893993983278 0 0 0 0 2.005059555216651 -5.5411353389931151 0 -5.5411353389931151 9.9838110751327775 0 0 0 0 234.33843095341763 105.96173311100938 0 105.96173311100938 -267.24763498180255 0 0 0 0 -1.862219991049642 -181.4607393827464 0 -181.4607393827464 -157.80845421686536 0 0 0 0 52.69500649313251 20.432381202823763 0 20.432381202823763 -96.763020229016547 0 0 0 0 23.144879651482906 -0.23263933509498003 0 -0.23263933509498003 -23.72982852915024 0 0 0 0 -10.660867754002538 23.429935452750215 0 23.429935452750215 -32.731751329803956 0 0 0 0 40.965666884278335 -71.59210115436872 0 -71.59210115436872 51.615106152843509 0 0 0 0 5.1297069384599681 5.3734398305435604 0 5.3734398305435604 -7.0977678868366354 0 0 0 0 112.13741996049725 77.571267371589784 0 77.571267371589784 -55.724612472375156 0 0 0 0 2.4411935212162081 -1.1286713534429396 0 -1.1286713534429396 0.58270225921862107 0 0 0 0 7.983837831472556 16.062724489605898 0 16.062724489605898 85.723123830633995 0 0 0 0 -11.653531751637729 -18.252438147232169 0 -18.252438147232169 30.263413460328593 0 0 0 0 446.27701030866211 -12.104630706635362 0 -12.104630706635362 -30.15855168816779 0 0 0 0 -11.96200642306485 -98.636619726596109 0 -98.636619726596109 -28.94801947275846 0 0 0 0 69.572416653207256 34.426313461655809 0 34.426313461655809 -42.934875550530705 0 0 0 0 32.701810994802187 3.0229976400050873 0 3.0229976400050873 -14.33450158652613 0 0 0 0 -30.947234902445189 33.347961319026581 0 33.347961319026581 10.377101377845975 0 0 0 0 0.70133412813811447 43.491948929520731 0 43.491948929520731 2.4664950142905582 0 0 0 0 64.416508840087772 -3.4271340722334571 0 -3.4271340722334571 -37.881343586734147 0 0 0 0 125.5602438547412 -24.010220001138805 0 -24.010220001138805 -8.2793598866264801 0 0 0 0 27.212113011632482 -39.699063321100766 0 -39.699063321100766 15.337262453467702 0 0 0 0 207.03564982509488 -104.66158852179069 0 -104.66158852179069 49.428036997349409 0 0 0 0 108.14570995545364 -43.935669692597003 0 -43.935669692597003 64.445031332893905 0 0 0 0 126.5784183662181 -8.9809391916824097 0 -8.9809391916824097 22.069656305582612 0 0 0 0 72.984265702409175 -38.712814890550362 0 -38.712814890550362 10.18242553199525 0 0 0 0 122.68515216386004 6.1955136092983594 0 6.1955136092983594 -69.272658677313302 0 0 0 0 63.564897962127418 -9.7730459162519026 0 -9.7730459162519026 -10.87099415929471 0 0 0 0 549.21278742703703 -1432.0358179794457 0 -1432.0358179794457 2724.6335672251444 0 0 0 0 234.89367858646457 476.92689380474258 0 476.92689380474258 1539.1837370527064 0 0 0 0 8.5814735208930255 -5.155249174672818 0 -5.155249174672818 10.651450778651864 0 0 0 0 371.36330591995056 -724.3923761991573 0 -724.3923761991573 3023.1044700688726 0 0 0 0 145.08827626509049 -360.10206889968413 0 -360.10206889968413 3137.3171811487191 0 0 0 0 -225.74208319385258 -420.60869563063352 0 -420.60869563063352 3498.4711729754526 0 0 0 0 3.5173541219621143 2.6763837328617228 0 2.6763837328617228 -0.050324430582790569 0 0 0 0 308.5390150607987 -496.81201460328157 0 -496.81201460328157 1683.6139296904657 0 0 0 0 6.0101056723941086 -586.08756794257113 0 -586.08756794257113 2418.3674167517383 0 0 0 0 7.6737941526708937 -488.04946984809067 0 -488.04946984809067 3257.6534220592403 0 0 0 0 -50.350573405161754 -462.82573723640235 0 -462.82573723640235 2378.9322238321984 0 0 0 0 195.9012216018865 -326.22978821568722 0 -326.22978821568722 1839.8678687397842 0 0 0 0 97.027568708726108 -409.73250911911236 0 -409.73250911911236 1883.1725238990639 0 0 0 0 -343.08304916207851 -113.42392717791881 0 -113.42392717791881 3061.627604737816 0 0 0 0 -343.73883066653968 -30.457072786762723 0 -30.457072786762723 2622.9576975328964 0 0 0 0 -616.61097014062409 293.56387729057678 0 293.56387729057678 3501.5908903124678 0 0 0 0 -453.01572987801825 702.81799456894896 0 702.81799456894896 2434.1381964189713 0 0 0 0 -162.10364647968356 246.88805343052081 0 246.88805343052081 2241.4656604121737 0 0 0 0 -226.38217969261848 94.267877132173453 0 94.267877132173453 2128.9898402768122 0 0 0 0 102.75666035477843 -68.321548260511918 0 -68.321548260511918 81.662214205876808 0 0 0 0 117.51723232692893 -88.521165189587919 0 -88.521165189587919 186.98366744515079 0 0 0 0 117.55257091562089 -81.015713845205028 0 -81.015713845205028 66.808175858895993 0 0 0 0 179.18766156381025 -66.63938184815197 0 -66.63938184815197 73.508984823856736 0 0 0 0 72.837074567825766 -149.3904170061287 0 -149.3904170061287 211.97227678165655 0 0 0 0 217.76221837097546 -89.710767662611033 0 -89.710767662611033 55.330734927585581 0 0 0 0 1.2895530616967292 -29.781190970762392 0 -29.781190970762392 49.624567930632651 0 0 0 0 -4.2727939832257107 -45.163044843706302 0 -45.163044843706302 114.61409559201275 0 0 0 0 -12.80796595679216 -12.391044788784086 0 -12.391044788784086 20.10105257746774 0 0 0 0 -2.3405652274254827 -17.213064307153353 0 -17.213064307153353 52.446674161478995 0 0 0 0 37.00552611805324 -10.236538728111555 0 -10.236538728111555 71.656677756916906 0 0 0 0 -19.022500991468405 -21.261146049029776 0 -21.261146049029776 36.857603670250683 0 0 0 0 -17.438787817814529 -12.275361436656283 0 -12.275361436656283 47.770708071932845 0 0 0 0 31.428411035506542 -19.475485177244991 0 -19.475485177244991 60.578326507871679 0 0 0 0 16.821390331082512 -7.946807115291449 0 -7.946807115291449 84.390054521238199 0 0 0 0 8.5644898441314581 1.5950742690547486 0 1.5950742690547486 86.718951890255994 0 0 0 0 5.4056036186943572 -16.951740216883522 0 -16.951740216883522 25.24121584741841 0 0 0 0 -0.53950253882794641 -8.4679946148326053 0 -8.4679946148326053 26.429444685738417 0 0 0 0 -5.7861932814666943 -22.15943957111449 0 -22.15943957111449 48.761500313888973 0 0 0 0 4.3101193927564942 -12.007754901627848 0 -12.007754901627848 34.906009228707077 0 0 0 0 -10.88666318200103 -5.6079089884469795 0 -5.6079089884469795 78.735667980803555 0 0 0 0 -10.54286077099033 -0.84587998120931474 0 -0.84587998120931474 28.817993846599634 0 0 0 0 1.5260779707214169 -2.6577152419294023 0 -2.6577152419294023 23.310532425124059 0 0 0 0 -3.5236366707481466 0.37344151378147217 0 0.37344151378147217 53.666104846950475 0 0 0 0 -10.20257703618244 -1.5800586528075975 0 -1.5800586528075975 47.931445145674843 0 0 0 0 -19.844922567157987 -11.801699829612792 0 -11.801699829612792 52.364674768772545 0 0 0 0 -11.620776002038838 -24.835299217304055 0 -24.835299217304055 65.222639023275406 0 0 0 0 102.05343023186254 -102.76183282371915 0 -102.76183282371915 106.68778054052382 0 0 0 0 -7.1348908934924111 -18.098903167487151 0 -18.098903167487151 55.964503916155081 0 0 0 0 4.6460894988267682 -33.273079341946868 0 -33.273079341946868 47.653238737868378 0 0 0 0 -18.423589356075084 -21.295755461256149 0 -21.295755461256149 51.525255907910186 0 0 0 0 2.4761869943129113 -35.847251029730408 0 -35.847251029730408 51.997730024903817 0 0 0 0 -4.2288729830731597 -12.537370437203293 0 -12.537370437203293 16.05142785924501 0 0 0 0 37.955527670252195 -36.792258359906555 0 -36.792258359906555 84.334147661575116 0 0 0 0 -16.246015610419278 -11.777282340473832 0 -11.777282340473832 48.273615166070954 0 0 0 0 74.358262456502416 -96.550321497983532 0 -96.550321497983532 180.19997792325739 0 0 0 0 110.7282267188275 -137.76745899532398 0 -137.76745899532398 158.35585318149242 0 0 0 0 80.69881323640584 -97.645054215827258 0 -97.645054215827258 122.65487838400441 0 0 0 0 104.5195633827243 -125.74222629953874 0 -125.74222629953874 149.81061532712192 0 0 0 0 123.30440929103861 -134.98475821376633 0 -134.98475821376633 151.55942684692855 0 0 0 0 117.22447509948688 -116.58529729399015 0 -116.58529729399015 125.41633164732775 0 0 0 0 122.98929395063169 -128.34018331969855 0 -128.34018331969855 132.95554132183315 0 0 0 0 122.52714133073459 -126.40310097009205 0 -126.40310097009205 119.51291886712715 0 0 0 0 113.43241509732252 -106.54558318226736 0 -106.54558318226736 87.101967665294069 0 0 0 0 107.11202970932209 -113.49479783838615 0 -113.49479783838615 129.40392555620929 0 0 0 0 162.73273876753956 -111.51896096844575 0 -111.51896096844575 136.08571616192057 0 0 0 0 206.2798112025921 -129.82659752368636 0 -129.82659752368636 88.006184742349433 0 0 0 0 142.60161447611608 -88.879980046025594 0 -88.879980046025594 75.363420688187034 0 0 0 0 196.04873209315338 -109.83957739455582 0 -109.83957739455582 27.852364372534794 0 0 0 0 56.552508197379211 -37.214612886149553 0 -37.214612886149553 53.590167619295244 0 0 0 0 111.0928111714602 -86.944187374967441 0 -86.944187374967441 83.199904633118422 0 0 0 0 -4.3436683945798578 -1.0793732142386609 0 -1.0793732142386609 3.5499109949325884 0 0 0 0 114.63563141637133 -99.04441588017653 0 -99.04441588017653 87.314986564336095 0 0 0 0 114.87610913442768 -101.06504313164623 0 -101.06504313164623 100.8239136733464 0 0 0 0 126.16170348316155 -101.49637379732303 0 -101.49637379732303 46.415894839490647 0 0 0 0 131.42029222923702 -59.546463583916193 0 -59.546463583916193 -5.1814625657643774 0 0 0 0 12.263990150029628 -11.066792237992292 0 -11.066792237992292 10.165366990048454 0 0 0 0 103.27664821263897 -63.050551408918636 0 -63.050551408918636 91.161698964162497 0 0 0 0 80.915387755079792 -9.473476083635461 0 -9.473476083635461 -10.98894505652342 0 0 0 0 104.47496394853442 -48.657445369724883 0 -48.657445369724883 57.884504141249636 0 0 0 0 -9.9465695880132756 -516.94375226275224 0 -516.94375226275224 2219.0745022125284 0 0 0 0 182.04650574822509 -1081.5733443583777 0 -1081.5733443583777 2579.5175155981087 0 0 0 0 -149.7205846632003 -937.3357861933182 0 -937.3357861933182 3500.9612744911478 0 0 0 0 278.96749704320376 -1097.8962488163797 0 -1097.8962488163797 2570.9800992706078 0 0 0 0 674.29387033281444 -1745.7229569447318 0 -1745.7229569447318 3579.4642650997048 0 0 0 0 36.929544993766946 -0.13549093612479979 0 -0.13549093612479979 -4.2279639136158238 0 0 0 0 38.074923269461578 -25.837346669715771 0 -25.837346669715771 20.466428047096997 0 0 0 0 33.658280805809184 -33.272123526495776 0 -33.272123526495776 25.013324269046905 0 0 0 0 378.97483778694146 699.64266734521698 0 699.64266734521698 2229.9191591933923 0 0 0 0 55.966613410455153 -14.552018279538338 0 -14.552018279538338 3.1408539676857004 0 0 0 0 107.39847992885916 -49.60693816467392 0 -49.60693816467392 32.060614522099058 0 0 0 0 26.471973770759202 -41.917750629927582 0 -41.917750629927582 47.68873586590253 0 0 0 0 77.505064663728263 -73.661532814436214 0 -73.661532814436214 69.558994979335694 0 0 0 0 112.36604357834221 -93.544800320112699 0 -93.544800320112699 80.720806975878077 0 0 0 0 123.16415595399303 -66.296226591657614 0 -66.296226591657614 44.889475706724625 0 0 0 0 97.799301530274533 -71.756978455701756 0 -71.756978455701756 74.4037130085635 0 0 0 0 38.123860047035123 -35.448692711364856 0 -35.448692711364856 60.480822964475919 0 0 0 0 36.577297665341575 -31.673084649040902 0 -31.673084649040902 25.827414356310328 0 0 0 0 16.262690353888395 -13.929832172376932 0 -13.929832172376932 29.559313214469341 0 0 0 0 19.599435046722647 -17.505160630473256 0 -17.505160630473256 68.4228936267682 0 0 0 0 37.161872229383562 -29.301566357436059 0 -29.301566357436059 41.149750998563832 0 0 0 0 -552.91933931423591 -59.805032527961885 0 -59.805032527961885 3485.7583239191699 0 0 0 0 26.639969028354578 -11.961317717211742 0 -11.961317717211742 9.6064440815156544 0 0 0 0 581.27025099654054 496.1878747767114 0 496.1878747767114 82.199909463384756 0 0 0 0 48.869696542514305 -25.323850227608915 0 -25.323850227608915 16.503808243364897 0 0 0 0 13.453174542823112 -7.8832766107772123 0 -7.8832766107772123 10.093470877295019 0 0 0 0 -95.792277584163912 298.03134136414155 0 298.03134136414155 458.02247088936565 0 0 0 0 72.993355766112074 -1198.769708188076 0 -1198.769708188076 2472.1246568898532 0 0 0 0 -295.03159107986284 -88.373821136789047 0 -88.373821136789047 3470.3202674301006 0 0 0 0 -125.7519028018452 -586.20962108656568 0 -586.20962108656568 610.44623268643045 0 0 0 0 273.6300313120546 998.31047269106284 0 998.31047269106284 3933.4777276536333 0 0 0 0 13.288040942185445 1.8567237213110861 0 1.8567237213110861 3.3473054332491898 0 0 0 0 473.81311316658787 58.717459073715872 0 58.717459073715872 -358.61912679805391 0 0 0 0 12.691203976432007 -14.128524476978782 0 -14.128524476978782 41.376955002893737 0 0 0 0 9.3762140821973308 0.61570242737606762 0 0.61570242737606762 9.811080555213298 0 0 0 0 1777.5940240275968 1657.9333849691175 0 1657.9333849691175 3497.6590890145744 0 0 0 0 374.86570570470747 1279.0172649039869 0 1279.0172649039869 3529.4480790110756 0 0 0 0 1570.443236493752 2002.2597828950566 0 2002.2597828950566 1834.8351165170752 0 0 0 0 1318.0139470926479 390.03153138217203 0 390.03153138217203 -493.9671290028873 0 0 0 0 496.72703007866971 694.96910087677588 0 694.96910087677588 453.0384233176228 0 0 0 0 333.15788043506655 -27.168831449875142 0 -27.168831449875142 -106.1436292633598 0 0 0 0 628.57032544867184 567.05087737120994 0 567.05087737120994 569.36462808919168 0 0 0 0 3.3516296213912637 -8.3380988929651956 0 -8.3380988929651956 46.770369377700206 0 0 0 0 -316.56748288432345 -202.7246614283622 0 -202.7246614283622 493.54195772056664 0 0 0 0 -0.47024094593052723 -34.922732450408148 0 -34.922732450408148 51.783911040642124 0 0 0 0 17.905289699721834 -27.439531335057836 0 -27.439531335057836 28.61884504299087 0 0 0 0 -514.43713508927499 192.54918221296157 0 192.54918221296157 2311.2377832438669 0 0 0 0 -478.82094596225386 837.76174651286237 0 837.76174651286237 3501.3818310634815 0 0 0 0 370.76685555041701 1377.8596971734228 0 1377.8596971734228 2186.2268989027652 0 0 0 0 380.76203163418916 1206.7729147105174 0 1206.7729147105174 2194.6941797349209 0 0 0 0 198.75601931137504 417.04808767626128 0 417.04808767626128 1092.8551139863541 0 0 0 0 267.17495733818572 625.29398868134467 0 625.29398868134467 1094.5448359279544 0 0 0 0 124.15087752966954 772.39371688582014 0 772.39371688582014 1789.9132580744026 0 0 0 0 336.02517636936199 525.98690040369002 0 525.98690040369002 718.37950056363661 0 0 0 0 168.45094486792215 270.85317095172286 0 270.85317095172286 1332.2765435864767 0 0 0 0 240.94789070991033 416.30955840564775 0 416.30955840564775 1013.5887911516256 0 0 0 0 314.71632428209301 370.75532244989472 0 370.75532244989472 407.51401320182777 0 0 0 0 182.64545958067151 283.11109870082873 0 283.11109870082873 654.73941461394043 0 0 0 0 361.04715805496193 256.52829811049196 0 256.52829811049196 195.7726769203291 0 0 0 0 544.78390543476519 545.09043568486049 0 545.09043568486049 449.46416044842772 0 0 0 0 166.57590334416591 18.225282438813792 0 18.225282438813792 208.13286258178414 0 0 0 0 7.822182674227685 -3.6841270344467922 0 -3.6841270344467922 10.213131693486325 0 0 0 0 153.75740525695312 -124.29039282049143 0 -124.29039282049143 -150.4064642559224 0 0 0 0 -85.880149387150709 -8.3990216287211297 0 -8.3990216287211297 227.65147580311532 0 0 0 0 132.49338539352783 334.18348430321612 0 334.18348430321612 130.35272664353215 0 0 0 0 275.08418476612769 191.31012693776029 0 191.31012693776029 301.14002685379819 0 0 0 0 256.62015972343829 185.83213158038416 0 185.83213158038416 307.47526361197015 0 0 0 0 -25.754874738423041 -14.378838386188363 0 -14.378838386188363 74.683458713006985 0 0 0 0 0.78753475260739592 -1.5900828174177803 0 -1.5900828174177803 3.4030017281279186 0 0 0 0 13.321480099348264 -15.258051664830418 0 -15.258051664830418 112.85368132435178 0 0 0 0 14.426849687537469 4.0152530390914762 0 4.0152530390914762 38.941710933961076 0 0 0 0 -4.7347087312618896 14.114202098260648 0 14.114202098260648 69.492842083869618 0 0 0 0 1.1211471181621899 -9.1585254811642756 0 -9.1585254811642756 44.717262382114313 0 0 0 0 -244.04677968503506 -161.99576908390736 0 -161.99576908390736 195.34000135122278 0 0 0 0 112.33887953625708 136.71675449189115 0 136.71675449189115 22.564911960667814 0 0 0 0 2.8894283835170427 2.9409011623811239 0 2.9409011623811239 52.117359282551661 0 0 0 0 6.4920586950820507 16.638626962912895 0 16.638626962912895 42.678865046369538 0 0 0 0 -3.8028632538203975 1.6061477252140328 0 1.6061477252140328 34.086179194547618 0 0 0 0 4.8935210621393708 6.4038697773048625 0 6.4038697773048625 32.419118126417743 0 0 0 0 -1.1181085279040417 -0.42766183474668651 0 -0.42766183474668651 50.268930797581561 0 0 0 0 -3.97831151047939 -2.4596021523528293 0 -2.4596021523528293 20.68994883894969 0 0 0 0 -1.9696094479804742 0.11285595007939264 0 0.11285595007939264 53.667902662484266 0 0 0 0 -2.2838758966388184 11.554750838296751 0 11.554750838296751 9.8460453596118356 0 0 0 0 -32.939877889787567 -0.24015066151332576 0 -0.24015066151332576 168.00888060213038 0 0 0 0 -1.4115052448729557 2.1967201889119679 0 2.1967201889119679 55.193910637408408 0 0 0 0 -2.2166810915961417 -15.995939127666816 0 -15.995939127666816 91.352918034001604 0 0 0 0 -47.842892325033972 13.441955106013211 0 13.441955106013211 156.24029267533297 0 0 0 0 -22.260451068907969 -41.194821767157919 0 -41.194821767157919 76.068852074765346 0 0 0 0 -24.431994969110747 -28.595820574138088 0 -28.595820574138088 173.29198600789096 0 0 0 0 -12.163985150626104 -33.065381011609134 0 -33.065381011609134 102.49761182697057 0 0 0 0 -14.566260741920814 -25.263330591628801 0 -25.263330591628801 158.96555220456139 0 0 0 0 -24.444799711134692 -19.431772820705191 0 -19.431772820705191 157.73316333887487 0 0 0 0 1.5308236782502718 -2.1795658001155971 0 -2.1795658001155971 203.53288992972739 0 0 0 0 6.4271529265606659 4.9994642959845805 0 4.9994642959845805 166.78601239518821 0 0 0 0 20.01640816172619 58.057890679343018 0 58.057890679343018 211.41240294157251 0 0 0 0 25.549215679334338 26.595672879402628 0 26.595672879402628 157.9772621161342 0 0 0 0 8.9226068609323193 18.861207687356 0 18.861207687356 43.856071459855229 0 0 0 0 -0.79123672912686516 0.62132957496600483 0 0.62132957496600483 6.5315506294635233 0 0 0 0 23.080429943046965 13.537597188602376 0 13.537597188602376 216.5722796820337 0 0 0 0 -2.4316295260905463 38.406838469107242 0 38.406838469107242 281.55460475556902 0 0 0 0 373.09387211423234 137.72967289207827 0 137.72967289207827 37.213342028067018 0 0 0 0 19.173076723625741 -51.748742990976098 0 -51.748742990976098 357.48770070009596 0 0 0 0 3.5910227017724674 -2.1296593886342663 0 -2.1296593886342663 0.31378868244186009 0 0 0 0 28.658382290450618 59.054697448995285 0 59.054697448995285 125.68571428731047 0 0 0 0 -0.72032954904492286 -1.4206862715447031 0 -1.4206862715447031 0.99099056687146536 0 0 0 0 28.627559354457844 -13.602656422672226 0 -13.602656422672226 343.48755038396712 0 0 0 0 150.16347777138617 -178.41137986490276 0 -178.41137986490276 338.32141643201612 0 0 0 0 195.33607708716647 -38.726576725759514 0 -38.726576725759514 104.16248335240198 0 0 0 0 101.78682944454306 -47.014008906368417 0 -47.014008906368417 228.92761911065281 0 0 0 0 119.82266899062438 -70.779404634806269 0 -70.779404634806269 224.76172412654887 0 0 0 0 17.59780264091728 24.161366265564993 0 24.161366265564993 205.78938679364001 0 0 0 0 73.904433087285724 -1.7000363029455912 0 -1.7000363029455912 121.70806413849277 0 0 0 0 20.060830318269382 -4.0757213924539428 0 -4.0757213924539428 118.61684929225339 0 0 0 0 35.053237208463543 -39.718226785941624 0 -39.718226785941624 186.8407158303562 0 0 0 0 66.41818489718969 -47.711994691485302 0 -47.711994691485302 51.621022351526335 0 0 0 0 59.12899479973521 -11.923843147812477 0 -11.923843147812477 86.684063625921226 0 0 0 0 137.53987733160727 -31.47394082616097 0 -31.47394082616097 111.49604926464599 0 0 0 0 152.25013607336768 -48.125225871725888 0 -48.125225871725888 97.999627314680311 0 0 0 0 105.65063125401423 -16.520877850236786 0 -16.520877850236786 71.076824604630019 0 0 0 0 97.622856401502602 45.471837804778772 0 45.471837804778772 57.927233902659282 0 0 0 0 35.120630232492601 -31.803563616173165 0 -31.803563616173165 94.996575479757666 0 0 0 0 38.755093284519717 -4.6393982616382345 0 -4.6393982616382345 87.903789536924705 0 0 0 0 -23.678602747016157 -41.532816614521835 0 -41.532816614521835 95.54908629755073 0 0 0 0 -3.3116688764109767 -11.450389291535657 0 -11.450389291535657 102.60083908668912 0 0 0 0 -1.940246370422444 -12.416018364409052 0 -12.416018364409052 90.035255209592378 0 0 0 0 -75.198625111284855 -91.768855458725739 0 -91.768855458725739 28.081895907955186 0 0 0 0 -17.665286974837166 -6.413370025084042 0 -6.413370025084042 26.74960680494452 0 0 0 0 -41.155115911632492 -41.980149442681068 0 -41.980149442681068 62.91716487181111 0 0 0 0 -2.358504457027653 -14.801460347967303 0 -14.801460347967303 90.026646752235067 0 0 0 0 -45.951085705210971 -59.391653577275065 0 -59.391653577275065 101.18841565833827 0 0 0 0 -75.027959091783032 7.0988273281473084 0 7.0988273281473084 100.81537284102887 0 0 0 0 -29.397260289052156 -50.830183894935544 0 -50.830183894935544 49.106959912583989 0 0 0 0 -28.56709211159523 -2.5903992755311265 0 -2.5903992755311265 101.66539083700627 0 0 0 0 -42.061938398229358 -71.09752607923474 0 -71.09752607923474 107.78255079540918 0 0 0 0 -46.142222442888851 -7.0416182030839991 0 -7.0416182030839991 124.3757030927427 0 0 0 0 -1.465261686190475 -2.4423067436759762 0 -2.4423067436759762 26.12891672067407 0 0 0 0 -219.0558190853539 242.18074969866984 0 242.18074969866984 -27.064916849207293 0 0 0 0 -101.32198405721957 72.846467236470744 0 72.846467236470744 45.36521889172036 0 0 0 0 0.65339747883205157 3.7055738691038238 0 3.7055738691038238 8.7913825247923896 0 0 0 0 -226.93382958409754 -72.660426098747166 0 -72.660426098747166 359.01868190956884 0 0 0 0 -357.28244679660276 165.53624986639488 0 165.53624986639488 50.721791956977313 0 0 0 0 -75.97335157843483 -31.821372582043978 0 -31.821372582043978 142.39787564621838 0 0 0 0 -158.86030214958078 -144.29192662577384 0 -144.29192662577384 139.64042672300093 0 0 0 0 153.29536608791511 235.73503134626094 0 235.73503134626094 -20.652288227767713 0 0 0 0 0.51200942508839942 1.7303826973763932 0 1.7303826973763932 3.6307213809121066 0 0 0 0 -215.20545124283868 -94.857950508720933 0 -94.857950508720933 281.06181129290059 0 0 0 0 22.756856609409624 118.78686729152219 0 118.78686729152219 71.549024772666598 0 0 0 0 152.67358155742704 113.72124305756006 0 113.72124305756006 66.915337708680909 0 0 0 0 199.35880813799065 112.42687824042605 0 112.42687824042605 -0.36320798351789563 0 0 0 0 115.02253809046965 46.422829931001615 0 46.422829931001615 46.035230272318586 0 0 0 0 256.63490445290108 24.306924433672975 0 24.306924433672975 37.732257489111589 0 0 0 0 131.64573015790489 135.88302894185927 0 135.88302894185927 45.261593959559832 0 0 0 0 136.39619894274307 88.636733419121811 0 88.636733419121811 -70.840750207331439 0 0 0 0 170.18883174535549 181.26363691503957 0 181.26363691503957 21.300050946530973 0 0 0 0 64.837345604794621 -36.592763868196016 0 -36.592763868196016 162.33492287584158 0 0 0 0 478.60418405156895 119.41682367553858 0 119.41682367553858 83.338607616467925 0 0 0 0 410.34458939449246 -164.023880318392 0 -164.023880318392 173.57249338225938 0 0 0 0 269.13627209283123 30.303018606964997 0 30.303018606964997 58.968223362899153 0 0 0 0 200.22381858858427 30.821932115808522 0 30.821932115808522 531.57934628519797 0 0 0 0 424.29170612617781 -73.578193885958171 0 -73.578193885958171 301.30582939740452 0 0 0 0 429.69660523110542 51.792350684723715 0 51.792350684723715 163.31899894976232 0 0 0 0 200.13629027207202 7.8028828670439907 0 7.8028828670439907 156.89066889941569 0 0 0 0 50.846707412094759 -22.050258753152775 0 -22.050258753152775 386.18849061775109 0 0 0 0 -51.183443676703661 -188.31303572821071 0 -188.31303572821071 351.95929065427117 0 0 0 0 69.333417939808186 -73.026790733386406 0 -73.026790733386406 72.188692131792777 0 0 0 0 -39.209312262741861 26.029511668288251 0 26.029511668288251 -142.82090016060374 0 0 0 0 -61.715762838882796 105.08476382508798 0 105.08476382508798 137.86507701168921 0 0 0 0 -181.52447150589057 -52.654355433642195 0 -52.654355433642195 -17.742278089215688 0 0 0 0 0.51198985317698908 3.2062743220974719 0 3.2062743220974719 8.4071938503259069 0 0 0 0 -467.34759445362783 190.72202583886519 0 190.72202583886519 156.61649095864232 0 0 0 0 -68.158615610556836 280.47828245067717 0 280.47828245067717 -31.589842428011252 0 0 0 0 0.11259346115093513 0.28789822731259562 0 0.28789822731259562 3.8038192984806258 0 0 0 0 -19.438608805642723 -460.76562188109847 0 -460.76562188109847 989.08385212534449 0 0 0 0 271.21593810872719 86.122524731988051 0 86.122524731988051 146.77581743915471 0 0 0 0 22.322730428801478 -449.14244971093785 0 -449.14244971093785 387.95494220502405 0 0 0 0 -45.67503048631005 -78.383545281505576 0 -78.383545281505576 532.67883031407109 0 0 0 0 -135.44508682991238 -144.08632134517393 0 -144.08632134517393 554.94746056332042 0 0 0 0 -211.37939513666342 -152.24674150772444 0 -152.24674150772444 906.30400434316834 0 0 0 0 -232.15289738078263 -200.89578806073405 0 -200.89578806073405 893.65630180197695 0 0 0 0 -276.67676106995481 36.180483604917754 0 36.180483604917754 927.73538014622 0 0 0 0 -322.61120992691326 147.46478097979525 0 147.46478097979525 861.79230623344392 0 0 0 0 -240.02744747611345 59.24294976148758 0 59.24294976148758 895.32354799250788 0 0 0 0 -316.18564856064563 61.897148850664962 0 61.897148850664962 978.24768668579054 0 0 0 0 -220.45415877621565 -4.202053838993379 0 -4.202053838993379 946.29666478303625 0 0 0 0 23.630588060359344 188.40314134487835 0 188.40314134487835 2610.3623052080675 0 0 0 0 199.83640902734069 500.51249823127182 0 500.51249823127182 1177.2255754188909 0 0 0 0 -201.77404535078881 -164.17400104297121 0 -164.17400104297121 1566.1800732429801 0 0 0 0 -256.35964501614751 94.217362331512049 0 94.217362331512049 1622.9411106050065 0 0 0 0 -163.29944604987827 141.80028930071376 0 141.80028930071376 1290.4043787470364 0 0 0 0 -225.03256572855332 -275.32000859702748 0 -275.32000859702748 1113.5586189679616 0 0 0 0 284.13588711555792 269.03461034137945 0 269.03461034137945 418.60846031956589 0 0 0 0 310.02394277577406 112.37116175213123 0 112.37116175213123 351.29185842323022 0 0 0 0 318.85114361267136 213.41422996374831 0 213.41422996374831 125.00264055881053 0 0 0 0 194.22919436719229 -5.5898731522866001 0 -5.5898731522866001 282.07618726967212 0 0 0 0 -31.49609595139205 4.0457153513980302 0 4.0457153513980302 510.32042185618684 0 0 0 0 161.89064449676539 14.348073414656028 0 14.348073414656028 483.92960987877996 0 0 0 0 23.587656482593161 -115.96168284910709 0 -115.96168284910709 375.91088864953929 0 0 0 0 -53.062888144041381 -17.211987429072906 0 -17.211987429072906 750.28769191752508 0 0 0 0 -199.95062270477283 62.612409531819139 0 62.612409531819139 756.97931664581722 0 0 0 0 -45.287468350090052 204.62926189035716 0 204.62926189035716 804.58880356575355 0 0 0 0 -143.85116494664334 147.55736540766065 0 147.55736540766065 772.25468010048644 0 0 0 0 41.085934115845333 137.41530158782371 0 137.41530158782371 619.90684890050397 0 0 0 0 106.83545794032041 246.06329329903065 0 246.06329329903065 702.33859401212612 0 0 0 0 -45.745896540598721 211.37745850578176 0 211.37745850578176 732.64077408309004 0 0 0 0 168.65995658255258 232.72496530542776 0 232.72496530542776 840.26862488707138 0 0 0 0 202.54873718718005 366.66840860492448 0 366.66840860492448 762.50995653796963 0 0 0 0 186.40588562053998 225.79343840908859 0 225.79343840908859 473.30832283858763 0 0 0 0 -59.287994195588084 345.6127196115167 0 345.6127196115167 1543.1980136680177 0 0 0 0 117.64708429894979 374.35684685640854 0 374.35684685640854 883.70925886833356 0 0 0 0 -84.67775838363508 64.349412075903274 0 64.349412075903274 1085.2941115275426 0 0 0 0 -236.76499720926421 221.86132183431982 0 221.86132183431982 592.60157339616944 0 0 0 0 -85.999551860974464 88.737695618561133 0 88.737695618561133 696.58419424391832 0 0 0 0 -270.21658900966554 183.67520900500858 0 183.67520900500858 861.88620293152599 0 0 0 0 -244.39760823288037 108.98186751880326 0 108.98186751880326 768.50260828356477 0 0 0 0 0.82797650617721985 -4.3866207221374971 0 -4.3866207221374971 9.2415562745349575 0 0 0 0 -90.476634535910861 1178.1908520804297 0 1178.1908520804297 3495.8228302232228 0 0 0 0 -14.711557283152992 -809.9648064597659 0 -809.9648064597659 -46.352666437553125 0 0 0 0 -526.8737381698262 14.790696823648432 0 14.790696823648432 3491.4292198519915 0 0 0 0 -26.980166462273189 -814.60940745505104 0 -814.60940745505104 1682.1511335749094 0 0 0 0 -900.62853489090514 161.16882132499421 0 161.16882132499421 536.00077575114756 0 0 0 0 2.7795235448914166 -5.1210673893121896 0 -5.1210673893121896 5.8821207750099731 0 0 0 0 -325.09709346291049 -130.45156251554818 0 -130.45156251554818 531.10010722695984 0 0 0 0 11.607685365203963 170.15139786686314 0 170.15139786686314 618.04701590630793 0 0 0 0 -567.07915455727903 -851.83934656160591 0 -851.83934656160591 1005.0538854501033 0 0 0 0 2.5097356773329729 -10.600002104205901 0 -10.600002104205901 14.179407470637678 0 0 0 0 -452.67218411375387 133.13085308867994 0 133.13085308867994 769.51648540013048 0 0 0 0 -330.14831770904323 436.08064000468966 0 436.08064000468966 1286.9215457733726 0 0 0 0 -554.77369502232978 -783.34471601085261 0 -783.34471601085261 1367.0853627383592 0 0 0 0 -1286.3585109548012 -311.82843323027419 0 -311.82843323027419 3501.8192608543641 0 0 0 0 -183.28075392532489 -1672.345280515513 0 -1672.345280515513 3491.0057181287875 0 0 0 0 2109.5097063265162 -1024.138936426559 0 -1024.138936426559 -42.288472071092997 0 0 0 0 344.52959883472136 -1471.463507223398 0 -1471.463507223398 -859.61146870252605 0 0 0 0 133.07702561197988 -694.57759229124895 0 -694.57759229124895 50.804587540606008 0 0 0 0 -108.59905727003161 -581.49934976114264 0 -581.49934976114264 48.944252846998097 0 0 0 0 359.31686358807883 482.10439531010343 0 482.10439531010343 339.28290945667868 0 0 0 0 4.5722422590258169 -3.1348038571429635 0 -3.1348038571429635 35.432435554792562 0 0 0 0 26.839084657589176 7.005427290402622 0 7.005427290402622 -533.45735625033819 0 0 0 0 5.8719456251909374 8.5707447018982919 0 8.5707447018982919 38.517269616585885 0 0 0 0 -339.50740361954877 -725.20238903555992 0 -725.20238903555992 227.7200625780788 0 0 0 0 6.1542097277745409 8.5123760612893555 0 8.5123760612893555 12.92282462760836 0 0 0 0 3.4747176088633003 -6.228412279628575 0 -6.228412279628575 11.949174076562455 0 0 0 0 393.29448595717531 -8.3088679220727499 0 -8.3088679220727499 -533.45735625031875 0 0 0 0 143.74316348334207 -322.26800455404123 0 -322.26800455404123 2395.0237026797995 0 0 0 0 178.44649153329323 323.64701575537265 0 323.64701575537265 2282.655579885457 0 0 0 0 -416.3718298114959 79.689010770841378 0 79.689010770841378 3481.297069543692 0 0 0 0 3323.2440093980517 1873.2378365038587 0 1873.2378365038587 591.43020526477994 0 0 0 0 596.55972016000464 2203.4215317035414 0 2203.4215317035414 3493.7960678111431 0 0 0 0 21.979578830079532 1232.767202675775 0 1232.767202675775 1928.1760638218711 0 0 0 0 355.81636002507457 1104.5684860973893 0 1104.5684860973893 1937.5917450550423 0 0 0 0 1180.5121162450755 738.19368750486137 0 738.19368750486137 400.10584130872121 0 0 0 0 579.39630964642174 298.41442185902633 0 298.41442185902633 482.65273096844612 0 0 0 0 446.67210918921194 531.45668161294657 0 531.45668161294657 638.70805968693458 0 0 0 0 545.25055242985979 113.35422137001774 0 113.35422137001774 66.555389442066371 0 0 0 0 368.74609590230489 123.29942639553337 0 123.29942639553337 359.32810940265153 0 0 0 0 552.67261926113235 404.06927261587816 0 404.06927261587816 392.35245550994296 0 0 0 0 223.0657261538795 -87.566035711046425 0 -87.566035711046425 98.180484402146021 0 0 0 0 431.94459442293555 189.70728994339697 0 189.70728994339697 76.752792953013341 0 0 0 0 -1.2457536502421522 3.9331675198612714 0 3.9331675198612714 50.975870729238402 0 0 0 0 -5.6353282306512256 -0.18102562402850708 0 -0.18102562402850708 48.417637304088203 0 0 0 0 -87.048675698617629 357.63852717896481 0 357.63852717896481 -1162.2266603788921 0 0 0 0 -567.52084863525488 424.99381341589287 0 424.99381341589287 488.40682995143379 0 0 0 0 -3.6677375223016595 3.9791927577336725 0 3.9791927577336725 8.7372863391583877 0 0 0 0 -48.7404804430779 -458.16161110350367 0 -458.16161110350367 -644.62931936648602 0 0 0 0 -135.36116014640947 -800.29517369248742 0 -800.29517369248742 211.10167966119388 0 0 0 0 -86.229750506000727 605.58744961776097 0 605.58744961776097 465.85324542338367 0 0 0 0 74.368104600281413 -658.57632972035481 0 -658.57632972035481 1749.291208785804 0 0 0 0 0.13884503303489026 8.218719924157261 0 8.218719924157261 49.497766884226934 0 0 0 0 -151.64619013604988 23.028140825369519 0 23.028140825369519 241.20947801709917 0 0 0 0 -566.22372956591892 450.81933332559038 0 450.81933332559038 2282.4273744684779 0 0 0 0 -576.17659222653526 -163.17093588617445 0 -163.17093588617445 2333.3226842300101 0 0 0 0 -906.62738104273001 -146.58805608201601 0 -146.58805608201601 2333.3753399841044 0 0 0 0 -920.8346009306722 127.64390339691181 0 127.64390339691181 3498.9553110526595 0 0 0 0 -554.28911615327718 571.6396045599995 0 571.6396045599995 2411.2846081518092 0 0 0 0 -374.02980938444159 1218.2896056953796 0 1218.2896056953796 3500.39984561246 0 0 0 0 276.89367979366762 836.91831096488932 0 836.91831096488932 1286.8188604149309 0 0 0 0 124.68061703700801 442.32351214806204 0 442.32351214806204 1186.5476165595264 0 0 0 0 287.418858880573 101.64912104612813 0 101.64912104612813 274.02541784345476 0 0 0 0 26.604352280966964 340.00241714550521 0 340.00241714550521 873.80981597282516 0 0 0 0 20.298492180409767 159.81030835252841 0 159.81030835252841 678.51322206621444 0 0 0 0 -383.38464223061953 98.847642822474882 0 98.847642822474882 1744.8563290764741 0 0 0 0 -324.37560557919096 -152.62032584772533 0 -152.62032584772533 999.80447142305638 0 0 0 0 -375.77048157091315 106.60001230402463 0 106.60001230402463 1327.5274023384518 0 0 0 0 -555.65773453024508 654.1890452523146 0 654.1890452523146 -280.27042444741164 0 0 0 0 -323.30663138398518 73.436174620295787 0 73.436174620295787 65.503162685763527 0 0 0 0 -138.86511930525194 310.57845646316582 0 310.57845646316582 342.01528559405415 0 0 0 0 -152.11402694657576 45.226743722626679 0 45.226743722626679 500.10090404640505 0 0 0 0 -80.202770363668947 281.79132580093938 0 281.79132580093938 33.252162649921047 0 0 0 0 14.308518134975202 69.959628930531835 0 69.959628930531835 55.899468359923048 0 0 0 0 148.4924863829815 148.93235257185734 0 148.93235257185734 -11.675254637101716 0 0 0 0 123.33158531058392 60.134179132207692 0 60.134179132207692 134.95100688221646 0 0 0 0 291.70328444243495 303.10990734657571 0 303.10990734657571 416.14451971615927 0 0 0 0 312.43789693097222 92.90838114779217 0 92.90838114779217 10.13804996280669 0 0 0 0 244.5952403920208 174.58065518906733 0 174.58065518906733 48.350200075818066 0 0 0 0 344.61357314521194 167.66402071715493 0 167.66402071715493 -13.975276653902256 0 0 0 0 263.32854225959278 71.207571669700883 0 71.207571669700883 -35.067614757241245 0 0 0 0 1.5910961937441215 -3.468524887124083 0 -3.468524887124083 5.5468903633154625 0 0 0 0 -27.623674679298347 76.892097117110097 0 76.892097117110097 -85.266824066013214 0 0 0 0 -86.059461486666123 186.35410456108275 0 186.35410456108275 -67.139758369878109 0 0 0 0 114.52777411562784 299.237963558724 0 299.237963558724 -141.12771150660865 0 0 0 0 -224.29021621514676 138.38673483534512 0 138.38673483534512 -70.648249907093486 0 0 0 0 40.541941454544371 511.21948490087016 0 511.21948490087016 280.36467170404649 0 0 0 0 -689.75116115797755 545.22906536234586 0 545.22906536234586 545.34803617215948 0 0 0 0 -361.85144947345736 51.629397048292958 0 51.629397048292958 -64.758535743592802 0 0 0 0 -258.57944429010058 -169.2173194102179 0 -169.2173194102179 620.89890341025603 0 0 0 0 -830.85997501894985 1159.0808034353395 0 1159.0808034353395 220.63799712693799 0 0 0 0 21.76188483526105 37.59634517628178 0 37.59634517628178 55.903492700727867 0 0 0 0 41.774297060377648 504.22642066447037 0 504.22642066447037 -690.6213492015886 0 0 0 0 -281.10620663934151 -307.90180487376711 0 -307.90180487376711 657.15054704505019 0 0 0 0 -187.68359105247237 -382.02076491117259 0 -382.02076491117259 643.45862904058595 0 0 0 0 30.054502539744156 51.964488049852363 0 51.964488049852363 76.546331911151 0 0 0 0 -108.09108578343009 -72.246690234861262 0 -72.246690234861262 200.02358471366188 0 0 0 0 -4.5869866439063571 -23.533295593751063 0 -23.533295593751063 47.029075256234592 0 0 0 0 119.03720417425501 -162.81718658262389 0 -162.81718658262389 195.93546699328454 0 0 0 0 -218.92403030009146 196.89496276870887 0 196.89496276870887 -56.145964747362996 0 0 0 0 0.49854951238812301 1.1610013090341686 0 1.1610013090341686 2.5566490030153659 0 0 0 0 15.502799974126273 161.16174599422993 0 161.16174599422993 -81.496929834245293 0 0 0 0 -1.3553384290942316 -0.6280813655667874 0 -0.6280813655667874 10.08268610720031 0 0 0 0 -174.65662170872778 126.93034469715622 0 126.93034469715622 52.848369843464752 0 0 0 0 -408.3661475188967 343.92986980647856 0 343.92986980647856 22.039776209049705 0 0 0 0 -629.97099898889883 2.860082975530986 0 2.860082975530986 61.272141293589812 0 0 0 0 3.2628152784359941 -38.710159464364779 0 -38.710159464364779 37.446779937787142 0 0 0 0 -1.9271983366134355 -1.2557223163118554 0 -1.2557223163118554 47.356280919633058 0 0 0 0 1.4953234972444989 9.7530505256859215 0 9.7530505256859215 58.834233738256444 0 0 0 0 2.8850997313210716 -5.5769259084554985 0 -5.5769259084554985 52.419524429182175 0 0 0 0 -15.281057959292582 16.560881021652676 0 16.560881021652676 92.385044049093267 0 0 0 0 332.80076567430751 167.39752035481979 0 167.39752035481979 66.715886195761414 0 0 0 0 120.28189770890218 145.80053621890465 0 145.80053621890465 90.286591269301425 0 0 0 0 252.99497304483293 74.138295524378918 0 74.138295524378918 91.54401614800372 0 0 0 0 23.943440366358921 -10.411887392149815 0 -10.411887392149815 26.007728501877651 0 0 0 0 35.318590082031733 67.330399829983435 0 67.330399829983435 53.264459040352449 0 0 0 0 -6.602718857917937 11.904358048048209 0 11.904358048048209 88.959463767049428 0 0 0 0 149.02332389204867 -79.061204589492263 0 -79.061204589492263 71.490970917293907 0 0 0 0 66.819729317174279 123.51821540473429 0 123.51821540473429 116.07056200009902 0 0 0 0 310.68916940338931 188.92589780006892 0 188.92589780006892 99.20660877022965 0 0 0 0 11.68391996757758 -10.714114014460776 0 -10.714114014460776 7.9375001673197332 0 0 0 0 227.98101736755416 -123.58565595939945 0 -123.58565595939945 78.272094303883932 0 0 0 0 -2.9066241796752017 -3.2554701604857996 0 -3.2554701604857996 17.483277146840535 0 0 0 0 44.455693261039414 6.9383255634202214 0 6.9383255634202214 90.577522278701508 0 0 0 0 135.65069588957795 276.43565783293161 0 276.43565783293161 -124.11786971466427 0 0 0 0 -5.2584263413646113 187.28771388274527 0 187.28771388274527 335.75641939342313 0 0 0 0 -65.94324352062722 -27.723527288806508 0 -27.723527288806508 278.25052840157696 0 0 0 0 -7.4005555947286332 17.847431231345595 0 17.847431231345595 116.06644227248913 0 0 0 0 -74.859880138623794 59.302365164416642 0 59.302365164416642 132.2936778836829 0 0 0 0 -34.668307723386704 59.773132605555929 0 59.773132605555929 94.745372344654243 0 0 0 0 -35.39582724532027 66.230707368768435 0 66.230707368768435 353.92772239539045 0 0 0 0 -72.648134457276257 -20.941963281868993 0 -20.941963281868993 76.885678402243684 0 0 0 0 157.22315718916747 49.95369717496169 0 49.95369717496169 30.074504930026706 0 0 0 0 -50.29960100581917 8.2276787917039655 0 8.2276787917039655 103.96395475678128 0 0 0 0 -99.797831550435205 61.723074291672674 0 61.723074291672674 46.276326299330321 0 0 0 0 -16.032247409593325 47.282960501478783 0 47.282960501478783 44.136391318984352 0 0 0 0 -37.726851634279797 58.401380391587736 0 58.401380391587736 127.90886657208648 0 0 0 0 -18.657535098547896 -43.147011260410181 0 -43.147011260410181 246.25764012320542 0 0 0 0 0.80375803569700111 -5.9758292020280805 0 -5.9758292020280805 78.75307885361326 0 0 0 0 -9.2620014015534853 12.188389216223644 0 12.188389216223644 36.611253363147064 0 0 0 0 -58.085764368682504 46.547245329788893 0 46.547245329788893 44.499456666338347 0 0 0 0 3.8742537576092673 -15.427918463670721 0 -15.427918463670721 89.128181140408742 0 0 0 0 4.81187962655848 -14.346939648224755 0 -14.346939648224755 3.9471356012915519 0 0 0 0 -54.482797876830418 31.401032680892968 0 31.401032680892968 24.123789894347283 0 0 0 0 20.465586650502019 -133.75870408838227 0 -133.75870408838227 494.99448433537464 0 0 0 0 1.5440452872453267 -0.14484688691767733 0 -0.14484688691767733 4.8370653410353981 0 0 0 0 -4.0126776757083462 167.42537470052366 0 167.42537470052366 366.14908185447325 0 0 0 0 -18.651923292585764 -28.334742369034757 0 -28.334742369034757 226.97787926316232 0 0 0 0 -40.405261189848261 2.6575050772062241 0 2.6575050772062241 269.80905976932718 0 0 0 0 -6.7324838853533038 12.931434788209344 0 12.931434788209344 214.64984225437888 0 0 0 0 -61.014566412289241 66.465863857008117 0 66.465863857008117 240.71147504877035 0 0 0 0 9.7618032141279514 153.06218689493596 0 153.06218689493596 70.024638496837724 0 0 0 0 -12.977014647767056 8.9893781229504945 0 8.9893781229504945 164.04244995318399 0 0 0 0 -727.51722020698412 -390.311658092568 0 -390.311658092568 174.62032564078982 0 0 0 0 -42.011632815826033 62.123774882490125 0 62.123774882490125 186.00643501980471 0 0 0 0 -40.341004873466773 48.553327691362256 0 48.553327691362256 201.83931863382759 0 0 0 0 -5.3068197953594805 39.62518732511591 0 39.62518732511591 45.235577852623422 0 0 0 0 -64.011592734453643 -31.62628007829835 0 -31.62628007829835 196.08811154737617 0 0 0 0 -49.978999505935576 32.409081069533386 0 32.409081069533386 181.13297906664229 0 0 0 0 -470.44718675331205 -80.717515660115168 0 -80.717515660115168 -25.602042137619719 0 0 0 0 161.7026535935388 -1116.8036753961042 0 -1116.8036753961042 1563.5621281087006 0 0 0 0 -658.18852432507083 87.495627945721935 0 87.495627945721935 182.78765334284981 0 0 0 0 -425.40974619424469 736.00073017982504 0 736.00073017982504 1538.1284706094302 0 0 0 0 -1110.5275500736443 -85.486356594456083 0 -85.486356594456083 815.50180288882257 0 0 0 0 -1073.0483857083236 599.54232279305143 0 599.54232279305143 -167.39423106786853 0 0 0 0 -578.21323062690863 -111.87125926505905 0 -111.87125926505905 326.85066617174016 0 0 0 0 -4.7940848961055522 6.9314682863655719 0 6.9314682863655719 35.138929905234384 0 0 0 0 36.419405116806956 821.86256837646215 0 821.86256837646215 17.349621935405594 0 0 0 0 -11.813008328641281 2.5417707995206449 0 2.5417707995206449 150.03406700091898 0 0 0 0 -30.838200392296812 -9.335465777762181 0 -9.335465777762181 196.6250941746448 0 0 0 0 -14.395195629182126 -5.4039261069701752 0 -5.4039261069701752 102.33260936589295 0 0 0 0 -19.997579553750331 -10.80839071795393 0 -10.80839071795393 38.390054939620946 0 0 0 0 -4.7562131686761386 6.7362757598609919 0 6.7362757598609919 83.755125113895446 0 0 0 0 -15.998404862940333 8.8066358591604512 0 8.8066358591604512 84.639504860715533 0 0 0 0 -172.68865322270403 137.5245938095668 0 137.5245938095668 15.473015593932359 0 0 0 0 -9.3931627976799064 16.064575187132505 0 16.064575187132505 65.758452428438432 0 0 0 0 -5.9395565587223373 21.833259591883834 0 21.833259591883834 69.071031236817873 0 0 0 0 14.9069004538851 479.68681493817712 0 479.68681493817712 -117.22202566800115 0 0 0 0 -393.6468327601433 633.46149471267563 0 633.46149471267563 -40.295522603028076 0 0 0 0 144.69467078707839 257.38916711669299 0 257.38916711669299 -178.34462892309966 0 0 0 0 162.06020923129563 533.21215753615252 0 533.21215753615252 -300.04569177763915 0 0 0 0 14.969115102569731 92.483618923990434 0 92.483618923990434 -534.07894605273032 0 0 0 0 262.82867551297068 450.50716443810779 0 450.50716443810779 -480.21273693032708 0 0 0 0 122.63919842861537 200.10422266491332 0 200.10422266491332 -899.63452514488745 0 0 0 0 -585.61812733262332 -275.82025806218007 0 -275.82025806218007 -523.20873851252691 0 0 0 0 10.318709574718532 13.836660391477665 0 13.836660391477665 19.759162091156796 0 0 0 0 469.26926977129733 -935.72112853521139 0 -935.72112853521139 1431.2717021073113 0 0 0 0 263.8353080177003 1010.6996198765046 0 1010.6996198765046 260.38903720561211 0 0 0 0 233.87231316167708 719.06464107456122 0 719.06464107456122 -540.83130199564403 0 0 0 0 88.306799482374799 611.91278919765909 0 611.91278919765909 -296.96056051011692 0 0 0 0 -133.56492927717409 -320.09836107222873 0 -320.09836107222873 638.98244360311037 0 0 0 0 -133.77005562544582 -323.61392508237896 0 -323.61392508237896 604.22469684368116 0 0 0 0 -50.302460688730207 -187.7964452433589 0 -187.7964452433589 612.90063136152639 0 0 0 0 -174.33275307697295 -286.69348404052653 0 -286.69348404052653 627.59950219062011 0 0 0 0 -153.92328398935206 -241.03333848340117 0 -241.03333848340117 674.44827483766858 0 0 0 0 35.410425032839157 -187.91594647240345 0 -187.91594647240345 581.33470254478016 0 0 0 0 -32.050223042519519 -277.63490127007026 0 -277.63490127007026 613.66390849788877 0 0 0 0 -177.76770012356837 -88.390186387784979 0 -88.390186387784979 383.31637855706504 0 0 0 0 85.736860793847882 -314.93781495124131 0 -314.93781495124131 518.62807207954393 0 0 0 0 1.1727965303190473 16.193376840280735 0 16.193376840280735 18.631644855855853 0 0 0 0 -10.920559394055999 116.30159564818314 0 116.30159564818314 7.7702726901407004 0 0 0 0 -343.25672710612889 88.243465462572203 0 88.243465462572203 531.40377116509808 0 0 0 0 51.232496818124673 -255.03474184585139 0 -255.03474184585139 430.6195353142466 0 0 0 0 10.680613258226003 6.5125216980177356 0 6.5125216980177356 94.751165963272797 0 0 0 0 7.3623606561845918 5.4686441745925549 0 5.4686441745925549 117.42257805717236 0 0 0 0 -65.103368079113352 12.144162566393788 0 12.144162566393788 119.52050083844006 0 0 0 0 -10.625823921351184 7.8589372553506109 0 7.8589372553506109 78.170140817426727 0 0 0 0 9.6210409174973393 13.57735035978294 0 13.57735035978294 64.901346620681579 0 0 0 0 556.35606680580895 -670.64903933722599 0 -670.64903933722599 -380.60502850649937 0 0 0 0 1607.5422207702891 -93.297690942799818 0 -93.297690942799818 -126.56720123594278 0 0 0 0 786.03985510739494 852.15525672009971 0 852.15525672009971 939.99007890067151 0 0 0 0 -357.17913184512327 389.21831399179064 0 389.21831399179064 1704.4134572732291 0 0 0 0 111.96539711907008 678.19409041175822 0 678.19409041175822 -329.27951057067548 0 0 0 0 -365.38937902027646 207.16261774013401 0 207.16261774013401 624.52525537283873 0 0 0 0 -26.157221159118308 -14.160057906032307 0 -14.160057906032307 106.33264126802533 0 0 0 0 -1.9822661661123639 13.343895852226183 0 13.343895852226183 -0.11105866533260667 0 0 0 0 -70.697180515433502 -35.565583477706241 0 -35.565583477706241 160.93273228077305 0 0 0 0 12.548973344029037 -50.594125937757781 0 -50.594125937757781 128.09321702369562 0 0 0 0 -20.265919548307728 5.8451329130570144 0 5.8451329130570144 30.266145457258304 0 0 0 0 12.602233126426654 49.407749157697253 0 49.407749157697253 208.88941709778737 0 0 0 0 13.19286644457361 13.880869973363588 0 13.880869973363588 158.16141384096773 0 0 0 0 410.14458574122727 -197.02079039604541 0 -197.02079039604541 -815.40281788815264 0 0 0 0 -1.8678132137386148 1.1616164141729968 0 1.1616164141729968 14.17651260333129 0 0 0 0 4.3459186551683047 21.67221021741625 0 21.67221021741625 33.866505734120437 0 0 0 0 -15.864591950349904 -14.22085865090412 0 -14.22085865090412 222.0673428535556 0 0 0 0 20.942972826192999 47.493276328767024 0 47.493276328767024 59.027485707309097 0 0 0 0 -13.857341665374406 76.348101437703008 0 76.348101437703008 127.43984924050892 0 0 0 0 -60.19628436457333 29.418764851907326 0 29.418764851907326 84.813764856669877 0 0 0 0 -3.0538444464673375 27.461313882828108 0 27.461313882828108 73.495047961161617 0 0 0 0 -19.362760141969375 16.463558120130983 0 16.463558120130983 66.087180198570422 0 0 0 0 -3.5997159898287237 23.632062130865961 0 23.632062130865961 46.989236741006607 0 0 0 0 -19.536914341885591 5.1797325916604677 0 5.1797325916604677 43.336228745945846 0 0 0 0 -7.0839540633487559 23.342861469071067 0 23.342861469071067 52.84753143924263 0 0 0 0 -14.302999333662228 39.570476230237546 0 39.570476230237546 79.758513931694324 0 0 0 0 0.10079911078290849 17.247530216795795 0 17.247530216795795 70.923265050703861 0 0 0 0 -0.44103468979574245 24.981692514946189 0 24.981692514946189 89.502144534373656 0 0 0 0 1.1028989262758522 6.9086443536799393 0 6.9086443536799393 19.308046712408199 0 0 0 0 -3.9699543587466906 8.6592588605126366 0 8.6592588605126366 76.954254888161813 0 0 0 0 19.583764713217533 34.103715724806534 0 34.103715724806534 81.563218265840987 0 0 0 0 3.4971902819579554 45.311002054691926 0 45.311002054691926 135.38328701016144 0 0 0 0 1.9895681694932854 2.7854104389510326 0 2.7854104389510326 -1.8602863629471997 0 0 0 0 -43.122325668609619 -12.794364751403918 0 -12.794364751403918 48.946714971447363 0 0 0 0 -18.705909705829981 7.606417336184677 0 7.606417336184677 76.007596133717016 0 0 0 0 -4.3678665695733798 14.071898762551427 0 14.071898762551427 67.490612262379727 0 0 0 0 -18.833350342839367 27.549554954817722 0 27.549554954817722 68.685405184820411 0 0 0 0 7.4993894552717393 5.646160206211789 0 5.646160206211789 69.075379350768344 0 0 0 0 -1.9269702066487149 8.9387262598749544 0 8.9387262598749544 67.036111658631484 0 0 0 0 -6.0043325190235919 18.711590241593512 0 18.711590241593512 56.885501843920792 0 0 0 0 -4.5358507844830456 17.813678320940198 0 17.813678320940198 78.510074547688419 0 0 0 0 27.647266893518463 30.564947217009831 0 30.564947217009831 80.541214914768716 0 0 0 0 0.6046607129103041 27.009754707442518 0 27.009754707442518 67.887090280605548 0 0 0 0 -18.722268361656006 73.980920240006526 0 73.980920240006526 119.79501203887776 0 0 0 0 -13.951900991726689 29.517409774211046 0 29.517409774211046 43.758357436163351 0 0 0 0 -3.3233684843400013 25.312464261069977 0 25.312464261069977 24.07312851023724 0 0 0 0 -9.0965471825369377 -4.1053936685530061 0 -4.1053936685530061 5.7503507616202114 0 0 0 0 -11.540781669716125 -9.8008194907597499 0 -9.8008194907597499 47.744437545011806 0 0 0 0 -15.755157304288332 -8.7715995414273493 0 -8.7715995414273493 110.7136535660029 0 0 0 0 -76.969920131886283 9.6593428663472878 0 9.6593428663472878 132.27763058254277 0 0 0 0 -180.84883338933787 15.128362907740666 0 15.128362907740666 162.01372065054966 0 0 0 0 -108.41630161621197 66.374253980793583 0 66.374253980793583 145.04411970300862 0 0 0 0 -127.80278373687725 -170.89056311350396 0 -170.89056311350396 252.73649975908847 0 0 0 0 78.839884029415771 -92.747942322404924 0 -92.747942322404924 69.388400929770796 0 0 0 0 136.72836042327009 363.04970913175111 0 363.04970913175111 344.12290759068856 0 0 0 0 -194.9961413593731 382.07355404295231 0 382.07355404295231 591.79161754590314 0 0 0 0 0.78957983143879829 -3.4359565780873886 0 -3.4359565780873886 6.953055071748949 0 0 0 0 -236.36366008237417 161.34109567858104 0 161.34109567858104 409.81236595922383 0 0 0 0 23.738083628085676 174.91750996549126 0 174.91750996549126 284.61464923241147 0 0 0 0 -195.86157432604807 -95.391583830551099 0 -95.391583830551099 7.0302410146950933 0 0 0 0 -27.043716296755974 -289.51976880527945 0 -289.51976880527945 43.504562612959489 0 0 0 0 -550.86848054787617 -448.68132017253083 0 -448.68132017253083 684.05073142285983 0 0 0 0 -633.18737038196332 -796.28817469439673 0 -796.28817469439673 308.4710526662966 0 0 0 0 -94.115266218313906 -516.40987478572242 0 -516.40987478572242 -651.87308237199613 0 0 0 0 -182.35964723626859 123.44361284983825 0 123.44361284983825 684.82702932261236 0 0 0 0 -200.36422494549032 218.02451856171501 0 218.02451856171501 482.43766930888523 0 0 0 0 -22.177528307038415 705.40283803881903 0 705.40283803881903 1486.2536920344573 0 0 0 0 -197.95157555210437 236.83286866510025 0 236.83286866510025 504.45522399380206 0 0 0 0 -200.67519797988064 224.98545460870446 0 224.98545460870446 469.81866961751075 0 0 0 0 179.27696202729868 297.00362997432967 0 297.00362997432967 221.25169786557672 0 0 0 0 1.2091657878905606 0.80170389463621206 0 0.80170389463621206 15.494805676607967 0 0 0 0 140.66020494638133 -1076.3629684183652 0 -1076.3629684183652 -347.73734085307296 0 0 0 0 338.99606318291234 221.85270309385305 0 221.85270309385305 134.99979930150948 0 0 0 0 81.476985398105313 13.914635018284116 0 13.914635018284116 -30.98999374624691 0 0 0 0 -45.272146415956968 182.5294774899096 0 182.5294774899096 -68.283304057909845 0 0 0 0 -77.14513625330801 48.486997404273097 0 48.486997404273097 8.0357783206818567 0 0 0 0 20.227236527380597 26.597997555752869 0 26.597997555752869 31.449572350225026 0 0 0 0 552.0455750319411 39.554651666016071 0 39.554651666016071 201.84053560164102 0 0 0 0 20.981484941965391 38.943301058225188 0 38.943301058225188 -31.248182686929795 0 0 0 0 -42.47887796369514 -24.08250842711459 0 -24.08250842711459 388.15952458825632 0 0 0 0 9.3742030577304831 138.5452943483233 0 138.5452943483233 126.73193864741916 0 0 0 0 24.055519687185743 32.985162125829191 0 32.985162125829191 40.28155306424766 0 0 0 0 -96.485297193194128 99.193422214642851 0 99.193422214642851 117.77847110792209 0 0 0 0 1066.2789056968827 992.0082400036772 0 992.0082400036772 1734.186808449711 0 0 0 0 -105.60008519990151 56.519197381992853 0 56.519197381992853 138.77834938451997 0 0 0 0 -110.47361835202946 88.932202842071547 0 88.932202842071547 132.41665093912161 0 0 0 0 -16.152395502809668 31.609577533326956 0 31.609577533326956 122.54516065996722 0 0 0 0 -80.853218275956351 83.721018383803312 0 83.721018383803312 118.25548130810785 0 0 0 0 -42.04022127504868 61.591416301616846 0 61.591416301616846 120.31202665524779 0 0 0 0 -63.306175441321102 38.14295443645824 0 38.14295443645824 143.04555691075257 0 0 0 0 -70.995964425073907 83.721641436997743 0 83.721641436997743 103.42230495174226 0 0 0 0 -10.956259248704484 49.786969064887614 0 49.786969064887614 74.156422970620042 0 0 0 0 -31.917833350980025 -17.828909220612331 0 -17.828909220612331 17.874123794604476 0 0 0 0 -96.051925263959674 46.03919632564066 0 46.03919632564066 159.03858986926207 0 0 0 0 -1.1940035635759703 35.588360007203349 0 35.588360007203349 29.062514470684711 0 0 0 0 -138.76494155132787 73.039783092492144 0 73.039783092492144 164.13183893522364 0 0 0 0 14.768597914364364 112.64193157975751 0 112.64193157975751 167.89002796409841 0 0 0 0 -12.847667175837159 1.7617105017488939 0 1.7617105017488939 63.213512872094725 0 0 0 0 -27.701676894786612 9.6960667605609068 0 9.6960667605609068 8.112872361524964 0 0 0 0 -6.4611794813154688 6.3741769593687287 0 6.3741769593687287 11.42751645504751 0 0 0 0 -37.47781739960601 6.2283323047158774 0 6.2283323047158774 156.95572304391499 0 0 0 0 5.5444021607568175 46.334473509305099 0 46.334473509305099 103.72308581927427 0 0 0 0 -12.242180284230272 38.61318758977967 0 38.61318758977967 14.087453479183832 0 0 0 0 12.081887755711932 9.0491559049405623 0 9.0491559049405623 99.777792329918157 0 0 0 0 -12.196286691216301 16.406643990932935 0 16.406643990932935 133.90137231189874 0 0 0 0 -3.2983851427211448 28.182687714170243 0 28.182687714170243 104.40664320380256 0 0 0 0 -8.9620593321201341 28.168333495808838 0 28.168333495808838 123.693970326407 0 0 0 0 4.7957037430137675 27.548282358075671 0 27.548282358075671 40.782796009520368 0 0 0 0 -4.210701620883583 13.545171821664553 0 13.545171821664553 115.82481774619373 0 0 0 0 -4.0835931630486861 2.8033163818806237 0 2.8033163818806237 94.850846342874107 0 0 0 0 -12.054768350904396 -32.515040750375192 0 -32.515040750375192 182.48281608614161 0 0 0 0 3.0749127643427823 -2.0120349082921436 0 -2.0120349082921436 21.882276751638926 0 0 0 0 129.95719835013182 -92.92419403144595 0 -92.92419403144595 -334.54812277588644 0 0 0 0 -142.15066278600867 41.992359256513737 0 41.992359256513737 401.4055419730139 0 0 0 0 122.54040627470511 493.3472627867759 0 493.3472627867759 361.50824386833119 0 0 0 0 -27.129329802259406 7.4593650671613432 0 7.4593650671613432 47.36582507253479 0 0 0 0 121.62208324106552 -145.77705499092826 0 -145.77705499092826 -654.83828462800011 0 0 0 0 -7.028264387075116 0.58997145683056118 0 0.58997145683056118 14.603284366522701 0 0 0 0 66.227265908345544 -212.03935907144478 0 -212.03935907144478 219.90536945909116 0 0 0 0 197.92846138079017 245.16529157869081 0 245.16529157869081 -192.99879576754029 0 0 0 0 163.86535636438452 -99.793179175034311 0 -99.793179175034311 127.88860743633995 0 0 0 0 -144.57706883323499 -128.04654662701751 0 -128.04654662701751 112.61498707922874 0 0 0 0 63.130030154969063 -63.252560930210166 0 -63.252560930210166 131.08109334690926 0 0 0 0 -17.356324982901242 -191.21092583335121 0 -191.21092583335121 251.08388604789798 0 0 0 0 18.978798327501863 14.767900000719237 0 14.767900000719237 1.8544127680652309 0 0 0 0 5.3654413831881342 8.8308440459643691 0 8.8308440459643691 4.4688380816665472 0 0 0 0 98.798170630385357 35.508156726675224 0 35.508156726675224 46.273165620310465 0 0 0 0 77.563637719222243 -16.389055445506528 0 -16.389055445506528 97.988778625302075 0 0 0 0 0.89053987071392271 -0.20558518796687508 0 -0.20558518796687508 -0.31877455095087726 0 0 0 0 75.010716053497163 -31.659575226187371 0 -31.659575226187371 12.196597427449888 0 0 0 0 -25.794641852793575 5.2655056530566071 0 5.2655056530566071 116.20778354365029 0 0 0 0 -10.17159776898734 -17.087901813702047 0 -17.087901813702047 56.172162272137939 0 0 0 0 -27.53823458396073 -36.117836205994536 0 -36.117836205994536 104.00204885059793 0 0 0 0 -17.446558864241524 -4.5868736769552925 0 -4.5868736769552925 111.72473688882201 0 0 0 0 -27.23357911245148 -11.793809820508613 0 -11.793809820508613 113.62105747206078 0 0 0 0 8.6666947542107664 -95.812760042172158 0 -95.812760042172158 286.12923012423562 0 0 0 0 -30.010699217840738 -11.083695976012677 0 -11.083695976012677 112.43532892609073 0 0 0 0 -0.55943504643255437 -29.577914038713061 0 -29.577914038713061 121.09923203579092 0 0 0 0 121.78029269304898 -92.204489520197967 0 -92.204489520197967 29.163223823394219 0 0 0 0 95.692907198936155 -33.124862655051402 0 -33.124862655051402 28.353869761750502 0 0 0 0 34.883560837592086 -81.969400402242172 0 -81.969400402242172 272.56897044378275 0 0 0 0 1.1028270717384743 -0.34745160845970702 0 -0.34745160845970702 2.956510940841909 0 0 0 0 1.344078247708552 -0.1596448371330581 0 -0.1596448371330581 2.4295559363608703 0 0 0 0 6.3307691289055583 32.198491989873219 0 32.198491989873219 7.6181573413632577 0 0 0 0 35.162921287144854 6.5315926539769862 0 6.5315926539769862 9.7805298928187767 0 0 0 0 -1.1447764757685945 2.5225503631227184 0 2.5225503631227184 51.030924634935218 0 0 0 0 47.17391663192393 -67.242681965988595 0 -67.242681965988595 47.002950896450784 0 0 0 0 -17.015070001423737 3.5338708910931018 0 3.5338708910931018 30.726444185042055 0 0 0 0 -1.0852991606589057 -8.1433434007340111 0 -8.1433434007340111 46.956997571171087 0 0 0 0 -10.45092896071219 4.7530107925776974 0 4.7530107925776974 307.89385768654756 0 0 0 0 -9.9022781944072449 2.387820946568354 0 2.387820946568354 283.79434786914499 0 0 0 0 0.9372883127516225 1.5246247363691126 0 1.5246247363691126 2.3630820468249567 0 0 0 0 0.36890091643726919 -0.96198677895881701 0 -0.96198677895881701 24.907378953692387 0 0 0 0 0.73994330892310245 -9.6457370012212778 0 -9.6457370012212778 34.56919823444332 0 0 0 0 2.590121378789263 6.7034809359829524 0 6.7034809359829524 15.839268681767862 0 0 0 0 0.9866440755867103 2.002175888271772 0 2.002175888271772 13.775054543203964 0 0 0 0 1.2514164767474938 1.9051684826437167 0 1.9051684826437167 7.754436016572015 0 0 0 0 0.86942842024745914 -7.8657259736364722 0 -7.8657259736364722 25.391893213352887 0 0 0 0 4.4313299825080321 42.603236984265095 0 42.603236984265095 42.829285606327176 0 0 0 0 8.9088672722136835 13.298786449100589 0 13.298786449100589 19.31918674036217 0 0 0 0 52.155208249387215 -0.69008896430023015 0 -0.69008896430023015 33.79830700828461 0 0 0 0 3.3607613018194655 8.6153570380710391 0 8.6153570380710391 6.6115487942413864 0 0 0 0 -96.186360390995105 -0.31841697630443377 0 -0.31841697630443377 74.498104975151364 0 0 0 0 1.7897594188107178 11.506615139980568 0 11.506615139980568 38.12827586432104 0 0 0 0 -35.187785963276838 30.186132286835345 0 30.186132286835345 -3.6449588043324184 0 0 0 0 -0.9991155142271495 0.58309588478978469 0 0.58309588478978469 2.8261506433009629 0 0 0 0 3.4107467355004317 12.503462938460579 0 12.503462938460579 15.927681792488528 0 0 0 0 3.1415955627890071 -3.1107963479444152 0 -3.1107963479444152 19.231268458737759 0 0 0 0 5.3972312003261322 -21.809084751526825 0 -21.809084751526825 9.5628666034463095 0 0 0 0 -86.461527994448261 43.381615088554099 0 43.381615088554099 65.141966434799542 0 0 0 0 -13.954250810038502 -69.511241378582781 0 -69.511241378582781 65.351855910063023 0 0 0 0 -2.0463144395689596 30.657312216120772 0 30.657312216120772 41.307692859114468 0 0 0 0 2.1629786547237018 -14.179673957623891 0 -14.179673957623891 13.084371916760574 0 0 0 0 -3.6060228416281461 -21.929625308490358 0 -21.929625308490358 28.469392615181278 0 0 0 0 23.404119889348294 14.228154316397195 0 14.228154316397195 17.892773413652321 0 0 0 0 40.272269095494721 30.165669536779205 0 30.165669536779205 -1.3894485171476845 0 0 0 0 -2.4044336905171804 -2.9982841470955464 0 -2.9982841470955464 9.2394620186823886 0 0 0 0 1.5158116159036581 -23.849170973036962 0 -23.849170973036962 -3.2491601767978864 0 0 0 0 16.758137811926645 -9.3391076083626103 0 -9.3391076083626103 -25.886529242387041 0 0 0 0 37.607699512394902 16.898377251345664 0 16.898377251345664 -11.982386742987728 0 0 0 0 -0.34869211403486133 1.2568057240243036 0 1.2568057240243036 3.2252323793873927 0 0 0 0 0.60071707628276272 -8.4830072627428308 0 -8.4830072627428308 2.2228388240619097 0 0 0 0 -0.70929004628487746 -13.889639196146163 0 -13.889639196146163 -3.2355130999349058 0 0 0 0 -4.6777868303652212 -12.620492217814899 0 -12.620492217814899 2.3684070386516396 0 0 0 0 -17.529387884776952 -15.045050479224301 0 -15.045050479224301 -2.2062002547390875 0 0 0 0 -15.507559089438473 -6.0500671344289003 0 -6.0500671344289003 0.50975812252727337 0 0 0 0 -11.663629361099083 -4.2804937243417953 0 -4.2804937243417953 0.90613767827744596 0 0 0 0 22.707526812260767 -80.571841922705062 0 -80.571841922705062 -101.2075539844227 0 0 0 0 -75.417571532281727 -38.032748912719399 0 -38.032748912719399 -2.7247052017628448 0 0 0 0 -13.462738718912078 -88.275572530037607 0 -88.275572530037607 18.374918510729913 0 0 0 0 22.618473884265768 -15.750265078073426 0 -15.750265078073426 -73.808544058047119 0 0 0 0 -1.1329545516157111 0.29497432274703783 0 0.29497432274703783 -1.1908055690077646 0 0 0 0 105.96273768117135 -141.79840832049376 0 -141.79840832049376 -216.15295725205215 0 0 0 0 16.253225741217648 41.29978824374848 0 41.29978824374848 61.206676010973752 0 0 0 0 5.8653056928342266 0.2799190617952263 0 0.2799190617952263 21.254332480268204 0 0 0 0 5.2764636273946053 9.4476515753353567 0 9.4476515753353567 7.6876735730995591 0 0 0 0 6.1902389022371693 24.904077657767431 0 24.904077657767431 39.187428842349618 0 0 0 0 -3.6488862629958021 4.2299063834964699 0 4.2299063834964699 6.2873178104980241 0 0 0 0 45.327383715062751 -18.462938577271416 0 -18.462938577271416 -213.03103234104492 0 0 0 0 74.490312522475506 160.73744149425329 0 160.73744149425329 64.12506792590284 0 0 0 0 -13.44027120480132 62.686086260160664 0 62.686086260160664 50.745511658310534 0 0 0 0 43.005374014930567 59.26347930494012 0 59.26347930494012 -175.83125108760578 0 0 0 0 -14.679222576317443 -43.077909507166623 0 -43.077909507166623 72.448337044290383 0 0 0 0 4.8887892049297079 14.79170146999968 0 14.79170146999968 83.329404777647142 0 0 0 0 -4.5791902626201875 -8.5553657557814091 0 -8.5553657557814091 16.683376155907183 0 0 0 0 1.0965738316103426 24.811684149812024 0 24.811684149812024 16.198474958909088 0 0 0 0 0.75804358429228103 24.757818210388336 0 24.757818210388336 13.332418820901268 0 0 0 0 30.083190124294561 54.667140772646235 0 54.667140772646235 -170.94207759540768 0 0 0 0 3.7020840901695919 10.292496063160797 0 10.292496063160797 67.739123242005007 0 0 0 0 1.5200230392583762 18.825635607892764 0 18.825635607892764 61.288992444511678 0 0 0 0 -5.5312877780270355 15.777736970478145 0 15.777736970478145 66.969250836409628 0 0 0 0 -12.476832874614693 -2.4525954685159803 0 -2.4525954685159803 23.611192395285499 0 0 0 0 0.47572525915438746 15.234968301333538 0 15.234968301333538 64.508864706149325 0 0 0 0 -14.329550252670742 20.322934945674206 0 20.322934945674206 75.708356277467828 0 0 0 0 -5.4927266058602982 27.672905622697726 0 27.672905622697726 105.55950939944887 0 0 0 0 1.8105850459737667 22.366693321899675 0 22.366693321899675 78.308175913640298 0 0 0 0 -8.8902952480229303 -8.4892944434626827 0 -8.4892944434626827 6.504601927224158 0 0 0 0 -1.1462730163766537 14.444081342429854 0 14.444081342429854 90.966339042199252 0 0 0 0 -6.1873281209063862 26.509565784181177 0 26.509565784181177 78.571119977343187 0 0 0 0 -5.414034091605572 12.739907805014809 0 12.739907805014809 84.578671840372408 0 0 0 0 -1.8062315862734977 29.876043441450747 0 29.876043441450747 98.134863366463833 0 0 0 0 -2.7560404867390389 -1.1259444238094147 0 -1.1259444238094147 89.978759737430664 0 0 0 0 2.992821631651168 19.452479892954216 0 19.452479892954216 87.105927877753857 0 0 0 0 -10.199535886304147 9.0442927470940049 0 9.0442927470940049 86.734918669124454 0 0 0 0 -8.0216508265802986 12.154913518104877 0 12.154913518104877 86.073423595064924 0 0 0 0 -20.756241680165829 25.003042317154836 0 25.003042317154836 73.142612261712202 0 0 0 0 -35.164284313934331 3.6181430997530697 0 3.6181430997530697 90.05894255284511 0 0 0 0 -20.600405593540927 9.7380963214709482 0 9.7380963214709482 91.097160765981243 0 0 0 0 -40.907920898849625 37.102496679611249 0 37.102496679611249 59.778751116304193 0 0 0 0 -14.981021637233425 11.36502595490856 0 11.36502595490856 59.013307868561242 0 0 0 0 2.5484778225452516 4.4653465603746412 0 4.4653465603746412 0.13490216132350952 0 0 0 0 -12.625854996076669 14.347378805665358 0 14.347378805665358 36.520265337549063 0 0 0 0 -23.33675867709826 50.297140339978796 0 50.297140339978796 1.8752525310446799 0 0 0 0 -1.1181510191890993 20.647830304762465 0 20.647830304762465 60.238254167768901 0 0 0 0 2.3035093957394785 15.889736429634901 0 15.889736429634901 54.119051196431457 0 0 0 0 2.5708065295038978 23.617213337813155 0 23.617213337813155 61.882219119106594 0 0 0 0 -10.453252396959215 23.359406102175853 0 23.359406102175853 61.166665328280942 0 0 0 0 -0.33320183334626563 15.309453928145558 0 15.309453928145558 67.392483038682258 0 0 0 0 -3.4838482657463601 3.5126227206542637 0 3.5126227206542637 14.641800716138476 0 0 0 0 -1.0850487510670064 23.417606103135768 0 23.417606103135768 51.735376873286441 0 0 0 0 55.45705361031105 -112.93345380240498 0 -112.93345380240498 209.36481767391524 0 0 0 0 2.6913733072843797 15.671956131863894 0 15.671956131863894 51.286901863707385 0 0 0 0 36.869819957974869 -98.174219575789721 0 -98.174219575789721 282.80541532210191 0 0 0 0 -112.08161279975866 -45.716476584810152 0 -45.716476584810152 50.752179605929996 0 0 0 0 511.55800988208466 461.61790359688894 0 461.61790359688894 10.215272537454439 0 0 0 0 1.7992591939108316 3.9790844572337392 0 3.9790844572337392 19.872279115067585 0 0 0 0 241.08901979097209 424.06397773163917 0 424.06397773163917 336.77634484213195 0 0 0 0 630.2266867180424 -443.37365495656923 0 -443.37365495656923 356.6594439317887 0 0 0 0 120.93697621102729 -137.0321962010421 0 -137.0321962010421 206.63805310038151 0 0 0 0 -10.653445007112168 -357.02348351869659 0 -357.02348351869659 597.46466153350775 0 0 0 0 84.140784547846124 -118.94982193068427 0 -118.94982193068427 460.76652667310191 0 0 0 0 191.41148185098973 193.01300418957544 0 193.01300418957544 61.799644573846308 0 0 0 0 6.0083088890460203 -175.57166198053164 0 -175.57166198053164 189.73031244824961 0 0 0 0 -125.95100975511377 224.36779807676794 0 224.36779807676794 1297.9693446855599 0 0 0 0 1.2687078168983632 0.2334449076379741 0 0.2334449076379741 1.0503035230455673 0 0 0 0 -55.553309049078962 163.84421834611567 0 163.84421834611567 631.6668422298826 0 0 0 0 4.0225293221124332 3.1329065747454337 0 3.1329065747454337 1.6413781069005253 0 0 0 0 -106.8376529957859 47.821987993036601 0 47.821987993036601 836.0057183771205 0 0 0 0 -11.389391198123121 2.5341266544055543 0 2.5341266544055543 557.94950739699561 0 0 0 0 -1.1043434571756734 -39.495141288696686 0 -39.495141288696686 724.08198456429818 0 0 0 0 3.6549158452415966 4.6987543124116655 0 4.6987543124116655 2.1851000173479704 0 0 0 0 40.412378978862762 138.90369704558543 0 138.90369704558543 380.77603288567479 0 0 0 0 -8.487412972302991 112.42293166470336 0 112.42293166470336 -143.19585521718363 0 0 0 0 -26.582719774970428 15.53950886047096 0 15.53950886047096 5.8017200167669216 0 0 0 0 -94.74217888923431 94.116519567556679 0 94.116519567556679 41.756126450309239 0 0 0 0 -17.624723173088569 -1.7840592778829887 0 -1.7840592778829887 86.961009386504884 0 0 0 0 37.489222763664657 59.087048395078455 0 59.087048395078455 147.25608670481233 0 0 0 0 -47.43762049653742 16.602315140749852 0 16.602315140749852 106.39386230099626 0 0 0 0 -31.514621208445533 -4.5041513854775985 0 -4.5041513854775985 132.54314295043878 0 0 0 0 -55.555576682452738 83.967294773334288 0 83.967294773334288 67.999210771322396 0 0 0 0 33.450816659733391 -34.353160712780664 0 -34.353160712780664 211.03778821465676 0 0 0 0 12.089665550496647 -39.362750253989361 0 -39.362750253989361 242.22277491800196 0 0 0 0 19.017563193885508 -67.542923502387566 0 -67.542923502387566 348.04721091719694 0 0 0 0 90.582564448533958 -33.089845724090992 0 -33.089845724090992 147.30389742490661 0 0 0 0 19.21579480121909 -68.067293740765308 0 -68.067293740765308 283.11651550252282 0 0 0 0 -16.137618859555005 47.250784041782026 0 47.250784041782026 137.15253100808422 0 0 0 0 -0.29618337064130174 -29.049846221303596 0 -29.049846221303596 -76.698353573825443 0 0 0 0 59.578041508181741 -9.3811229559469211 0 -9.3811229559469211 61.138038901481195 0 0 0 0 65.974893491575131 37.507374125802016 0 37.507374125802016 285.35491971780721 0 0 0 0 61.049405388357627 93.254286821858841 0 93.254286821858841 168.18710203020601 0 0 0 0 58.594920164654468 272.77388697985862 0 272.77388697985862 343.73167757832562 0 0 0 0 259.08799190952027 122.17146913683882 0 122.17146913683882 456.84957397790276 0 0 0 0 62.233909330530878 282.18603745830478 0 282.18603745830478 71.454284616711448 0 0 0 0 1.8680348582604722 1.3235935494570157 0 1.3235935494570157 0.91351334528263806 0 0 0 0 125.85885147909903 200.47466758711744 0 200.47466758711744 -360.16269078995902 0 0 0 0 -142.94229361903126 62.208565943648864 0 62.208565943648864 1125.7059583164155 0 0 0 0 94.395640967173676 54.088516509298643 0 54.088516509298643 511.84627408043889 0 0 0 0 58.064630530971044 244.80916529076057 0 244.80916529076057 392.97882176548592 0 0 0 0 -80.33601915228428 345.13019574878854 0 345.13019574878854 916.61956617697433 0 0 0 0 81.043481160811098 -135.95578194300469 0 -135.95578194300469 192.13675731823605 0 0 0 0 292.50618240045515 252.99958051691647 0 252.99958051691647 559.87553874577861 0 0 0 0 -170.44325893064524 145.10015688588464 0 145.10015688588464 726.40307136496267 0 0 0 0 -99.375649997785786 93.677428931101531 0 93.677428931101531 1168.2204978975351 0 0 0 0 -140.67116602695569 -68.093943651125301 0 -68.093943651125301 1236.971754068607 0 0 0 0 3.6122467047800164 1.479827741900948 0 1.479827741900948 1.2664711692570023 0 0 0 0 74.528301292470132 -5.185230526880332 0 -5.185230526880332 -33.410402390218223 0 0 0 0 -152.23687493432135 -42.525160105084069 0 -42.525160105084069 1413.2804379025329 0 0 0 0 179.67037036348711 151.39938701269784 0 151.39938701269784 146.58531023849355 0 0 0 0 6.7583703284148271 3.3637878122175522 0 3.3637878122175522 1.4197908419259715 0 0 0 0 320.19960747051482 103.64315474710747 0 103.64315474710747 678.46692134652039 0 0 0 0 -105.88543756680383 99.372529038131688 0 99.372529038131688 1344.2589198802016 0 0 0 0 -50.778722464860039 -47.282008629790653 0 -47.282008629790653 747.23390037562058 0 0 0 0 -101.16670788341798 53.498261574484786 0 53.498261574484786 559.56481926659944 0 0 0 0 -58.421312069305941 52.102174690980064 0 52.102174690980064 594.26945429647458 0 0 0 0 -47.666146866975396 25.516125841204484 0 25.516125841204484 285.8619741468865 0 0 0 0 23.521492124578799 231.39744456532935 0 231.39744456532935 661.81398721852474 0 0 0 0 57.155868012388964 41.998182274539431 0 41.998182274539431 282.70927494316402 0 0 0 0 43.122984025520509 -36.10536618853439 0 -36.10536618853439 83.724514050772996 0 0 0 0 -0.46501962401009322 1.5841211443308509 0 1.5841211443308509 0.079085539826593276 0 0 0 0 47.434212127204773 -22.232191428325677 0 -22.232191428325677 149.56490077965282 0 0 0 0 96.104843562648966 -27.322709010728431 0 -27.322709010728431 24.168859245448402 0 0 0 0 95.669651883004917 26.997844931938744 0 26.997844931938744 -23.492394409939152 0 0 0 0 138.1788292589963 27.091906697134618 0 27.091906697134618 49.203088672591548 0 0 0 0 26.243804278222342 -11.622918628352636 0 -11.622918628352636 50.481543752550351 0 0 0 0 67.83996917807417 -44.888445666572807 0 -44.888445666572807 16.092875785245269 0 0 0 0 28.607989483800679 -22.172962831138193 0 -22.172962831138193 -1.7938362346831127 0 0 0 0 5.0541676012153403 57.367971396224675 0 57.367971396224675 54.549241217478993 0 0 0 0 -42.190036461763157 -3.003570821678295 0 -3.003570821678295 97.064617417447153 0 0 0 0 81.685765529616219 -47.548933591611785 0 -47.548933591611785 62.915805799144437 0 0 0 0 23.517055869291653 -113.34020580599463 0 -113.34020580599463 365.98732770718743 0 0 0 0 261.12481766260771 33.608272151184792 0 33.608272151184792 -90.143270545500854 0 0 0 0 -68.420760790537315 -16.969878772553784 0 -16.969878772553784 805.563627574782 0 0 0 0 -12.020770069688112 -533.39612126183192 0 -533.39612126183192 1103.3981643889274 0 0 0 0 -77.149242774770215 -450.2459923413229 0 -450.2459923413229 2110.1963979470456 0 0 0 0 907.85235793122229 -1022.9554995143735 0 -1022.9554995143735 925.6178615355675 0 0 0 0 448.68733560340843 555.25072049471055 0 555.25072049471055 1049.1585556221507 0 0 0 0 975.48817581164622 -398.57447599999432 0 -398.57447599999432 336.52114916775099 0 0 0 0 296.2114924548805 739.15249430366021 0 739.15249430366021 34.119536176436213 0 0 0 0 -142.65483522467366 -145.20936720147438 0 -145.20936720147438 1137.886490014258 0 0 0 0 -184.43369694900957 38.705460503069844 0 38.705460503069844 618.15966801773175 0 0 0 0 241.85862121096579 -60.178457545848687 0 -60.178457545848687 61.838398569321726 0 0 0 0 150.0167718938319 -204.1071995993334 0 -204.1071995993334 312.68753020079021 0 0 0 0 102.84820485779164 -12.46373431261236 0 -12.46373431261236 76.802031375541446 0 0 0 0 172.654417046655 -48.20124126180599 0 -48.20124126180599 -64.070278795101331 0 0 0 0 187.45498216161104 8.0679576404327236 0 8.0679576404327236 -243.36302317135414 0 0 0 0 94.124096143921633 0.6324897617669194 0 0.6324897617669194 204.4144024905836 0 0 0 0 -26.668892244093172 737.17371494938675 0 737.17371494938675 -396.130149738201 0 0 0 0 115.66233687086424 -114.52182920365703 0 -114.52182920365703 36.538843101894599 0 0 0 0 -511.89361459220686 636.58272918778493 0 636.58272918778493 2.5591990249388346 0 0 0 0 33.767267303001042 56.333150895041271 0 56.333150895041271 81.985242239168343 0 0 0 0 -344.57936541712479 -361.37808251596289 0 -361.37808251596289 1125.3183547771887 0 0 0 0 -175.5887264393026 -144.08547979243485 0 -144.08547979243485 183.59148012172363 0 0 0 0 -370.88360076682318 144.97208851099867 0 144.97208851099867 981.27202483746078 0 0 0 0 30.430272612589814 51.62502643853508 0 51.62502643853508 76.733619162569141 0 0 0 0 -367.02120161285785 313.6959596916065 0 313.6959596916065 395.38601300921437 0 0 0 0 237.76556917875871 -564.53507165437259 0 -564.53507165437259 366.28686638944839 0 0 0 0 -55.544136130622064 249.36184713855437 0 249.36184713855437 -207.884323074024 0 0 0 0 87.874847875412797 20.327471433487517 0 20.327471433487517 -25.084998046950204 0 0 0 0 152.85237321193563 38.798049179265945 0 38.798049179265945 -83.97271229130547 0 0 0 0 49.863895589703134 108.8250150277745 0 108.8250150277745 -26.893073178398481 0 0 0 0 6.1489588192574693 9.2633617889224329 0 9.2633617889224329 -0.81317734744604309 0 0 0 0 21.474376920613789 38.042953416292221 0 38.042953416292221 67.063039983190777 0 0 0 0 488.59054719020742 185.17513893410069 0 185.17513893410069 153.95162229617563 0 0 0 0 -210.66122256207927 -333.89172536798287 0 -333.89172536798287 100.40348563051521 0 0 0 0 24.579197631789249 15.72181036814488 0 15.72181036814488 17.360157432746149 0 0 0 0 7.3883922382556193 9.0157994441160554 0 9.0157994441160554 7.2064295184973162 0 0 0 0 12.12296939220435 14.056889453355026 0 14.056889453355026 39.660097553548724 0 0 0 0 108.45758615327645 441.96781392426783 0 441.96781392426783 653.52963052032283 0 0 0 0 393.34404556713383 -1077.9880463484751 0 -1077.9880463484751 3498.2993623179682 0 0 0 0 18.164882016378961 8.0966439929066354 0 8.0966439929066354 20.636641362618761 0 0 0 0 -887.43492503211746 -294.7236050303909 0 -294.7236050303909 208.94021693817194 0 0 0 0 946.35482922633844 -1772.7593578853375 0 -1772.7593578853375 4242.5236571397472 0 0 0 0 340.75811275334559 -93.493398037677252 0 -93.493398037677252 -341.61676149767663 0 0 0 0 10.382930898802773 2.4628136297019907 0 2.4628136297019907 11.228467525178907 0 0 0 0 1210.4554750797506 -410.42198333108172 0 -410.42198333108172 -344.82565695539597 0 0 0 0 489.3538492159326 -982.93164229979448 0 -982.93164229979448 4640.1517558729538 0 0 0 0 -423.25778840158114 -1116.7236750152733 0 -1116.7236750152733 3314.5321916716039 0 0 0 0 1040.0529359385675 -1637.3939924808524 0 -1637.3939924808524 3499.6419043542919 0 0 0 0 1870.6697836045309 -1496.6801244617536 0 -1496.6801244617536 553.65599892741739 0 0 0 0 -117.67842489497379 -437.75855861903437 0 -437.75855861903437 1126.7518528413202 0 0 0 0 -458.0326240042109 -425.94163241011847 0 -425.94163241011847 1956.7999844580372 0 0 0 0 -491.94615007534287 -728.03465313202832 0 -728.03465313202832 2018.7969110136873 0 0 0 0 -885.31600986410558 -602.659844240452 0 -602.659844240452 3499.3788521895085 0 0 0 0 32.446121714849141 -11.416567458843929 0 -11.416567458843929 10.646461906366312 0 0 0 0 7.6071216191710498 -8.2631845467063201 0 -8.2631845467063201 28.911665898200226 0 0 0 0 47.327550394136779 -8.2118852513121965 0 -8.2118852513121965 3.5543918966322963 0 0 0 0 46.845960906494156 -0.97421482011668559 0 -0.97421482011668559 5.9173171911243116 0 0 0 0 -91.317128736323184 65.169193707901286 0 65.169193707901286 29.991217218768725 0 0 0 0 -14.101778618083927 85.713707899260044 0 85.713707899260044 -65.559060459847387 0 0 0 0 -8.9229453634595757 -55.952957101442735 0 -55.952957101442735 27.202656664798269 0 0 0 0 2.7107861980007328 -473.40629977660501 0 -473.40629977660501 447.62388878694765 0 0 0 0 3.2194690889120769 -10.962520042697612 0 -10.962520042697612 24.241575793814519 0 0 0 0 8.1342428745570032 -11.069756160414727 0 -11.069756160414727 11.338970716707991 0 0 0 0 55.18492956166665 -1.5219303602207219 0 -1.5219303602207219 -5.4477021790062281 0 0 0 0 73.264146706704764 -1.0978075326884209 0 -1.0978075326884209 -5.4525346564551 0 0 0 0 -0.8955524561754391 0.731941804438204 0 0.731941804438204 -2.0122940222728118 0 0 0 0 36.163406914738516 22.894472689265967 0 22.894472689265967 -0.86426337615557713 0 0 0 0 47.771792939684019 23.205371850086522 0 23.205371850086522 6.0199393131442775 0 0 0 0 59.501063280245944 15.47810808644499 0 15.47810808644499 -2.5320215020110481 0 0 0 0 63.25981850372591 7.1418144107119588 0 7.1418144107119588 1.7898665085158427 0 0 0 0 47.749590690991681 5.7905001992257894 0 5.7905001992257894 10.084426913832431 0 0 0 0 48.800168768621006 0.16196419875632273 0 0.16196419875632273 6.5574306780945335 0 0 0 0 110.89171827744593 -317.2260535482128 0 -317.2260535482128 1531.8205450627429 0 0 0 0 30.059276636631566 1.1641961792527553 0 1.1641961792527553 4.5691421130340188 0 0 0 0 37.462615947338236 9.719898816636487 0 9.719898816636487 32.905171730162692 0 0 0 0 41.361302385166709 10.957062974543078 0 10.957062974543078 16.393379412795184 0 0 0 0 31.04820379625 5.0904256024806926 0 5.0904256024806926 6.5467753207712889 0 0 0 0 46.355139622473416 24.947477773768696 0 24.947477773768696 27.07325798679085 0 0 0 0 43.514153852448544 17.652828018844957 0 17.652828018844957 32.097511466316064 0 0 0 0 40.053100102535609 22.64840245414598 0 22.64840245414598 38.346289814293414 0 0 0 0 45.044954064796912 20.764207727166649 0 20.764207727166649 32.042290428842534 0 0 0 0 1522.2994452476485 555.55401190126577 0 555.55401190126577 220.24987470026645 0 0 0 0 332.48686004357165 -1238.519948430343 0 -1238.519948430343 3397.5509506526214 0 0 0 0 11.536509522733796 4.2448247230166771 0 4.2448247230166771 8.5358648820660221 0 0 0 0 121.15516749936739 1968.6763914209369 0 1968.6763914209369 2543.2739304373099 0 0 0 0 163.15721894180791 1279.1119229318647 0 1279.1119229318647 3495.252811044516 0 0 0 0 126.23500322051322 1165.0035789897047 0 1165.0035789897047 3228.1729653721122 0 0 0 0 83.700686852368051 1100.3520733855512 0 1100.3520733855512 3500.7211602304415 0 0 0 0 555.21900555567345 1467.8987643702276 0 1467.8987643702276 3277.739194017202 0 0 0 0 34.702207750143316 -0.21322090123794624 0 -0.21322090123794624 20.148792826585122 0 0 0 0 4.9621640636108104 5.828863185746755 0 5.828863185746755 8.43586959113793 0 0 0 0 11.600803673275511 9.2601581711717955 0 9.2601581711717955 0.89191915853245973 0 0 0 0 298.90966392109914 1001.0949855410909 0 1001.0949855410909 2791.0926006580667 0 0 0 0 151.20953473206498 918.14561832553954 0 918.14561832553954 3337.8980124652226 0 0 0 0 98.17555002132508 832.71840626626681 0 832.71840626626681 3094.2763004032313 0 0 0 0 82.794553909922854 877.81165951485855 0 877.81165951485855 3355.106097717533 0 0 0 0 4.0502343283655087 3.422157861635398 0 3.422157861635398 0.65619719467638049 0 0 0 0 235.97651040304407 -87.869800884138385 0 -87.869800884138385 -11.239438784381491 0 0 0 0 141.79106675789419 -35.237718485033838 0 -35.237718485033838 49.443618234225141 0 0 0 0 -10.729442569615003 93.044264494510571 0 93.044264494510571 205.40891024066332 0 0 0 0 5.3841539625413493 -1.5534610180962432 0 -1.5534610180962432 0.64682167069466345 0 0 0 0 415.0426673257216 -55.931452566030202 0 -55.931452566030202 -155.60131906305105 0 0 0 0 100.34476558289134 -104.56362838063433 0 -104.56362838063433 230.71975779453351 0 0 0 0 -379.04058931795976 17.766844315716298 0 17.766844315716298 750.4433388826219 0 0 0 0 12.528144696150372 -1.8356729234290299 0 -1.8356729234290299 0.20064755358412611 0 0 0 0 566.10168459797183 -157.28840695818872 0 -157.28840695818872 -95.394143719939166 0 0 0 0 10.787383261083164 610.33081835107214 0 610.33081835107214 810.33153476583539 0 0 0 0 -228.91266577401171 -55.105552669916506 0 -55.105552669916506 2092.8925134654346 0 0 0 0 373.5236860617843 239.63124407171927 0 239.63124407171927 784.1587172073996 0 0 0 0 441.05727599876542 608.99423386524359 0 608.99423386524359 3315.8616217839844 0 0 0 0 -385.77892381261972 402.99512992479504 0 402.99512992479504 3456.8027258328875 0 0 0 0 -151.33201060815705 661.3138410255724 0 661.3138410255724 3500.007309319546 0 0 0 0 136.27001409308423 847.40206865533037 0 847.40206865533037 3527.2105781578794 0 0 0 0 -45.000048765715874 282.49173387063638 0 282.49173387063638 2045.5787990683148 0 0 0 0 1061.302368612417 478.62982733317222 0 478.62982733317222 3925.2773273775092 0 0 0 0 557.13989509280145 946.4630517283731 0 946.4630517283731 3500.7191361609894 0 0 0 0 807.09807491230004 566.39440061765345 0 566.39440061765345 4742.2975018416764 0 0 0 0 863.93381878211562 849.63876517648532 0 849.63876517648532 3210.8740637231967 0 0 0 0 1057.8124946586408 1953.0358132293586 0 1953.0358132293586 3827.6743608519732 0 0 0 0 854.77496645413623 1193.6866378648956 0 1193.6866378648956 2738.0231625887536 0 0 0 0 823.63066614988361 1258.5952281115278 0 1258.5952281115278 2731.903299732774 0 0 0 0 973.50798941217749 1253.4035429944233 0 1253.4035429944233 2687.774037812007 0 0 0 0 798.51688454554642 1319.1726000125163 0 1319.1726000125163 2714.4620033334286 0 0 0 0 -287.98430246667476 -694.11142722793738 0 -694.11142722793738 -405.69755650737636 0 0 0 0 2.7506487162422726 -21.949885802938311 0 -21.949885802938311 36.475553896256656 0 0 0 0 124.28107020272 912.7920274353819 0 912.7920274353819 3218.4869115986367 0 0 0 0 -278.58748649170502 -313.63122824777383 0 -313.63122824777383 -415.06738945467805 0 0 0 0 834.10268822776175 1175.8595983797568 0 1175.8595983797568 2967.6577384442353 0 0 0 0 1187.0948346771365 1861.0642381435609 0 1861.0642381435609 2996.8413009275828 0 0 0 0 -4.0464070875800005 0.22301233816300225 0 0.22301233816300225 8.4651083722731926 0 0 0 0 1093.7976277230814 615.8277494074573 0 615.8277494074573 -453.64532674031216 0 0 0 0 1137.5147592780299 1440.4316366415069 0 1440.4316366415069 1781.2770623083634 0 0 0 0 -104.72841989621611 -761.38677109406854 0 -761.38677109406854 2488.2240995744614 0 0 0 0 123.78887751206537 -939.19023311980345 0 -939.19023311980345 -333.49513491753896 0 0 0 0 2.3167739498861097 -7.6434696886051228 0 -7.6434696886051228 16.416690526638234 0 0 0 0 923.82179739040726 2035.2718929118128 0 2035.2718929118128 5705.4381071738753 0 0 0 0 -412.75069743447352 -543.69093414503004 0 -543.69093414503004 47.047680735428003 0 0 0 0 233.1719005904481 292.44180173642599 0 292.44180173642599 122.78063602016482 0 0 0 0 360.87830075488029 218.83070052201583 0 218.83070052201583 107.10933087085141 0 0 0 0 239.24660759518065 -321.27168619591976 0 -321.27168619591976 173.0570485378521 0 0 0 0 196.31498224118923 -116.20579619377168 0 -116.20579619377168 350.288826270953 0 0 0 0 7.0446261976864513 -0.53051406511562504 0 -0.53051406511562504 0.13421540590199754 0 0 0 0 -96.765998044737444 334.38235149759566 0 334.38235149759566 521.05795345701813 0 0 0 0 -363.02500743061864 -167.37380496879632 0 -167.37380496879632 543.98698110840633 0 0 0 0 373.44390414028999 104.43512383724737 0 104.43512383724737 285.54524693079293 0 0 0 0 -30.239409962090576 110.95698223988438 0 110.95698223988438 290.28319581981032 0 0 0 0 166.37816657540907 -57.89104546004819 0 -57.89104546004819 302.49891293343535 0 0 0 0 1.8706327938950937 -26.241901221426119 0 -26.241901221426119 51.539489812357431 0 0 0 0 -281.08282373639867 -468.65983311303899 0 -468.65983311303899 -161.83423367474461 0 0 0 0 64.130577982370085 4.725662861688761 0 4.725662861688761 382.15396949173009 0 0 0 0 -1.9359346535841802 -7.7620838995904506 0 -7.7620838995904506 -1.0612645663627518 0 0 0 0 -236.15487797621154 -25.824055005756236 0 -25.824055005756236 120.79526099048235 0 0 0 0 -401.23682583122041 -13.180716066419336 0 -13.180716066419336 142.7012873426429 0 0 0 0 -93.446561631316399 263.7828828116908 0 263.7828828116908 391.31885576446803 0 0 0 0 -176.66597710040742 103.87268706011673 0 103.87268706011673 513.58304070646773 0 0 0 0 -215.43002461787432 -15.811753625777783 0 -15.811753625777783 -93.893136861489438 0 0 0 0 -8.8310932551840153 -292.60364422252314 0 -292.60364422252314 229.37001427485666 0 0 0 0 -0.93915861392996858 0.7884981435998526 0 0.7884981435998526 5.1193829764256975 0 0 0 0 -291.51347328800739 -119.29107901670068 0 -119.29107901670068 207.87346217707091 0 0 0 0 322.30294610801678 436.64135799684846 0 436.64135799684846 411.64926142053446 0 0 0 0 -81.723138928646904 43.143397980193186 0 43.143397980193186 -4.7122560345596867 0 0 0 0 -172.41585294965319 -18.593960985772355 0 -18.593960985772355 40.782637811105815 0 0 0 0 -0.21801537671728743 -2.0958515113896468 0 -2.0958515113896468 11.955973982660595 0 0 0 0 -85.621741229967483 67.695460525785165 0 67.695460525785165 11.97883057715444 0 0 0 0 28.917177348283076 -9.0697513549748692 0 -9.0697513549748692 204.29756926866685 0 0 0 0 123.39137944481377 -106.32770320858981 0 -106.32770320858981 253.51500284329813 0 0 0 0 -87.230916997491022 47.277994246293019 0 47.277994246293019 224.44738550982584 0 0 0 0 -87.156917595750997 62.312949873136859 0 62.312949873136859 226.38959070241253 0 0 0 0 -108.79473877063424 161.85498508806086 0 161.85498508806086 43.645227233035257 0 0 0 0 71.823125855378521 -156.52295593167037 0 -156.52295593167037 -170.85633664648049 0 0 0 0 -244.04448518658228 -82.907408735780336 0 -82.907408735780336 220.93533503509389 0 0 0 0 136.85945755969078 -7.9980248395768285 0 -7.9980248395768285 164.85126491144183 0 0 0 0 144.66975481635154 -10.240539572328998 0 -10.240539572328998 140.8692251003813 0 0 0 0 70.642279261479189 -225.56501343791933 0 -225.56501343791933 300.37475948421343 0 0 0 0 100.8339100238527 -217.78887285685596 0 -217.78887285685596 291.59662417686195 0 0 0 0 87.858271609866279 -213.55697345245426 0 -213.55697345245426 327.55996476767905 0 0 0 0 178.60505514601027 -176.21686608875461 0 -176.21686608875461 282.73608149083884 0 0 0 0 152.53074631799836 65.872497794440278 0 65.872497794440278 558.36377701143647 0 0 0 0 156.92673946558443 66.690801547712908 0 66.690801547712908 518.58572380947589 0 0 0 0 422.09760783017828 -81.698692297366506 0 -81.698692297366506 743.08607319174916 0 0 0 0 256.05074300940578 158.69063382805325 0 158.69063382805325 636.36308673759049 0 0 0 0 135.64984579773954 -178.72557403193059 0 -178.72557403193059 816.32547184693249 0 0 0 0 -131.96038928006055 171.85425181337996 0 171.85425181337996 1304.4216336591489 0 0 0 0 3.9727082143585726 0.80676329984119377 0 0.80676329984119377 1.0812703337309522 0 0 0 0 473.67482295908394 -26.561793485227099 0 -26.561793485227099 796.24662205949426 0 0 0 0 139.42436223128607 304.25723680720694 0 304.25723680720694 1094.4827090227191 0 0 0 0 148.75648791218737 251.93070443793476 0 251.93070443793476 340.01999106102448 0 0 0 0 -3.0298136709923256 33.84508603636823 0 33.84508603636823 -13.465793210343691 0 0 0 0 8.9901623044370176 3.560806091594273 0 3.560806091594273 4.6558474195762187 0 0 0 0 13.154008719703597 40.654237237045891 0 40.654237237045891 786.51192089541837 0 0 0 0 -37.929935521206062 -99.697812108646758 0 -99.697812108646758 762.30949417008378 0 0 0 0 332.18323629094266 -268.30466770882049 0 -268.30466770882049 196.99468227279431 0 0 0 0 2.8769813187436899 1.0800294173291576 0 1.0800294173291576 3.9844525467222809 0 0 0 0 252.68428346018027 -62.55795031821981 0 -62.55795031821981 40.155143246145599 0 0 0 0 9.704268495145179 1.6089911548428688 0 1.6089911548428688 2.5329738320907609 0 0 0 0 35.09626061633503 13.935313662885164 0 13.935313662885164 -6.7023077088306309 0 0 0 0 0.7402944614284479 -43.42865828335016 0 -43.42865828335016 -42.017772291015717 0 0 0 0 -44.644072080508522 -16.529080373868055 0 -16.529080373868055 43.124733113694674 0 0 0 0 4.6465726964776772 -6.0833945254391537 0 -6.0833945254391537 17.684704895852605 0 0 0 0 37.789905967648551 229.83655063950971 0 229.83655063950971 -131.59487811261351 0 0 0 0 33.214431497901387 77.928393599100673 0 77.928393599100673 -12.417018880674732 0 0 0 0 5.9712248055557211 34.615042940640706 0 34.615042940640706 -21.270097384835935 0 0 0 0 62.100108005280617 92.392159521463327 0 92.392159521463327 -84.331818459089845 0 0 0 0 -9.7969868592663261 213.78076686379427 0 213.78076686379427 73.3659362825274 0 0 0 0 3.7229778582681625 0.49589325323152877 0 0.49589325323152877 0.057203233799185682 0 0 0 0 237.96852270167608 -287.77445700838689 0 -287.77445700838689 325.32085969280888 0 0 0 0 -12.161131403434865 26.384743842827447 0 26.384743842827447 184.45057425368577 0 0 0 0 -436.15534307749874 617.953327311061 0 617.953327311061 3498.3099487195941 0 0 0 0 -277.99026232085259 207.15891435408412 0 207.15891435408412 3079.6830321365996 0 0 0 0 -191.33738514903217 382.74714807018609 0 382.74714807018609 2733.8983891710395 0 0 0 0 0.34496325354628038 208.54864637904245 0 208.54864637904245 2658.2039636916015 0 0 0 0 -104.13039326668081 364.99827242172614 0 364.99827242172614 2311.8777445390515 0 0 0 0 -185.65743488840735 738.97416503197019 0 738.97416503197019 2718.0536596748207 0 0 0 0 -76.410718763080069 395.75482633047068 0 395.75482633047068 2270.015570407777 0 0 0 0 -227.41256566287018 700.64597772132038 0 700.64597772132038 2847.8113584043313 0 0 0 0 -157.68515798067585 569.30764066962729 0 569.30764066962729 2310.1341663638323 0 0 0 0 -92.161585051055226 714.20304060511444 0 714.20304060511444 2843.4639940536435 0 0 0 0 -106.30760422733697 605.73968772028093 0 605.73968772028093 3012.158969602242 0 0 0 0 86.438449537957979 969.50610203327233 0 969.50610203327233 3694.1775651174758 0 0 0 0 75.358987653205901 927.91538136198506 0 927.91538136198506 2205.2340357276553 0 0 0 0 73.840748607724564 821.55050954408944 0 821.55050954408944 2214.2548884964781 0 0 0 0 341.9741956519178 1310.4220179933473 0 1310.4220179933473 2923.7135376428605 0 0 0 0 499.81852110103307 1023.9526449256664 0 1023.9526449256664 2604.4167430966481 0 0 0 0 377.13108447221879 1111.9102916987977 0 1111.9102916987977 2011.5626332985703 0 0 0 0 521.96576975690255 613.4453323801863 0 613.4453323801863 1120.5252958869241 0 0 0 0 771.60137222143112 1010.3564056663308 0 1010.3564056663308 1620.9234979865978 0 0 0 0 800.74137669600248 1033.5025532370637 0 1033.5025532370637 1243.2626257270749 0 0 0 0 212.45782753157465 829.6981985641969 0 829.6981985641969 1371.8883577808447 0 0 0 0 447.40751656200274 807.17264055180931 0 807.17264055180931 1179.1271999089804 0 0 0 0 232.12573361423733 723.8766821668687 0 723.8766821668687 1460.6190529136074 0 0 0 0 20.46160844840341 5.7633827628123981 0 5.7633827628123981 56.063335300947074 0 0 0 0 6.0852992293778998 -11.528119753488056 0 -11.528119753488056 21.320187934741881 0 0 0 0 332.21806665155299 754.82576834523206 0 754.82576834523206 1163.3756983407075 0 0 0 0 308.61192617666472 358.0441703964716 0 358.0441703964716 646.62391889862192 0 0 0 0 4.641755143459954 -7.8801788883636377 0 -7.8801788883636377 -5.7319778534440502 0 0 0 0 6.7862988811783778 -29.373833418293387 0 -29.373833418293387 -6.112491801341605 0 0 0 0 -21.584276266070447 -36.760572069557384 0 -36.760572069557384 -6.0541450786986388 0 0 0 0 -0.79862498756415201 -18.147733770846457 0 -18.147733770846457 37.012339917372373 0 0 0 0 -199.50102041351806 -374.66230000779615 0 -374.66230000779615 97.668204814865021 0 0 0 0 424.67138899669135 644.45151968445862 0 644.45151968445862 1120.3378468378796 0 0 0 0 1.0801712325101613 -10.409944824097082 0 -10.409944824097082 36.351570259767726 0 0 0 0 -89.562878507258915 104.82846387556492 0 104.82846387556492 33.929067364933871 0 0 0 0 25.230370985159368 -21.079091415980656 0 -21.079091415980656 102.63721479100059 0 0 0 0 199.45574879321066 134.35952612137771 0 134.35952612137771 75.448582717537647 0 0 0 0 -57.897697173221502 121.83965240877296 0 121.83965240877296 206.57140708909355 0 0 0 0 -77.409232899718972 31.504340242216131 0 31.504340242216131 117.30032714304252 0 0 0 0 -15.762706816886805 46.343281484623731 0 46.343281484623731 21.006021392779076 0 0 0 0 -6.070077366959171 9.2254402030569835 0 9.2254402030569835 64.723465098430012 0 0 0 0 5.0743327777287561 2.9515644909552066 0 2.9515644909552066 40.306251388392411 0 0 0 0 -8.2743919669935195 -2.8247617540672891 0 -2.8247617540672891 43.403326553435193 0 0 0 0 -233.30282306974527 -42.710224780677891 0 -42.710224780677891 139.71145117921697 0 0 0 0 13.669932209073067 11.442203583021183 0 11.442203583021183 51.670169430086389 0 0 0 0 -3.5728172864714178 -5.6350624755889243 0 -5.6350624755889243 31.699759472118075 0 0 0 0 -2.143311877147398 -4.2665088461551193 0 -4.2665088461551193 17.660129968522483 0 0 0 0 24.468070616771683 21.812704145824682 0 21.812704145824682 48.037641136928869 0 0 0 0 -3.0723881367046033 13.181204165703093 0 13.181204165703093 54.601397469559743 0 0 0 0 16.366067141985695 24.117104764853138 0 24.117104764853138 47.719151302648243 0 0 0 0 5.9780716360369297 11.983453868742799 0 11.983453868742799 54.027909957258089 0 0 0 0 -5.0247159902252427 -2.8176981110002828 0 -2.8176981110002828 29.834633741194324 0 0 0 0 13.817748968550163 32.564683252228861 0 32.564683252228861 39.526895469040028 0 0 0 0 7.9629481799720665 13.274406083981447 0 13.274406083981447 23.263042763759273 0 0 0 0 7.3777509967987802 7.1580616471075018 0 7.1580616471075018 8.4813902245649615 0 0 0 0 10.436786136859951 43.666137945328956 0 43.666137945328956 665.36688083417539 0 0 0 0 100.65532496775654 -58.55956588461413 0 -58.55956588461413 462.52731205233431 0 0 0 0 29.261250432497519 221.55126632240808 0 221.55126632240808 476.92537473527773 0 0 0 0 -96.011510806865317 371.79496357094831 0 371.79496357094831 1665.8085839723281 0 0 0 0 81.573939374039355 385.24121481280235 0 385.24121481280235 1253.9178991850204 0 0 0 0 147.08150683415124 449.47645013962028 0 449.47645013962028 633.59271748937681 0 0 0 0 -24.379956769664204 572.25500607888534 0 572.25500607888534 1878.6908904383818 0 0 0 0 -68.007801508263583 753.38819269747182 0 753.38819269747182 2216.451558106226 0 0 0 0 7.9221619882016228 491.90014384407732 0 491.90014384407732 1577.4867007358262 0 0 0 0 -65.372399875355427 606.64933295744777 0 606.64933295744777 2046.7015769161953 0 0 0 0 -150.65909165354162 135.51363940825831 0 135.51363940825831 2056.1888686322854 0 0 0 0 257.8995566847417 134.90306744706231 0 134.90306744706231 1778.0576411403745 0 0 0 0 235.50028775707483 382.42317511506553 0 382.42317511506553 1579.3284580897016 0 0 0 0 -136.75171301612224 181.66879675612654 0 181.66879675612654 1933.7095437828684 0 0 0 0 494.01013107834694 -1.4675623385192011 0 -1.4675623385192011 -24.401930560998153 0 0 0 0 4.0267047759909982 2.5702528986023196 0 2.5702528986023196 2.4766469577135126 0 0 0 0 -54.989031940232508 24.093651888557361 0 24.093651888557361 20.284300853567402 0 0 0 0 -2.4264304328624537 4.0374229958705428 0 4.0374229958705428 5.5018349395537882 0 0 0 0 20.455753914824186 11.668988543104206 0 11.668988543104206 22.164943839685293 0 0 0 0 12.558659496769025 20.216062159703142 0 20.216062159703142 50.732806391082704 0 0 0 0 305.20563681583343 35.257156350286095 0 35.257156350286095 -49.416543129642378 0 0 0 0 -94.474787345722802 252.17065342125716 0 252.17065342125716 -166.26990210317308 0 0 0 0 -71.639362646449854 -49.137883299394161 0 -49.137883299394161 44.763160983849957 0 0 0 0 327.52999048336426 179.74603155634941 0 179.74603155634941 -370.78922308761685 0 0 0 0 451.96443678048411 612.66854352901282 0 612.66854352901282 631.29586085514165 0 0 0 0 -177.88736571009804 -34.849393971424433 0 -34.849393971424433 1712.1835967229999 0 0 0 0 -15.533626895925863 63.737831884980551 0 63.737831884980551 478.00178403393875 0 0 0 0 -193.6923117692138 570.17600110351214 0 570.17600110351214 398.27947376851807 0 0 0 0 -4.8954927268525807 23.301706590311369 0 23.301706590311369 123.85670959262688 0 0 0 0 2.5690764729167319 4.7748627581459715 0 4.7748627581459715 6.7602829978667387 0 0 0 0 -16.503083406649893 -2.8386867703884491 0 -2.8386867703884491 122.74486767115241 0 0 0 0 -7.38461238777451 11.003444142137596 0 11.003444142137596 101.09387411205171 0 0 0 0 -17.448092049167457 -14.840378576926014 0 -14.840378576926014 95.544352860873914 0 0 0 0 0.025759463268176564 25.380316818478605 0 25.380316818478605 13.737313770179753 0 0 0 0 -400.09547649905403 -329.6071495637625 0 -329.6071495637625 2277.1873127824947 0 0 0 0 0.43168580124112488 1.97923555997329 0 1.97923555997329 5.5815666732120803 0 0 0 0 -0.23793448987396562 287.61574482322624 0 287.61574482322624 2335.9865683429089 0 0 0 0 -118.4939260929782 423.55621212317055 0 423.55621212317055 2181.4457800009222 0 0 0 0 0.42871503359324048 58.174135681249027 0 58.174135681249027 256.14027485568658 0 0 0 0 50.224924294156104 73.995653654371836 0 73.995653654371836 206.53509762289468 0 0 0 0 0.089341495369821486 26.248337345459731 0 26.248337345459731 70.408756667624402 0 0 0 0 -0.10918748818231722 -0.055406002809490928 0 -0.055406002809490928 1.0419490098993833 0 0 0 0 68.543661131558267 212.94645650760503 0 212.94645650760503 400.12992508026218 0 0 0 0 16.676638695493352 61.212338591001753 0 61.212338591001753 113.41347327170661 0 0 0 0 -0.076855412674432716 37.18327013429424 0 37.18327013429424 146.750491876257 0 0 0 0 -83.24532840110129 220.14617021911545 0 220.14617021911545 204.2963958982582 0 0 0 0 29.460333800768268 -65.624861979820707 0 -65.624861979820707 291.95804828620749 0 0 0 0 17.355915830439336 85.023698581552026 0 85.023698581552026 48.19815633201506 0 0 0 0 -0.12414934210974898 -0.80633427232086774 0 -0.80633427232086774 2.2232743797587204 0 0 0 0 52.116394751800215 134.40764738328289 0 134.40764738328289 254.76627580780041 0 0 0 0 27.946102411222185 60.378978556153015 0 60.378978556153015 168.08478859989555 0 0 0 0 -0.97668897189046966 -0.96534116663235636 0 -0.96534116663235636 2.1110985335735393 0 0 0 0 627.12858753595492 -214.21369285648689 0 -214.21369285648689 444.7714916105615 0 0 0 0 -200.48641679382217 89.611586452178017 0 89.611586452178017 673.79115846985951 0 0 0 0 336.33409959667813 270.70739441478509 0 270.70739441478509 -338.85661796698332 0 0 0 0 2.1754730823153938 2.2057699242596698 0 2.2057699242596698 2.3601260762297898 0 0 0 0 -29.677636895094707 -220.92666828278743 0 -220.92666828278743 596.10503254944342 0 0 0 0 48.808723534441839 93.637454316063668 0 93.637454316063668 131.71644146853578 0 0 0 0 325.26065183242287 425.97406739087182 0 425.97406739087182 -208.85663136537187 0 0 0 0 -34.039999690796833 58.268752773445158 0 58.268752773445158 195.80845979640435 0 0 0 0 -26.678156946854898 45.35383919384185 0 45.35383919384185 198.2388970075408 0 0 0 0 3.931471148628404 40.565642562825815 0 40.565642562825815 152.30860283967195 0 0 0 0 -37.339603267146373 59.792245631331753 0 59.792245631331753 210.62618352769277 0 0 0 0 -4.7514734361057691 74.59711899436661 0 74.59711899436661 203.05151241863496 0 0 0 0 -17.992628432136684 83.475648473067849 0 83.475648473067849 233.47881830340339 0 0 0 0 -25.594933383175459 21.181366364471614 0 21.181366364471614 157.24652477226482 0 0 0 0 -40.527050986870449 -31.782296913733916 0 -31.782296913733916 39.534888307994976 0 0 0 0 31.824463087574543 12.717129526296048 0 12.717129526296048 52.405730111138837 0 0 0 0 -115.77201210947896 73.402878042739758 0 73.402878042739758 379.26155566001398 0 0 0 0 -120.84092332094406 96.655014348696568 0 96.655014348696568 516.14366939192405 0 0 0 0 112.45288488983721 130.72174765816817 0 130.72174765816817 131.24183188314782 0 0 0 0 -51.950344686896017 -108.0483885423746 0 -108.0483885423746 256.95952511738869 0 0 0 0 -41.364092957038906 48.453550708834882 0 48.453550708834882 196.67540349363117 0 0 0 0 -34.504863140653896 91.083013737938018 0 91.083013737938018 311.65038199046103 0 0 0 0 -40.358766270161823 61.586051819947897 0 61.586051819947897 203.15085689975604 0 0 0 0 -4.2269042508568759 19.245592784631299 0 19.245592784631299 104.16372162313201 0 0 0 0 -9.2537931778703069 -16.024054162669927 0 -16.024054162669927 231.23756899438013 0 0 0 0 -22.55470793402678 5.7362241393711884 0 5.7362241393711884 66.097735210874816 0 0 0 0 0.60488783699471871 4.417523109317159 0 4.417523109317159 6.8923527697712075 0 0 0 0 20.378995137144955 32.735405923980579 0 32.735405923980579 101.29748697354808 0 0 0 0 17.059709022229377 57.060535230344613 0 57.060535230344613 31.95640907685447 0 0 0 0 6.3170152722168531 16.846011001476043 0 16.846011001476043 35.330175313615712 0 0 0 0 63.627089453134147 159.95674841519576 0 159.95674841519576 214.98883358271269 0 0 0 0 0.80848202891709375 9.1083391253453954 0 9.1083391253453954 9.0534550074185631 0 0 0 0 6.9155515049470182 -28.023025754588161 0 -28.023025754588161 94.769418651179876 0 0 0 0 -47.647546436961875 4.0473820223414805 0 4.0473820223414805 317.03653272768133 0 0 0 0 26.986173643703296 91.385079185889481 0 91.385079185889481 108.03388486336917 0 0 0 0 -88.330238673509029 2.3806858278840082 0 2.3806858278840082 127.66102082002544 0 0 0 0 7.6027422404618026 36.206965783889359 0 36.206965783889359 68.774887235274889 0 0 0 0 -2.1581110300580804 53.557007303239516 0 53.557007303239516 81.581325671737432 0 0 0 0 -1.655030749381825 6.2443407116979017 0 6.2443407116979017 26.752123279469259 0 0 0 0 18.272039711802847 88.208043851023831 0 88.208043851023831 68.192239028132462 0 0 0 0 -61.830976824212939 23.278444960269553 0 23.278444960269553 76.821000204130542 0 0 0 0 -26.45379558067998 -1.6894005254071089 0 -1.6894005254071089 36.555241554990062 0 0 0 0 -25.871173612524771 -7.865574408771792 0 -7.865574408771792 79.231661419014813 0 0 0 0 5.7615316598155459 8.0659413899302308 0 8.0659413899302308 64.294209353720362 0 0 0 0 -20.158037636217134 5.3319768436076203 0 5.3319768436076203 48.370177863263507 0 0 0 0 3.4684071009996842 -40.090203639345418 0 -40.090203639345418 3.1984878980110807 0 0 0 0 24.031452526181511 151.50389615134736 0 151.50389615134736 474.95101681728556 0 0 0 0 -16.357150240365748 -3.2205246417922524 0 -3.2205246417922524 34.639178661519452 0 0 0 0 -15.064434579886665 14.705655613186536 0 14.705655613186536 114.05800573095621 0 0 0 0 73.572990390941413 -166.15803644742846 0 -166.15803644742846 124.71037899810472 0 0 0 0 -32.50708660349887 -31.411695276126622 0 -31.411695276126622 51.446696881655896 0 0 0 0 -4.1484696422878429 -7.2133042579783222 0 -7.2133042579783222 -0.7206304276062383 0 0 0 0 -5.3771354501468522 -96.365419884619769 0 -96.365419884619769 115.6704285114829 0 0 0 0 -47.436684456436069 124.70366113853743 0 124.70366113853743 511.45948958144436 0 0 0 0 129.07295041770567 -0.9684915069683484 0 -0.9684915069683484 259.69880972951069 0 0 0 0 67.515982845867711 217.15972143059298 0 217.15972143059298 342.24530147277983 0 0 0 0 55.293635718155201 148.279206170424 0 148.279206170424 27.26332213904243 0 0 0 0 -50.636556589695829 94.286857996426988 0 94.286857996426988 7.1272267083259067 0 0 0 0 90.906888106942006 164.07215042918324 0 164.07215042918324 -1.9968986780077103 0 0 0 0 -8.5439732222204157 71.744582132399955 0 71.744582132399955 248.16980932182196 0 0 0 0 -32.153012320007463 67.282506697105759 0 67.282506697105759 -54.511192003679753 0 0 0 0 24.747754805965677 16.563941643431605 0 16.563941643431605 9.9775472584560418 0 0 0 0 41.138915935693149 214.86468806818084 0 214.86468806818084 -329.61376663472765 0 0 0 0 38.649069284146535 25.773198138467237 0 25.773198138467237 19.891549967981263 0 0 0 0 18.784997745114197 218.26530699285649 0 218.26530699285649 -348.30350367695792 0 0 0 0 -41.565276811771298 228.63935597622594 0 228.63935597622594 -151.11827559708036 0 0 0 0 -10.01256535471839 177.48347322628251 0 177.48347322628251 -116.90715109202392 0 0 0 0 -59.475728402723576 195.33782773843541 0 195.33782773843541 -128.7153013687057 0 0 0 0 -59.812759782216744 205.86714047168061 0 205.86714047168061 -429.48527635796927 0 0 0 0 2.5077265346211135 6.5867039349613776 0 6.5867039349613776 4.2954273918696586 0 0 0 0 -89.207280389877269 129.69271813823434 0 129.69271813823434 -126.63677280488628 0 0 0 0 -75.030342174079351 -13.521210449132923 0 -13.521210449132923 794.89446548477281 0 0 0 0 -39.002963987644762 213.31948573968839 0 213.31948573968839 -339.70788325881585 0 0 0 0 2.2320008377660088 65.004956260163453 0 65.004956260163453 639.00664181447792 0 0 0 0 274.47855924341411 -73.138364183301746 0 -73.138364183301746 316.52958630734065 0 0 0 0 17.064819918339765 -4.0643546673618687 0 -4.0643546673618687 11.91055158939254 0 0 0 0 -44.866788744332894 -87.676165092427254 0 -87.676165092427254 758.33851878036512 0 0 0 0 20.12254813729146 54.864137508069689 0 54.864137508069689 107.6226982295193 0 0 0 0 21.857084108474737 213.22771575688967 0 213.22771575688967 -262.11800528646563 0 0 0 0 36.558944848469942 35.76748839336264 0 35.76748839336264 24.243988664137106 0 0 0 0 13.280254897808845 102.82887872513675 0 102.82887872513675 -188.88622213515919 0 0 0 0 -58.219785662845425 160.43080959330473 0 160.43080959330473 163.55798618300469 0 0 0 0 -13.560884102615091 127.58513241184119 0 127.58513241184119 46.545208271545562 0 0 0 0 -13.613969145826559 169.91475941953831 0 169.91475941953831 -149.01472233988898 0 0 0 0 -30.449792945617446 118.43142413460009 0 118.43142413460009 44.783803963218816 0 0 0 0 -62.109461757482677 131.8474549828934 0 131.8474549828934 25.034398459800286 0 0 0 0 -56.560170733162522 156.5343486807833 0 156.5343486807833 207.03166561204125 0 0 0 0 -18.835462520150031 144.4913738968753 0 144.4913738968753 26.732898467404084 0 0 0 0 -57.775449318765823 95.944386228482472 0 95.944386228482472 188.37291850235488 0 0 0 0 -48.598833875581875 153.32635962342079 0 153.32635962342079 221.62680309393909 0 0 0 0 -46.229428250147976 92.914239382051164 0 92.914239382051164 232.65540516586043 0 0 0 0 40.581520453835765 101.23054302953824 0 101.23054302953824 191.45456969960651 0 0 0 0 -59.363237588364427 51.72766607493395 0 51.72766607493395 357.8107820106743 0 0 0 0 -36.511564741360417 193.52732683112117 0 193.52732683112117 346.71861256979901 0 0 0 0 -48.43569616632012 -27.350172382698474 0 -27.350172382698474 37.816484838756708 0 0 0 0 44.066657217361353 14.859674028158679 0 14.859674028158679 111.66698615135101 0 0 0 0 12.163516478727843 165.91419553428659 0 165.91419553428659 146.86514393772813 0 0 0 0 -19.480596443872855 64.882039561605779 0 64.882039561605779 19.88227937809279 0 0 0 0 11.958488503985791 180.76685200026623 0 180.76685200026623 -71.360688805856626 0 0 0 0 36.610274895873317 95.456201621855143 0 95.456201621855143 21.609516250173328 0 0 0 0 54.05084109950235 -1.9423751878130133 0 -1.9423751878130133 76.802848665916827 0 0 0 0 45.4209799619181 42.475342183966717 0 42.475342183966717 27.609497165196842 0 0 0 0 80.044285850269716 332.47488655599591 0 332.47488655599591 761.66785810712463 0 0 0 0 73.747969583804661 -211.5990637704017 0 -211.5990637704017 1062.8402605903138 0 0 0 0 -11.039792982288986 74.962897086203157 0 74.962897086203157 209.22629083949141 0 0 0 0 8.5983373169552806 -7.0864902451916691 0 -7.0864902451916691 2.6402226046415933 0 0 0 0 48.018447882267765 81.72993031067017 0 81.72993031067017 96.963021248873702 0 0 0 0 4.1673249042988516 34.477301584292945 0 34.477301584292945 75.573405638555414 0 0 0 0 -2.2395851747929214 89.618155021227722 0 89.618155021227722 87.636635187329375 0 0 0 0 -2.1133832570781124 71.933447068367968 0 71.933447068367968 73.459381021079025 0 0 0 0 5.0964886851154603 18.185015139250027 0 18.185015139250027 194.81701320107095 0 0 0 0 -23.659419013065246 67.972695895463403 0 67.972695895463403 266.72155646246756 0 0 0 0 2.2204223205661027 -1.9560837480204043 0 -1.9560837480204043 2.3713509564176576 0 0 0 0 27.402717022148167 48.613056723646878 0 48.613056723646878 179.18688122549793 0 0 0 0 0.034850317066006886 94.138536759983253 0 94.138536759983253 989.07965372336912 0 0 0 0 -33.088369111488362 29.3312985040684 0 29.3312985040684 174.11354384555307 0 0 0 0 0.024971658878481642 124.00139374428909 0 124.00139374428909 17.698784797641565 0 0 0 0 -37.911033112585969 109.17421740714053 0 109.17421740714053 -81.428366477302916 0 0 0 0 4.8374906812067673 89.738194506880973 0 89.738194506880973 -129.49992606996966 0 0 0 0 3.3424831655804339 5.8179000308916216 0 5.8179000308916216 9.0454159083997752 0 0 0 0 -31.057850227876656 160.15487744978236 0 160.15487744978236 -1.5196922891191207 0 0 0 0 41.812123139936659 101.80494074242597 0 101.80494074242597 -47.914983449270949 0 0 0 0 35.885336045276063 125.42428452521563 0 125.42428452521563 -46.795720415401775 0 0 0 0 50.565446301467411 49.032594702216585 0 49.032594702216585 35.035841374718217 0 0 0 0 10.476897577830414 61.191082142177038 0 61.191082142177038 -207.99484555603703 0 0 0 0 -51.257674538187125 -18.840483165641871 0 -18.840483165641871 39.993015804316997 0 0 0 0 5.5766452701227109 -9.2805600899009733 0 -9.2805600899009733 127.62526531422191 0 0 0 0 -6.8793169228908857 70.842620159994112 0 70.842620159994112 240.44242198114807 0 0 0 0 -3.6623286942793434 1.4127768747260063 0 1.4127768747260063 13.359574162676296 0 0 0 0 219.63795311989634 227.19095619784639 0 227.19095619784639 470.75126932411513 0 0 0 0 -85.514617148177933 145.35561967433614 0 145.35561967433614 761.73391518139397 0 0 0 0 140.78612916456768 164.5378778908962 0 164.5378778908962 580.23382032483642 0 0 0 0 -0.29131877324631006 -0.74855970646115111 0 -0.74855970646115111 2.1758918546569248 0 0 0 0 -90.848517558234562 212.60873631155118 0 212.60873631155118 792.03771158387826 0 0 0 0 -60.046461350040772 -12.597260495575028 0 -12.597260495575028 707.4235461819153 0 0 0 0 6.6571843449064687 1.2957685357861521 0 1.2957685357861521 0.51587179660945992 0 0 0 0 -17.518498177920264 181.16097440219164 0 181.16097440219164 1297.5147891921806 0 0 0 0 -48.166380928182662 78.902972164018138 0 78.902972164018138 1148.2959602720584 0 0 0 0 -15.822760664765156 46.614422621412814 0 46.614422621412814 277.53101933507423 0 0 0 0 -54.133156608102581 182.41876860030607 0 182.41876860030607 749.74602119406336 0 0 0 0 191.05281577790265 227.05045181349487 0 227.05045181349487 207.57835005577363 0 0 0 0 -13.284176031100287 -42.066282519765082 0 -42.066282519765082 97.097563108065515 0 0 0 0 10.498280530091506 -8.8088827660030802 0 -8.8088827660030802 720.16027948538976 0 0 0 0 3.3515720816044308 0.64764204119811097 0 0.64764204119811097 0.18272037849884271 0 0 0 0 55.117828113026007 50.23914454246551 0 50.23914454246551 -8.2211692886776291 0 0 0 0 4.2878243100130931 -30.747272300242912 0 -30.747272300242912 4.3328867648815503 0 0 0 0 26.035365301687307 13.450066445941047 0 13.450066445941047 179.20631489946391 0 0 0 0 38.179198425295908 4.9265279219907825 0 4.9265279219907825 316.84287645842414 0 0 0 0 10.299824198408714 -58.103350786859664 0 -58.103350786859664 341.19549147694488 0 0 0 0 48.538319530081935 -55.859998791471298 0 -55.859998791471298 203.56463885082849 0 0 0 0 93.21080261912175 179.5460416391943 0 179.5460416391943 394.4786476537929 0 0 0 0 -15.348180667934685 -11.75642361554128 0 -11.75642361554128 422.9751476936799 0 0 0 0 107.70834647142874 141.62004660716048 0 141.62004660716048 437.89918556695739 0 0 0 0 1.146514095973064 -0.70747461009942469 0 -0.70747461009942469 1.6997352973728113 0 0 0 0 110.59752016774308 177.20703617229515 0 177.20703617229515 382.82114380439452 0 0 0 0 92.314799259835127 247.38540874493629 0 247.38540874493629 425.70181366759789 0 0 0 0 0.18378724456544049 -0.92058843947675939 0 -0.92058843947675939 1.5765119958278291 0 0 0 0 217.04632101456991 28.585120859112067 0 28.585120859112067 2.5481443497792498 0 0 0 0 125.51103729031092 20.81156609088066 0 20.81156609088066 256.08298197638942 0 0 0 0 93.03922704773322 30.024268009994557 0 30.024268009994557 286.43492531332595 0 0 0 0 318.01269320185838 210.69680670908929 0 210.69680670908929 296.26879370151437 0 0 0 0 294.91232487202706 194.79032417874623 0 194.79032417874623 305.79445845747978 0 0 0 0 187.9913314706148 268.04428494059903 0 268.04428494059903 306.7058764310932 0 0 0 0 168.03108065608285 210.57320749829523 0 210.57320749829523 720.72246612009167 0 0 0 0 259.66311435685566 291.32513681438286 0 291.32513681438286 294.63240927789593 0 0 0 0 222.21771854705003 268.27391401456407 0 268.27391401456407 290.61175729010574 0 0 0 0 204.73375771332758 218.07742672128734 0 218.07742672128734 306.92103741105529 0 0 0 0 113.02502039130786 221.61281551157299 0 221.61281551157299 307.00396050990093 0 0 0 0 -94.7349039386404 315.65602995577501 0 315.65602995577501 581.68766663294082 0 0 0 0 195.85001705441346 297.10391857872673 0 297.10391857872673 260.09506302663067 0 0 0 0 106.42476360905903 320.67555837849068 0 320.67555837849068 -149.64371689681161 0 0 0 0 -6.7036780905082889 1.4715041608302073 0 1.4715041608302073 -0.80229897561068242 0 0 0 0 0.7521642553519996 106.78209459998834 0 106.78209459998834 -40.085585462278686 0 0 0 0 50.55251773976363 -143.98994349316854 0 -143.98994349316854 -159.73383374357581 0 0 0 0 403.89031996947961 88.604461490307585 0 88.604461490307585 210.68805809124024 0 0 0 0 -292.78851598315271 133.49937841659812 0 133.49937841659812 297.10571146356961 0 0 0 0 -66.503859650769527 16.192972363172885 0 16.192972363172885 97.894958554963523 0 0 0 0 -43.345900843552045 22.335407899590791 0 22.335407899590791 9.9616527815378504 0 0 0 0 22.178213973112861 44.858081321992358 0 44.858081321992358 5.7489680107937602 0 0 0 0 -171.77570999494196 -48.26727167169156 0 -48.26727167169156 255.64365567132336 0 0 0 0 -19.941912124104476 6.7908861862645438 0 6.7908861862645438 2.9820641248602868 0 0 0 0 -77.542962902667568 -62.581548819238378 0 -62.581548819238378 -34.3673059228895 0 0 0 0 -52.710831113643962 60.147478075516119 0 60.147478075516119 102.45346701813833 0 0 0 0 0.45114243645435259 1.3313485233360893 0 1.3313485233360893 0.92004241585402724 0 0 0 0 5.4593343192436237 -5.9714426438767987 0 -5.9714426438767987 539.19546668355179 0 0 0 0 -80.541532492484293 92.886087249840784 0 92.886087249840784 -1.9368119052287511 0 0 0 0 -31.231352874712059 215.38762080579727 0 215.38762080579727 242.17637720178755 0 0 0 0 29.037066677761061 230.21864666254987 0 230.21864666254987 627.02462033301163 0 0 0 0 25.659741390986454 138.66999580824267 0 138.66999580824267 334.74983947025612 0 0 0 0 -51.324128499704329 121.2836251700719 0 121.2836251700719 542.82921530186275 0 0 0 0 388.9798434985114 487.81015489574929 0 487.81015489574929 589.95720793396595 0 0 0 0 241.07682748726756 53.49328908095049 0 53.49328908095049 628.89048797766736 0 0 0 0 -79.4520374514899 66.085433446103707 0 66.085433446103707 581.3854237982523 0 0 0 0 166.70852385357966 233.06373372181406 0 233.06373372181406 285.8903547640075 0 0 0 0 -84.705185153843331 170.86439699516995 0 170.86439699516995 676.54657907235378 0 0 0 0 94.272107713918928 45.965561831624655 0 45.965561831624655 748.43195523283794 0 0 0 0 53.762587372236396 272.17207029836936 0 272.17207029836936 373.9193234188424 0 0 0 0 92.145934057462 422.27418682616553 0 422.27418682616553 778.33710415075666 0 0 0 0 103.04351451339926 349.97854631845257 0 349.97854631845257 1091.2486655082466 0 0 0 0 256.42369761735972 150.33101131371041 0 150.33101131371041 -168.22130957583431 0 0 0 0 148.64457955800333 261.1795141197199 0 261.1795141197199 845.21779447756126 0 0 0 0 643.56810907609815 154.01064533228055 0 154.01064533228055 802.49650745943654 0 0 0 0 359.87800632420931 307.11929559075361 0 307.11929559075361 605.84887198850629 0 0 0 0 650.88456509566367 747.28067371377256 0 747.28067371377256 1078.2564402204262 0 0 0 0 155.49707998016311 96.474829942610086 0 96.474829942610086 41.299268947346718 0 0 0 0 94.105346569231187 140.73964601756597 0 140.73964601756597 99.276186794813839 0 0 0 0 489.65440779848745 509.47392442179626 0 509.47392442179626 236.7036787836405 0 0 0 0 272.34054981823374 251.51657070781948 0 251.51657070781948 -9.3727565101435175 0 0 0 0 104.60158917609451 276.66795945005288 0 276.66795945005288 373.91885816064314 0 0 0 0 1.6195546241970078 289.07753637851056 0 289.07753637851056 -8.8287167873095314 0 0 0 0 -107.94227320897767 50.057887866485544 0 50.057887866485544 39.729868394701043 0 0 0 0 107.66431332430642 276.4850452857645 0 276.4850452857645 251.55334751773626 0 0 0 0 76.62725399320243 65.561877342432126 0 65.561877342432126 77.449970239897084 0 0 0 0 245.50380034971201 155.82360262581278 0 155.82360262581278 -72.004247055971064 0 0 0 0 39.545983435178186 71.879147952833591 0 71.879147952833591 -105.88453487400329 0 0 0 0 238.91000551265302 188.6384961189824 0 188.6384961189824 -234.34733051978401 0 0 0 0 506.16308902043318 477.85118698828956 0 477.85118698828956 114.43367460358422 0 0 0 0 89.780088938689914 119.1637157652076 0 119.1637157652076 -180.30167526218065 0 0 0 0 -183.96809993798752 314.49077793680044 0 314.49077793680044 217.98406784221879 0 0 0 0 -167.34203171360969 236.15437505797672 0 236.15437505797672 -79.859172122596647 0 0 0 0 -186.82249625974328 107.17382625347091 0 107.17382625347091 143.22151211486926 0 0 0 0 -120.41246037781093 144.36081292048766 0 144.36081292048766 99.410603538170108 0 0 0 0 -218.90964418098338 -2.6455721387610538 0 -2.6455721387610538 102.01381270480488 0 0 0 0 -98.52996233909289 95.422287503664847 0 95.422287503664847 -43.158215325805941 0 0 0 0 11.639596062704186 4.1768530111694417 0 4.1768530111694417 -17.421658649735036 0 0 0 0 -32.97093549152487 93.262296298176807 0 93.262296298176807 -168.0477213072736 0 0 0 0 -5.9119337503536507 -0.66369364823995625 0 -0.66369364823995625 0.8693830637044897 0 0 0 0 -61.654654148367172 -4.6120181487931404 0 -4.6120181487931404 59.821125444519566 0 0 0 0 -33.696501679014546 -14.532953689507849 0 -14.532953689507849 37.865917400151375 0 0 0 0 13.840611180770793 34.193023182990146 0 34.193023182990146 -34.02384858696314 0 0 0 0 -19.311294016908505 42.104818369698478 0 42.104818369698478 -35.767884500208311 0 0 0 0 11.233950123612225 -0.99739691315183165 0 -0.99739691315183165 -4.0924364176701999 0 0 0 0 101.37444988007519 148.39393841059427 0 148.39393841059427 146.68766055069864 0 0 0 0 -29.719262327595061 81.732340032227512 0 81.732340032227512 -97.900818858644925 0 0 0 0 14.424200072253804 5.3009216637863119 0 5.3009216637863119 1.9951772629046616 0 0 0 0 -97.450702916343289 49.061309380966122 0 49.061309380966122 -1.2879368816647911 0 0 0 0 -42.846070288548617 -38.508133621748129 0 -38.508133621748129 2.5735431873908965 0 0 0 0 -19.272970948692091 8.5799010028422344 0 8.5799010028422344 8.8342425234150141 0 0 0 0 7.0155339268589998 3.2686014966669035 0 3.2686014966669035 2.7526205091550509 0 0 0 0 15.184806706009113 8.459201563775423 0 8.459201563775423 8.6634395792934811 0 0 0 0 9.4778405351184176 2.3188645194115338 0 2.3188645194115338 -0.098813458146821631 0 0 0 0 -17.335575043181962 -12.341725947160739 0 -12.341725947160739 9.9955736106348922 0 0 0 0 5.9760684662032872 10.8452612242545 0 10.8452612242545 -18.905130163853755 0 0 0 0 5.3712907994705219 9.1324248318195203 0 9.1324248318195203 15.587896357716716 0 0 0 0 -17.83450362444205 -23.691157349875084 0 -23.691157349875084 12.106768226949498 0 0 0 0 12.019197305181606 4.6286216486900287 0 4.6286216486900287 0.517664057754601 0 0 0 0 8.0971171330675134 8.0708000612794422 0 8.0708000612794422 -22.597537290210312 0 0 0 0 6.3227963445096975 -17.071204349384061 0 -17.071204349384061 10.397959340247326 0 0 0 0 20.196035060678696 -29.044515098154079 0 -29.044515098154079 0.93644790370308328 0 0 0 0 63.526690847362261 15.789813529743697 0 15.789813529743697 -33.421942201181082 0 0 0 0 9.4707377477874211 3.9766846516912437 0 3.9766846516912437 2.6058658996939386 0 0 0 0 5.4419586333824554 12.149505752953701 0 12.149505752953701 -20.936740379955154 0 0 0 0 -4.5376599980781975 45.106618807154518 0 45.106618807154518 26.727156834669586 0 0 0 0 -11.521659065801941 18.460044491439476 0 18.460044491439476 48.616404852651613 0 0 0 0 -11.669960349142286 3.6369927152737063 0 3.6369927152737063 2.8784052632709347 0 0 0 0 -21.506382216237398 7.860964452062035 0 7.860964452062035 49.365073879569536 0 0 0 0 -4.1413761831900047 7.1802389768126886 0 7.1802389768126886 26.341952547256369 0 0 0 0 -5.8846594631977496 5.1685361226263922 0 5.1685361226263922 29.466306546186388 0 0 0 0 3.85758917502244 11.293146192037966 0 11.293146192037966 31.164238367673534 0 0 0 0 3.3205761182471178 10.307919213271816 0 10.307919213271816 29.677227723819669 0 0 0 0 5.4623676738301583 12.726182045327732 0 12.726182045327732 29.695912409413722 0 0 0 0 5.4371785194446147 11.849524832146017 0 11.849524832146017 27.767295280005783 0 0 0 0 2.8058987102526274 10.136310122228181 0 10.136310122228181 6.7186724745749586 0 0 0 0 0.75375656042160699 4.8640214232873404 0 4.8640214232873404 11.531991253636079 0 0 0 0 1.6037169270077101 3.8427220912779774 0 3.8427220912779774 6.6032864772640067 0 0 0 0 2.877133591886377 4.5437929715553764 0 4.5437929715553764 9.6288482508680318 0 0 0 0 4.8588745015076711 11.084249496838311 0 11.084249496838311 26.88546587782912 0 0 0 0 9.2291046080863453 9.2527560451708268 0 9.2527560451708268 24.627213443949586 0 0 0 0 -2.2338511898413032 2.4243477607453414 0 2.4243477607453414 21.688212967520371 0 0 0 0 3.7640086454630364 9.6666409079625737 0 9.6666409079625737 27.48327463134774 0 0 0 0 0.85865387451804054 6.1000471990973892 0 6.1000471990973892 31.46520033053821 0 0 0 0 5.3592321215146512 17.384994323976571 0 17.384994323976571 36.55219029050204 0 0 0 0 -2.4056743820153335 4.3273569955754212 0 4.3273569955754212 19.027718304396046 0 0 0 0 29.434658630994818 13.663518646841112 0 13.663518646841112 20.392944845203601 0 0 0 0 0.045917586998427851 1.6053266611367718 0 1.6053266611367718 9.5499926653936029 0 0 0 0 1.4686912980760098 8.4499871007319598 0 8.4499871007319598 21.468503450683784 0 0 0 0 2.3716049912145536 6.3898483149096137 0 6.3898483149096137 23.439826463341888 0 0 0 0 -8.747159322423613 -4.8842793628718937 0 -4.8842793628718937 3.5869237863516901 0 0 0 0 -21.641887434992896 -6.2479854959383374 0 -6.2479854959383374 38.296914046361053 0 0 0 0 -0.41797329778637504 2.4753028697596164 0 2.4753028697596164 6.5366615277162055 0 0 0 0 -9.1851867623190628 2.7457508350926219 0 2.7457508350926219 26.633271600236185 0 0 0 0 -3.5909354669092863 0.37622046707838308 0 0.37622046707838308 5.9898733202826406 0 0 0 0 -8.9668226332250924 10.075706147657911 0 10.075706147657911 -6.8157511678291485 0 0 0 0 -19.243823991932004 16.867443119015661 0 16.867443119015661 4.4051895001612138 0 0 0 0 -92.957536187346705 129.9141036504152 0 129.9141036504152 175.08457068662392 0 0 0 0 -1.671259014127024 0.40475986271626141 0 0.40475986271626141 4.1609238128284289 0 0 0 0 -15.670483386840715 -0.76828587009367766 0 -0.76828587009367766 11.569943909416907 0 0 0 0 -15.44606555026985 -3.2992702287519933 0 -3.2992702287519933 36.048653052668669 0 0 0 0 -23.856810979443253 8.3198560909222579 0 8.3198560909222579 42.280213774036383 0 0 0 0 274.93271874358834 49.181960947949847 0 49.181960947949847 -86.269422154102358 0 0 0 0 -23.913692966671078 -9.9833373452129308 0 -9.9833373452129308 55.073895611552871 0 0 0 0 30.89214653927047 15.533683614747133 0 15.533683614747133 36.223121874853859 0 0 0 0 -0.81023552392650666 -0.65271108409031342 0 -0.65271108409031342 3.4674706883680528 0 0 0 0 -3.2470180739128409 -21.573312436154083 0 -21.573312436154083 -9.6298856925714063 0 0 0 0 -6.1422968319277516 -2.86648032623593 0 -2.86648032623593 23.212618392009603 0 0 0 0 3.4234602339311095 11.358934892130492 0 11.358934892130492 -5.3078628621624375 0 0 0 0 9.2284785321844538 12.231683776612044 0 12.231683776612044 -14.999250496541208 0 0 0 0 0.064221707942252682 1.4785562425877359 0 1.4785562425877359 4.6530550022019384 0 0 0 0 -3.0019417847137824 -10.030580212031282 0 -10.030580212031282 27.233655241592118 0 0 0 0 2.5621137248126615 8.1489083582637249 0 8.1489083582637249 -11.157685132391634 0 0 0 0 -20.511125266089266 -100.57671631391167 0 -100.57671631391167 -61.796260848190286 0 0 0 0 120.78081257312471 -31.058698141849618 0 -31.058698141849618 -76.125681247125613 0 0 0 0 110.12217453248104 88.372153230331605 0 88.372153230331605 10.688410216318516 0 0 0 0 8.8350218363339081 9.7414609680345166 0 9.7414609680345166 -20.557751173138968 0 0 0 0 -76.016970472712273 -64.118418566711625 0 -64.118418566711625 461.42295506481605 0 0 0 0 126.88444510385671 334.64734741193024 0 334.64734741193024 699.81770954438252 0 0 0 0 327.24595709075311 27.52965199492246 0 27.52965199492246 328.77581201928842 0 0 0 0 122.79510750749068 297.45715391471094 0 297.45715391471094 618.61341845233255 0 0 0 0 126.12050588682541 303.29762871688217 0 303.29762871688217 596.56377423454251 0 0 0 0 -92.622960586669251 117.96538204891112 0 117.96538204891112 653.73662883583165 0 0 0 0 -31.166764977099774 229.7732674472245 0 229.7732674472245 384.82918230645737 0 0 0 0 -19.798911027330178 -21.71003027448387 0 -21.71003027448387 1145.9015600917046 0 0 0 0 -15.619855633297448 -261.09237626768663 0 -261.09237626768663 73.259761371280547 0 0 0 0 -12.631938728482055 74.530093495184701 0 74.530093495184701 333.51135616012471 0 0 0 0 -0.41569930726229209 -12.858880681475412 0 -12.858880681475412 30.180542048321456 0 0 0 0 -574.22724544149173 -324.91019483837226 0 -324.91019483837226 118.79122713851393 0 0 0 0 -305.21215945694621 48.232002201035357 0 48.232002201035357 121.56270705393399 0 0 0 0 -244.84384260073057 -98.182370751826966 0 -98.182370751826966 19.540466777369147 0 0 0 0 -267.99658055746158 106.77188636008577 0 106.77188636008577 213.60339116293471 0 0 0 0 -277.64295857620709 109.89895399533998 0 109.89895399533998 221.49902463685532 0 0 0 0 -133.52016989323209 394.35460414324371 0 394.35460414324371 782.59060313351074 0 0 0 0 9.1543047398190538 -350.78859592373192 0 -350.78859592373192 660.38128532233895 0 0 0 0 825.86823571621358 238.52819124791313 0 238.52819124791313 335.85280455193424 0 0 0 0 134.77262855443126 -190.01289328162954 0 -190.01289328162954 957.91020527230285 0 0 0 0 133.47866821008392 -368.39785324745026 0 -368.39785324745026 1721.36487047431 0 0 0 0 9.3650956517357855 4.7908385001940985 0 4.7908385001940985 3.7404429351751247 0 0 0 0 460.15422124065537 59.431156984646805 0 59.431156984646805 -384.75376296971081 0 0 0 0 555.44822459872512 331.7183847006454 0 331.7183847006454 1133.8233392543261 0 0 0 0 146.36154729528761 -204.98257252019903 0 -204.98257252019903 624.1845306706964 0 0 0 0 1.5365266812346805 -1.1125283828301633 0 -1.1125283828301633 1.3735913671766298 0 0 0 0 498.35704213194509 -396.94269776901547 0 -396.94269776901547 102.78184521303046 0 0 0 0 111.47387168062346 21.437340053431399 0 21.437340053431399 -57.08924255384045 0 0 0 0 607.76030498558805 39.413623326656761 0 39.413623326656761 -98.687281952908961 0 0 0 0 -239.30539769364498 23.642399283766281 0 23.642399283766281 96.149915763540776 0 0 0 0 40.924861859704833 -11.249540169053944 0 -11.249540169053944 -187.78423533617024 0 0 0 0 -449.71595936204221 -739.03831993502536 0 -739.03831993502536 -117.33976330496625 0 0 0 0 0.61170688478017965 -11.287056566857402 0 -11.287056566857402 25.317113481185686 0 0 0 0 295.24783333469031 861.41140627603454 0 861.41140627603454 1275.3660271921835 0 0 0 0 38.401820931835573 368.74779388418028 0 368.74779388418028 723.74827123939758 0 0 0 0 147.95262357256865 -623.06862689508853 0 -623.06862689508853 -322.94466302894125 0 0 0 0 0.44165892899886039 -4.0821456829711735 0 -4.0821456829711735 10.678956244206347 0 0 0 0 309.27822948823496 -215.5503715576815 0 -215.5503715576815 1031.8969522500311 0 0 0 0 256.53426340970555 -287.23674952597503 0 -287.23674952597503 298.12460042914608 0 0 0 0 229.82760561951886 -312.60584180262231 0 -312.60584180262231 677.51628586974402 0 0 0 0 100.56488988312185 52.551737156049057 0 52.551737156049057 964.98044629717333 0 0 0 0 118.94037126768217 139.89217259037832 0 139.89217259037832 400.33684573358732 0 0 0 0 -38.126411031456428 119.78565206844723 0 119.78565206844723 636.39290617172082 0 0 0 0 129.44555762949562 142.13538610679097 0 142.13538610679097 636.69031653579441 0 0 0 0 91.395201535644787 212.3560377906233 0 212.3560377906233 560.49399715276377 0 0 0 0 350.23276858434656 338.29998142206023 0 338.29998142206023 729.83253259471167 0 0 0 0 124.4069702972206 146.57633953278128 0 146.57633953278128 635.55825363582881 0 0 0 0 195.08487573633647 -24.640087109888555 0 -24.640087109888555 830.52454559702892 0 0 0 0 16.663893938016258 135.60761558837839 0 135.60761558837839 772.68110608145071 0 0 0 0 64.827182470926346 260.67005266751949 0 260.67005266751949 157.62713628191705 0 0 0 0 619.77771981142723 94.76185636144146 0 94.76185636144146 476.51830309809884 0 0 0 0 196.56114225217834 -139.65694733605051 0 -139.65694733605051 453.24752760582123 0 0 0 0 225.75873437067867 -286.34533970791017 0 -286.34533970791017 1010.4087750778708 0 0 0 0 68.654203330347173 -659.49362875259976 0 -659.49362875259976 124.16784242146082 0 0 0 0 -0.56941906404471965 -2.7207378673748082 0 -2.7207378673748082 9.5628795833431184 0 0 0 0 -364.61795897180446 -226.44693697965522 0 -226.44693697965522 529.70450319683005 0 0 0 0 -0.34439694041403612 -5.7691480999380076 0 -5.7691480999380076 16.724647257480228 0 0 0 0 -233.83516622347815 -277.97485630690426 0 -277.97485630690426 385.09737539768867 0 0 0 0 -36.142674182205155 382.67236300736477 0 382.67236300736477 724.0895591468252 0 0 0 0 516.7287002025314 27.495093776626163 0 27.495093776626163 679.71131652814415 0 0 0 0 196.58761790348035 -10.23394768487924 0 -10.23394768487924 681.21826672609313 0 0 0 0 222.13457814274432 279.96427138354829 0 279.96427138354829 711.59273471041524 0 0 0 0 512.81703574946596 317.23645249100923 0 317.23645249100923 710.13807649917726 0 0 0 0 138.41547783950409 58.237456350885623 0 58.237456350885623 363.43307710210502 0 0 0 0 52.426729345785134 210.96977744458127 0 210.96977744458127 363.23657045032451 0 0 0 0 161.64678954662259 -72.170468755108232 0 -72.170468755108232 600.77674876114179 0 0 0 0 68.178919860065889 -338.36972811000305 0 -338.36972811000305 -107.89143975517072 0 0 0 0 169.7199108691475 -32.96614496095026 0 -32.96614496095026 410.64694574540772 0 0 0 0 95.167973633008046 127.41110451915256 0 127.41110451915256 861.48145240475424 0 0 0 0 93.483290317559749 100.63582854875494 0 100.63582854875494 451.5942496949865 0 0 0 0 50.604259696593545 644.18910933701409 0 644.18910933701409 1152.0290849816649 0 0 0 0 -0.72464962304927028 -2.0569430411197658 0 -2.0569430411197658 8.9338771986358836 0 0 0 0 -16.34511046472926 450.81367426476572 0 450.81367426476572 601.52306592101377 0 0 0 0 0.11468026380661359 -73.310018224699888 0 -73.310018224699888 91.056149180538341 0 0 0 0 -102.54346713868486 44.088943950743669 0 44.088943950743669 -36.365687320365396 0 0 0 0 -38.102867824125781 177.01912867990904 0 177.01912867990904 281.82122721094493 0 0 0 0 -0.04363470985373933 -11.049691848296789 0 -11.049691848296789 935.32571719030966 0 0 0 0 112.97174845001659 -14.43452163063921 0 -14.43452163063921 464.62642272765515 0 0 0 0 131.41583737247183 23.760181414647377 0 23.760181414647377 944.43312900187448 0 0 0 0 -168.06770889510958 22.489457149291411 0 22.489457149291411 1685.014052146038 0 0 0 0 -91.918328160501545 188.4421286981451 0 188.4421286981451 1337.0280100019299 0 0 0 0 -88.262464467556853 -126.72006915141719 0 -126.72006915141719 640.13906065569608 0 0 0 0 -246.75092844422704 39.441191983358294 0 39.441191983358294 1382.9668571470538 0 0 0 0 -0.31634381613883988 168.58667770985994 0 168.58667770985994 640.04810395420645 0 0 0 0 -131.5962012293287 401.37681703670387 0 401.37681703670387 393.33424537577957 0 0 0 0 -1.1098689519913583 1.6619002371339207 0 1.6619002371339207 6.4991632831993229 0 0 0 0 -27.026080980095742 32.52202956268593 0 32.52202956268593 47.888823830422552 0 0 0 0 -6.4697984743074706 5.4135890245297418 0 5.4135890245297418 1.0733014584707234 0 0 0 0 -206.46460351905148 -260.31942589582923 0 -260.31942589582923 18.354250357311685 0 0 0 0 -121.44245444426247 128.53983411235458 0 128.53983411235458 102.81191015863442 0 0 0 0 -1.4617899708939435 0.6317525854230297 0 0.6317525854230297 -0.74984863241638777 0 0 0 0 -261.57838069190944 -331.57551842321118 0 -331.57551842321118 -106.503747099272 0 0 0 0 -30.617299981082112 -7.0439724415628007 0 -7.0439724415628007 30.873265788606659 0 0 0 0 26.970734674715914 -12.143851675340557 0 -12.143851675340557 49.03148632108423 0 0 0 0 54.659562261044357 39.174997523456113 0 39.174997523456113 -39.049581724480959 0 0 0 0 76.614623998503703 -79.569764825272614 0 -79.569764825272614 73.97933720544097 0 0 0 0 90.672367294713013 -23.987850391749816 0 -23.987850391749816 1.1142023777974828 0 0 0 0 -114.54894539806401 93.185029159634723 0 93.185029159634723 180.93874738243176 0 0 0 0 -4.3169378572089521 -2.3464538355822029 0 -2.3464538355822029 27.815601019583255 0 0 0 0 -0.73819903273736109 -0.43609570391102181 0 -0.43609570391102181 6.1043710694175388 0 0 0 0 192.64405997480708 -286.41460902780091 0 -286.41460902780091 41.813458249209361 0 0 0 0 75.875403120936539 -333.74927394006409 0 -333.74927394006409 1411.8655848859926 0 0 0 0 -9.7272686652331686 -139.86304614788241 0 -139.86304614788241 1512.2451253231484 0 0 0 0 112.53350254278712 -58.070811086778122 0 -58.070811086778122 760.26125919515198 0 0 0 0 -71.287743591490425 -32.250854225203511 0 -32.250854225203511 1080.2255573344592 0 0 0 0 61.84330604301249 36.394591818650952 0 36.394591818650952 813.05247969498305 0 0 0 0 -52.936749394932463 -326.38954718971581 0 -326.38954718971581 1012.4802625166194 0 0 0 0 -60.736815797444478 -97.483291147073032 0 -97.483291147073032 872.32295907243133 0 0 0 0 4.7842186173289747 -224.99577104808122 0 -224.99577104808122 587.31858602202556 0 0 0 0 -42.845633593756702 -121.81059906442533 0 -121.81059906442533 752.05274470491349 0 0 0 0 47.022200776299201 -259.59005131363301 0 -259.59005131363301 918.86478243985039 0 0 0 0 -24.996312000856733 -296.85234217450488 0 -296.85234217450488 1076.3362411959097 0 0 0 0 -43.683001935597986 -286.40953735163203 0 -286.40953735163203 917.54182471445529 0 0 0 0 0.24679277879340589 94.650851858779788 0 94.650851858779788 708.68554365102682 0 0 0 0 22.742000643019651 -41.540702894533752 0 -41.540702894533752 2.1654872474391595 0 0 0 0 -33.570289719918264 122.01582812095876 0 122.01582812095876 509.99048985046647 0 0 0 0 -0.050593251342749834 0.070741526417904765 0 0.070741526417904765 0.37151306548184948 0 0 0 0 -0.25291495899665506 -33.887060289900148 0 -33.887060289900148 -5.7419868813885842 0 0 0 0 0.072160775583254733 0.16504629365886103 0 0.16504629365886103 -1.1094079524527842 0 0 0 0 1.8805120854121533 -1.9995729471420418 0 -1.9995729471420418 1.6297241447570627 0 0 0 0 0.50019249740103078 31.481296673751785 0 31.481296673751785 35.452818966494306 0 0 0 0 84.47601001635573 -176.23117322310236 0 -176.23117322310236 19.756149291672045 0 0 0 0 -35.520788958205685 184.80402678430255 0 184.80402678430255 222.78895288334024 0 0 0 0 -180.1189530206764 -0.64336268622764692 0 -0.64336268622764692 228.04521916990052 0 0 0 0 -185.99371492583191 87.223190793633421 0 87.223190793633421 253.5614205559832 0 0 0 0 -74.181777651508582 163.38068032817864 0 163.38068032817864 287.30657578224782 0 0 0 0 -18.792164819860773 26.117520013300236 0 26.117520013300236 143.06774118532485 0 0 0 0 27.297364184660637 136.23204422302661 0 136.23204422302661 311.28293121486786 0 0 0 0 26.764266306789978 157.72620667629235 0 157.72620667629235 294.03315531628323 0 0 0 0 -16.308438001412924 122.4986603208381 0 122.4986603208381 315.60898031534452 0 0 0 0 -47.925921395684782 126.22862578670902 0 126.22862578670902 546.65371526323725 0 0 0 0 2.5784644161246888 122.80944841480959 0 122.80944841480959 268.13988843977859 0 0 0 0 -51.299154502044303 213.67455427515233 0 213.67455427515233 692.46313090283365 0 0 0 0 -41.816659856407284 181.51457658987874 0 181.51457658987874 680.98494067130378 0 0 0 0 -4.8380987283312606 190.5677949869787 0 190.5677949869787 703.30966178870585 0 0 0 0 -31.620343081431201 167.39500456407404 0 167.39500456407404 743.06242285954067 0 0 0 0 -41.856139636613761 207.02136483890354 0 207.02136483890354 717.09758174052695 0 0 0 0 -68.912376908734245 198.8392816169835 0 198.8392816169835 768.35986066242913 0 0 0 0 -56.281161985443305 248.8281885208271 0 248.8281885208271 609.69055002270034 0 0 0 0 -12.698053273328696 197.94760684782523 0 197.94760684782523 546.70940155524295 0 0 0 0 -42.609004444588663 208.82198852196598 0 208.82198852196598 543.21645021214499 0 0 0 0 58.442039037659697 380.81555720321194 0 380.81555720321194 601.24206314525509 0 0 0 0 112.21423521216138 136.66193116689101 0 136.66193116689101 717.59284341186867 0 0 0 0 -0.53463383392432251 1.14259252938011 0 1.14259252938011 2.6563126690344916 0 0 0 0 25.993984582830535 -108.2504060770807 0 -108.2504060770807 508.41698750612704 0 0 0 0 243.37546821979049 329.26424912810762 0 329.26424912810762 175.74301373207709 0 0 0 0 44.665985426186012 255.78704709000158 0 255.78704709000158 708.60066592925455 0 0 0 0 211.20987967731563 286.82931279545301 0 286.82931279545301 709.35564070130931 0 0 0 0 73.050187840054264 197.9096022188387 0 197.9096022188387 719.07002978445962 0 0 0 0 126.45792677445493 330.70967595374532 0 330.70967595374532 703.30119239515625 0 0 0 0 38.482031146005795 271.21466199158021 0 271.21466199158021 832.68824122428487 0 0 0 0 -81.545904525155265 -31.460941958939657 0 -31.460941958939657 27.208489860175177 0 0 0 0 67.894930979676246 221.82390211053666 0 221.82390211053666 531.13305749904248 0 0 0 0 -106.17655853740985 235.5676954316441 0 235.5676954316441 750.29567305075761 0 0 0 0 71.065361552297531 374.02762456657365 0 374.02762456657365 700.21523692668416 0 0 0 0 10.412084037738182 108.57690268454826 0 108.57690268454826 500.0764872978034 0 0 0 0 -51.528521000261506 40.421819637998851 0 40.421819637998851 539.83373920532176 0 0 0 0 1.8243882558235491 -8.3328409885927073 0 -8.3328409885927073 14.545951521467003 0 0 0 0 -42.199647165531502 -13.335608989662433 0 -13.335608989662433 32.953217905087513 0 0 0 0 -45.133005590829953 -7.2458456363820005 0 -7.2458456363820005 34.284686299498389 0 0 0 0 -36.863275198712699 -8.6702923277262016 0 -8.6702923277262016 34.178078432028997 0 0 0 0 -3.0119449781909542 -0.051145743692089241 0 -0.051145743692089241 13.11932251631265 0 0 0 0 -8.0913948522074861 -2.4660154452139977 0 -2.4660154452139977 8.6830435960146133 0 0 0 0 -2.0456848487432389 -4.7769496309640544 0 -4.7769496309640544 18.971095411367571 0 0 0 0 88.188678677258679 -40.850343414043891 0 -40.850343414043891 -100.9256683003623 0 0 0 0 -11.966001445053813 -113.5952831721952 0 -113.5952831721952 35.509468999225646 0 0 0 0 -1.8096934919680439 0.91581231274564345 0 0.91581231274564345 2.3328225655813526 0 0 0 0 6.8025607181280066 21.26810991045204 0 21.26810991045204 23.447263153997483 0 0 0 0 203.69984658966564 72.549215421880945 0 72.549215421880945 -80.526824842272617 0 0 0 0 -2.3979673220213185 -3.60613528128372 0 -3.60613528128372 11.957900069258358 0 0 0 0 -28.093151313841645 17.080658858278184 0 17.080658858278184 39.887698306862148 0 0 0 0 -41.582833258917503 56.616795102803735 0 56.616795102803735 -0.71988432900980115 0 0 0 0 -2.7598808008321516 4.2305806114017059 0 4.2305806114017059 1.3398918771210901 0 0 0 0 -3.1735083548504273 -1.5706895277981303 0 -1.5706895277981303 32.020217209607608 0 0 0 0 -43.627009904740675 0.57694690752759925 0 0.57694690752759925 46.896008693351177 0 0 0 0 -10.974935228981877 6.8827857585274614 0 6.8827857585274614 37.87920214816404 0 0 0 0 -43.582941405723709 1.6589095865647323 0 1.6589095865647323 52.512883503120975 0 0 0 0 15.875563476301924 94.85825969259804 0 94.85825969259804 86.468239525420358 0 0 0 0 -134.14142220344331 41.988726414085249 0 41.988726414085249 71.369164183401153 0 0 0 0 -61.385382473475133 -8.4876448706927476 0 -8.4876448706927476 40.091565258800983 0 0 0 0 -63.808336602479699 -12.884553071198752 0 -12.884553071198752 43.835496786545264 0 0 0 0 -59.127355833867483 -10.335723983836942 0 -10.335723983836942 40.842825556450407 0 0 0 0 -173.21969143248631 -80.745000703649566 0 -80.745000703649566 3.3773655161567149 0 0 0 0 0.18418167385223083 -6.0481708956219791 0 -6.0481708956219791 11.251764296015722 0 0 0 0 118.00997213818593 373.16244410273794 0 373.16244410273794 905.33605365880067 0 0 0 0 -149.25522551914202 0.41293123493596795 0 0.41293123493596795 123.84523225174053 0 0 0 0 -78.9823906215113 5.732750714305439 0 5.732750714305439 65.794493845140096 0 0 0 0 -179.4596578113991 -287.09544502505742 0 -287.09544502505742 -89.631301800989604 0 0 0 0 -176.31747827171995 -215.61925807993248 0 -215.61925807993248 649.808696589389 0 0 0 0 -96.202286132851469 -55.459560586350563 0 -55.459560586350563 68.943008545407793 0 0 0 0 0.14294267548442224 61.213987707316846 0 61.213987707316846 185.00626246647153 0 0 0 0 -0.058986562828915581 7.6732500756115769 0 7.6732500756115769 -1.0017362616235914 0 0 0 0 -189.16200487277058 -18.691196780440805 0 -18.691196780440805 61.422497885545454 0 0 0 0 -48.765495843068486 -56.861736334194575 0 -56.861736334194575 -85.857751555311552 0 0 0 0 65.895296428842755 190.87341502511117 0 190.87341502511117 559.29516845781836 0 0 0 0 33.560684769021549 189.37005807461537 0 189.37005807461537 796.10495403950335 0 0 0 0 0.17881368387441526 80.3878005608276 0 80.3878005608276 619.87532626839493 0 0 0 0 -0.37852128279727915 154.32642472349107 0 154.32642472349107 897.02782780934649 0 0 0 0 137.44896410821147 164.31704863380583 0 164.31704863380583 792.50489802943048 0 0 0 0 93.772791522370426 30.672746203039424 0 30.672746203039424 982.33168228506111 0 0 0 0 83.976063881860199 177.70062425691867 0 177.70062425691867 844.36601950754266 0 0 0 0 221.037258117628 597.89529828461673 0 597.89529828461673 1510.3019070004229 0 0 0 0 -0.064677404553560081 -1.9374043807900421 0 -1.9374043807900421 4.6576025529603555 0 0 0 0 115.97231119019418 274.56401009407273 0 274.56401009407273 814.76289887853272 0 0 0 0 87.266723724759089 285.95765613349067 0 285.95765613349067 865.32282752760511 0 0 0 0 18.554713029554648 189.2222969319555 0 189.2222969319555 925.72618181907455 0 0 0 0 47.661212798210926 62.508095342029264 0 62.508095342029264 801.31541183477384 0 0 0 0 135.62252231235175 114.72579277175828 0 114.72579277175828 652.9618543797842 0 0 0 0 85.733059013071468 61.981170778661181 0 61.981170778661181 645.4476940563618 0 0 0 0 22.950808798050389 47.051929179753643 0 47.051929179753643 480.62362477520946 0 0 0 0 97.916800709917496 148.64964678119577 0 148.64964678119577 559.59542147991306 0 0 0 0 37.124025894565122 74.886685845209286 0 74.886685845209286 651.12412852813418 0 0 0 0 82.410256618520293 74.827918816372403 0 74.827918816372403 482.53976214480645 0 0 0 0 42.263522812049487 69.097706680227589 0 69.097706680227589 458.76410045271041 0 0 0 0 42.96665473242092 103.22986464861606 0 103.22986464861606 493.2027131843497 0 0 0 0 68.2378400245384 93.307129891138175 0 93.307129891138175 621.30943209277029 0 0 0 0 5.431914180903334 69.332076905284339 0 69.332076905284339 632.99443791448721 0 0 0 0 1.6534253486578336 168.48518255803356 0 168.48518255803356 721.10849489202519 0 0 0 0 6.3106731896821771 141.81562833348835 0 141.81562833348835 763.48875704780221 0 0 0 0 38.706036970887325 273.82608254290972 0 273.82608254290972 756.42601466141059 0 0 0 0 26.131133803194246 236.79474249207124 0 236.79474249207124 831.93432284846494 0 0 0 0 57.940766813840042 231.934992614355 0 231.934992614355 787.66106174097513 0 0 0 0 -16.471625187148106 183.40365440550158 0 183.40365440550158 740.15998477004177 0 0 0 0 2.9190765196949542 199.05251840028359 0 199.05251840028359 777.12720666625682 0 0 0 0 14.109424628776196 204.378254725023 0 204.378254725023 710.84378149687836 0 0 0 0 -22.086229018300116 141.66081109916558 0 141.66081109916558 740.26673330002814 0 0 0 0 -3.969910505213079 131.88265242914895 0 131.88265242914895 643.75995768424764 0 0 0 0 -37.554239570332356 196.42303251154226 0 196.42303251154226 706.49577384868462 0 0 0 0 -48.245415927611248 185.88579343738093 0 185.88579343738093 740.39745887526806 0 0 0 0 -11.218306920146574 183.05275601584799 0 183.05275601584799 712.95909159893927 0 0 0 0 -30.895316803638707 205.33148545669974 0 205.33148545669974 724.90957469050772 0 0 0 0 -48.242590685353662 185.87485101427774 0 185.87485101427774 740.43839878423023 0 0 0 0 -29.54466897581608 177.41479232051279 0 177.41479232051279 671.37376619543647 0 0 0 0 -16.671714317227725 194.52188832618413 0 194.52188832618413 659.07155629363842 0 0 0 0 -6.108970370775296 191.44577068236686 0 191.44577068236686 568.31376820063451 0 0 0 0 7.1934164834408421 190.92502175078334 0 190.92502175078334 523.03814022523875 0 0 0 0 -3.6562439203614758 170.42679746803151 0 170.42679746803151 566.65219572981005 0 0 0 0 3.4428945385279803 151.46392833269783 0 151.46392833269783 564.56309546834382 0 0 0 0 -10.25185066323229 170.61543563384475 0 170.61543563384475 600.96708889545698 0 0 0 0 6.1346843790872754 101.74532130481384 0 101.74532130481384 583.90228760831633 0 0 0 0 15.288730778468789 89.775396010394616 0 89.775396010394616 446.02325795153592 0 0 0 0 43.598006893411821 139.76535247347056 0 139.76535247347056 389.65623568133742 0 0 0 0 68.720676966604969 25.918788532799226 0 25.918788532799226 260.10492526005692 0 0 0 0 72.624526053002938 43.604366724466672 0 43.604366724466672 338.86319615197135 0 0 0 0 86.067659194511407 -50.286635989556089 0 -50.286635989556089 253.31801638044999 0 0 0 0 -15.853642950855829 -1.3066904892439197 0 -1.3066904892439197 336.34099877467088 0 0 0 0 175.04920941978412 5.2690810280037113 0 5.2690810280037113 261.75567452731048 0 0 0 0 243.31045260622335 -219.93785753164127 0 -219.93785753164127 73.444636102969525 0 0 0 0 -0.87583994139686139 -0.26642731606915371 0 -0.26642731606915371 2.4149212916603346 0 0 0 0 -31.061739470186605 48.272624055360779 0 48.272624055360779 130.79744093780755 0 0 0 0 -55.302508454032548 -0.46945969359853734 0 -0.46945969359853734 30.506301226880169 0 0 0 0 -10.028219707553005 -2.3766387208576134 0 -2.3766387208576134 6.7118374457350001 0 0 0 0 -4.4979266347665847 -1.4864769101019988 0 -1.4864769101019988 1.8615880651355496 0 0 0 0 32.819280980371559 -35.870641708563198 0 -35.870641708563198 -48.692496790947189 0 0 0 0 41.402525519404549 29.152544354117708 0 29.152544354117708 133.66358691261848 0 0 0 0 -25.813305098414958 -14.862490919800621 0 -14.862490919800621 119.64702641047188 0 0 0 0 -39.793655985158921 -32.88944739499857 0 -32.88944739499857 258.90693231591104 0 0 0 0 -1.0453480872547205 -1.9482006924633026 0 -1.9482006924633026 1.2806548944751057 0 0 0 0 24.027512632151797 8.7700799028934853 0 8.7700799028934853 -21.436466307699447 0 0 0 0 21.694029715256988 -13.357733696422656 0 -13.357733696422656 -41.432942361112509 0 0 0 0 -28.224639026089932 25.86604027395515 0 25.86604027395515 21.707345913077006 0 0 0 0 -0.15894713348981837 -0.28581251202770375 0 -0.28581251202770375 0.83815854828458214 0 0 0 0 -168.05683227481421 -8.0420431856400683 0 -8.0420431856400683 2.4918302196965669 0 0 0 0 31.172987423722134 -19.709598345398263 0 -19.709598345398263 -12.336692611319449 0 0 0 0 1.3911503489301538 -22.036322079980891 0 -22.036322079980891 190.48703439396922 0 0 0 0 9.2602806341498862 68.951175192238225 0 68.951175192238225 325.48403752152808 0 0 0 0 -14.785833961788171 -2.1407358354190364 0 -2.1407358354190364 371.76380284567131 0 0 0 0 15.797800495968318 -26.108027329413744 0 -26.108027329413744 244.7857791439601 0 0 0 0 14.631561173209775 37.703684657324629 0 37.703684657324629 240.66502579647567 0 0 0 0 3.3683057088171608 27.645794485622901 0 27.645794485622901 457.43193670453093 0 0 0 0 2.2241738070432575 61.859342736228427 0 61.859342736228427 494.22284636656423 0 0 0 0 40.285992948540468 30.753206261462765 0 30.753206261462765 367.53879987902474 0 0 0 0 21.858183310214201 89.756787745011025 0 89.756787745011025 479.21630889698281 0 0 0 0 25.977832828593726 28.57631598856824 0 28.57631598856824 389.16994866989262 0 0 0 0 56.414121711665473 127.48692857129572 0 127.48692857129572 409.40398199416813 0 0 0 0 18.71946812880806 38.581095245914184 0 38.581095245914184 311.45352726126657 0 0 0 0 -35.11968159080886 172.95517821314206 0 172.95517821314206 48.564173571809079 0 0 0 0 -17.246923322504074 -36.821399309119442 0 -36.821399309119442 285.53021003768663 0 0 0 0 0.11461272787800092 0.35651851665220136 0 0.35651851665220136 0.40521417583141783 0 0 0 0 -33.746349934264003 13.366764752208837 0 13.366764752208837 -16.248271929929615 0 0 0 0 -172.50045633618856 42.585442427248836 0 42.585442427248836 27.54332712260657 0 0 0 0 -24.102705407283896 5.2016651081748932 0 5.2016651081748932 39.903560153703438 0 0 0 0 6.3917930211046254 98.706715249885747 0 98.706715249885747 36.587000100387741 0 0 0 0 43.772250125737393 53.878924804435883 0 53.878924804435883 90.120435329008615 0 0 0 0 -54.809238167833655 144.24942989797273 0 144.24942989797273 260.78024724232819 0 0 0 0 58.628420318532584 102.06136578236874 0 102.06136578236874 136.14909866031667 0 0 0 0 1.9775747502832546 63.890767730168591 0 63.890767730168591 258.04405575605779 0 0 0 0 57.03499027471544 20.8831713693653 0 20.8831713693653 48.887924182869028 0 0 0 0 59.334719643752216 38.614236237648583 0 38.614236237648583 151.69990814653283 0 0 0 0 0.07314437691157416 28.715349621761561 0 28.715349621761561 170.74979772060033 0 0 0 0 62.90270174573493 160.34374391564779 0 160.34374391564779 304.00943043846928 0 0 0 0 -0.033900521217387181 54.184181031095441 0 54.184181031095441 431.29953394604672 0 0 0 0 -72.248141644362477 -108.3140430568601 0 -108.3140430568601 49.322565847316582 0 0 0 0 -218.41478687530616 -15.297592470611562 0 -15.297592470611562 217.41070004661742 0 0 0 0 -79.489382213644774 -27.465048853547614 0 -27.465048853547614 153.99726761755301 0 0 0 0 149.84854063059902 -63.064822957043361 0 -63.064822957043361 80.35633685382345 0 0 0 0 4.7853023577281419 -135.28804870948807 0 -135.28804870948807 0.56062943731376436 0 0 0 0 -129.79298636974818 -50.740584649101947 0 -50.740584649101947 -2.8442216519615613 0 0 0 0 -10.171745825071906 2.7658213615581957 0 2.7658213615581957 4.7944198656257981 0 0 0 0 -18.62026304979554 6.7970060061888944 0 6.7970060061888944 30.798952470955555 0 0 0 0 -129.63750073704961 -45.321796568373315 0 -45.321796568373315 10.997442151652649 0 0 0 0 -7.5576820674427729 -0.90981331566584345 0 -0.90981331566584345 9.2719166918687392 0 0 0 0 -15.306464933726602 22.864063134191383 0 22.864063134191383 17.294806346973928 0 0 0 0 -5.0621176073982497 4.6981791436846834 0 4.6981791436846834 17.704722158785444 0 0 0 0 -29.299137492267619 -10.637398825550918 0 -10.637398825550918 30.881133680304629 0 0 0 0 -8.4743745486349269 3.0899891198139784 0 3.0899891198139784 16.51127830988429 0 0 0 0 4.4097355101475841 -4.188183584890794 0 -4.188183584890794 12.493628865864594 0 0 0 0 0.9007598053321999 -9.7522821206366643 0 -9.7522821206366643 21.970716392883332 0 0 0 0 -7.1691897178698198 2.6660192165053331 0 2.6660192165053331 13.745368054411045 0 0 0 0 -4.6065735069749465 -3.6409795263993061 0 -3.6409795263993061 22.400960884849098 0 0 0 0 -7.2219687968536164 -2.7789784354681615 0 -2.7789784354681615 26.899668748053955 0 0 0 0 -8.5168591694350653 2.9445827925010235 0 2.9445827925010235 20.589112531539286 0 0 0 0 -4.9550197870874015 0.63289473188233103 0 0.63289473188233103 19.313626222230255 0 0 0 0 -9.3126060102695192 1.850287386609125 0 1.850287386609125 20.302029311307706 0 0 0 0 -5.7533973473247144 -2.4668960199518324 0 -2.4668960199518324 14.484564962207571 0 0 0 0 -8.1026354671948866 2.4217349555437977 0 2.4217349555437977 20.057072789990343 0 0 0 0 -8.6357648923239871 0.66115756880729748 0 0.66115756880729748 17.843618347133003 0 0 0 0 -24.31894247211676 -119.88973541708401 0 -119.88973541708401 -33.907248882635031 0 0 0 0 -21.247453731317364 3.4439562332954665 0 3.4439562332954665 49.247567230879213 0 0 0 0 0.99322591414760808 2.6118543550905002 0 2.6118543550905002 4.6436722360520548 0 0 0 0 28.996722383375527 84.492648265112621 0 84.492648265112621 161.59362044963927 0 0 0 0 -220.06640629868161 54.121793885467923 0 54.121793885467923 18.472411676250886 0 0 0 0 185.91660501270189 271.08571483830656 0 271.08571483830656 226.48347901793022 0 0 0 0 218.93155747167657 107.505677799556 0 107.505677799556 76.019826886706142 0 0 0 0 303.57004352301738 -553.03229237274354 0 -553.03229237274354 1103.5557877936953 0 0 0 0 1.6521807385775347 3.4817317702143811 0 3.4817317702143811 10.951076985524708 0 0 0 0 18.447737085116387 234.80423381105356 0 234.80423381105356 1406.4578362731936 0 0 0 0 -220.59679989708502 -9.9109421318717068 0 -9.9109421318717068 1616.6058486113106 0 0 0 0 -106.07579700973565 118.88702732531601 0 118.88702732531601 1581.8017767146011 0 0 0 0 2.631784340690988 1.6906109919306687 0 1.6906109919306687 0.903674700566512 0 0 0 0 -102.76345942267017 298.34597479374133 0 298.34597479374133 -113.84039990945894 0 0 0 0 -103.67091489557697 306.33016577033413 0 306.33016577033413 650.79372922847688 0 0 0 0 5.9115161829945464 -97.323747971619014 0 -97.323747971619014 1458.3173783839156 0 0 0 0 -123.10565177121157 351.08197333967291 0 351.08197333967291 1693.5069545467268 0 0 0 0 127.79203405818544 323.99946211815404 0 323.99946211815404 1199.0775909304521 0 0 0 0 105.09080829748768 196.10266607089943 0 196.10266607089943 657.80961142649176 0 0 0 0 69.083130376778627 139.5665087299858 0 139.5665087299858 599.43863772886107 0 0 0 0 367.82150362319726 73.702994544553803 0 73.702994544553803 537.07860550440091 0 0 0 0 -3.3036524855187963 217.47864936228871 0 217.47864936228871 752.63079071494758 0 0 0 0 -15.409527735540905 182.98659885491543 0 182.98659885491543 684.19665255279688 0 0 0 0 53.171796601390497 164.84087253806138 0 164.84087253806138 686.66774132932187 0 0 0 0 26.017165726322219 187.71322059450176 0 187.71322059450176 891.59856128522188 0 0 0 0 -3.0567716499617745 223.18541740476212 0 223.18541740476212 696.4528305952681 0 0 0 0 17.274437682730877 197.35247886887373 0 197.35247886887373 543.89214087012806 0 0 0 0 -17.550921230712447 214.8101433690972 0 214.8101433690972 674.26731186375764 0 0 0 0 18.443867501479644 208.98945304319932 0 208.98945304319932 416.97343474019726 0 0 0 0 -13.663040598529278 197.95649905862228 0 197.95649905862228 543.94249376600192 0 0 0 0 45.936364632565983 157.70654943068075 0 157.70654943068075 342.6913981858379 0 0 0 0 2.9549397113096347 189.47779627535056 0 189.47779627535056 324.84645486734371 0 0 0 0 36.360812198421172 105.07347459603534 0 105.07347459603534 338.28055754500383 0 0 0 0 111.96730219907477 185.33512636999512 0 185.33512636999512 505.3796298397192 0 0 0 0 154.03647039241656 46.271203558640195 0 46.271203558640195 171.46069783628627 0 0 0 0 -4.1815396257843531 209.23194245638297 0 209.23194245638297 581.08641478877325 0 0 0 0 159.49856260269812 229.51201870637544 0 229.51201870637544 312.98456707930018 0 0 0 0 52.768503799474274 84.29707480117213 0 84.29707480117213 102.72265513720049 0 0 0 0 -18.379215042345095 31.638492422745912 0 31.638492422745912 243.17787938925539 0 0 0 0 35.166522915991663 12.616100824809109 0 12.616100824809109 -22.664606658770936 0 0 0 0 -20.963020069073536 -21.397680131492962 0 -21.397680131492962 198.60440043715062 0 0 0 0 -82.040494697862641 -139.19343373350239 0 -139.19343373350239 -49.795686171768466 0 0 0 0 -40.367128986815715 -20.227413998323755 0 -20.227413998323755 -84.702450267694076 0 0 0 0 20.949036570510088 53.170174027694884 0 53.170174027694884 46.17818223949871 0 0 0 0 -110.49798973997713 -65.862546475284034 0 -65.862546475284034 60.301855762067134 0 0 0 0 -156.51360018114747 -31.015079033226357 0 -31.015079033226357 38.147993991951807 0 0 0 0 -7.9397655459876511 0.75402847478915191 0 0.75402847478915191 2.9744284258688509 0 0 0 0 -116.74464816637465 -172.28893277254065 0 -172.28893277254065 -269.05787570324901 0 0 0 0 -6.220898865518393 -56.51278469353565 0 -56.51278469353565 31.287957046573865 0 0 0 0 1.318233814913194 -4.21918591387373 0 -4.21918591387373 4.5643821940101077 0 0 0 0 -22.785106295279547 -107.92882140950678 0 -107.92882140950678 -246.90214186940284 0 0 0 0 -56.646030187570432 -42.170628697869688 0 -42.170628697869688 -216.42116401268868 0 0 0 0 -6.4810662481659165 10.929818683442136 0 10.929818683442136 147.8257589292225 0 0 0 0 25.166909178533842 175.25604298443432 0 175.25604298443432 207.42061502317665 0 0 0 0 -77.192362767992563 40.664266445826797 0 40.664266445826797 209.15422556114936 0 0 0 0 -160.43449263299544 -332.73235008510528 0 -332.73235008510528 -463.98034422339697 0 0 0 0 -176.54649189958855 -148.04822006585891 0 -148.04822006585891 -123.89140845547081 0 0 0 0 -367.82176525856084 -141.64489406114444 0 -141.64489406114444 18.788028369619042 0 0 0 0 -71.893365457019286 104.21354613366748 0 104.21354613366748 23.422533116143313 0 0 0 0 130.86446243687612 117.07122396860905 0 117.07122396860905 123.77319714400801 0 0 0 0 2.1408043994933905 -107.1443250150769 0 -107.1443250150769 251.26795264027169 0 0 0 0 -2.2806467107843673 -175.73916112339066 0 -175.73916112339066 252.65901509398827 0 0 0 0 -6.6408180496453895 -9.1383978173753349 0 -9.1383978173753349 -93.09306807059329 0 0 0 0 -6.4075465583646292 -197.48327203569352 0 -197.48327203569352 299.45350515167229 0 0 0 0 40.910212800489262 210.96691207724507 0 210.96691207724507 530.16038287157426 0 0 0 0 -2.7199004705354124 -0.064142756990037242 0 -0.064142756990037242 -0.051273383580564769 0 0 0 0 -231.54891955584316 -134.3409146558779 0 -134.3409146558779 14.348293035771349 0 0 0 0 0.83054921551291372 -1.1256899957339215 0 -1.1256899957339215 1.551682946853731 0 0 0 0 -141.71675415996742 -441.54085693508387 0 -441.54085693508387 -79.162817878306669 0 0 0 0 1.3245048839180527 -91.840113415051746 0 -91.840113415051746 371.35129221089301 0 0 0 0 20.850771061226624 -66.227879058002145 0 -66.227879058002145 148.23988391211606 0 0 0 0 46.610511058996963 -71.933178577768558 0 -71.933178577768558 135.01021231149207 0 0 0 0 -0.65570551693864587 -1.1626285286111795 0 -1.1626285286111795 1.2989669997115527 0 0 0 0 -1.6475024376068177 -67.071464802516857 0 -67.071464802516857 -68.457853682513814 0 0 0 0 -3.4813995333261119 -74.649482392007485 0 -74.649482392007485 290.98258704429918 0 0 0 0 3.5323071111442914 -117.21512405040994 0 -117.21512405040994 98.647857907257276 0 0 0 0 13.495965714552995 -7.429156758766112 0 -7.429156758766112 39.008180098870071 0 0 0 0 27.441537426098193 46.745044906419025 0 46.745044906419025 178.27936904935632 0 0 0 0 36.065189687261636 103.23622984412577 0 103.23622984412577 250.02223406304256 0 0 0 0 -37.978845048519361 14.119920684912358 0 14.119920684912358 234.87760192516726 0 0 0 0 34.941467697550252 63.860778436312103 0 63.860778436312103 202.44381185363454 0 0 0 0 -46.857254010034012 86.362401830818271 0 86.362401830818271 18.930452344648074 0 0 0 0 21.58637370575434 62.416857015094138 0 62.416857015094138 282.39490793563346 0 0 0 0 19.594686898243253 108.39240151518607 0 108.39240151518607 287.32258700937382 0 0 0 0 62.434040817782261 64.279643117690284 0 64.279643117690284 237.18813852086896 0 0 0 0 13.97662487931666 70.041972478516982 0 70.041972478516982 262.10948935743363 0 0 0 0 49.675651977907364 46.705109827089473 0 46.705109827089473 116.93715813544986 0 0 0 0 -72.049555674714611 -39.886961103591602 0 -39.886961103591602 234.65973010126618 0 0 0 0 -10.291929529342269 6.8882384795833786 0 6.8882384795833786 157.99436814377259 0 0 0 0 -7.1493185972744868 -73.433546411019051 0 -73.433546411019051 82.443936237279559 0 0 0 0 -31.014863406530822 -15.289414414935891 0 -15.289414414935891 171.47211256196897 0 0 0 0 -48.833767298845487 -12.084363159156055 0 -12.084363159156055 91.965260726905399 0 0 0 0 -18.231055371861657 -16.434271224454278 0 -16.434271224454278 86.06086653553939 0 0 0 0 -0.28492792179475046 -0.065163925424684521 0 -0.065163925424684521 -0.044739704366492106 0 0 0 0 -106.87251627181013 -55.590789144862356 0 -55.590789144862356 98.231991752123577 0 0 0 0 -48.232159123503607 -87.130627867285511 0 -87.130627867285511 -78.676916283118771 0 0 0 0 -48.510959694176563 12.185431048288592 0 12.185431048288592 107.70488405914512 0 0 0 0 -30.690383541716074 -32.984844456630526 0 -32.984844456630526 62.898864783113822 0 0 0 0 -30.063449582965404 -8.0200219719699817 0 -8.0200219719699817 128.85442798899021 0 0 0 0 -63.475147727382591 -28.27411758166636 0 -28.27411758166636 107.14125263487222 0 0 0 0 -53.381624670842029 -21.193190998164937 0 -21.193190998164937 144.15432572268764 0 0 0 0 -16.825896752148765 30.475389240746154 0 30.475389240746154 132.39562655324698 0 0 0 0 -23.192038220120139 20.241232262957055 0 20.241232262957055 167.72828805237077 0 0 0 0 2.9140963781201208 61.313824173499597 0 61.313824173499597 172.28991996454863 0 0 0 0 -0.67145302404242102 9.7687245244160295 0 9.7687245244160295 32.377348204259761 0 0 0 0 -1.1306127199477132 0.68823517627055253 0 0.68823517627055253 2.4417094092425771 0 0 0 0 -7.8611838095062438 -3.1310370773094292 0 -3.1310370773094292 7.3371068758360138 0 0 0 0 1.4630321465083398 69.318557603815862 0 69.318557603815862 207.01082607291755 0 0 0 0 -10.477382119763206 2.3412934306252282 0 2.3412934306252282 44.76396738315816 0 0 0 0 30.802113994213869 57.298500758537557 0 57.298500758537557 157.46102542628068 0 0 0 0 -12.096936263284078 52.254133835522225 0 52.254133835522225 185.66785378160785 0 0 0 0 -34.318015148686754 20.258407821223955 0 20.258407821223955 150.91499564966944 0 0 0 0 -4.5072608522914379 26.854711139952997 0 26.854711139952997 143.24025099443679 0 0 0 0 17.785499808243912 53.335471701240749 0 53.335471701240749 144.53728003919241 0 0 0 0 -22.870527488586958 22.571491174705443 0 22.571491174705443 154.64255023174337 0 0 0 0 -10.532839619619153 21.218058023281628 0 21.218058023281628 172.86171575984918 0 0 0 0 16.990906475070005 11.739573838756769 0 11.739573838756769 1.9826919608749449 0 0 0 0 -8.0449211839638988 -1.8318566839599981 0 -1.8318566839599981 5.2589998827676254 0 0 0 0 3.9345606731512817 23.163626795823802 0 23.163626795823802 29.58638843546214 0 0 0 0 -121.619478775483 -193.08340847635554 0 -193.08340847635554 -70.56334013866217 0 0 0 0 2.5180772771363991 7.1351330856632558 0 7.1351330856632558 28.777686287663528 0 0 0 0 -4.2880711190233711 0.38033278652812896 0 0.38033278652812896 3.2215157781126607 0 0 0 0 -1.4729246065886343 -0.16211255941163927 0 -0.16211255941163927 0.37313689904917169 0 0 0 0 -28.054800479322239 -164.6988473329875 0 -164.6988473329875 -217.94158725591842 0 0 0 0 -125.10439303131989 -55.02905715113593 0 -55.02905715113593 -45.011233214303502 0 0 0 0 14.579325422748298 -1.4072547279647551 0 -1.4072547279647551 1.950755030818982 0 0 0 0 -1.8225630844956875 -1.3226475107142051 0 -1.3226475107142051 -0.72318185576713745 0 0 0 0 -29.852731482395029 -6.6640589456947055 0 -6.6640589456947055 98.932731631815841 0 0 0 0 -45.638400050189375 14.467039916424255 0 14.467039916424255 93.776371339918114 0 0 0 0 -36.607249006678103 36.273938599610119 0 36.273938599610119 50.898704570165137 0 0 0 0 -11.390484010535147 6.4352939655218506 0 6.4352939655218506 76.899402885144809 0 0 0 0 3.5415572954011623 9.7653308913577348 0 9.7653308913577348 2.6728723034029827 0 0 0 0 3.8194124586152611 14.461498337084777 0 14.461498337084777 11.928926198561385 0 0 0 0 -0.95589380261256451 -0.52578885741883141 0 -0.52578885741883141 0.58147238240553634 0 0 0 0 -25.449963499781006 -0.7200720975670265 0 -0.7200720975670265 98.239964355088887 0 0 0 0 -2.1895442247405299 2.4025621523032896 0 2.4025621523032896 98.549097192197223 0 0 0 0 -29.276989648445124 -7.9899408313358435 0 -7.9899408313358435 115.05143915241933 0 0 0 0 -30.61720096985664 -13.411584862449672 0 -13.411584862449672 121.8864297670807 0 0 0 0 -16.034818234467821 -4.4603731772222091 0 -4.4603731772222091 115.15212100886856 0 0 0 0 -29.568483873133118 -14.662858826741285 0 -14.662858826741285 107.97238703380572 0 0 0 0 21.576076350027279 22.150631515765781 0 22.150631515765781 113.12879663927015 0 0 0 0 -21.086776659780298 3.4182591029966716 0 3.4182591029966716 128.39153257645376 0 0 0 0 -3.8619416506753623 5.9737848638615105 0 5.9737848638615105 124.10269060742576 0 0 0 0 -26.645103221769659 -8.7681293252699106 0 -8.7681293252699106 122.24312391364947 0 0 0 0 -30.275127610171694 0.16561091944458894 0 0.16561091944458894 134.00607566954568 0 0 0 0 -32.526098435834683 -19.833516625689299 0 -19.833516625689299 114.80796806671424 0 0 0 0 -31.378978469294452 -20.956427214929136 0 -20.956427214929136 111.44287596842332 0 0 0 0 -30.126616232197193 -19.569883960211882 0 -19.569883960211882 112.88259938161355 0 0 0 0 -30.733292383083608 -23.115592775866389 0 -23.115592775866389 100.16235343723383 0 0 0 0 -20.658571988023141 -26.094351099200139 0 -26.094351099200139 97.799935685936362 0 0 0 0 -26.927888893682393 -16.85358979117882 0 -16.85358979117882 106.67293585010339 0 0 0 0 -26.157748782577755 -10.638802639869027 0 -10.638802639869027 94.080620513530448 0 0 0 0 -30.919274534305714 -3.5778278659599891 0 -3.5778278659599891 105.14056145402719 0 0 0 0 -29.446102919055193 -15.379012114950456 0 -15.379012114950456 106.49548066599527 0 0 0 0 -34.902215768417591 5.8850254069766379 0 5.8850254069766379 87.300245713384356 0 0 0 0 -19.284928742563352 -6.7408290790772298 0 -6.7408290790772298 95.946710810705554 0 0 0 0 -20.995567804868188 -1.6954926534453989 0 -1.6954926534453989 87.43763488982222 0 0 0 0 -8.9095201938580431 -6.5898854361876147 0 -6.5898854361876147 88.913508432626259 0 0 0 0 -17.206540907329327 -10.182156681432389 0 -10.182156681432389 90.374532012210693 0 0 0 0 -16.156438290745427 -15.365935458888998 0 -15.365935458888998 95.789913436456118 0 0 0 0 -13.258450236524368 -17.758762810844928 0 -17.758762810844928 94.007193519108114 0 0 0 0 -11.884415288488526 -17.711719419748988 0 -17.711719419748988 89.517956844414584 0 0 0 0 -5.7804191229492972 -7.9621840652253013 0 -7.9621840652253013 87.119035017734859 0 0 0 0 -5.0985233588289702 -13.579287765111076 0 -13.579287765111076 91.172970439074561 0 0 0 0 -2.7795055880887958 -11.710007344721816 0 -11.710007344721816 88.221465980052017 0 0 0 0 3.09140931640286 -12.4408918126137 0 -12.4408918126137 87.993800771218957 0 0 0 0 7.3287657424506278 -11.009191652191475 0 -11.009191652191475 88.083645808743313 0 0 0 0 7.4781717383448267 -11.825041844160296 0 -11.825041844160296 88.801870540977689 0 0 0 0 0.036817329993937165 -18.908733419841155 0 -18.908733419841155 88.160042019968387 0 0 0 0 7.0265670891777745 -19.284152707057729 0 -19.284152707057729 86.561499350005761 0 0 0 0 0.18618375416281197 -17.887297391360335 0 -17.887297391360335 89.411416999762878 0 0 0 0 -17.591870300137089 -28.837715607980499 0 -28.837715607980499 97.412247379332257 0 0 0 0 -23.96430703441365 -29.359977718515438 0 -29.359977718515438 94.480926443473436 0 0 0 0 -28.282659829619661 -34.68406334912288 0 -34.68406334912288 96.822069940157235 0 0 0 0 -7.9958163329829404 -31.364455228591396 0 -31.364455228591396 89.984771875722799 0 0 0 0 1.1380660351642291 -29.396097497461597 0 -29.396097497461597 90.386230642907321 0 0 0 0 -6.5598388422113203 2.8174122499622172 0 2.8174122499622172 45.67814038268989 0 0 0 0 -16.005044431214628 -41.819259191805031 0 -41.819259191805031 94.131252674909774 0 0 0 0 -17.864108630637929 -27.133858435438015 0 -27.133858435438015 93.832792119290389 0 0 0 0 3.3349952984790434 -51.268553893751232 0 -51.268553893751232 111.24526435113512 0 0 0 0 -22.533969809317568 -38.809009227319621 0 -38.809009227319621 71.641062434093328 0 0 0 0 -37.486047085731116 -37.01391928747762 0 -37.01391928747762 91.46080961971893 0 0 0 0 -32.812348715648113 20.095155428221915 0 20.095155428221915 123.3299609295791 0 0 0 0 21.251020451662043 -19.978231118555414 0 -19.978231118555414 97.127677325275727 0 0 0 0 1.9419834658789967 -11.76728695674989 0 -11.76728695674989 -0.71647445944921628 0 0 0 0 37.244995222164107 -34.163101744532469 0 -34.163101744532469 107.00723150139675 0 0 0 0 12.174729027072317 -11.823102335561998 0 -11.823102335561998 90.982801832840778 0 0 0 0 8.1287345075907069 -9.297109610226471 0 -9.297109610226471 89.561411018949002 0 0 0 0 12.163617744246039 -16.788554538507015 0 -16.788554538507015 91.071465010754764 0 0 0 0 13.190954846561908 -11.916862024532747 0 -11.916862024532747 88.445310846436769 0 0 0 0 16.702249204601685 -16.135774688445963 0 -16.135774688445963 87.443645372171886 0 0 0 0 8.4774601837343653 -32.699257673957618 0 -32.699257673957618 87.921128444198985 0 0 0 0 35.978540477011848 -27.05971346545266 0 -27.05971346545266 88.87033024255652 0 0 0 0 20.424188892829989 -21.064873267954681 0 -21.064873267954681 105.58647755702987 0 0 0 0 25.041453403915511 -16.507324220438022 0 -16.507324220438022 90.04716719861608 0 0 0 0 -49.958994013331903 -10.131475735601271 0 -10.131475735601271 125.60361289512366 0 0 0 0 -37.85452560271915 -28.395194407254166 0 -28.395194407254166 99.174662489676848 0 0 0 0 -43.585033099756401 -30.185435220657382 0 -30.185435220657382 109.02116941492568 0 0 0 0 -28.554169506020116 -30.458143955125706 0 -30.458143955125706 92.965310663625132 0 0 0 0 -38.188997612256571 -34.501729259151034 0 -34.501729259151034 71.114770367159508 0 0 0 0 -37.674588600115385 -26.332173520568176 0 -26.332173520568176 92.699829576985394 0 0 0 0 -46.412377294964244 -31.718488308601081 0 -31.718488308601081 75.072323657775996 0 0 0 0 -50.923915944738837 -28.976194113260135 0 -28.976194113260135 99.149153782025678 0 0 0 0 -57.400128019255135 -27.318294943863293 0 -27.318294943863293 74.314169372664765 0 0 0 0 -58.855583490378194 -45.719564970684587 0 -45.719564970684587 68.906621465572243 0 0 0 0 -3.8005059426610437 0.26826207999974372 0 0.26826207999974372 13.375797089236016 0 0 0 0 -22.998068469007194 -50.511398131886381 0 -50.511398131886381 22.294762540233933 0 0 0 0 -34.911154049084871 19.866033939739282 0 19.866033939739282 105.96856996649876 0 0 0 0 -1.5941430317155674 -9.2784830895516421 0 -9.2784830895516421 72.503821874340417 0 0 0 0 -51.465563044232795 -33.870926114241684 0 -33.870926114241684 77.422724127740366 0 0 0 0 -34.745064287850255 -53.147402555296139 0 -53.147402555296139 27.391499141449458 0 0 0 0 -28.058684491246822 -42.608794002291688 0 -42.608794002291688 87.196800632940722 0 0 0 0 -47.475277818426548 -48.560844918807561 0 -48.560844918807561 99.490841090919275 0 0 0 0 -45.497534515441657 -66.437950268067652 0 -66.437950268067652 96.862012632162077 0 0 0 0 -33.799042065205867 -61.429783904590295 0 -61.429783904590295 77.980933338054456 0 0 0 0 -32.098567482262297 -66.48791846128006 0 -66.48791846128006 54.520399791334057 0 0 0 0 -42.668089773225802 -77.92159008665476 0 -77.92159008665476 82.705560959759168 0 0 0 0 -40.996710371424342 -77.922054156435479 0 -77.922054156435479 68.344339859788306 0 0 0 0 -18.533528867659697 -9.209162948807716 0 -9.209162948807716 128.02971441442787 0 0 0 0 -91.742114950833638 15.900729982735356 0 15.900729982735356 286.67971155709529 0 0 0 0 -87.916085824488619 -117.86875638554193 0 -117.86875638554193 101.34881193732144 0 0 0 0 -76.0565366439223 -72.061682561718044 0 -72.061682561718044 147.36828988623165 0 0 0 0 -115.54493777413154 -15.647742506145732 0 -15.647742506145732 -36.400231969208107 0 0 0 0 -119.20539132810381 -2.2547825191250013 0 -2.2547825191250013 119.018456193764 0 0 0 0 -65.481283833658381 -85.434836788394023 0 -85.434836788394023 59.625586575071793 0 0 0 0 -102.68044995519449 -118.53749185388733 0 -118.53749185388733 32.94891771231778 0 0 0 0 -44.51442558362487 -85.830871559544903 0 -85.830871559544903 26.283285659636022 0 0 0 0 -21.344647404825082 -62.748789270030102 0 -62.748789270030102 -6.7115807617665268 0 0 0 0 -204.59206468287448 -99.808026064943988 0 -99.808026064943988 -73.413418679760071 0 0 0 0 29.872209349879995 -96.572881820611656 0 -96.572881820611656 -222.76401802350301 0 0 0 0 -5.4348655811920068 -8.0874145106094204 0 -8.0874145106094204 7.5341060963495465 0 0 0 0 1.372129057199345 -5.6244089127867483 0 -5.6244089127867483 87.486028743180213 0 0 0 0 1.7961265722769895 -6.1298476815863978 0 -6.1298476815863978 87.672770610137377 0 0 0 0 2.0523010832694126 -5.8811529481899925 0 -5.8811529481899925 86.726530153420754 0 0 0 0 -27.691531222932099 -77.075418921827804 0 -77.075418921827804 34.60005819532671 0 0 0 0 0.94400852980470518 -5.4251789233239833 0 -5.4251789233239833 87.393747727252958 0 0 0 0 1.3204806802532403 -5.686523638345534 0 -5.686523638345534 87.401088712445926 0 0 0 0 -27.473060542484745 -74.547418252273928 0 -74.547418252273928 30.824569462740328 0 0 0 0 3.0357135420313845 -30.82830236649994 0 -30.82830236649994 37.930633769864428 0 0 0 0 5.2838093608588679 -8.6970507266232744 0 -8.6970507266232744 89.153251532115974 0 0 0 0 0.85898207926038594 -4.9187156960979337 0 -4.9187156960979337 86.327310170978308 0 0 0 0 1.8133760774871917 -5.4917607323732227 0 -5.4917607323732227 86.124712031742092 0 0 0 0 1.011701673072821 -5.3581927660270594 0 -5.3581927660270594 87.063728590495884 0 0 0 0 -0.0043367131220293231 -5.265610093192663 0 -5.265610093192663 87.403705051969155 0 0 0 0 0.59281067185656866 -6.3551134625740815 0 -6.3551134625740815 87.043177246814594 0 0 0 0 0.86511473283462692 -9.4228451093658805 0 -9.4228451093658805 87.555146634520497 0 0 0 0 -2.5940555001725443 -9.511978253518464 0 -9.511978253518464 87.646811609505676 0 0 0 0 0.71202665018790867 -5.9685453589481767 0 -5.9685453589481767 87.395470815623412 0 0 0 0 0.59018078701046761 -9.2534448937512934 0 -9.2534448937512934 87.451346745074261 0 0 0 0 3.4328053114732029 -7.9972330490709282 0 -7.9972330490709282 87.975584079453256 0 0 0 0 2.7236563385813497 -6.4739135419949889 0 -6.4739135419949889 88.476148370129522 0 0 0 0 4.3509709897625726 -8.2999694162572268 0 -8.2999694162572268 89.61717077170033 0 0 0 0 3.1018565189660876 -9.0645261125755496 0 -9.0645261125755496 89.189136740169488 0 0 0 0 1.2865691487531876 -5.5618066347087733 0 -5.5618066347087733 87.363252549243043 0 0 0 0 1.7949160995776765 -7.0453575919964351 0 -7.0453575919964351 88.185986928147031 0 0 0 0 10.705952269374393 -12.335666426690295 0 -12.335666426690295 91.593536335974932 0 0 0 0 -30.699333559881779 -86.164788311725715 0 -86.164788311725715 39.064931934772176 0 0 0 0 -38.979649691107625 -90.016131368785864 0 -90.016131368785864 72.644522065536876 0 0 0 0 -45.599894343491542 -106.74778943791898 0 -106.74778943791898 34.269813293765765 0 0 0 0 26.272242184693368 -196.1804036948306 0 -196.1804036948306 445.17245455639386 0 0 0 0 -119.2435652268673 48.39707318465662 0 48.39707318465662 236.52293708437628 0 0 0 0 27.714345208634768 -39.986318048111571 0 -39.986318048111571 121.65845092941163 0 0 0 0 -20.390138625415361 -27.606831013145808 0 -27.606831013145808 22.889072281825989 0 0 0 0 -102.2452311364359 121.3261078287469 0 121.3261078287469 338.84911811770871 0 0 0 0 620.14362477278246 234.7169109461538 0 234.7169109461538 -212.2143755365687 0 0 0 0 -154.77364170308738 -207.61980446395319 0 -207.61980446395319 -10.741735244879237 0 0 0 0 -226.99245251135744 80.271730525542807 0 80.271730525542807 115.35854824987473 0 0 0 0 63.575236826555738 -1.9286368528410094 0 -1.9286368528410094 121.70167022998066 0 0 0 0 -33.304520304332982 -166.75616574786545 0 -166.75616574786545 0.94725903243306675 0 0 0 0 88.644507746565608 -7.7823161107462511 0 -7.7823161107462511 -70.869031672555138 0 0 0 0 -3.6079910331214045 3.4945282358173557 0 3.4945282358173557 9.4244863858798453 0 0 0 0 -40.530740297823286 86.113188849725702 0 86.113188849725702 58.470636581529106 0 0 0 0 -87.384313495695096 -8.9237438651980483 0 -8.9237438651980483 138.72198621470307 0 0 0 0 -226.18737256313386 50.6586710764891 0 50.6586710764891 116.55459190285183 0 0 0 0 -245.70878614417006 -102.56159248422455 0 -102.56159248422455 147.89515176629357 0 0 0 0 -41.276802676470652 -57.832957723090658 0 -57.832957723090658 201.7913743176905 0 0 0 0 -61.55028834753648 -91.030224492889829 0 -91.030224492889829 148.35062040958837 0 0 0 0 23.270259756625819 -126.62791849448695 0 -126.62791849448695 141.03611614141846 0 0 0 0 51.708430559996486 -70.315085694583104 0 -70.315085694583104 92.619891676862608 0 0 0 0 -6.8787388445887565 6.4383050501093919 0 6.4383050501093919 58.184930339235166 0 0 0 0 6.8195134896468517 -7.9452617752103833 0 -7.9452617752103833 80.387919491739012 0 0 0 0 6.4176913067130954 -5.0872621377930045 0 -5.0872621377930045 77.128201829964382 0 0 0 0 -1.1183379965796121 2.0009595840310794 0 2.0009595840310794 71.126884982702904 0 0 0 0 0.23039403960865457 -1.6642151506093796 0 -1.6642151506093796 77.875484930133098 0 0 0 0 -6.7132659949602385 -2.832558140726178 0 -2.832558140726178 84.514757507422473 0 0 0 0 -6.6492234218821977 -7.4640562397253234 0 -7.4640562397253234 87.699276095721871 0 0 0 0 -0.3657833968027262 -3.6939981131290551 0 -3.6939981131290551 84.644183953874744 0 0 0 0 -1.6619765017962891 -5.3709530725573131 0 -5.3709530725573131 86.615166023664642 0 0 0 0 -1.523083181331458 -5.8140132162661757 0 -5.8140132162661757 86.222138284094399 0 0 0 0 3.0630843015023856 -7.3559725906234235 0 -7.3559725906234235 86.198162762331776 0 0 0 0 1.4558715961975395 -5.3505742641864344 0 -5.3505742641864344 86.101665882742964 0 0 0 0 4.0106399515602789 -6.8039282462123083 0 -6.8039282462123083 83.7637930031633 0 0 0 0 1.4605648482174729 -5.3503837708412902 0 -5.3503837708412902 86.06866765441373 0 0 0 0 3.7825674872728996 -5.1680594728968572 0 -5.1680594728968572 81.318789881072007 0 0 0 0 -43.726413757184673 -32.808833641895035 0 -32.808833641895035 198.00504792272113 0 0 0 0 -0.63736030071133243 -4.5956145989209887 0 -4.5956145989209887 10.713759778494847 0 0 0 0 39.921662460168591 -20.116723325860221 0 -20.116723325860221 129.40604820486624 0 0 0 0 -15.739793789915211 15.211424145220008 0 15.211424145220008 42.159916570206406 0 0 0 0 -64.915962389138258 -171.87852181535709 0 -171.87852181535709 -182.20773069168717 0 0 0 0 -13.615087968370062 -6.7894210350932553 0 -6.7894210350932553 46.776082825441335 0 0 0 0 -74.000833493890241 -24.442265798021253 0 -24.442265798021253 105.67137667044881 0 0 0 0 0.01541023608569958 -23.331784255071398 0 -23.331784255071398 64.073389340133872 0 0 0 0 -3.9587561458626706 2.3182193006231842 0 2.3182193006231842 22.063132811720777 0 0 0 0 -3.5762608052355063 -0.62532087191357277 0 -0.62532087191357277 27.464464342017891 0 0 0 0 -12.514587902257063 11.860673985511312 0 11.860673985511312 66.592189255170524 0 0 0 0 6.0035085132174117 -5.2084249721265223 0 -5.2084249721265223 55.804361514354241 0 0 0 0 -3.5658498459664578 0.91438397915194969 0 0.91438397915194969 28.010650960494274 0 0 0 0 -6.6262815735772165 -57.046557346497138 0 -57.046557346497138 45.569265778227418 0 0 0 0 259.09672005689026 -180.11216651064024 0 -180.11216651064024 33.15804680986912 0 0 0 0 36.970407025015447 19.075490804018045 0 19.075490804018045 23.333016002172371 0 0 0 0 104.45201131755175 -117.47459222203179 0 -117.47459222203179 74.644024378038011 0 0 0 0 255.78131833024599 -21.35568493858591 0 -21.35568493858591 18.754506365181442 0 0 0 0 -215.34979478385685 -88.769392221031012 0 -88.769392221031012 203.9528610455709 0 0 0 0 -114.97914870075874 -112.52141045641474 0 -112.52141045641474 207.51674477689085 0 0 0 0 -3.1080456483547323 -98.393202013392965 0 -98.393202013392965 146.04458605436957 0 0 0 0 -153.79816782536091 -48.496483083901694 0 -48.496483083901694 214.25408450378745 0 0 0 0 -129.90536715089547 -60.765632300164725 0 -60.765632300164725 206.9109368922218 0 0 0 0 -71.688153340159261 -67.418030493769038 0 -67.418030493769038 193.77970025316608 0 0 0 0 8.4613034575409074 -66.304607067726465 0 -66.304607067726465 312.36677239794517 0 0 0 0 4.788741311069316 -87.615513754950371 0 -87.615513754950371 191.7695690958717 0 0 0 0 15.500672983278491 -113.22531952825375 0 -113.22531952825375 184.25370051676873 0 0 0 0 -77.954519418768086 -87.807372432451302 0 -87.807372432451302 244.22610989905661 0 0 0 0 15.264616811872315 -115.73464830379271 0 -115.73464830379271 215.01925223838771 0 0 0 0 127.19821500513717 -189.33090890521999 0 -189.33090890521999 262.96985904008761 0 0 0 0 39.669782958613723 -98.06018499291531 0 -98.06018499291531 162.36382756795501 0 0 0 0 -32.72302644964293 -117.23841405363055 0 -117.23841405363055 145.33840049097671 0 0 0 0 -18.406000231340471 -21.250837393261605 0 -21.250837393261605 20.594587681940368 0 0 0 0 -4.3640986408081517 -117.94996434183122 0 -117.94996434183122 187.98914677022185 0 0 0 0 -151.14021442756166 3.2638766007585218 0 3.2638766007585218 117.37739351462733 0 0 0 0 -23.731066435768298 -69.539125153041823 0 -69.539125153041823 155.07664544130967 0 0 0 0 43.641333856819983 -92.154475965835445 0 -92.154475965835445 364.1738457106112 0 0 0 0 -13.061306319794905 -4.4343499264806496 0 -4.4343499264806496 -2.7467981313194514 0 0 0 0 66.987439315477786 -84.895753547290951 0 -84.895753547290951 133.97564569812675 0 0 0 0 74.276620639258908 -48.076166342108991 0 -48.076166342108991 249.13022181100678 0 0 0 0 -40.05869927958156 -10.580373406497529 0 -10.580373406497529 919.45808193896664 0 0 0 0 143.52873783924952 55.527525485842489 0 55.527525485842489 334.12758552427931 0 0 0 0 -85.942484800508737 -132.03980316681464 0 -132.03980316681464 1077.4001579261385 0 0 0 0 -332.98125308908857 24.826027177055948 0 24.826027177055948 988.24885551323678 0 0 0 0 21.01109306690455 174.35556952795628 0 174.35556952795628 813.29026708760648 0 0 0 0 -364.98546014514068 379.12331135191926 0 379.12331135191926 766.0772421582833 0 0 0 0 250.70784485358854 -394.60328618633866 0 -394.60328618633866 703.79471831137198 0 0 0 0 209.59782295369951 -395.81400451840454 0 -395.81400451840454 840.45242414933 0 0 0 0 1.5064902249853205 -0.10063407843502148 0 -0.10063407843502148 6.4214827489104209 0 0 0 0 -48.57333258734252 -266.02951671755 0 -266.02951671755 333.22614285543386 0 0 0 0 -522.96801359256096 534.10306990585377 0 534.10306990585377 245.78652621962101 0 0 0 0 -4.6950393223958287 -1.1244216958274365 0 -1.1244216958274365 1.1752787498485304 0 0 0 0 -393.50113947136833 -302.07304600621637 0 -302.07304600621637 86.438598378837924 0 0 0 0 -418.94609433364894 -190.98260865566044 0 -190.98260865566044 264.69779571459912 0 0 0 0 -299.18756920972373 -75.670544503143901 0 -75.670544503143901 180.17371070457011 0 0 0 0 -329.72589358512232 -81.724255097624336 0 -81.724255097624336 345.69111547361535 0 0 0 0 -368.52764744729393 -86.315468736225739 0 -86.315468736225739 490.76701668963506 0 0 0 0 76.758125768385071 -367.36668320692115 0 -367.36668320692115 366.67172442296396 0 0 0 0 -261.46051173064916 -183.1693876844347 0 -183.1693876844347 -27.255408945326053 0 0 0 0 -167.83533355130203 -430.95111643773998 0 -430.95111643773998 -146.66844271715672 0 0 0 0 -264.5829294653995 -239.42586822193516 0 -239.42586822193516 333.28690531163011 0 0 0 0 4.9082194921028162 -42.992109539672512 0 -42.992109539672512 102.35405843357734 0 0 0 0 -74.572499105557654 -116.4692728569571 0 -116.4692728569571 132.21324844084302 0 0 0 0 -66.113696376885855 -6.5231841458007693 0 -6.5231841458007693 212.4435260028622 0 0 0 0 13.191765767272955 64.307203420677979 0 64.307203420677979 394.67682658034028 0 0 0 0 20.260573155570455 -10.935431896876253 0 -10.935431896876253 187.22394164423895 0 0 0 0 -6.683475576895944 -57.953008154960116 0 -57.953008154960116 276.0156451531293 0 0 0 0 18.219397333265078 -91.022013151869032 0 -91.022013151869032 37.258238596950832 0 0 0 0 -185.60047193823266 -102.28261404936711 0 -102.28261404936711 74.564746240297154 0 0 0 0 -147.23373403469031 -35.276002277219959 0 -35.276002277219959 148.20429972204875 0 0 0 0 -36.567251660755574 -169.80205521988682 0 -169.80205521988682 103.80150876398693 0 0 0 0 7.9717413714016985 -52.501913191957932 0 -52.501913191957932 116.7139791950683 0 0 0 0 -2.0110499056380569 -26.767622859624737 0 -26.767622859624737 8.4278571352716085 0 0 0 0 104.89692402972196 -102.51072371516057 0 -102.51072371516057 263.80076083817403 0 0 0 0 58.082782451754611 0.8686486670630984 0 0.8686486670630984 285.20028695338988 0 0 0 0 -9.9911100648620721 -20.874477367214539 0 -20.874477367214539 140.36881259124931 0 0 0 0 45.275532090538036 -11.363596942686854 0 -11.363596942686854 286.92953295347252 0 0 0 0 3.2423744602778086 -15.209286965777565 0 -15.209286965777565 44.851435115083717 0 0 0 0 133.00614452621812 -110.8867640249664 0 -110.8867640249664 151.87534082791535 0 0 0 0 157.85786937869352 -126.04387955141647 0 -126.04387955141647 159.99842218338745 0 0 0 0 -30.876732660866612 14.639838643267254 0 14.639838643267254 32.390390678395022 0 0 0 0 117.19364811759078 -73.994144124713785 0 -73.994144124713785 169.78759854049713 0 0 0 0 -102.45307793041138 -71.998506200172415 0 -71.998506200172415 166.75331605603606 0 0 0 0 7.3554988135583699 -18.690739364690671 0 -18.690739364690671 286.91644471603303 0 0 0 0 -335.79109043685821 124.5075557737473 0 124.5075557737473 118.01008601127251 0 0 0 0 -180.70373456723337 29.290742575561126 0 29.290742575561126 161.83983543650538 0 0 0 0 -300.20314251996206 9.8361945169672254 0 9.8361945169672254 212.79129119277786 0 0 0 0 -307.87078176955947 -58.327603113872101 0 -58.327603113872101 249.48810501396656 0 0 0 0 -297.24540231532319 -3.6029135406333808 0 -3.6029135406333808 273.76114261072507 0 0 0 0 -281.48728947341124 170.75480551264172 0 170.75480551264172 498.42932660316728 0 0 0 0 -219.48906407504546 22.21427384321214 0 22.21427384321214 268.27514871133098 0 0 0 0 -78.430043076295988 57.544732805534295 0 57.544732805534295 135.01884168766992 0 0 0 0 -230.46595222449469 -45.559887485587751 0 -45.559887485587751 72.911226755699317 0 0 0 0 -99.829012371802492 -67.50005032422996 0 -67.50005032422996 -1.7708855685450544 0 0 0 0 -1.9893106524925361 -6.9854669656309909 0 -6.9854669656309909 14.39975378132317 0 0 0 0 -155.0948286046405 -78.795782623164996 0 -78.795782623164996 85.312480095253704 0 0 0 0 -151.19066412235043 -135.58548655247796 0 -135.58548655247796 -5.9029509675419831 0 0 0 0 -151.27842675492059 -131.97333196488654 0 -131.97333196488654 84.055113896632975 0 0 0 0 179.24198721310677 -140.37183130020276 0 -140.37183130020276 97.798406680014523 0 0 0 0 -15.725661525106126 -0.4593600847993784 0 -0.4593600847993784 5.0228037447723635 0 0 0 0 -96.374338276325943 -104.26852896399396 0 -104.26852896399396 -128.69706361423232 0 0 0 0 56.835532985347754 25.519594262619876 0 25.519594262619876 306.98490423423937 0 0 0 0 107.79591094003968 -106.11917554859792 0 -106.11917554859792 152.65310102928197 0 0 0 0 76.511827243335574 -121.30768426566283 0 -121.30768426566283 180.89402611019614 0 0 0 0 -212.27848009117588 -442.66613157681786 0 -442.66613157681786 430.94959207984357 0 0 0 0 -54.222092882893776 22.224591358060934 0 22.224591358060934 351.43405766961223 0 0 0 0 -1.3818219599488657 55.044482660423455 0 55.044482660423455 363.84236077649985 0 0 0 0 -1.2184381599719103 1.0603148646488592 0 1.0603148646488592 0.20120762616741672 0 0 0 0 -142.3161289207892 -512.7042737503125 0 -512.7042737503125 -758.47911084839507 0 0 0 0 -5.6017208330693222 1.8881750866295732 0 1.8881750866295732 -0.12338419032609238 0 0 0 0 -489.97798000944385 30.743154274692643 0 30.743154274692643 447.38065907847385 0 0 0 0 -756.94538774448665 -265.41919818674796 0 -265.41919818674796 518.38216570522127 0 0 0 0 170.13292740484849 -12.930880634019559 0 -12.930880634019559 78.810772576711315 0 0 0 0 -13.253183958651018 -17.04536552861255 0 -17.04536552861255 153.33822261392305 0 0 0 0 -159.99081891257629 -246.73807740583834 0 -246.73807740583834 -509.42768204218373 0 0 0 0 90.267381045649643 36.723205823958779 0 36.723205823958779 96.015573592041619 0 0 0 0 18.515310467705604 70.75140971905239 0 70.75140971905239 283.95090985704155 0 0 0 0 -333.62202914308818 268.15929529973982 0 268.15929529973982 617.38309205318365 0 0 0 0 -676.78607049403581 -269.77849782685735 0 -269.77849782685735 -12.635140168937141 0 0 0 0 -17.214098495873756 -11.007308309536093 0 -11.007308309536093 48.545548711456313 0 0 0 0 -576.73773258684378 -42.552156853688757 0 -42.552156853688757 318.82852863456355 0 0 0 0 -7.021003707670026 -27.026332179376315 0 -27.026332179376315 103.21300562732284 0 0 0 0 -457.18912128745433 -120.15655055574462 0 -120.15655055574462 202.75112061445031 0 0 0 0 -624.9046507778362 -20.781235023202044 0 -20.781235023202044 382.42201972019393 0 0 0 0 -16.433704157082843 -30.390774416358866 0 -30.390774416358866 50.592278002252158 0 0 0 0 -95.182964726249793 51.40735630020572 0 51.40735630020572 116.80506235405437 0 0 0 0 -19.722731246025432 19.122280564393805 0 19.122280564393805 10.374920698428468 0 0 0 0 286.08322319369381 -234.91754255236992 0 -234.91754255236992 180.45176509814337 0 0 0 0 -4.003283308839034 -4.6142558548159087 0 -4.6142558548159087 5.0010105449703133 0 0 0 0 126.57276207823998 290.8898799709591 0 290.8898799709591 562.1947840765315 0 0 0 0 -78.317606508684548 -153.5521106506385 0 -153.5521106506385 279.86029760011297 0 0 0 0 -131.09165820749695 -177.38345226319507 0 -177.38345226319507 622.05337106508523 0 0 0 0 -74.110020789799819 -138.02431912899556 0 -138.02431912899556 300.9967872594425 0 0 0 0 -244.74365893669165 48.03670239681378 0 48.03670239681378 265.98278145777567 0 0 0 0 148.99056520553131 -326.93510053045975 0 -326.93510053045975 408.67234611591266 0 0 0 0 -108.75651198071137 166.5745843427776 0 166.5745843427776 446.21677799746249 0 0 0 0 -118.5685524190485 83.649604415397334 0 83.649604415397334 227.67433880208409 0 0 0 0 505.8285432337334 -6.7001158332095656 0 -6.7001158332095656 -227.40178467653095 0 0 0 0 -284.01339969906894 -72.69855388839278 0 -72.69855388839278 777.45429407573101 0 0 0 0 3.15238977563601 0.98463114268639629 0 0.98463114268639629 -0.84869801861458427 0 0 0 0 -126.72768217820249 -133.73954720580696 0 -133.73954720580696 344.76225151498511 0 0 0 0 -7.340739926088645 80.103698309574611 0 80.103698309574611 337.1853668042404 0 0 0 0 2.5161906979321671 -0.1908700549776583 0 -0.1908700549776583 0.49617918825713048 0 0 0 0 -27.125999334078188 79.712433116801549 0 79.712433116801549 282.89607936117682 0 0 0 0 -18.662325668748963 2.6765780942059791 0 2.6765780942059791 437.17357384460229 0 0 0 0 40.123400077373844 135.20403466343123 0 135.20403466343123 544.86635888529781 0 0 0 0 15.271513861300036 46.997882073185338 0 46.997882073185338 237.6195736168811 0 0 0 0 -108.37163075416083 -13.984944122375964 0 -13.984944122375964 208.88512186563275 0 0 0 0 -234.61101831847373 114.87947962098224 0 114.87947962098224 303.29609814009382 0 0 0 0 98.244024995451696 417.26358008324223 0 417.26358008324223 532.3510863804222 0 0 0 0 -171.12096955722518 203.15674665050392 0 203.15674665050392 922.54411798000365 0 0 0 0 1.1492152064428609 0.99019535417876625 0 0.99019535417876625 0.023009840011546601 0 0 0 0 -540.98695968015636 -192.199731156903 0 -192.199731156903 792.31202274660245 0 0 0 0 -114.00930897948547 200.09568310924442 0 200.09568310924442 -158.88392177964488 0 0 0 0 43.94235177318842 37.163842760663101 0 37.163842760663101 421.83278074597183 0 0 0 0 -379.98696844825986 182.13942069328004 0 182.13942069328004 234.6429253277056 0 0 0 0 -5.8422278585913929 3.6555588631077214 0 3.6555588631077214 0.12495353460685799 0 0 0 0 -19.622057206192494 79.46053927680623 0 79.46053927680623 -243.66228828816384 0 0 0 0 -3.1527440318577273 1.265419036720445 0 1.265419036720445 6.5390901742495942 0 0 0 0 52.455167271342575 -215.71468135807322 0 -215.71468135807322 736.97000560451488 0 0 0 0 -480.25751675893252 378.24409583599504 0 378.24409583599504 175.78315299210954 0 0 0 0 -445.56394092225599 -135.86933369430983 0 -135.86933369430983 59.546052776833676 0 0 0 0 -5.5107825562939912 2.7611677412805875 0 2.7611677412805875 12.8072882879503 0 0 0 0 -114.53475705158326 -70.567167469747801 0 -70.567167469747801 216.30446452015508 0 0 0 0 -194.59357617893147 104.9113768096795 0 104.9113768096795 14.951720682285668 0 0 0 0 -150.62142487220353 73.482710797472464 0 73.482710797472464 36.335222369505573 0 0 0 0 -147.75611654057502 -41.785375194103835 0 -41.785375194103835 50.394969473094534 0 0 0 0 -34.528538788654259 -29.682695156718182 0 -29.682695156718182 24.518586825692182 0 0 0 0 -15.559721738231019 -7.9096822252286074 0 -7.9096822252286074 20.020260018511181 0 0 0 0 -53.448395018940573 -5.0265227765648888 0 -5.0265227765648888 40.694366624229588 0 0 0 0 -16.976384934517259 3.6638734931582988 0 3.6638734931582988 4.419758494066313 0 0 0 0 -87.801307388421264 -23.319134711782681 0 -23.319134711782681 42.660883354521502 0 0 0 0 -72.567182150793087 72.42011445238677 0 72.42011445238677 18.809730961311288 0 0 0 0 -56.242715550903085 -67.849637719684324 0 -67.849637719684324 72.916083244203037 0 0 0 0 71.617414883492984 -16.660867477291958 0 -16.660867477291958 16.310304397846267 0 0 0 0 8.5869839804126968 -52.551069887368612 0 -52.551069887368612 33.741256645455906 0 0 0 0 35.408609616987746 -101.66509100487178 0 -101.66509100487178 -74.933997891028412 0 0 0 0 21.896754259198588 -7.2312460939128869 0 -7.2312460939128869 1.0160271002232548 0 0 0 0 16.843474407728859 -44.013400919622654 0 -44.013400919622654 42.628019207792065 0 0 0 0 89.647578921961212 -183.73653847389323 0 -183.73653847389323 -85.017463421680077 0 0 0 0 6.4564007306788653 -3.4898178618559541 0 -3.4898178618559541 20.561626755192265 0 0 0 0 88.024237007578165 33.43957158948524 0 33.43957158948524 229.77277930466516 0 0 0 0 0.26083638008606158 -34.377186553180714 0 -34.377186553180714 44.892460642310169 0 0 0 0 -1.2870385068192682 -14.084678834621858 0 -14.084678834621858 13.81437013543092 0 0 0 0 24.668005220863051 -42.640679853820984 0 -42.640679853820984 -64.44638070270048 0 0 0 0 185.70272535071001 169.80866535110908 0 169.80866535110908 181.72729504862946 0 0 0 0 404.10211967525277 165.89639334608 0 165.89639334608 138.01365731327314 0 0 0 0 286.91261427501547 -5.1817727610832662 0 -5.1817727610832662 160.30262902457616 0 0 0 0 469.03485371999113 332.8871609847738 0 332.8871609847738 297.9446094079558 0 0 0 0 -0.42504608330432347 478.94397255604372 0 478.94397255604372 490.453642449771 0 0 0 0 -49.573931174076506 801.58878023938632 0 801.58878023938632 -161.41594626036385 0 0 0 0 33.603047362897833 112.80014779246449 0 112.80014779246449 680.63100217824831 0 0 0 0 39.206937096894087 88.807302195562443 0 88.807302195562443 99.318407909551752 0 0 0 0 346.82882588349094 -51.672136223551206 0 -51.672136223551206 485.32521466797357 0 0 0 0 664.60997152883783 220.50971358883453 0 220.50971358883453 513.46486275060306 0 0 0 0 1.7004109292065062 -0.77335883499222291 0 -0.77335883499222291 6.7538394021655392 0 0 0 0 161.31871359945626 -81.173317747872716 0 -81.173317747872716 55.672951949551134 0 0 0 0 380.18112407198123 723.68872640524205 0 723.68872640524205 423.11545719311425 0 0 0 0 751.22259330795328 635.07602330136797 0 635.07602330136797 218.50260676250036 0 0 0 0 81.358640820627443 37.884323123592367 0 37.884323123592367 530.55603833219357 0 0 0 0 578.87585454057535 391.94758587026263 0 391.94758587026263 344.20970322430185 0 0 0 0 -89.479665699402176 -195.37171854330518 0 -195.37171854330518 233.27936310071527 0 0 0 0 303.12775358750241 387.5591331954729 0 387.5591331954729 84.014394441814147 0 0 0 0 186.17407761180812 -105.84890193589126 0 -105.84890193589126 55.539529445508379 0 0 0 0 -1.4837642517288891 3.7631877426366778 0 3.7631877426366778 7.5695221791746832 0 0 0 0 241.04677306587564 441.89540705780973 0 441.89540705780973 901.3079232534219 0 0 0 0 239.81205802505701 9.9268422257719067 0 9.9268422257719067 1302.6185842756677 0 0 0 0 -30.437982380082758 -177.33211341225615 0 -177.33211341225615 1201.6566557691403 0 0 0 0 335.31200433212746 8.7482136152166277 0 8.7482136152166277 457.27340960706351 0 0 0 0 334.68431832618853 -23.107202414369567 0 -23.107202414369567 717.26900601097805 0 0 0 0 -88.211608932564047 -106.66653038137702 0 -106.66653038137702 886.92125314343866 0 0 0 0 36.163765325455643 -449.51304568174965 0 -449.51304568174965 714.56593531471117 0 0 0 0 -10.822317468549045 -313.89939538600993 0 -313.89939538600993 323.23257168798591 0 0 0 0 116.42739957801587 -179.40161706194158 0 -179.40161706194158 105.58219833585099 0 0 0 0 67.395894658631278 -111.26987684594678 0 -111.26987684594678 109.81856462049473 0 0 0 0 81.72631060239155 -114.03048688125637 0 -114.03048688125637 57.968337096797768 0 0 0 0 280.62545349736001 -436.18948492769596 0 -436.18948492769596 173.42250725634949 0 0 0 0 -22.304374487457835 -110.54808564185532 0 -110.54808564185532 191.08718318898536 0 0 0 0 6.2543365418324903 -3.4483271002289655 0 -3.4483271002289655 0.3735100435189338 0 0 0 0 252.42041669532443 -255.16317118232905 0 -255.16317118232905 -178.65467680614529 0 0 0 0 -99.178999277932235 31.121938800260978 0 31.121938800260978 20.189425234806549 0 0 0 0 8.4815610120142786 -6.626182107785354 0 -6.626182107785354 4.0076783239975384 0 0 0 0 -199.47595026394356 -184.95927662843678 0 -184.95927662843678 54.473595347641094 0 0 0 0 241.09409779109637 285.57435317104682 0 285.57435317104682 433.2719716202846 0 0 0 0 -176.34684553669649 -49.352385963162305 0 -49.352385963162305 376.52743932180601 0 0 0 0 29.058074451320863 -151.49545298609155 0 -151.49545298609155 424.12062318552489 0 0 0 0 2.087003811292945 -3.3164666896188786 0 -3.3164666896188786 3.8903332862569187 0 0 0 0 -4.3781496999262686 0.43916398654917543 0 0.43916398654917543 7.7056943405022054 0 0 0 0 -273.08451998145756 710.39394448439998 0 710.39394448439998 609.99285663972842 0 0 0 0 -110.98678891129475 101.59337922677878 0 101.59337922677878 -327.13772813354808 0 0 0 0 32.110703262822426 213.30558413087783 0 213.30558413087783 232.20020595664391 0 0 0 0 -277.7855338355821 -1.7527446006170067 0 -1.7527446006170067 40.940419377489889 0 0 0 0 -6.3018665875176616 2.1628198317466811 0 2.1628198317466811 13.259735255118699 0 0 0 0 -287.46975567039203 125.22024874690032 0 125.22024874690032 22.928461368624994 0 0 0 0 -220.89217676380076 -4.9593440147655201 0 -4.9593440147655201 62.373052472384643 0 0 0 0 -302.39339463573606 -172.05652822111006 0 -172.05652822111006 608.83765972849142 0 0 0 0 -91.938919313916074 -150.87976514117508 0 -150.87976514117508 512.45698391011683 0 0 0 0 -163.6623857521945 -170.5412935351851 0 -170.5412935351851 476.24147124853152 0 0 0 0 -199.69880795969675 -145.17682047291055 0 -145.17682047291055 485.46259021102014 0 0 0 0 -111.24266130189972 -258.62286200223753 0 -258.62286200223753 543.1900241996118 0 0 0 0 -195.75238756478939 -95.877745662121015 0 -95.877745662121015 441.09895704642258 0 0 0 0 -197.84372701916027 -134.73117416032619 0 -134.73117416032619 587.29537930909282 0 0 0 0 -184.29562164285016 -282.36125128946151 0 -282.36125128946151 620.64675831045497 0 0 0 0 -214.48214547347561 -204.97971389913255 0 -204.97971389913255 496.82318874378689 0 0 0 0 -42.737159768973015 -177.42587547488438 0 -177.42587547488438 266.62849710700721 0 0 0 0 -44.268334914198022 -163.88657358185083 0 -163.88657358185083 259.80558505776571 0 0 0 0 -92.665738270344036 -45.341884656570983 0 -45.341884656570983 137.57403533612523 0 0 0 0 -119.24368498174226 -28.361926229670644 0 -28.361926229670644 286.93006781287477 0 0 0 0 -175.67510503936319 -146.69021989727571 0 -146.69021989727571 440.30793818825623 0 0 0 0 -242.98690724009066 -131.05320566032242 0 -131.05320566032242 249.16754352988937 0 0 0 0 176.57039326628001 -500.81954930920983 0 -500.81954930920983 816.69270269283152 0 0 0 0 -3.9524661296054546 -60.09718166894163 0 -60.09718166894163 480.29879627647097 0 0 0 0 88.825498191284169 -644.54629115104945 0 -644.54629115104945 1040.868777212112 0 0 0 0 -692.11110852815546 88.565991988711176 0 88.565991988711176 486.78773109028862 0 0 0 0 -86.412915286487987 -218.74955554502958 0 -218.74955554502958 1158.3659592130225 0 0 0 0 147.9581331050249 42.246958670385993 0 42.246958670385993 358.72485403377505 0 0 0 0 -123.9184787128288 -208.50317854071182 0 -208.50317854071182 356.23378638627582 0 0 0 0 57.258377915452002 -110.06145488310722 0 -110.06145488310722 106.36095767111692 0 0 0 0 -205.1403138551068 -290.57342868771957 0 -290.57342868771957 9.8597978089164826 0 0 0 0 26.510045056635136 -350.55223631333865 0 -350.55223631333865 18.102829817544261 0 0 0 0 -136.8131857871831 -401.66531239270716 0 -401.66531239270716 -120.99095906637376 0 0 0 0 -96.028819480865423 -235.9767781019973 0 -235.9767781019973 -271.14898841832473 0 0 0 0 -191.25642797189539 -334.40555748270344 0 -334.40555748270344 -291.9961714688834 0 0 0 0 -14.381252138226799 6.0562337391369141 0 6.0562337391369141 24.874080559306961 0 0 0 0 -114.6656260488362 -344.30730067571858 0 -344.30730067571858 -507.62194917299348 0 0 0 0 276.88147219781058 848.32179367029312 0 848.32179367029312 879.19566384259087 0 0 0 0 -122.23845509126681 -86.497608081160479 0 -86.497608081160479 154.04508952433389 0 0 0 0 16.91073285843293 -27.060699994332222 0 -27.060699994332222 49.853504810701821 0 0 0 0 -91.888091401357087 124.51583945574021 0 124.51583945574021 226.61405147883852 0 0 0 0 -2.5194238238173838 4.9208605208731768 0 4.9208605208731768 -2.9794259913806869 0 0 0 0 -166.22971940390744 -458.95366630186982 0 -458.95366630186982 -960.48001485256464 0 0 0 0 -478.50577271665134 -452.77862361019334 0 -452.77862361019334 -233.1599158392346 0 0 0 0 -257.25815193133894 -272.33854572067503 0 -272.33854572067503 55.425565352265039 0 0 0 0 -145.87372475863049 -84.910458120062685 0 -84.910458120062685 -76.417256605527655 0 0 0 0 -91.525957415542507 -26.402554495343793 0 -26.402554495343793 4.2979227740870556 0 0 0 0 -41.595797552207841 -163.52578385253582 0 -163.52578385253582 -73.909109379732399 0 0 0 0 43.31532534251005 -138.93368249760169 0 -138.93368249760169 1.0107763539417647 0 0 0 0 -41.901335933735936 -177.64488003026781 0 -177.64488003026781 75.353736196810132 0 0 0 0 12.86325273387456 -278.47953485176913 0 -278.47953485176913 222.94311032111727 0 0 0 0 62.753594432243517 -320.11707094455778 0 -320.11707094455778 19.121828699251637 0 0 0 0 50.047038935398632 -367.44701576589796 0 -367.44701576589796 152.41434641453088 0 0 0 0 -405.67414186565475 -44.058925357112457 0 -44.058925357112457 -67.719489171853638 0 0 0 0 133.50665727475644 -187.77134121919516 0 -187.77134121919516 -524.05598715946689 0 0 0 0 149.94046711949204 -761.09459861508549 0 -761.09459861508549 -101.20871062594233 0 0 0 0 -91.463796104870653 -688.26711409726704 0 -688.26711409726704 770.06579224760208 0 0 0 0 -18.904974660051209 -457.87401472266811 0 -457.87401472266811 385.45515164083918 0 0 0 0 -10.094544220904027 -451.74912560451048 0 -451.74912560451048 116.80724902391012 0 0 0 0 -249.34588615909115 -415.83701999402183 0 -415.83701999402183 1176.99610313015 0 0 0 0 -220.03366397190416 -281.51344163711474 0 -281.51344163711474 617.77747731151612 0 0 0 0 -308.78270035988317 -770.6804221955008 0 -770.6804221955008 2354.2536185030986 0 0 0 0 -191.53616443585361 -417.49957094421916 0 -417.49957094421916 765.81932734321367 0 0 0 0 8.1388386137793063 -9.2645272833444636 0 -9.2645272833444636 15.172520311994987 0 0 0 0 434.35217462578839 -580.4049508950302 0 -580.4049508950302 259.84809928723553 0 0 0 0 1187.3996959370161 1488.906686935341 0 1488.906686935341 2023.53007203781 0 0 0 0 939.4808121915712 653.03408741407293 0 653.03408741407293 801.95453166791413 0 0 0 0 593.82027063076748 672.57926279532694 0 672.57926279532694 958.10753483854933 0 0 0 0 -309.38134257857382 -70.185064775045248 0 -70.185064775045248 66.05046181470243 0 0 0 0 -135.94241015940133 -196.38468647213085 0 -196.38468647213085 568.30648921635293 0 0 0 0 -116.12823506981908 70.498830955692483 0 70.498830955692483 371.93254484830686 0 0 0 0 -48.20859511668823 -32.934250817217617 0 -32.934250817217617 58.124395118516986 0 0 0 0 -105.80174041938744 -67.2642596824262 0 -67.2642596824262 309.31096834765049 0 0 0 0 -108.57952589096021 -124.90750699411728 0 -124.90750699411728 308.54425748859842 0 0 0 0 -155.97024537757534 -124.54343437052376 0 -124.54343437052376 368.76019557854306 0 0 0 0 -100.31240043276739 -149.08496691786422 0 -149.08496691786422 359.61830318145803 0 0 0 0 30.175466337000216 -150.89528515465645 0 -150.89528515465645 234.38169422956707 0 0 0 0 -75.823162591384971 -154.71742415340123 0 -154.71742415340123 236.92374899312745 0 0 0 0 -34.274314235139855 -61.15621281550375 0 -61.15621281550375 119.67671215977316 0 0 0 0 56.290072472712382 -179.56159633423886 0 -179.56159633423886 107.73766717293984 0 0 0 0 -38.378258428692789 -230.06474041160618 0 -230.06474041160618 381.56340541812096 0 0 0 0 3.7855007243803698 -261.21319151645366 0 -261.21319151645366 210.83262777002892 0 0 0 0 28.653132896924944 -167.88940769703549 0 -167.88940769703549 143.20407165581128 0 0 0 0 -148.9018861490174 -292.50590263370395 0 -292.50590263370395 618.18058839732839 0 0 0 0 -148.92292127128505 -272.49550862936263 0 -272.49550862936263 562.63446521860897 0 0 0 0 -223.51019018835677 -234.62262063362141 0 -234.62262063362141 836.66240871664195 0 0 0 0 -238.11806361188519 -139.07544910758588 0 -139.07544910758588 575.63307908114757 0 0 0 0 -185.28292722113656 -73.81201105449145 0 -73.81201105449145 486.16940890318074 0 0 0 0 -221.80620995585741 -106.70431411152822 0 -106.70431411152822 611.58351380671957 0 0 0 0 -129.84598540164097 -171.13568480855611 0 -171.13568480855611 458.44300587353064 0 0 0 0 -137.30691157582987 -194.76301626123313 0 -194.76301626123313 385.23947430961562 0 0 0 0 -112.65565509781663 -126.14310712804581 0 -126.14310712804581 368.28628363676034 0 0 0 0 -121.15339830687117 -152.44125278662614 0 -152.44125278662614 387.10467622323631 0 0 0 0 -63.661825037122981 -139.71026705802069 0 -139.71026705802069 385.86115541504842 0 0 0 0 -132.39263818517884 -19.448722903378439 0 -19.448722903378439 484.83903930035012 0 0 0 0 -48.360508204914368 -49.616755138755252 0 -49.616755138755252 328.20113067310012 0 0 0 0 -39.74163347479589 -128.76726697434788 0 -128.76726697434788 275.63463039131602 0 0 0 0 -30.851918002668754 -34.436230877861817 0 -34.436230877861817 200.97021814182517 0 0 0 0 108.74008014744322 123.73709826714185 0 123.73709826714185 325.46171961404616 0 0 0 0 -20.318335869581006 -284.0840751276437 0 -284.0840751276437 315.57329661346739 0 0 0 0 -4.8217751529118686 -164.16787846587613 0 -164.16787846587613 252.11346692751977 0 0 0 0 85.054062430435806 -549.03124997443228 0 -549.03124997443228 -187.97238166895841 0 0 0 0 -56.602404617508 -980.04584548161802 0 -980.04584548161802 896.38303281191475 0 0 0 0 -349.59406209548979 158.71087214956788 0 158.71087214956788 1357.1915342881985 0 0 0 0 95.267640343761741 466.67710195111977 0 466.67710195111977 701.12250920201768 0 0 0 0 -81.416341415277202 162.71124788223096 0 162.71124788223096 329.32535931886378 0 0 0 0 -284.92935362733078 111.56093916153623 0 111.56093916153623 623.08436636956321 0 0 0 0 -202.75069637232809 73.651808688198798 0 73.651808688198798 472.82656231379951 0 0 0 0 -91.748077140920941 163.26629926096939 0 163.26629926096939 539.07820147884195 0 0 0 0 -263.97253614901308 35.879476042343413 0 35.879476042343413 527.78906665695831 0 0 0 0 -298.35374745748413 55.62217895950198 0 55.62217895950198 551.36396319040796 0 0 0 0 -281.25946538200151 -55.268470512499334 0 -55.268470512499334 630.1636700594172 0 0 0 0 -227.01235332587521 -56.520950617788912 0 -56.520950617788912 215.55923273350345 0 0 0 0 -219.91281578563797 76.387026320800942 0 76.387026320800942 313.4606163388089 0 0 0 0 -238.52573835818475 104.93863487611088 0 104.93863487611088 458.61598339671036 0 0 0 0 -239.09925995790627 68.449542841892253 0 68.449542841892253 550.73724717566802 0 0 0 0 -284.47389245692216 21.038426970291766 0 21.038426970291766 639.13861753532547 0 0 0 0 -267.9358530569848 26.141591322142631 0 26.141591322142631 586.85524020689354 0 0 0 0 -287.67332161302966 58.055113978381996 0 58.055113978381996 833.49458560803032 0 0 0 0 -276.96422308952947 103.43492990584127 0 103.43492990584127 680.50647873092385 0 0 0 0 -258.46374511018797 149.99004446674144 0 149.99004446674144 699.10115030736779 0 0 0 0 -261.57366073476521 181.6734279426164 0 181.6734279426164 565.71197404309351 0 0 0 0 -170.03155182574073 92.044511696141853 0 92.044511696141853 69.965086129494011 0 0 0 0 -54.741376428205058 198.97649882240512 0 198.97649882240512 87.484493483018014 0 0 0 0 -125.97694615077398 209.64241781232704 0 209.64241781232704 91.086573643973679 0 0 0 0 -421.18387239580602 82.856956490511948 0 82.856956490511948 542.23850428874266 0 0 0 0 -263.32137298817133 -183.56158749279439 0 -183.56158749279439 -70.801182583541959 0 0 0 0 48.304424785703816 57.026909250809695 0 57.026909250809695 -333.19808211549571 0 0 0 0 -34.455135600194183 185.73255088222868 0 185.73255088222868 280.99520676340762 0 0 0 0 -72.765717011298293 19.669218126443411 0 19.669218126443411 -55.294864156516269 0 0 0 0 10.585327660106259 160.71038231969942 0 160.71038231969942 -105.56018546435189 0 0 0 0 -150.20763652507776 192.75660987956508 0 192.75660987956508 299.73721319317792 0 0 0 0 -134.8365292467015 39.557157899194863 0 39.557157899194863 25.630851326022821 0 0 0 0 -43.247817537889659 223.00326520056115 0 223.00326520056115 -80.428975011076545 0 0 0 0 -12.366561199846778 68.680002854623581 0 68.680002854623581 40.073339241682341 0 0 0 0 -77.383866075536588 60.352625482928488 0 60.352625482928488 -64.615932689528563 0 0 0 0 72.065386133053835 23.801580971987278 0 23.801580971987278 -484.95238597090793 0 0 0 0 -35.752087480293326 64.396570831142157 0 64.396570831142157 54.766701453286892 0 0 0 0 -178.94901495854901 34.887535404930532 0 34.887535404930532 197.03269764696779 0 0 0 0 -47.858485070355385 26.508152374552992 0 26.508152374552992 -30.340121652268863 0 0 0 0 40.78532573925952 -227.35370823869653 0 -227.35370823869653 333.3049041025879 0 0 0 0 -3.4452193952339876 27.57429402846676 0 27.57429402846676 24.355422654773989 0 0 0 0 26.702727723777571 -158.85887052265934 0 -158.85887052265934 419.99803873087694 0 0 0 0 -49.258780821071014 -112.26832006213954 0 -112.26832006213954 518.64483108388276 0 0 0 0 340.91292747385069 -164.41927410665448 0 -164.41927410665448 2354.0334633166603 0 0 0 0 360.70953203981276 -367.25584648164477 0 -367.25584648164477 839.03057160000026 0 0 0 0 1137.9099062052092 -200.59603241332297 0 -200.59603241332297 508.85415904649562 0 0 0 0 458.07782698569463 852.60370003417484 0 852.60370003417484 1633.0890165329674 0 0 0 0 -257.48096495534355 217.79642539646738 0 217.79642539646738 1265.1165608892861 0 0 0 0 3.2101008078379891 350.21946596843554 0 350.21946596843554 669.7447760704963 0 0 0 0 -48.137384174676299 308.1602531574099 0 308.1602531574099 254.79687735185871 0 0 0 0 -65.633584264032834 306.8163667449262 0 306.8163667449262 644.75581062766287 0 0 0 0 31.926822716260631 205.28850209532084 0 205.28850209532084 683.45455495493661 0 0 0 0 42.00016122282068 476.6754426973348 0 476.6754426973348 597.85298336582855 0 0 0 0 232.33027602922266 435.98311722192739 0 435.98311722192739 -233.04075968712277 0 0 0 0 77.664410848860825 378.68366050264376 0 378.68366050264376 -50.243327284300904 0 0 0 0 46.915005996940863 378.39545732568149 0 378.39545732568149 -58.219254091920448 0 0 0 0 -1.211648819596121 253.63722248799604 0 253.63722248799604 -149.92004298676693 0 0 0 0 0.092007275412962386 74.170070894829522 0 74.170070894829522 42.91103597440474 0 0 0 0 28.65089491212143 187.16617839823994 0 187.16617839823994 -365.51445007677103 0 0 0 0 578.25585709645497 484.47285548306718 0 484.47285548306718 -98.745525310430821 0 0 0 0 4.7605219837252477 73.116283064937662 0 73.116283064937662 50.651883025993143 0 0 0 0 22.390702799753853 -21.37868313916988 0 -21.37868313916988 -328.45333753293016 0 0 0 0 131.51211793112861 63.868755984542076 0 63.868755984542076 -472.18147641947144 0 0 0 0 -184.72482830645686 265.95852286520312 0 265.95852286520312 -198.12870069274504 0 0 0 0 3.128248131802204 13.068043066425339 0 13.068043066425339 -15.432914129921301 0 0 0 0 227.78525187060404 -382.01738202769138 0 -382.01738202769138 272.26002869353397 0 0 0 0 410.24783733076947 -42.136711454619217 0 -42.136711454619217 -307.20680838495173 0 0 0 0 109.40496581019943 166.2080958701772 0 166.2080958701772 -226.07961146078742 0 0 0 0 -30.096574158019394 -13.692154250731619 0 -13.692154250731619 14.492853976145852 0 0 0 0 141.01280563376531 -155.985222611278 0 -155.985222611278 -15.627113028458552 0 0 0 0 -89.897632324214555 -142.9350727394467 0 -142.9350727394467 337.82958593580406 0 0 0 0 -1.6786201798622642 -263.76868219336393 0 -263.76868219336393 558.5723214665486 0 0 0 0 332.24177602790951 -230.23860450320353 0 -230.23860450320353 547.17763013011609 0 0 0 0 9.4238118668126845 -286.40200685396121 0 -286.40200685396121 404.52218912926764 0 0 0 0 -159.33839593167977 -251.28645314764799 0 -251.28645314764799 658.10790078344144 0 0 0 0 -79.145077286057131 -333.01273173161098 0 -333.01273173161098 584.50430265012255 0 0 0 0 -325.02262080273249 -154.31551813463739 0 -154.31551813463739 668.87271861849558 0 0 0 0 -15.153396390234775 -128.86736200108135 0 -128.86736200108135 946.46390571044321 0 0 0 0 79.196890549897944 -358.02473368367646 0 -358.02473368367646 1440.9329707817087 0 0 0 0 -210.41667620999215 -124.01409781945404 0 -124.01409781945404 537.74629110861497 0 0 0 0 1.0628704939687523 7.9433351187417998 0 7.9433351187417998 13.396392925919912 0 0 0 0 -187.34361244502634 -119.66703021129615 0 -119.66703021129615 353.73085414393427 0 0 0 0 -14.916336352845974 -200.80455110459297 0 -200.80455110459297 567.46684188964355 0 0 0 0 -211.9142762556753 -25.318089931946815 0 -25.318089931946815 753.34889207872038 0 0 0 0 -78.851609555244522 -169.51266228596796 0 -169.51266228596796 361.52136475110456 0 0 0 0 -236.66085393429057 -110.35189118499693 0 -110.35189118499693 464.82383354923513 0 0 0 0 -39.19094759336258 60.571538126074302 0 60.571538126074302 225.48328514532477 0 0 0 0 4.8994536820482608 10.534519561802881 0 10.534519561802881 58.20803636862729 0 0 0 0 -58.231040794453293 22.438109794176853 0 22.438109794176853 310.57061319627974 0 0 0 0 10.253438617972279 79.843738107691024 0 79.843738107691024 205.00434445546853 0 0 0 0 372.07860584547961 69.537383321665402 0 69.537383321665402 186.27377142314072 0 0 0 0 5.0975539817982281 262.23908969221338 0 262.23908969221338 1063.0217398387831 0 0 0 0 78.468575818682439 109.4098202964451 0 109.4098202964451 346.25935917375682 0 0 0 0 -205.82650356302429 -15.534856871357988 0 -15.534856871357988 36.15941908316745 0 0 0 0 -99.064950764979585 -147.0145024839876 0 -147.0145024839876 189.14691211066383 0 0 0 0 60.953604053320305 -121.48964337058715 0 -121.48964337058715 -60.664503665771917 0 0 0 0 30.828365652678258 38.793597968071481 0 38.793597968071481 759.97767119763012 0 0 0 0 76.222639130413882 76.804997890743834 0 76.804997890743834 33.933501438259555 0 0 0 0 -24.324321709198784 426.59057180197669 0 426.59057180197669 514.49622411225573 0 0 0 0 0.07068751314660382 1.4062645687097763 0 1.4062645687097763 2.5682990192179318 0 0 0 0 -54.992727451919563 336.04566610929032 0 336.04566610929032 658.49892778958019 0 0 0 0 41.986763857960796 449.66027411377581 0 449.66027411377581 733.50626808831294 0 0 0 0 49.061056508864567 165.52332466426742 0 165.52332466426742 552.22893598638984 0 0 0 0 91.459553166152546 -511.13091389532929 0 -511.13091389532929 1279.6692748036003 0 0 0 0 0.95011557587096718 3.2449482059627712 0 3.2449482059627712 5.5974907542134531 0 0 0 0 -154.85935810099727 816.08329661550124 0 816.08329661550124 72.928862937449594 0 0 0 0 0.34175084389686106 1.2838277101104865 0 1.2838277101104865 2.0108273371871519 0 0 0 0 76.007070492340063 -316.37686623734771 0 -316.37686623734771 266.56427994480418 0 0 0 0 -138.69940245493854 -48.204894672839146 0 -48.204894672839146 140.93265050372065 0 0 0 0 -404.23779507059226 263.61505839905112 0 263.61505839905112 59.051191650956753 0 0 0 0 -8.1268336632501814 -58.921575430915254 0 -58.921575430915254 -26.056814200725057 0 0 0 0 -156.08278551419971 501.76388644968392 0 501.76388644968392 -112.77075262909057 0 0 0 0 -0.26334372230500946 3.2179549996304786 0 3.2179549996304786 6.6693151060554783 0 0 0 0 -317.88715386382592 145.92734825105799 0 145.92734825105799 236.17691154739441 0 0 0 0 102.52306778626917 12.940944007590588 0 12.940944007590588 259.17075706504693 0 0 0 0 -132.10817105238311 291.50337759560352 0 291.50337759560352 465.01608223251969 0 0 0 0 -65.650591132697627 14.882477331157133 0 14.882477331157133 463.22869656870898 0 0 0 0 103.35761375918446 28.611058585960564 0 28.611058585960564 547.25559964276181 0 0 0 0 45.0537421045874 105.82551509963378 0 105.82551509963378 785.91125716393435 0 0 0 0 -58.993006906683149 -81.259716178516101 0 -81.259716178516101 472.07574212183545 0 0 0 0 -126.5909437362011 -21.74013375110917 0 -21.74013375110917 926.55047073149763 0 0 0 0 -223.47779804988386 88.535358707857085 0 88.535358707857085 801.07367610058645 0 0 0 0 -42.051524186059396 -355.76164550894464 0 -355.76164550894464 757.45869814792241 0 0 0 0 -218.35185431066566 -237.45955954503006 0 -237.45955954503006 1470.4126443217301 0 0 0 0 24.081265678924865 -3.2081625403261569 0 -3.2081625403261569 237.10197261513531 0 0 0 0 -171.31848703084142 -63.706502747267223 0 -63.706502747267223 903.08526646078099 0 0 0 0 -69.655080539670962 -10.435611304521444 0 -10.435611304521444 846.34341633440636 0 0 0 0 -104.28724361345849 27.038347227098711 0 27.038347227098711 906.28920305493557 0 0 0 0 84.50866475541261 289.65587732951099 0 289.65587732951099 1053.1666049946798 0 0 0 0 -95.15634213057092 330.24655835358135 0 330.24655835358135 1551.3559246443474 0 0 0 0 2.9395566654171432 0.39287183554492344 0 0.39287183554492344 1.5408457117866874 0 0 0 0 115.18159483472391 442.39119672342713 0 442.39119672342713 1860.1797337041062 0 0 0 0 20.724047317286022 203.57560769333213 0 203.57560769333213 1319.083281498999 0 0 0 0 -0.41608299723780817 1.8521925753972539 0 1.8521925753972539 4.6380572426192828 0 0 0 0 -145.33284097256728 -81.709259952185676 0 -81.709259952185676 1710.3459544771467 0 0 0 0 -194.47410020552161 798.27858127391301 0 798.27858127391301 776.65264985352405 0 0 0 0 -277.62642834488724 336.26297422104108 0 336.26297422104108 1640.0091814954503 0 0 0 0 166.65417646449168 485.28985048117829 0 485.28985048117829 1688.593117008626 0 0 0 0 -32.168203236242334 50.444820242395508 0 50.444820242395508 312.76127787961013 0 0 0 0 11.244687929644428 2.1923761321631901 0 2.1923761321631901 -1.6789086382258773 0 0 0 0 -23.16136250496038 -9.9516406850889325 0 -9.9516406850889325 195.38646812184743 0 0 0 0 49.239889095075341 45.340185334658599 0 45.340185334658599 104.09482889748051 0 0 0 0 -2.4405948863963118 -31.457958529391593 0 -31.457958529391593 86.245396680611407 0 0 0 0 -286.60538793739761 -430.30920955488546 0 -430.30920955488546 -128.51315949972195 0 0 0 0 -258.21288454032765 -239.85097258455426 0 -239.85097258455426 -311.16020214875607 0 0 0 0 278.83487074882214 812.07653320559621 0 812.07653320559621 1438.1874467027374 0 0 0 0 18.488578326904602 3.8475786862206007 0 3.8475786862206007 16.664257608824812 0 0 0 0 987.24999322662006 580.65950190968579 0 580.65950190968579 1088.340820557627 0 0 0 0 -220.15209897446903 490.29488611959277 0 490.29488611959277 2042.7220524478616 0 0 0 0 -1.5456931383050687 -57.386801624634245 0 -57.386801624634245 1890.5010242031822 0 0 0 0 1.8107185029613042 4.7289952004939693 0 4.7289952004939693 6.7221375405105164 0 0 0 0 197.61198025779754 1194.9852971366158 0 1194.9852971366158 -336.92689758306369 0 0 0 0 191.35396602049923 1172.31243158812 0 1172.31243158812 825.96001389033336 0 0 0 0 512.67597467903033 912.9170313280265 0 912.9170313280265 362.83224500570941 0 0 0 0 391.78849339519365 722.43409982113371 0 722.43409982113371 1474.8664114588464 0 0 0 0 33.820129425408595 218.58367494017875 0 218.58367494017875 783.48731402994599 0 0 0 0 -51.656952751917288 342.29705304803247 0 342.29705304803247 748.93831242033048 0 0 0 0 -336.19150607239499 -138.2284605011082 0 -138.2284605011082 -42.006976566684898 0 0 0 0 1.9843699530861088 9.399471568874219 0 9.399471568874219 14.50867038573557 0 0 0 0 -615.48311773507703 379.31458527335053 0 379.31458527335053 239.78494810683696 0 0 0 0 -188.89165653923146 24.309173594770982 0 24.309173594770982 68.418391066581535 0 0 0 0 -7.4043809594768391 -191.30637192013091 0 -191.30637192013091 144.07800126215079 0 0 0 0 
</DataArray>
<DataArray type="Float64" Name="cross_section_updated" format="ascii">
1 1 1 1 0.010420188053080488 1 1 1 0.011055580482353685 1 0.010010113170503092 1 0.010010102617479692 1 1 1 0.010268537767095746 0.010764470107050512 1 1 1 1 1 1 1 1 1 1 1 1 1 1 0.011183111314906197 1 1 1 1 1 1 1 0.011831043765754478 1 1 1 1 1 1 1 1 0.010913737834042482 1 1 0.013076265485565442 1 1 1 1 1 1 1 1 1 1 1 1 1 1 0.012543149054800997 1 1 1 1 1 0.010020932879262381 1 1 1 0.012955137803533794 1 1 1 0.013879562755660203 0.012313287011320603 1 1 0.012808885205915208 0.0091936742505221037 0.0099538748376567024 0.010439922112053461 1 0.012613830784078121 1 0.011507683945089725 1 1 1 0.009817965216607839 1 1 1 0.010082408933414078 0.011634309980085029 1 1 1 0.011881711229755114 1 1 1 1 0.010377725233234464 1 1 1 0.011961389080579969 1 1 1 1 1 1 1 1 1 1 1 1 1 1 1 0.0094060841327053366 1 1 1 1 1 1 1 0.010421822626830678 1 1 1 1 1 1 1 1 1 1 1 1 1 1 1 1 0.011198496931371829 1 0.010100037377593192 1 1 1 1 1 1 1 1 1 1 0.011732809629362004 0.012511522538760388 1 1 1 1 1 1 1 1 1 1 1 1 0.011874008009203442 1 1 0.010756266992707526 1 0.012708751369753295 1 1 1 0.010283169635274765 1 0.01116225808897167 1 1 1 1 0.010511832839786838 1 1 1 1 1 1 1 1 0.012207702053119125 1 1 1 1 1 1 1 1 1 1 1 1 1 1 0.009499375149768164 1 1 1 1 1 1 1 1 1 0.0094746601172453412 1 1 1 1 1 1 1 1 1 1 1 1 0.0089127101531588666 1 1 1 1 1 0.0094133350033907045 1 1 1 1 1 1 1 1 1 1 1 1 0.013904197843602899 1 0.0081580344480210471 1 1 1 0.011138133262751704 1 1 1 0.0080805614287581089 1 1 1 1 1 1 1 1 1 1 1 1 1 1 1 0.014866052627939497 1 0.014341838559950823 1 1 1 0.010554539084633281 1 1 0.011607829830652967 1 1 1 1 0.013037711938206796 1 1 0.0044697931187452009 1 0.0098940828505986698 1 1 1 1 1 1 1 1 1 1 1 1 1 1 1 0.0098683293883231049 1 1 1 1 0.011291053311506025 1 1 1 1 1 1 1 1 0.015906650800522712 1 1 1 1 1 1 1 1 0.010051657057151296 1 1 0.013950385148468613 1 1 1 0.011846456561746916 1 1 0.014653887447653016 1 1 0.012367219920633549 1 1 1 1 1 1 1 1 1 0.011008967920036914 1 1 1 1 1 1 1 1 1 1 1 1 1 1 1 1 1 1 0.011802920800079494 1 1 1 1 1 1 1 1 1 0.011823257082222469 1 1 1 1 1 1 1 1 1 1 1 1 1 1 1 1 1 1 1 1 1 1 1 1 0.011471597239465385 1 1 0.01662513497831429 1 1 1 1 1 1 1 1 1 1 1 1 0.012414578099268027 1 1 1 0.015219041981028664 1 1 1 1 1 0.01000555126714732 1 1 1 1 1 1 1 1 1 1 1 1 1 1 1 1 1 1 1 1 1 1 1 1 1 1 1 1 1 1 1 1 0.010011522977620195 1 0.0101055386332534 1 1 1 1 1 1 1 1 1 1 1 1 1 1 1 1 1 1 1 1 1 1 0.0092516895860378732 1 1 0.009751924964513093 1 1 1 1 1 1 0.0093559891526700557 1 1 1 1 0.010049770575524216 1 1 1 1 1 1 1 1 1 1 1 1 1 1 1 1 1 1 1 1 1 0.011650943089209151 1 1 1 1 1 0.012354010157227903 1 1 1 1 1 1 0.012589878713538054 1 0.010721147332987395 1 1 1 1 1 1 1 1 1 1 1 1 1 1 1 1 1 1 1 1 1 1 1 1 1 1 1 1 1 1 1 1 1 1 1 1 1 1 1 1 1 1 1 1 1 1 1 1 1 1 1 1 1 1 1 1 1 1 1 1 1 1 1 1 1 1 1 1 1 1 1 1 1 1 1 1 0.0094684375419922459 0.013511832911881787 1 1 1 1 1 1 1 1 1 1 1 1 1 1 1 1 1 1 0.010229203914981465 1 0.0099982646835761815 1 1 1 1 1 1 1 0.011420262794299396 1 1 1 1 1 1 1 1 0.010547764614552039 1 1 1 1 1 1 0.013712667602337449 1 1 1 1 1 1 1 1 0.010016557753379439 1 1 0.0098088934057979985 1 1 1 1 0.010065514959453608 1 1 1 1 1 0.010596905413338232 1 1 1 1 1 1 1 1 1 1 0.010095179407687756 1 1 1 1 0.010016568865967638 1 1 1 1 1 1 1 1 1 1 1 1 1 1 1 1 1 1 1 1 1 1 1 1 1 1 1 1 1 1 1 1 1 1 1 1 1 0.011113866340375422 1 1 1 1 1 1 1 1 1 1 1 1 1 1 1 1 1 1 1 1 1 1 1 1 1 1 1 1 0.010551120373193092 1 1 1 1 1 1 1 1 1 1 1 1 1 1 1 1 1 1 1 1 0.011406623777704579 1 1 1 1 0.011136797116452227 1 1 1 1 1 0.012981627515034039 1 1 1 1 1 0.010645779229916469 1 1 1 1 1 1 1 1 1 1 1 1 1 1 1 1 1 0.010490784449441674 1 1 1 1 1 0.010380338689368246 1 1 1 0.0098216154857556151 1 1 1 1 1 1 1 1 1 1 1 1 1 1 1 1 1 1 1 1 1 1 1 1 1 1 1 0.010319758188963203 1 1 1 1 1 1 1 1 1 1 1 1 1 1 1 1 1 1 1 1 1 1 1 1 1 1 1 1 0.010004936392955129 0.01422693676310632 1 1 0.0097758304737015876 1 1 1 1 1 0.010335514706948044 1 0.014647125500266919 1 1 0.014046097576997423 0.010130896548012823 1 1 1 1 1 1 0.01027045167830801 1 1 1 1 1 1 1 1 1 1 1 1 1 1 1 1 1 1 1 1 1 1 1 1 1 1 1 1 1 1 1 1 1 1 1 1 0.010209653282678855 1 1 1 1 1 1 1 1 1 1 1 1 1 1 1 1 1 1 1 0.011177130248205875 1 1 1 1 1 1 1 1 1 1 1 1 1 1 1 1 1 0.010491999060692847 1 1 0.0062097677666374806 1 1 1 0.011735911631774378 0.008868501892660181 1 1 0.010208690706182548 1 1 0.010869568895648128 1 1 1 1 1 1 1 0.0099042834990928415 1 0.009531796792409758 1 1 0.010428817207231537 1 1 1 1 1 1 1 0.010760844547788126 1 1 1 1 1 1 1 1 1 1 1 1 1 1 1 1 1 1 1 0.01219384676653313 1 1 1 1 1 0.0114698702803455 1 1 1 1 1 1 1 1 1 1 1 0.0096064596536057992 1 1 1 1 0.010453153762018252 1 1 1 0.0081129788083216213 1 1 1 1 1 1 1 0.010155456216695474 1 1 1 0.010409787812406625 1 1 1 1 0.010096246843563585 1 1 1 1 1 1 1 1 0.011710767134018991 0.016212015682802311 0.010002022020308012 0.011314438333245897 0.0097975965529205102 0.0098238538501660543 1 1 1 1 1 0.011420572828925231 1 1 1 1 1 1 0.011992416980974183 1 1 1 1 1 1 1 1 0.010139946171434995 1 1 1 0.0080511017228165685 1 0.010047262572918856 0.01039989761255479 1 1 1 1 1 1 1 1 1 0.012013728592648799 1 0.015212449704989483 1 1 1 1 0.018283543773649637 1 1 0.010686932559625738 1 1 1 1 1 1 1 1 1 1 1 1 1 1 1 1 1 1 1 0.0085689460286597526 1 1 0.0081090594596792964 1 1 1 1 1 0.017649745484454034 1 1 0.020702088656106232 1 1 1 0.009047126047536708 1 1 1 1 1 0.0088080709420627658 1 0.0089316544438057741 1 1 1 1 1 1 1 0.0099004353473024619 1 1 1 0.0096502475241324725 1 1 0.010265454908001279 1 1 0.010163556557829509 1 1 0.0096903714362348917 1 0.0099739379601947731 1 1 1 1 1 0.0097038690043183828 1 0.0099774482731826049 1 1 1 1 1 0.0088632545292830558 0.0097493531067277261 0.010516466470024362 1 1 1 1 1 0.010037138037990632 1 1 1 1 1 1 1 1 0.010228205179119716 1 0.0099338278141182842 1 1 1 1 1 1 1 1 1 1 1 0.010014331497490954 1 1 1 1 1 1 1 0.010058694551821408 1 0.010140009715842882 1 1 1 1 1 1 1 1 1 1 1 1 1 1 1 1 0.010378731684136305 1 1 1 0.010941477651318643 1 1 1 1 1 1 1 1 1 1 1 1 1 1 1 1 1 1 1 0.010357037930233941 1 1 1 1 1 1 1 1 1 1 1 1 0.010516649095851665 1 1 1 1 1 1 1 1 1 1 1 1 1 1 0.010002337843359715 1 1 1 0.0093939314032735095 1 1 1 0.010412771182541809 1 1 0.0099898322329009023 1 1 1 0.010255256146122096 1 1 1 1 1 1 1 1 1 1 0.013597500137280557 1 1 1 1 1 1 1 0.010744462010820782 1 1 1 1 1 1 1 1 1 0.011533235566067685 1 1 1 1 1 1 1 0.011267174170454459 1 1 1 1 1 1 1 1 1 1 1 1 1 1 1 1 1 1 1 1 1 1 1 1 1 1 0.011127451522620948 1 1 1 1 1 1 0.010255229208824339 1 1 1 1 1 1 1 1 1 1 0.012975617082536176 1 0.011351468375475963 1 1 1 1 1 0.0097454038304644816 1 1 1 1 0.011422985374850215 1 1 1 1 1 0.013487249946063085 1 1 1 1 1 1 0.0071286871561102539 1 1 1 1 1 1 1 1 1 1 1 1 1 0.020996131767921523 1 1 1 1 1 0.011968389996409695 1 1 1 0.022301456849816076 0.013400997907943659 1 1 1 1 1 1 0.01007389118651596 1 0.013492507742209874 1 0.026562208740228951 0.010030354454386334 1 1 1 0.020475773054592424 1 1 0.010535908882180856 1 1 0.0046429887924837026 1 1 1 0.0072087059902529518 1 1 1 0.0089736489634027264 1 1 1 0.010641892612914905 1 1 1 1 1 1 1 1 1 1 1 1 1 1 1 1 1 1 1 1 1 1 0.0064482426160803567 1 1 1 1 1 0.00507263166799439 1 1 1 1 0.0078512203282337413 1 1 1 1 1 1 1 1 1 1 0.0099847319194940175 1 1 1 1 0.012097157010969589 1 1 1 0.013427378613351651 1 1 1 0.032115371839630452 0.0038201960088366637 1 1 1 1 1 1 1 0.033031101121417702 1 1 1 1 1 1 0.01105311280960013 1 1 1 0.012841760394031195 1 1 1 0.010381035475264118 1 1 1 1 0.031659740975042934 1 1 1 1 1 1 1 1 1 1 1 1 1 1 0.014824017325283566 1 1 1 1 0.029075279532291512 1 1 1 1 1 1 1 1 1 1 1 1 1 1 1 1 0.010718297342737189 1 1 0.011205363466374341 1 1 1 1 0.010696719406316033 1 1 1 1 1 1 1 1 1 0.011541304221671036 1 1 1 1 1 1 1 1 1 1 1 0.014175896839116126 1 1 1 1 1 1 0.016151141468080964 1 1 1 0.0095852637035718797 1 0.0064326519416106898 1 1 0.026969426055598517 1 1 1 1 1 1 1 1 1 1 1 1 1 1 1 1 1 1 1 1 1 0.0302287507903987 0.029731976262873799 1 1 1 1 0.011200797727559149 1 1 1 1 1 0.0053463471956200362 1 1 1 1 1 0.010043864645327621 1 1 1 1 1 0.011231503459212257 1 1 1 0.010555747602281399 1 1 1 1 1 1 0.0086875041869379308 1 0.012565889745707798 1 1 1 1 1 1 0.019017096999697225 1 1 1 1 1 0.01758037978878255 1 1 1 1 1 1 1 0.0095040178338897524 1 1 0.013488481897329787 1 1 1 1 1 0.014095531763162793 1 1 1 0.013388868690925924 1 1 1 1 1 1 1 1 1 0.01064191843911875 1 1 1 1 1 1 1 1 1 1 1 1 1 1 1 1 1 1 1 1 1 1 1 1 1 1 1 1 1 1 1 1 1 1 1 1 1 1 0.010382956040390781 1 1 1 0.010227408919679442 1 0.010040949808002509 1 1 1 1 0.0099042938700348096 1 1 0.010036728683415107 1 1 0.013991102231401917 1 1 1 1 1 1 1 1 0.010082856745569916 1 1 1 1 1 1 1 1 1 0.010826460667810414 1 1 1 0.011303853587410699 1 1 0.01172936400832832 1 1 1 1 1 1 0.0096005436652856074 1 1 1 0.012633235443338345 1 1 0.009982052110901812 1 0.028599384420938283 1 1 1 1 1 0.012129186047855808 1 1 1 1 1 0.025530073390179417 0.0088076191275454716 1 1 1 1 1 1 1 1 1 0.010655781462986031 1 1 0.020081193079275479 1 1 0.015800392426705199 1 1 1 1 1 1 1 1 0.011094220611457943 1 1 1 1 1 1 1 1 1 1 1 1 1 0.018149589851269198 1 1 1 1 0.009435811733772944 0.0091050934303198976 1 1 1 1 0.008776211928328323 1 1 0.01010053568416119 1 1 1 1 1 1 1 1 1 1 1 1 1 1 1 1 1 1 1 1 0.0098215549321187343 1 1 1 1 1 1 1 1 1 1 1 1 1 1 1 1 1 0.010400611864944211 1 1 1 1 1 1 1 1 1 1 1 1 1 1 1 1 1 1 1 1 1 1 1 1 1 1 1 1 1 1 1 0.028886373104672132 1 1 1 0.010171968390788176 1 1 1 1 1 1 1 1 1 1 1 1 1 1 1 1 1 1 1 1 1 1 1 1 1 1 1 1 1 1 1 1 1 1 1 1 1 1 1 1 1 0.016673970218339208 1 1 1 1 1 1 1 1 1 1 0.014077422608110592 1 0.010284104214942351 0.010184441904362934 1 1 1 1 1 1 1 0.010084534309618365 1 1 1 1 1 1 1 1 0.010065501604290903 1 1 1 1 1 1 1 1 1 1 1 1 1 1 1 1 1 1 1 1 1 1 1 1 1 1 1 1 1 1 0.011016415712855446 1 1 1 1 1 1 1 0.0098287222513033113 1 0.010655526450949431 1 1 1 1 1 0.0096607565762723488 1 0.0098794997444772211 1 1 1 1 1 0.0099704329220483331 1 1 1 1 1 1 1 0.015687330882668528 1 1 1 1 1 1 1 1 1 0.0099508730068186488 1 1 1 1 1 1 1 1 1 1 1 1 0.010250472829886469 1 1 1 1 1 1 1 1 1 1 1 1 1 1 1 0.0096119280825927404 1 1 1 1 1 1 1 1 1 1 1 1 0.011347691988259738 1 1 1 1 1 1 1 1 1 1 1 1 1 1 1 0.015323414063955442 0.011336696104385242 1 0.010013113565421802 1 1 0.010283166195038555 1 0.012335137769755639 0.018339609155977141 1 1 1 1 1 1 1 1 1 1 1 1 1 1 1 1 1 1 1 0.011751932932571017 1 1 1 1 0.016600597873163279 1 1 1 1 1 0.01075003427115582 1 0.017950556277727261 1 1 1 1 1 1 1 1 1 1 1 1 0.01046463730795217 1 1 1 1 0.013705660321363276 0.011246902706785092 1 1 1 0.0098832754557212476 1 0.01059153696214939 1 1 0.010031728851989679 0.01363704009951377 1 1 1 1 0.010061636485888564 1 1 1 1 1 1 0.0099613926531667094 1 1 1 1 1 1 1 1 1 1 1 0.015486930897985687 1 1 1 1 0.0099162300803400782 1 0.015461816659034787 1 1 1 1 1 1 1 1 1 1 1 1 1 1 1 1 1 1 1 0.012145601288179878 1 0.010115348904409863 1 1 1 0.01282123889317102 1 1 1 1 1 1 1 1 1 1 1 1 1 1 1 1 1 0.0099300241744278307 1 1 1 1 1 1 1 1 1 1 1 1 1 1 1 1 1 1 1 1 1 1 1 0.0098084455992023117 1 1 1 0.019353784906554133 0.013048228568497031 1 1 1 0.010447947616303922 0.010532762340143205 1 1 1 1 0.014665917218315529 1 1 1 1 1 1 0.01041915785412488 1 1 1 1 1 1 1 1 1 1 1 1 0.010534506758534741 1 1 1 1 1 1 1 1 1 0.011610816861030698 1 1 1 1 1 1 1 1 1 0.013281983790077188 0.011674136522311068 1 1 1 1 1 1 1 1 1 1 1 1 1 1 1 0.010817173032548434 1 1 1 1 1 1 1 1 1 1 1 1 1 1 1 1 1 1 1 1 1 1 1 1 1 1 1 1 1 1 1 0.0096681195895315045 1 1 1 1 1 1 1 1 1 1 1 1 1 1 1 1 1 0.0096676364253080408 1 1 1 1 1 1 1 1 1 1 1 1 1 1 1 1 1 1 1 0.0095023944653020321 1 1 1 1 1 1 1 1 1 1 1 1 1 1 1 1 1 1 1 0.011228734332041971 1 1 1 1 1 1 1 1 1 1 1 1 1 1 1 1 1 1 1 1 1 1 1 1 1 1 1 1 1 1 1 1 1 1 1 1 1 0.012812748189855455 1 1 0.0098994816891833926 1 0.010515821867323303 1 0.011938264522234593 1 1 1 1 0.013227303515516773 1 1 1 1 1 1 0.0091581337778937413 1 1 1 0.0096760841175669004 1 1 1 0.015342405733265957 1 0.017053575941062132 1 0.0096887271211101664 1 1 0.011268582523097585 1 1 1 1 0.018217971172171638 1 1 0.010105084060464216 1 1 1 0.016547996484202604 1 1 1 1 1 1 1 1 1 1 1 1 1 1 1 0.009948567439986929 1 1 1 0.0098295911506516686 1 1 1 0.016602963393172486 1 1 0.0099666273519541538 1 1 0.018861287934147597 0.021977210306904003 1 1 0.0099681225295311007 1 1 1 1 1 0.006948563726901287 1 1 1 1 1 1 0.0074471204077795347 1 1 1 0.01042103636834261 1 0.02269761753170926 1 1 1 1 1 0.0097448137203777346 1 0.0082494048424186298 1 1 1 1 0.016405518963355188 1 1 0.012544535833130893 1 1 1 1 1 1 1 1 1 1 1 1 1 1 1 1 1 1 0.010100813159646125 1 1 1 1 0.010356517803429353 1 1 1 1 1 1 1 1 1 1 1 1 1 1 1 1 0.01216466258151387 1 0.015457097373628586 1 1 1 1 1 1 1 1 1 0.0099268999447786437 1 1 1 1 1 1 1 0.0095504428014394523 1 1 1 1 1 1 1 1 1 1 1 1 1 1 1 1 1 1 1 1 1 1 1 1 1 1 1 1 0.010136622352566058 0.0099395510221447301 1 1 1 1 1 0.017439149344726509 1 1 1 1 1 1 1 1 1 1 1 1 0.0080732150804310471 1 1 1 1 1 0.0088305738122981814 1 1 1 1 1 1 1 1 1 1 1 0.01011570391199393 1 1 1 1 0.010266979697714371 1 1 1 0.010063817807066125 1 1 1 1 0.010189605086992699 1 1 1 1 1 1 1 1 1 1 0.010060104126518742 1 1 1 1 1 0.010051405602855491 1 1 1 1 1 1 1 0.017591837945823603 1 0.010046874473317782 1 1 1 1 1 1 1 1 1 1 1 1 1 0.010114640094224614 1 1 1 1 1 1 0.010029335462679215 1 1 1 1 1 1 1 1 1 1 1 1 1 1 1 1 1 1 1 1 1 1 1 1 1 1 1 1 1 1 1 1 1 1 1 1 1 1 1 1 1 1 1 1 1 1 1 1 1 1 1 1 0.016006016307763066 1 1 1 1 1 1 0.009237165283957488 1 1 1 1 1 0.009847438142458767 1 1 1 1 1 1 1 1 1 1 0.014222140778184143 0.010120421280198355 1 1 1 1 1 1 1 1 1 0.014036943110825744 1 1 1 1 0.013662227831367347 1 1 1 1 1 1 1 1 1 1 1 1 0.010122167896806068 1 1 1 1 0.011712484469427088 1 1 0.012022526555394661 0.0099919146600309823 1 1 1 1 1 1 1 1 1 0.013182322319546743 0.014146192566325339 1 1 0.01449256023648058 0.010370824352593393 1 1 1 1 1 1 1 1 1 0.010132267591003937 1 1 1 1 0.010187229023526317 1 1 0.0097197336968120676 1 1 1 1 1 0.010163186105514367 1 1 1 1 0.011461836571021122 1 1 1 0.010999267573121292 0.010067700198295287 1 1 0.010650836839469892 1 0.010225245725654978 1 1 1 1 1 0.013794661686675617 1 1 1 1 0.010138107066951837 0.013170978979890375 1 1 1 1 1 1 1 0.011106718450901108 1 1 1 1 1 1 0.010739118333328558 0.010671967947238264 1 1 1 0.010194098837821949 1 1 0.010107930989104862 1 1 1 1 0.012710704564432046 1 0.018051507218438598 1 1 1 0.010442057290366243 1 1 1 1 0.014309477640100172 0.01087497969012898 0.010359118616935038 1 1 0.017759197230348675 1 1 1 1 0.010315038414225455 1 1 1 0.017981459162319975 1 1 1 1 1 1 1 1 1 1 1 1 1 1 1 1 1 1 1 1 1 1 0.016437631863533551 1 1 1 1 1 1 1 0.010149581510544169 1 1 1 1 1 1 0.012117241473484003 1 1 1 0.010304920355146342 0.0099953187048382117 1 1 0.0099395892295734856 1 1 0.0094838520903758449 1 1 1 0.016856796683331891 1 1 1 0.014134106231537449 1 0.0098367949494321243 1 1 0.013655866460407153 1 0.013650492414445201 1 1 1 0.01358948987823163 1 1 1 1 1 1 1 1 0.011645507713801032 1 1 0.010512034899787581 1 1 0.011076071234296145 1 1 0.014123181214263026 1 1 0.013073696878350534 1 1 1 1 0.01342626420226601 1 1 1 1 1 1 1 1 1 1 1 1 1 1 1 1 1 1 1 1 1 1 0.015765352559049844 1 1 1 0.0099345516664525579 1 1 1 0.014799496856916157 1 1 0.010167784896695656 1 1 1 1 0.01009268896046538 1 1 1 1 1 1 1 1 0.014617906867411216 1 1 1 0.010217252355341742 1 1 1 1 1 1 1 0.0098548095273940615 1 1 1 1 0.0098170131387862562 1 1 1 1 1 1 1 1 1 1 1 0.010037796388607802 1 1 1 1 1 1 1 1 1 1 1 1 1 1 1 1 1 0.012566853317266174 1 1 1 1 1 1 1 1 1 1 1 1 1 1 1 1 1 1 1 1 1 1 1 1 1 1 1 1 1 1 1 1 1 1 1 1 1 1 1 1 1 1 1 1 1 1 1 1 1 1 1 1 1 1 1 1 1 1 1 0.018561857261034022 1 1 1 1 1 1 1 1 1 1 1 1 1 1 1 1 1 1 1 1 1 1 1 1 1 1 1 1 1 1 1 1 1 1 1 0.010537294368255833 1 0.018830418508011437 1 1 1 1 1 0.011332225913034044 1 1 1 0.018946412710258227 1 1 1 1 1 1 1 1 1 1 1 1 1 1 1 1 1 1 1 1 0.011353274101709079 1 1 1 1 1 1 1 1 1 1 1 1 1 1 1 1 1 1 1 1 1 1 1 0.021431914395036715 0.010558342556930871 1 1 0.019855266947487547 1 1 1 1 1 1 1 1 1 1 1 1 1 1 1 1 1 1 1 1 1 1 1 1 1 1 1 1 1 1 1 1 1 1 1 1 1 1 1 0.010120162137270301 1 1 1 0.010313908622665652 1 1 0.0096172978372274683 1 1 0.0099276117757367589 1 0.011001637179259763 0.0097682310561929275 1 1 1 0.0099698780900587432 1 1 1 1 1 0.0099697846960320174 1 1 0.0099752894220970154 1 1 1 1 1 1 0.01000550472606501 1 1 1 1 1 1 1 1 1 0.010352836061550906 1 1 1 1 1 1 1 0.0096398950216962393 1 0.0097245269453682566 1 1 0.010665145093097614 1 0.010139005664942991 1 1 1 0.01396867367372427 1 1 0.0092970413517552124 1 1 1 1 0.009128689824165875 1 1 1 1 1 1 1 1 0.010298985954992975 1 1 1 1 1 0.01364206336467514 1 0.010015557957440802 1 0.012138277898749496 1 0.0090134168060797167 1 1 0.01161426552245114 0.009729841215364441 1 1 1 0.012400192470180149 1 1 1 1 1 1 1 0.010869003082849242 1 1 1 1 1 1 0.010159669387316781 1 1 1 1 1 1 1 1 1 1 1 1 1 1 0.01088288293096174 1 1 1 1 1 1 0.012338239308953227 1 1 0.013227379183488137 1 1 1 0.018213893144940596 1 1 1 1 0.018765594644272181 1 1 1 1 1 1 0.019007951890147867 1 1 1 0.010316978775204684 1 1 1 1 1 1 1 1 1 1 1 1 1 0.017289966994979235 0.011063592182148481 1 1 1 0.010310853605480133 1 0.018512183380255565 1 1 1 1 1 1 1 1 1 1 1 1 0.014310478610714005 1 1 1 1 0.016204142231494363 1 1 0.00979800457035402 1 1 1 1 1 0.01721375131563465 1 1 1 1 1 1 1 1 1 1 1 1 1 1 1 1 1 1 1 0.016176249454356084 1 1 1 0.010061615562893249 1 1 0.016492029055184682 0.010003398044898748 1 1 1 1 1 0.017657205144867384 1 1 1 1 1 0.013747695786367356 1 1 1 1 0.013984688391263699 1 1 1 1 1 1 0.0093034818848098319 1 1 0.010025607868349492 1 1 1 1 0.010071074953882021 1 1 0.010121756885860898 1 1 0.01323324477879851 1 1 1 0.0089843101530842854 0.01231949644912079 1 1 1 0.0099277375255741197 1 1 1 1 1 1 1 1 1 1 1 1 1 1 1 1 1 1 1 1 1 0.011081173417507537 1 1 1 1 1 1 0.01263007382054902 1 1 1 1 1 0.010039055812631146 1 1 1 1 1 1 1 1 0.011121288800621885 1 1 1 1 1 1 1 1 1 1 1 1 0.010407291153694535 1 1 1 0.012606569116449867 1 1 1 1 1 1 1 0.013329177295617204 1 1 1 1 0.014907548232961273 1 0.00996082091085497 1 1 1 1 1 1 0.018899360275845246 1 0.019884935595814422 1 1 1 1 1 1 1 1 1 1 1 0.013863988983732294 1 1 0.017816399046866882 1 1 0.014027779595881596 1 0.014018593283201528 0.017544302392382451 1 1 1 1 1 1 0.013406375199709364 1 0.011137262687506706 1 1 1 0.0099892696686839852 1 1 1 1 1 1 1 1 1 1 1 1 1 1 1 1 1 1 1 1 0.0096868464109889935 1 0.023107959179728601 1 1 1 1 1 0.022598255564191028 1 1 1 1 1 1 1 1 1 1 1 1 1 1 1 1 1 1 1 1 1 1 1 1 1 1 1 1 1 1 0.010020411748292128 1 1 1 1 1 1 1 1 1 1 1 1 1 1 1 1 1 1 0.010158337710023887 1 1 1 1 0.010034272813377591 1 1 1 1 1 1 1 1 1 1 1 1 1 1 1 1 1 1 1 1 1 1 1 1 1 1 1 1 1 1 1 1 1 1 1 1 1 1 1 1 1 1 1 1 1 1 1 1 1 1 1 1 1 1 1 1 1 1 1 1 1 1 1 1 1 1 1 1 1 1 1 1 1 1 1 1 1 1 1 0.011534403121374675 1 1 1 1 1 0.011681011789257123 1 1 1 1 1 1 1 1 1 1 1 1 1 1 1 1 1 1 1 0.010215933441096413 1 1 1 1 1 1 1 0.010431755291709114 1 1 0.010185597028833775 1 1 0.011337621070637073 1 1 1 0.010122472892117585 1 1 0.010647202902481202 1 0.01012735532936466 1 1 1 1 1 1 1 1 1 1 1 1 1 1 1 1 0.010603794976076874 1 1 1 1 1 1 1 1 1 1 0.011381061199288505 1 1 1 1 1 0.011048175868359758 1 1 1 1 1 1 1 1 1 1 1 0.029805446083029812 1 1 1 1 0.019243583643878431 1 1 1 0.012022031466783599 1 1 1 0.018723173369133556 1 0.0087858343832117637 1 1 1 1 1 1 1 1 1 0.00989179616527564 0.01147723981136746 1 1 1 1 1 1 1 1 1 1 1 1 1 1 1 1 1 1 1 1 1 1 1 1 1 1 1 1 1 1 1 1 1 1 1 1 1 1 1 1 1 1 1 1 1 1 0.020602790825981897 1 1 1 0.019223570116741404 1 1 1 0.013200729007026516 1 1 1 1 0.02103796418478477 1 0.013704061638654993 1 1 0.0084586404435708865 1 1 1 0.014543524064272145 0.010030995352884192 0.011294797412365928 0.019996176471691888 1 1 1 1 1 1 1 1 1 1 1 1 1 0.010007108843475747 1 1 1 1 1 1 0.010005827915749572 1 1 1 1 1 1 1 1 1 1 0.010846796979806542 1 1 1 1 1 1 0.010816191622664798 1 1 1 1 1 1 1 1 1 1 1 1 1 1 1 1 1 1 0.030138290380429748 1 1 1 1 0.029613215521022276 1 1 1 1 1 0.027912651757684329 1 1 1 1 1 1 1 1 1 1 1 1 1 1 1 1 1 1 0.010153287519104097 1 1 1 1 1 1 1 1 1 1 1 1 0.010322011235454578 1 0.010169082007941692 1 1 1 1 1 1 1 1 1 1 1 1 1 0.011524255450316524 1 1 1 1 1 1 1 0.010221894833839975 1 1 1 1 1 1 1 1 1 1 0.010401144271025217 1 1 1 1 1 1 1 1 1 1 1 1 1 1 1 1 1 1 1 1 1 1 1 1 1 1 1 1 1 1 1 1 1 1 1 1 1 1 1 1 1 1 1 1 1 1 1 1 1 1 1 1 1 0.010038940306310969 1 1 0.010305026643175452 1 1 1 1 1 1 1 1 1 1 1 1 1 1 0.010810868357486878 1 1 0.011185816961562388 1 1 1 1 1 0.010077364599378875 1 1 1 1 1 1 1 1 1 1 1 0.010156104269594428 1 1 0.014574321382037493 1 1 1 1 0.01034725204802734 0.012971305338444145 1 1 0.0094889294923348466 1 1 1 1 0.01522265869920777 1 1 0.0098329497087452627 1 1 1 1 1 1 1 1 1 1 1 1 1 1 0.01106713676072279 1 1 1 1 1 1 1 1 1 1 1 1 1 1 0.012920244370948266 1 1 1 1 1 1 1 1 1 1 1 1 1 1 1 1 1 1 1 1 1 1 1 1 1 0.014247581519964022 1 1 1 1 1 1 0.0099873180455050895 1 1 1 1 1 1 1 1 1 1 1 1 1 1 1 1 1 1 1 1 1 1 1 1 1 1 1 1 1 1 1 1 1 0.014434524828207423 1 1 0.014660787730546751 1 1 1 1 1 1 1 1 1 1 1 1 1 1 1 1 1 1 0.013310241617712968 1 1 1 1 1 0.011165251355013166 1 1 1 1 1 1 1 1 1 1 0.010179249437185242 1 1 1 1 1 1 1 1 1 1 1 0.010459156093352625 1 1 1 1 1 1 1 1 1 1 1 1 1 1 1 1 0.013329895392189622 1 1 1 1 1 1 1 1 1 0.011303489515363269 1 1 1 1 1 1 1 1 1 1 1 1 1 1 1 0.010311830215577777 1 1 1 1 0.0107709863089304 1 1 1 1 1 1 1 1 1 0.0099902269945487312 1 1 1 0.010829421617472149 1 1 1 1 1 1 1 1 1 1 1 1 1 1 0.0088560705023293367 1 1 0.011176794606006124 1 1 0.0085837759755118207 1 1 1 1 1 1 1 1 1 1 1 1 1 1 1 1 1 1 0.0099646147602534194 1 0.0099505421546024798 1 1 1 1 0.0099893181948692792 1 1 1 1 1 1 1 1 1 1 1 1 1 1 1 1 1 1 1 1 1 1 1 1 1 1 1 1 1 1 1 1 0.012870162004246602 1 1 1 1 0.012505710348393081 1 1 1 1 1 1 0.010286337624286192 1 1 1 1 1 1 1 0.010023007366975029 1 0.010425937565350426 1 1 1 1 1 1 1 0.011055182330509138 1 1 1 1 1 0.010445720765962164 1 1 1 1 1 1 1 0.010409813900761899 1 1 1 1 1 1 1 1 1 1 1 1 1 1 1 1 0.010848545479129338 1 0.010837324877884261 1 1 1 0.010653822508341159 1 1 0.010218674441540251 1 1 1 1 1 1 1 0.010505012065826441 1 1 1 1 1 1 1 0.010038629040400777 1 1 0.017821712288166747 1 1 1 1 1 1 1 1 1 1 1 1 1 1 0.020526935200616409 1 1 0.02015586707257723 1 0.011636142697388756 1 1 0.019562798551465942 1 1 1 1 1 1 1 1 1 1 1 1 1 1 1 1 1 1 0.013022769762962676 1 1 0.018581050755974625 1 1 1 1 1 1 1 1 1 1 1 1 1 1 0.009780036170520947 1 0.018236637440834053 0.013696237255887402 1 1 1 1 1 0.018054459057394667 1 1 1 0.011182600638919064 1 1 1 1 1 1 1 1 1 1 1 1 1 1 1 1 1 0.010154706057177974 0.012246803373429387 1 1 1 0.013056755178172542 1 1 1 1 0.012980330645182158 1 1 1 1 1 1 1 1 1 1 1 1 1 1 1 1 1 1 1 1 1 1 1 1 1 1 1 1 1 1 1 1 1 1 1 1 1 1 1 1 1 1 1 1 1 1 1 1 1 1 1 1 1 1 1 1 1 1 1 0.010210375784181398 1 1 1 1 1 1 1 1 1 1 1 0.0065830991302694986 1 1 1 1 1 1 1 0.010501848934003494 1 1 0.0065557015582855174 1 0.014933854255813391 1 0.015039374239240491 1 1 1 1 1 1 1 1 1 1 0.0097295258318059203 1 0.012301582721926765 1 1 1 1 1 1 1 1 1 1 1 1 1 1 1 1 1 1 1 1 1 1 0.0099602594649983427 0.0098821928247065302 1 1 1 1 0.012835100056333447 1 1 0.014915593830719996 1 1 1 1 1 0.016921932297114646 1 1 1 1 1 1 1 1 1 1 1 1 1 1 1 1 1 1 1 1 1 1 1 1 1 1 1 1 1 1 1 1 1 0.010720800961532483 1 1 1 1 0.017175533734565408 1 1 1 1 1 1 0.017465855368715227 1 1 1 0.011422168351994595 1 1 1 1 1 1 1 1 1 1 1 1 0.010193846104690407 1 1 0.010429460535777781 1 1 1 1 1 1 1 1 0.0083844898536099277 1 1 1 1 1 0.0091392078294822154 1 1 1 1 1 1 0.010235614431087375 1 1 0.0095445017864090979 1 0.0098779382849524169 1 1 1 1 1 0.012809298701960653 1 0.014742035943108512 1 1 1 1 1 1 0.010951858122673953 1 0.010482267425137515 1 1 1 1 1 1 0.0097184044044071344 1 1 1 1 0.02373428672294213 1 0.010031239115780443 1 1 1 1 1 0.009019569979679877 1 0.0098709452506659384 1 1 0.010125747710711692 5.4117169262913375e-05 1 1 0.012259492329527583 1 1 1 1 1 1 1 1 1 1 0.010757632586347106 1 1 1 1 0.016746038087350878 1 1 1 1 1 1 1 1 1 1 0.012455167762477374 1 1 1 1 0.013103287564246146 1 1 1 1 1 0.010977181429233072 1 1 1 1 0.0085300017886197847 1 1 0.017054180666640037 1 1 1 1 1 1 1 1 1 0.011173494026364765 1 1 1 1 1 1 1 1 1 1 1 0.010373460468137068 1 1 1 1 1 1 1 1 1 1 1 1 1 1 1 1 1 1 1 1 1 1 1 1 1 1 1 1 1 1 1 1 1 1 1 1 1 0.012908500559172555 1 0.012438270012005068 1 1 1 1 1 1 1 1 1 1 1 0.011735006532807794 1 1 1 1 0.010614987368305004 1 1 1 1 1 1 1 1 1 1 0.022893224608194693 1 1 1 1 1 1 1 1 1 1 1 1 0.0099511048157459384 1 1 1 1 0.028297617881813106 1 1 0.0097640174956395449 1 1 1 1 1 0.02600551190895653 1 0.010183378940650141 1 1 1 1 1 1 1 0.010610191361117563 1 1 1 1 1 0.011106634429837408 1 1 0.010733155176815317 1 0.010116015584368258 0.0099780349487752149 1 1 1 1 1 1 1 1 1 1 1 1 1 1 1 1 1 0.0099801276195577854 1 1 1 1 1 1 1 1 1 1 1 1 1 1 1 1 1 1 1 1 0.012920527492063814 1 0.0075903773260302451 1 1 1 0.0099298966341784863 1 1 0.012434212893279315 1 0.012661366969428038 1 1 0.010485299924646117 0.011957923054291553 1 0.015655113294957751 0.011778229636304503 1 1 0.010525206140042334 0.012809444580081965 0.010952053136151737 1 1 0.011360808943714509 1 1 1 0.020226709446721218 1 1 1 1 1 1 0.024689031932382539 1 1 1 1 0.010976040375873283 1 1 1 1 0.010413540041479798 1 1 1 1 1 1 1 1 1 1 1 1 1 1 1 1 0.010388476986834139 1 0.012249286164889125 1 1 1 1 1 1 1 1 1 1 0.013454493073894864 0.01292568152643781 1 1 1 1 1 1 0.013148674386108734 1 0.012486978789027877 0.010334021967334038 1 1 0.017224821561210666 0.012561339570127311 1 1 1 1 1 0.01067051432607374 1 1 0.015008423749776473 0.0092066132976251578 1 0.014814531620103155 0.010073879832985619 1 1 0.01008639810890727 1 1 0.010755543841022938 1 1 0.013515154240865548 1 1 1 1 1 1 0.010199706978184807 1 1 1 1 1 1 1 0.0099871410272493882 1 1 1 1 1 1 0.025373305637563039 1 1 1 1 1 1 1 1 1 1 1 1 1 1 1 1 1 1 1 1 1 1 1 1 1 1 1 1 1 1 1 1 1 1 0.028011413782568443 1 1 1 1 1 1 1 1 1 1 1 1 1 1 1 1 1 1 1 0.026673484736426993 1 1 1 1 1 0.011347403747400849 1 1 1 1 1 1 1 1 1 0.012062597094618138 1 1 1 1 1 1 1 0.011793063406916812 1 1 1 0.01297972898756313 1 1 1 0.010470503992250212 1 1 0.013991716668729167 1 1 1 1 1 1 1 1 1 1 1 1 1 1 1 1 1 1 1 0.0098430864152794402 1 0.0096602587622618107 1 1 0.012963208047217765 1 1 0.011654305203873437 1 1 1 1 1 1 1 1 1 1 1 1 1 1 1 1 1 1 1 1 1 1 1 1 1 1 1 1 1 1 1 1 1 1 1 1 1 1 1 1 1 1 1 1 1 1 1 1 1 1 0.006785273765425595 1 0.014386635158528045 1 0.0099165603474127284 0.010566906043188624 1 1 1 1 1 1 1 0.0099345653907169113 1 1 1 1 1 1 1 1 1 0.01348269905344659 0.0098131810616394477 1 1 1 1 1 1 1 1 1 1 1 1 1 1 1 1 1 1 1 1 0.013555733017030057 1 1 0.015668660635014792 1 1 1 1 1 1 1 1 1 0.012002346187163554 1 1 1 1 0.011226540528280479 1 1 1 1 1 1 1 1 0.010984651218956186 0.027512612935264271 1 1 0.0099880474955345161 1 1 1 0.010075224145466577 1 1 1 1 0.013952186266129251 0.0093356127731244187 1 1 0.011999664508939207 1 1 1 0.034094265747853868 0.0253112730196908 1 1 1 1 1 1 1 1 1 1 0.015285037235600088 1 1 1 1 0.011185697339467497 1 1 1 1 1 1 1 0.0040072599596173656 1 1 1 1 0.0080053680306467513 0.031589474609422283 1 1 1 1 -9.540979117872439e-18 1 1 0.010020764315951412 1 0.0099296721594206057 1 0.0068500472719418238 1 0.021693216884936715 0.0090840783263527441 1 0.0027213389283676486 1 1 1 0.0050207045176066251 1 1 1 1 1 1 1 1 0.023793799700312625 1 1 1 1 1 0.014818508164484375 1 1 1 1 1 1 1 1 0.015057027670077241 1 1 1 1 1 1 1 0.013858805960782854 1 1 1 1 1 1 1 1 1 1 1 1 0.011073199080408241 1 0.010996397286059129 1 1 1 1 1 1 1 1 1 1 1 1 0.010195079307191546 1 1 0.0099661533418865921 1 1 0.0098452854884887569 1 0.010799338274475146 1 1 1 1 1 1 1 1 1 1 1 1 1 1 1 1 1 0.0072901397372964281 0.0091813041409106698 1 1 1 1 1 1 1 1 1 1 1 1 1 1 1 1 0.0099898678538208746 1 1 1 1 1 1 1 1 1 1 0.010012765912910176 1 1 1 1 0.012443527345605575 1 1 1 1 0.010012772293532061 1 1 1 1 1 0.011491852368984874 1 1 0.010497080677918855 1 1 1 1 1 1 1 1 1 1 1 1 1 1 1 1 1 1 1 1 1 1 1 1 1 1 1 1 0.010672727618446391 1 1 1 1 1 1 0.010329477617474733 1 1 1 0.013335701037358164 1 1 1 1 1 1 0.011846925017333351 1 1 1 1 0.012327621306225667 1 0.0097544278563597951 1 0.0096892498945358105 1 0.013828724314280529 0.010762630521787046 1 1 0.010495918285485729 1 1 1 1 1 1 1 1 1 1 1 0.010116252841456374 1 1 1 1 1 1 1 1 1 1 1 1 1 0.010079606569505567 1 1 1 1 1 1 1 1 1 1 1 1 1 1 1 1 1 1 1 1 0.01034325000097165 1 1 1 1 1 1 1 1 1 1 1 1 0.014116489065566014 1 1 1 1 1 1 1 1 1 1 1 1 1 1 1 1 1 1 1 0.014129776948855442 1 1 0.012297212252172776 1 1 1 1 1 0.01393440975887302 1 1 1 1 1 1 1 1 0.010064465493207754 1 1 1 1 1 1 1 1 1 1 1 1 1 1 1 1 1 1 1 1 1 1 1 1 1 1 1 1 1 1 0.010026133972586237 0.010167751197967399 1 0.0098737496905939373 1 1 1 1 1 0.0093680452595635358 1 0.010556568413437016 1 1 1 1 1 1 1 0.0091461585402442362 1 1 0.012636231945575095 0.012057074779100341 1 1 1 1 1 1 1 1 0.00915081695352527 1 1 1 1 0.0091614630990370476 1 1 1 1 0.009583026064542333 0.0093968815796196398 1 1 1 1 1 0.010057227313730337 1 0.010061002394326229 1 1 1 0.0099266256938651647 1 0.009779257885293097 1 0.012616213367661163 1 1 0.01265764866756167 1 1 1 1 1 1 0.0099593421195687259 1 1 1 1 1 1 1 1 1 1 1 1 1 1 1 1 0.01176550126960426 1 0.01092912846078623 0.010950954781522719 1 1 1 1 1 1 1 1 1 0.010944752067285415 1 1 1 1 1 1 1 1 1 0.015301092383549538 1 1 1 1 0.014825610020843672 0.010306212475042988 1 1 1 1 1 1 1 1 1 1 1 1 1 1 1 1 1 1 0.014689835776262586 1 1 1 1 0.01364242795930741 1 1 1 1 1 1 0.0097686724816451742 1 1 1 1 1 0.010522793279925495 1 0.012183896307860804 1 0.01265348188834522 1 1 1 0.013045660729790447 1 1 0.010318602696623502 1 0.010019377187728908 1 0.010464824197197756 1 1 1 1 1 1 0.012379501018756416 1 1 1 1 0.010350891940964649 0.013847367324287934 1 1 1 0.009627865658654684 1 0.010110923557374448 0.0099101219422464467 1 0.0094508022578656866 1 1 1 1 1 1 1 0.017273479273816485 1 1 0.016959288564616704 1 0.0098896110757420892 1 1 1 1 1 0.010019137333925496 1 1 1 1 0.013632982805276452 1 1 1 1 1 1 1 1 1 1 1 1 1 1 1 1 1 1 1 1 1 1 1 1 1 1 0.011820752134423476 1 1 1 0.0099587792974980029 1 1 0.0095602623323087013 0.014528919056860781 1 1 1 1 1 1 1 1 1 0.0099480160066609188 1 1 0.0095242678744310236 1 0.018149270669583641 1 1 1 1 1 1 0.010018298610463178 1 1 1 1 1 0.01004956086152225 1 1 1 1 1 1 0.010147721725481578 0.010242340018578133 0.018221081947010498 1 1 1 1 1 0.011976136781305616 1 1 1 0.010666729500182527 1 1 1 1 1 1 1 1 1 1 1 1 1 0.021403647539475386 1 1 1 1 1 1 1 1 1 1 1 1 1 0.020409084149878055 0.010920647536293812 1 1 1 1 1 1 1 1 1 1 1 1 1 1 1 1 1 1 1 1 1 1 0.0095544266154134264 1 1 1 0.0099242672715608334 1 1 1 1 1 1 1 1 1 1 1 1 1 1 1 0.006941447141484783 0.0083837731237712525 1 1 1 0.0075925304278581457 1 1 1 0.0090100103651892041 1 1 0.0094758603283562441 1 1 1 1 0.0072946600175211301 1 1 1 1 1 1 1 1 1 1 1 1 1 1 1 1 1 1 1 1 1 0.020221826125016246 1 0.0072544639300098773 1 1 0.0093383295467565734 1 1 1 0.021180765922156904 1 1 0.021628524813012778 1 0.0083135095402618476 1 1 1 1 1 1 1 0.010003467759007552 0.010067702681729197 1 1 1 1 1 0.010822681777391216 1 1 1 1 0.010469590697536439 1 1 1 0.01091607755583112 1 1 0.011312678819243317 1 1 1 1 1 1 0.011265219430546227 1 1 1 1 1 1 1 0.0099758879606857212 1 1 1 1 1 1 1 1 1 1 1 1 1 1 0.012123762672372021 1 1 1 1 0.010403043254754255 1 1 1 0.0097115951775910304 0.011626462500000821 1 1 1 1 1 1 0.0099314657140073016 1 1 1 1 1 1 1 0.022166616081886987 1 1 0.0099762760301321043 1 1 1 1 0.015789464754181443 0.0066092694025894627 1 1 0.01145350705191764 1 1 0.011291184000803433 1 1 1 1 1 1 1 1 0.010077924691809591 1 1 1 0.013488964141482089 1 1 1 1 1 1 1 1 1 1 1 1 1 1 1 1 1 1 1 1 1 0.019399733339337463 1 1 0.013751025825159847 1 1 1 1 1 0.0158796609021956 1 1 1 0.016388537569986227 1 1 1 0.01986109719985122 1 1 1 1 1 1 1 1 1 1 1 0.01026061671497131 1 1 1 1 1 1 1 0.01053047817757112 1 0.010445810574052982 1 1 1 1 0.010151508124462038 1 1 1 1 1 1 1 1 1 1 1 1 1 0.010688431523648931 1 1 1 1 1 1 1 1 1 1 1 0.012717615240100365 1 0.012088823296606462 1 1 1 1 0.0081813987816299373 1 1 1 0.0094094774043876912 1 1 1 0.018617681482746042 1 1 1 0.017033907983197403 1 1 1 1 0.010112463289174646 1 0.01511040862345776 1 1 1 0.010348719902860102 1 1 1 1 0.0086864426443305845 1 1 1 1 0.010690352293821835 1 1 1 1 1 1 1 1 1 1 1 0.010690660467171868 1 1 1 1 1 1 1 1 1 1 1 1 1 1 1 0.011791016928224735 1 1 1 1 0.0096308127938049617 1 0.0098918295298470217 1 0.013286277874763858 1 1 1 1 1 1 1 1 1 1 0.0098894836825550447 1 0.012428588608075088 0.010693906685445884 0.0094006332776751626 0.013460071214774187 1 1 0.0099319176756843576 1 1 1 0.0094897766197802741 1 1 0.0099946122838367509 1 0.010181019400316637 1 1 1 1 1 0.010755092602307059 1 1 1 1 1 1 1 1 1 1 0.015475931493862085 1 1 0.010476299576992623 1 1 1 0.010455684700303646 1 1 1 1 1 1 1 1 1 1 1 1 1 1 1 1 1 1 0.011964989433769162 1 0.010028186241503879 0.015732034050579734 1 1 0.010002927472648594 1 1 1 0.011983720762151807 1 1 0.013904595694592662 1 0.0096934347105143738 0.010388891185375993 1 0.014322327931779667 0.013178872364455195 1 1 1 1 0.0078814979885980276 0.011436803660274534 0.0099998382831205761 1 0.012897639004246474 1 1 1 1 1 1 1 1 1 1 1 1 1 1 1 1 0.010016671324562304 1 1 1 1 0.010063016515830031 1 0.017124846264124478 1 1 1 1 1 1 0.010811534491426911 1 0.014555433214981426 1 0.014617780867540823 1 0.017045011801684821 1 1 1 1 1 1 0.011706546254390606 1 1 1 0.01201053140385853 1 0.013524661468070165 0.010480721608462733 1 1 1 1 1 0.010320975513425971 1 1 0.010968726912979532 1 1 1 1 1 1 1 0.014750598043527376 1 1 1 1 1 1 1 1 1 1 1 1 1 1 1 1 1 1 0.011069362332047895 1 1 1 1 1 1 0.010004059927152649 1 1 1 0.014592011628044061 1 1 1 1 0.01294843321649914 1 1 0.010112306922340613 1 0.0094529680766517691 1 1 0.019174079837588488 1 1 1 1 1 1 1 1 1 1 1 0.0099190976781900562 1 1 1 1 0.010460782448036674 1 0.0099745179254280593 1 1 1 1 1 1 1 1 1 1 1 1 1 1 1 1 1 1 1 0.018845808187474267 1 0.0082422488273985652 1 0.018982221796553532 1 1 1 1 1 1 0.0099428837494757137 1 1 0.011013235764898601 1 1 1 1 1 0.010430789693689314 1 1 1 1 1 1 1 1 1 1 1 1 1 1 1 1 1 1 1 1 1 1 1 0.010950360848116247 1 1 0.01036791477690696 1 1 1 1 1 1 1 1 1 1 1 1 1 1 1 1 1 1 1 1 1 1 1 1 1 1 1 1 1 1 1 1 1 1 1 1 1 1 1 1 1 1 0.010782958475477711 1 1 1 1 1 0.010867755050966814 1 1 1 0.011649526059210227 1 1 1 1 1 1 1 1 1 1 0.013555583932394786 1 0.014057887156582131 1 0.011691921374061134 0.011385724812781578 1 1 1 1 1 1 1 1 1 1 1 1 1 1 1 1 0.014909299138561902 1 1 1 0.0097119787677055879 1 1 1 1 0.014507472232886216 1 1 1 1 1 1 1 1 1 1 1 1 1 1 1 1 1 1 1 1 1 1 1 1 1 1 1 1 0.010642649069963345 1 1 1 1 1 1 1 1 1 0.017874643613129574 1 1 1 0.020840987133100296 1 1 1 1 0.010301550119207806 1 0.010888099058418465 1 1 1 1 0.011771431354752835 1 0.015280796180271127 1 1 1 1 0.013479049534520643 1 0.018179549277150472 1 1 1 0.012065088906684923 1 0.010356101440979214 1 1 1 1 0.020594917212283272 1 1 1 1 1 1 1 1 1 1 1 0.012478023949434754 1 1 0.010072315776618605 1 1 0.010296909043840344 1 1 1 1 1 1 0.025533283557416873 1 1 1 0.011263451100616162 1 1 1 1 1 1 1 1 1 0.009799338252740205 1 0.024405322946472505 1 1 0.0078135454309322342 0.017861757591157403 1 1 1 0.015162640402321348 1 1 1 1 1 1 1 1 0.012946835281685805 1 1 1 1 1 1 1 1 1 1 1 1 1 0.010837161372880613 1 1 1 1 1 1 1 1 1 1 1 1 1 1 1 0.010342837602071232 1 1 0.0084175302038984809 1 1 1 0.010126281105915274 1 1 1 1 1 1 1 1 1 1 1 0.017356409756354531 1 0.0098835133490393946 1 1 1 0.0099577041465974542 1 1 1 1 1 0.016446029683360897 1 1 1 0.017735708609927084 1 1 0.011281886093867186 1 1 1 1 1 1 1 1 1 1 0.010795881817818714 1 1 1 1 1 1 1 1 1 1 1 1 1 0.011282189081002611 1 1 1 1 1 0.015156296244394601 1 1 1 1 0.01639309540541635 1 1 1 1 1 1 1 1 1 1 0.0075997342137091861 1 0.012817782573508425 1 1 1 0.0070026392683515204 0.010059827455805401 1 1 0.01042859503568809 1 1 1 1 0.012934452988800488 1 0.01907585474418709 1 0.01219929477864341 1 1 1 1 1 0.010306559456276173 1 1 1 1 1 1 1 0.0110139162601809 1 1 0.010049346599744571 1 1 1 1 1 1 1 1 1 1 1 1 0.010161132513321663 0.010140298331933648 1 1 1 1 1 1 1 1 0.010056479050047635 1 1 1 0.010824331200547127 0.010084761063199959 1 1 1 1 0.010835652566838366 1 1 1 0.0099897441311596891 0.010094057632664894 1 1 1 1 1 1 1 1 1 1 1 1 1 0.010056392405104437 1 1 1 1 1 1 1 1 1 1 0.0098658401076537061 1 1 1 0.011066018487791943 1 0.0094800618743844153 1 1 1 1 1 1 0.010409450364482074 0.011595505720625772 0.011537955690236662 1 1 1 1 0.0094025441679998732 1 1 1 1 0.0098952768040884743 1 1 1 1 1 1 1 1 1 1 1 1 1 0.010423242866372397 1 1 1 0.015819434124936388 1 1 1 0.0098675081500434313 1 1 0.015561323159678559 1 1 1 0.012026951008130202 1 1 1 1 1 1 1 1 0.010128955405841814 1 0.010430343975876506 1 1 1 0.010547146412034082 1 1 1 1 1 1 1 1 1 1 1 1 1 1 1 1 1 1 1 1 1 1 0.010235722066461273 1 1 1 1 1 1 1 1 1 1 0.01042987663462913 1 1 1 0.010705417949918217 1 1 1 1 1 1 1 1 1 0.0099457259828358915 1 1 1 1 1 1 1 1 1 1 1 1 1 1 1 1 1 1 1 1 1 1 1 1 1 1 1 1 1 1 0.021743709203380829 1 1 1 0.020834098590913459 1 1 1 1 1 1 0.0095930403580131839 0.018557574663437618 1 1 0.013587110550023694 1 0.013425783155555499 1 1 0.011454881166800891 1 1 1 0.010928835390324649 1 1 1 1 1 1 1 1 1 1 0.013112631220170475 1 1 1 1 1 1 0.012873249140060121 1 1 1 0.0097751615864510814 1 1 1 1 1 1 1 0.012806371316763227 1 1 0.0127287149318468 1 1 1 1 1 1 0.011397197660681518 1 1 1 1 1 1 0.010290650995510174 0.010669228075124205 1 1 1 1 0.01022684272363769 1 1 1 0.010576087980651717 1 1 1 0.011278996504475584 1 1 1 1 1 1 1 1 1 1 1 1 1 1 1 1 1 1 1 0.013775113244180391 1 1 1 1 0.010225888505445122 1 1 1 1 0.011544744035440715 1 1 1 1 1 1 0.010702908523823874 1 1 1 1 1 0.014745570180980834 1 1 0.010627516431402905 1 1 1 1 1 1 0.01039699335876069 1 1 1 1 0.011193735857884133 1 1 1 1 1 1 1 1 1 1 1 1 1 1 1 1 1 1 1 1 0.010404029379883526 1 1 1 1 0.011080707101754973 1 1 1 0.01028604651204766 1 0.010986882987017482 1 1 1 0.011988256602628158 1 1 1 1 1 0.010359040026999741 1 1 1 1 1 1 1 1 1 1 1 1 1 1 1 1 1 1 1 1 1 1 1 1 1 1 0.012347638083965965 1 1 0.0099974436292667411 0.011262979640336207 1 0.013706040928255565 1 1 0.012539216089266779 1 1 1 1 1 1 0.015228788214963188 1 0.014001302996349697 1 1 0.012046096153578307 0.010996044915277331 1 1 1 1 0.01159787612925911 1 0.012676823603783192 0.011476802495973942 1 1 1 1 1 1 1 1 1 1 1 1 1 1 1 0.010593133703058361 1 0.0096789630570635384 1 1 1 1 1 1 1 1 1 1 1 0.010942242891840646 1 1 1 1 1 0.010496496103777616 1 1 1 1 1 0.010040566680988149 1 1 1 1 1 1 0.010160512111189783 1 1 0.010120459890715972 1 1 1 0.010447275019849002 1 1 1 1 1 1 1 1 1 1 0.0099781035129282783 1 1 1 1 1 1 1 1 1 1 1 0.0099472142984329687 1 1 0.01338749904974859 1 0.010282520876661129 1 1 1 1 0.016637659633833481 1 0.011977686441823947 1 1 1 0.017270322111530106 1 0.011140192226029834 1 1 0.0095927865679796553 1 1 0.010825373922754868 0.010339727281534773 1 1 1 1 1 1 1 1 1 0.013446816130361219 1 0.015443389476379627 1 1 1 1 1 0.0099940186474698055 1 1 1 1 1 0.011847895718752636 1 1 1 0.016060777549914189 1 1 1 1 1 1 1 1 1 1 1 1 1 1 0.0089570110085925372 1 1 1 1 1 1 0.017348201960279717 1 1 1 0.011119121131573588 1 1 1 1 1 1 0.010301155773499595 1 1 1 1 1 1 0.0099857051959115831 1 1 1 0.018374460509154075 1 0.0081010802360188382 1 1 0.010002301397184617 1 1 1 0.010066732948072657 1 1 0.010672577680614385 1 1 1 1 1 1 1 0.010324918026807696 1 1 1 1 1 1 1 1 1 0.010176100932626357 1 1 0.0101093679845537 1 1 1 1 1 1 1 1 1 1 1 1 1 1 0.0093267441283597808 1 1 1 1 1 1 1 1 0.0079100521890019728 1 1 0.010192713257666887 1 1 1 1 1 1 1 1 1 1 1 1 1 1 1 1 1 1 1 1 1 1 1 1 1 1 1 1 1 1 1 1 1 1 1 1 1 1 1 1 1 1 0.00955229673869081 1 1 1 1 0.01085463745544046 1 1 0.011637273576973894 1 1 1 0.010878538585850684 1 0.01099648393498417 1 1 0.010043773045977668 1 0.011363535609979842 1 1 1 1 0.011100978866521363 1 1 1 0.0087864461217051666 1 1 1 1 1 1 1 0.011016854624940306 1 0.01041232590627009 1 1 1 0.011253979311955511 1 1 1 0.011973925365021457 1 0.010533237420040606 1 1 1 1 1 1 1 1 1 1 0.010209968357824123 1 1 1 1 1 1 0.010334813032706096 1 0.011427697353101299 1 1 0.010484566058389915 0.012496525600894032 1 1 1 1 1 1 1 1 1 1 1 1 1 1 1 0.013053910546956418 1 1 1 1 1 1 1 1 1 1 0.011196522916256361 1 1 1 0.010256220549470223 1 1 1 1 1 1 0.012649236200707134 1 1 1 0.011058302434933101 1 1 1 1 1 1 1 1 1 1 1 1 1 1 1 1 1 0.010891323428772755 1 0.011673012261699325 1 1 1 1 1 1 1 1 1 1 1 1 1 1 0.010781688832926567 1 1 1 1 1 1 1 1 1 1 1 1 1 0.010678999725859784 1 0.009306138704619743 1 1 0.0098377355368918229 1 1 1 1 1 1 1 0.01239374459741192 0.010399778398859366 1 1 1 1 1 1 1 1 1 1 1 1 1 1 1 1 0.010018532624685269 1 0.0099082570214970751 0.010374093063587754 1 1 1 1 1 1 1 1 1 1 1 1 1 1 1 1 1 1 1 1 1 1 1 0.010302128427042201 1 1 1 1 1 1 1 1 1 1 1 1 1 0.011512280425663393 1 1 1 0.010353620238517561 1 0.011752184865383583 1 1 0.0098960642078172369 1 1 0.010883052791349351 1 1 0.0096318574716536542 0.012831750309511024 1 1 1 1 1 1 1 1 1 0.011057524234911929 1 1 1 1 1 1 1 1 1 1 1 1 1 1 1 1 1 1 0.010373800313427078 1 1 1 1 1 1 1 1 1 1 1 1 1 1 1 1 1 1 1 1 1 1 1 1 1 1 1 1 1 1 1 1 1 1 1 1 1 1 1 1 1 1 1 1 1 0.01024232003282266 1 1 1 0.0096701047966604569 1 1 1 1 0.010010792446695784 1 1 1 0.010046199099067968 1 1 1 1 1 1 1 1 1 1 1 1 1 1 1 1 0.010062180638310998 1 1 1 1 1 1 1 1 1 1 1 1 1 1 1 1 1 1 1 0.0091771820854050484 1 1 0.010059253497429576 1 1 1 0.010770193212035845 1 1 0.010645080681928175 0.011582072943982131 1 1 0.011617316867999432 1 0.010239650815229243 1 0.010211517054351941 1 1 0.010551454511460685 1 1 1 1 1 0.011204775555204105 1 1 1 0.010341511644922004 1 1 1 1 1 1 1 1 1 1 1 1 1 1 1 1 1 1 1 1 1 1 1 1 1 1 1 1 1 1 1 1 1 0.0092721441851288458 1 1 0.010615273961681795 1 1 1 1 1 1 1 1 1 1 1 1 1 1 1 0.0097592512714699126 1 0.010207705532814615 1 1 1 1 0.010007195861452638 1 1 1 1 1 1 1 1 1 1 1 1 1 1 1 1 1 1 1 1 0.0099814015087189203 1 1 1 1 1 1 1 1 1 1 1 0.0098818041218413383 0.0099551694272447793 1 1 1 1 1 1 1 1 1 1 0.0099499801267443708 1 1 1 0.0097609722262677508 0.0098814611133829187 1 1 1 0.0099960880516565057 1 1 1 1 1 1 0.0099520603165042312 1 1 1 1 1 1 1 1 1 1 1 1 1 1 1 1 1 1 1 1 1 1 1 1 1 1 1 1 1 1 1 1 1 1 1 1 1 1 1 1 1 1 1 1 1 1 1 1 1 1 0.010006528204885429 1 1 1 1 1 1 1 1 1 1 1 1 1 1 1 1 1 1 1 1 0.0099359481937036434 1 1 0.017303669740588092 1 1 1 1 1 1 1 1 1 1 1 1 1 1 1 1 1 1 1 1 1 0.0099873310952528077 1 1 1 1 1 1 1 0.013438225177342394 1 1 1 1 1 1 1 1 1 1 1 1 1 1 1 1 1 1 1 1 1 1 1 0.010377830993784969 1 1 1 1 1 1 1 0.0096174880180278106 1 1 1 1 1 1 1 1 0.015313212772959182 1 1 1 1 1 1 1 1 1 1 1 1 1 1 1 0.01007190660893835 1 1 1 1 1 1 0.011985998711531894 1 1 1 0.011389024692562923 1 1 1 1 1 1 1 1 1 1 1 1 1 1 1 1 1 1 1 0.0073733965685174284 1 1 1 1 0.0085942488402405773 1 1 1 1 1 1 1 1 1 1 0.010372323609189339 1 1 0.0096015371136814343 1 1 1 1 1 1 1 1 1 0.020787798813753436 1 1 1 1 1 1 1 1 1 0.022538942598462695 0.0099863594690208779 1 1 0.023017947563822798 1 0.010166924228309398 1 1 0.010039395820846611 1 1 1 1 1 1 1 1 1 1 1 1 1 0.011667572973423083 1 1 1 1 0.0084277687839229599 1 1 1 1 1 1 1 0.010016952015058055 1 0.0094590322442861703 1 1 1 0.024393648147987917 1 1 1 1 1 0.0098715422721779768 1 0.019210509083223956 1 1 0.011268674710520055 1 1 1 0.010660331115578126 1 1 1 1 1 1 1 1 1 1 0.010202846266012764 1 1 0.010239687489786951 1 1 1 1 1 1 1 1 0.010036841223774193 1 1 1 1 0.0094519054011830504 1 0.010366561771821142 1 1 1 0.01077416222240358 1 1 1 1 1 1 1 0.0083420673711179991 1 1 1 1 1 1 1 0.016039474551738906 1 1 1 0.014008407173186126 0.011927773576938446 1 1 1 1 1 1 1 1 1 1 1 0.010683473846618288 1 1 1 1 1 1 1 1 0.010849952603725455 1 1 1 1 1 1 1 1 1 1 1 1 1 0.010654879260911042 1 1 0.011269866629216049 1 1 1 1 0.010529545930862664 0.010299713742065678 1 1 1 1 0.01070731419264812 1 1 1 1 1 1 1 1 1 1 1 1 1 1 1 1 1 1 1 1 1 1 1 1 1 1 1 1 1 1 0.0085187300552642935 1 1 1 0.016381085175660649 1 0.00950214593430335 1 1 1 1 1 1 1 1 1 1 1 1 1 1 1 1 1 1 1 1 1 0.012151774963626509 1 1 1 1 1 1 1 1 1 1 1 1 1 1 1 1 1 1 1 1 1 1 1 1 1 1 1 1 1 1 1 1 1 1 1 1 1 1 1 1 1 1 1 1 1 1 1 1 1 1 1 1 1 1 1 1 1 1 1 1 1 1 1 1 1 1 1 1 1 1 0.012963532876021805 1 1 0.010702326845245032 1 1 1 0.014120300599578649 1 1 1 1 1 1 1 1 1 1 1 1 1 1 1 1 0.014431795708141749 1 1 0.014866015068989213 1 1 1 0.0095398980368756534 1 1 1 1 1 1 1 1 1 1 1 1 1 1 1 0.011454404607571153 1 1 1 1 1 1 1 1 1 1 1 1 1 1 1 1 1 1 0.010276165012834557 1 1 1 1 0.010628060481604048 1 0.010247872806453237 1 1 1 1 1 0.01064987889991431 1 1 1 1 1 1 1 1 1 1 1 1 1 1 1 1 1 0.010265446886158016 1 1 0.01040200609346106 1 1 1 1 1 0.010932024620052145 1 1 0.018387077035584939 1 1 1 0.011647036889078409 1 1 1 0.010873773935129054 1 1 1 1 1 1 1 0.01170011806109617 1 1 1 
</DataArray>
</CellData>
</Piece>
</UnstructuredGrid>
</VTKFile>
